#===============================================================================
# Created using the Atomic Simulation Environment (ASE)

# Tue Dec 23 22:26:04 2025

#=======================================================
lattice_vector 28.1999999999999993 0.0000000000000000 0.0000000000000000 
lattice_vector 0.0000000000000000 39.4799999999999969 0.0000000000000000 
lattice_vector 0.0000000000000000 0.0000000000000000 62.3296083400000001 
atom 7.4839234299999999 14.8217508700000007 -0.0182018200000000 Au
atom 10.2872296199999997 14.7721375800000008 -0.0275492900000000 Au
atom 13.1309866700000004 14.8022674500000004 0.0591526900000000 Au
atom 15.9464612300000006 14.8617202200000005 -0.0340288900000000 Au
atom 18.7907144399999986 14.8070922599999992 -0.0195632100000000 Au
atom 21.6094602599999988 14.7738306300000009 0.0083014500000000 Au
atom 24.3969282700000001 14.8013878800000001 0.0832621100000000 Au
atom 27.2559968700000006 14.8155072400000005 0.0255765100000000 Au
atom 1.8572755100000000 14.7821838299999992 0.0899045200000000 Au
atom 4.6540014799999998 14.8540095000000001 -0.0387487300000000 Au
atom 8.8586449100000006 17.2393028999999984 -0.0174594700000000 Au
atom 11.7104703299999997 17.2719693399999983 0.0109871900000000 Au
atom 14.5248784700000009 17.2433581800000013 0.0029803400000000 Au
atom 17.3579820100000006 17.2567043099999999 -0.0223920600000000 Au
atom 20.1694466299999995 17.3025155999999996 -0.0005226200000000 Au
atom 22.9965861099999991 17.2928357800000008 0.0092035300000000 Au
atom 25.8160344600000009 17.2325133500000014 0.0375427500000000 Au
atom 0.4811306300000000 17.3042493099999994 -0.0047842200000000 Au
atom 3.2517873700000002 17.2942834300000001 0.0123163100000000 Au
atom 6.0356537499999998 17.3209808599999988 0.0126844900000000 Au
atom 7.4996933500000003 19.7684403999999994 0.0720260700000000 Au
atom 10.2770028900000003 19.7680876199999993 -0.0314388500000000 Au
atom 13.1427444199999996 19.6455820400000007 0.0038045300000000 Au
atom 15.9626612899999998 19.6899097000000012 -0.0186943900000000 Au
atom 18.7837394000000018 19.7660474000000015 0.0921156200000000 Au
atom 21.6193131899999997 19.7670848200000009 0.0407937300000000 Au
atom 24.4314346899999997 19.7743863299999987 0.1958828400000000 Au
atom 27.2027900299999992 19.7279570900000003 0.0086603900000000 Au
atom 1.8732158900000000 19.7617795399999991 0.0633968400000000 Au
atom 4.6877057700000000 19.8175937799999993 0.0272121900000000 Au
atom 8.9372757600000003 22.2097140099999990 0.0474596500000000 Au
atom 11.7204210399999997 22.1929132600000010 -0.0426806400000000 Au
atom 14.5308264299999994 22.1362383300000012 0.1068788100000000 Au
atom 17.3396974700000008 22.2275747099999990 0.0523097100000000 Au
atom 20.2040541299999994 22.2121952699999987 0.0288617100000000 Au
atom 23.0333089499999986 22.2582263199999986 0.0895726600000000 Au
atom 25.8593134700000000 22.2267918900000012 0.1236965200000000 Au
atom 0.4350646400000000 22.2436924699999992 0.0167195800000000 Au
atom 3.2806676200000000 22.2192597399999983 0.0711097300000000 Au
atom 6.1271548400000002 22.2421698399999990 0.0859830000000000 Au
atom 7.4772979900000003 24.6565200000000004 0.0601101300000000 Au
atom 10.3276601600000006 24.7093349800000013 -0.0009048600000000 Au
atom 13.1407946399999993 24.6796089899999984 0.0037025600000000 Au
atom 15.9610604200000008 24.6766695600000006 0.1444146600000000 Au
atom 18.7650010300000005 24.7028042100000000 0.1231531800000000 Au
atom 21.5830610000000007 24.7146853499999999 0.0865821000000000 Au
atom 24.4204918100000015 24.6727215199999996 0.2145461600000000 Au
atom 27.2531545000000008 24.6870776399999983 -0.0020041400000000 Au
atom 1.8586146699999999 24.6923728699999998 0.1237956600000000 Au
atom 4.6602468600000000 24.6601540700000008 0.0678916600000000 Au
atom 8.8899558899999995 27.1364635000000014 -0.0211472900000000 Au
atom 11.7250412700000002 27.1784807000000015 0.0253701600000000 Au
atom 14.5500279500000005 27.1396782799999983 0.0778516200000000 Au
atom 17.3736813699999999 27.1194258099999992 0.0307800600000000 Au
atom 20.1918751800000003 27.1749333499999999 0.0465780400000000 Au
atom 23.0090319200000017 27.1545310600000001 0.1006034100000000 Au
atom 25.8249608600000009 27.1370685899999984 0.0876440600000000 Au
atom 0.4920904600000000 27.1541457999999984 0.1301593200000000 Au
atom 3.2909731099999999 27.1752237000000001 0.1284158100000000 Au
atom 6.1204615799999997 27.0848790000000008 0.0773614800000000 Au
atom 7.5131397900000003 29.6111276299999986 -0.0109158400000000 Au
atom 10.3077352599999994 29.5824108199999998 -0.0228895500000000 Au
atom 13.1607847600000003 29.6473163399999997 0.0366611600000000 Au
atom 15.9358544900000005 29.6346372699999989 0.0601370400000000 Au
atom 18.7600816899999998 29.6621840799999994 0.0655728900000000 Au
atom 21.5861154699999993 29.6154361299999991 0.1059199400000000 Au
atom 24.3917668600000006 29.6050719700000009 -0.0052269100000000 Au
atom 27.2208259000000012 29.6413074799999983 0.0745101900000000 Au
atom 1.8889159799999999 29.6165240200000000 0.0662549500000000 Au
atom 4.7105604699999999 29.5906848700000005 0.1315237800000000 Au
atom 8.9456939700000007 32.0579142400000023 0.0318389800000000 Au
atom 11.7077615500000007 32.0543257100000005 0.0351662700000000 Au
atom 14.5373801599999997 32.0796538000000027 0.0579290300000000 Au
atom 17.3850829900000008 32.1103145299999966 -0.0489193700000000 Au
atom 20.1870776499999991 32.0570829899999978 0.0642796800000000 Au
atom 22.9887903000000016 32.0843290899999971 0.0299491800000000 Au
atom 25.8354937500000013 32.0833912299999966 0.0166499400000000 Au
atom 0.4375837200000000 32.0790513600000011 0.0009483700000000 Au
atom 3.2774727800000001 32.0573375999999968 -0.0230568300000000 Au
atom 6.0855677400000001 32.0499505499999984 -0.0019116300000000 Au
atom 7.4813856400000001 34.5192815300000007 -0.0381503800000000 Au
atom 10.2864119299999999 34.5164475600000031 0.0757408000000000 Au
atom 13.1211061200000003 34.5369783000000012 0.0310983100000000 Au
atom 16.0013436099999993 34.5358037499999995 0.1356165300000000 Au
atom 18.8176339199999987 34.5700035500000027 -0.0129428600000000 Au
atom 21.6228006099999988 34.5127518500000008 0.1161911400000000 Au
atom 24.3930946400000010 34.5834282499999972 -0.0128035000000000 Au
atom 27.2166826399999984 34.5145548099999999 -0.0252476700000000 Au
atom 1.8306053000000000 34.5166585200000000 0.0026934500000000 Au
atom 4.6896182000000000 34.5245534000000021 0.0524839600000000 Au
atom 8.9416297199999999 37.0074483000000001 0.0050583100000000 Au
atom 11.7705092100000002 37.0465201800000017 0.0415712200000000 Au
atom 14.5681011100000006 37.0186018500000031 0.0104867600000000 Au
atom 17.3662075000000016 37.0664862100000008 0.0142679000000000 Au
atom 20.2292579500000009 37.0154207400000033 0.0182976300000000 Au
atom 23.0495741999999986 37.0378045900000004 0.0259976800000000 Au
atom 25.8509796300000012 37.0391346899999974 -0.0247564400000000 Au
atom 0.4912046000000000 36.9987869400000022 -0.0418339900000000 Au
atom 3.2525912400000001 37.0105846900000017 0.0270943800000000 Au
atom 6.1329832199999998 37.0239001799999983 0.0433809200000000 Au
atom 7.4864956899999999 0.0336543200000000 0.0970606600000000 Au
atom 10.3093172800000001 -0.0140163600000000 0.0976617500000000 Au
atom 13.1186627799999993 0.0048751100000000 0.0382301700000000 Au
atom 15.9371119900000000 -0.0116680500000000 0.1758315500000000 Au
atom 18.7695497399999986 0.0740846900000000 0.0809713500000000 Au
atom 21.5967929000000005 0.0008140000000000 0.1312279400000000 Au
atom 24.4200185099999985 0.0082437600000000 0.1185010500000000 Au
atom 27.2354085599999998 0.0185842800000000 0.1932104300000000 Au
atom 1.8140486199999999 0.0046622900000000 0.0603552400000000 Au
atom 4.6794892299999997 -0.0286555100000000 0.1738665400000000 Au
atom 8.8896014700000006 2.4493892700000002 0.0912436700000000 Au
atom 11.7486914500000008 2.4521113899999998 0.1058054300000000 Au
atom 14.6130419299999996 2.5230754800000001 0.1031608100000000 Au
atom 17.4138006400000016 2.4874585599999999 0.1163841200000000 Au
atom 20.1989028099999999 2.4735652699999999 0.0011411300000000 Au
atom 23.0132940999999995 2.4499120900000002 0.0455744000000000 Au
atom 25.8652122700000007 2.4842921900000001 0.0552054200000000 Au
atom 0.4418025500000000 2.5108394100000000 0.0461580000000000 Au
atom 3.2173389900000000 2.4325137899999998 0.0258855900000000 Au
atom 6.0356294200000002 2.4802468700000002 0.0008060200000000 Au
atom 7.5150744100000004 4.9208227100000004 0.0836534200000000 Au
atom 10.3168064200000007 4.8965845899999998 0.0168718000000000 Au
atom 13.1376747999999992 4.9101661500000002 0.1145006800000000 Au
atom 15.9751487999999995 4.9273150000000001 0.1078693400000000 Au
atom 18.8172091100000003 4.9759422300000002 0.1422753500000000 Au
atom 21.5994762899999984 4.9760528500000003 0.1232916000000000 Au
atom 24.3846913399999998 4.9304725300000003 0.0856113400000000 Au
atom 27.2314076599999986 4.9861751400000003 0.1705532200000000 Au
atom 1.8678416700000000 4.9836968199999996 0.0347205900000000 Au
atom 4.6573337099999996 4.9355227599999996 0.1253737500000000 Au
atom 8.9788436100000002 7.3758439800000000 0.0033070800000000 Au
atom 11.7580159299999991 7.3822658399999996 0.0272827900000000 Au
atom 14.5632840399999992 7.3705292900000003 0.0932946400000000 Au
atom 17.3804015099999987 7.4092530400000003 0.0100451300000000 Au
atom 20.2118742100000013 7.4431617000000001 0.0205125900000000 Au
atom 23.0235137099999996 7.3953040200000002 0.0598075100000000 Au
atom 25.8295293599999987 7.3977219900000000 0.0474047500000000 Au
atom 0.4797633400000000 7.4418686500000000 0.1124004800000000 Au
atom 3.3402532900000002 7.4084609099999996 0.0733142100000000 Au
atom 6.1450702000000001 7.3844348799999997 0.0729020300000000 Au
atom 7.5609622800000000 9.8462787400000007 0.0164320000000000 Au
atom 10.3631535299999999 9.8693171500000005 -0.0010749300000000 Au
atom 13.1658818699999998 9.8563344599999994 0.0482552000000000 Au
atom 15.9579724100000000 9.8904466000000006 0.0393951500000000 Au
atom 18.7713180800000004 9.8992616099999999 0.1114797000000000 Au
atom 21.6007424000000015 9.8491704200000001 0.0557270900000000 Au
atom 24.4422207200000017 9.9167403699999994 0.0509194000000000 Au
atom 27.2666796600000012 9.8718029699999992 -0.0273885300000000 Au
atom 1.8983058399999999 9.8781140399999998 0.0901880400000000 Au
atom 4.7389161700000004 9.8871545500000000 0.0234579900000000 Au
atom 8.8989415300000001 12.3171120500000004 0.0425175300000000 Au
atom 11.7111133699999996 12.3228488499999997 0.0451063900000000 Au
atom 14.5273101899999997 12.3652025999999999 -0.0780756800000000 Au
atom 17.3755311500000005 12.3550552600000003 0.0591058100000000 Au
atom 20.1934346799999993 12.3324666599999997 0.0385954600000000 Au
atom 23.0214417599999983 12.3123685999999992 0.0011748500000000 Au
atom 25.8577924800000005 12.3538315399999998 -0.0358131300000000 Au
atom 0.4986110700000000 12.3618692400000008 0.0161436700000000 Au
atom 3.3070524500000000 12.3384604200000005 -0.0541639600000000 Au
atom 6.1371761400000002 12.3464656200000000 -0.0834428000000000 Au
atom 7.4710811399999999 13.2163597199999998 2.6578032100000000 Au
atom 10.3014689199999996 13.2105637900000001 2.5769959400000002 Au
atom 13.0920760200000004 13.2288753999999997 2.6850852700000001 Au
atom 15.9101689700000009 13.2336445299999994 2.5655795399999999 Au
atom 18.7759785900000011 13.2344558400000007 2.6796082999999999 Au
atom 21.5892941299999990 13.2039072199999996 2.6405343299999999 Au
atom 24.4178663100000009 13.1794922499999991 2.6327983599999998 Au
atom 27.2576365400000000 13.2146727899999998 2.5961093300000000 Au
atom 1.8714780799999999 13.1784143700000005 2.7144013000000000 Au
atom 4.6909293700000001 13.1751052699999995 2.5107857299999998 Au
atom 8.8771044299999993 15.6581785300000007 2.5510812199999999 Au
atom 11.7321457999999996 15.6634994800000005 2.5034285100000000 Au
atom 14.5606468699999994 15.6952533600000006 2.5824152900000001 Au
atom 17.3848754899999989 15.6971777199999991 2.5535067900000001 Au
atom 20.1669537100000014 15.6904862299999994 2.5200864100000002 Au
atom 22.9811542499999995 15.6350003799999993 2.6872934300000000 Au
atom 25.7934094199999997 15.5968329699999995 2.6724491300000000 Au
atom 0.4494429700000000 15.6204068300000003 2.6115075999999999 Au
atom 3.3103638000000002 15.6606386400000002 2.6372697000000001 Au
atom 6.0927806100000002 15.6640885700000005 2.5384266000000002 Au
atom 7.5156314999999996 18.1004742400000005 2.5729370800000000 Au
atom 10.2981213000000000 18.1080513699999983 2.3989378800000001 Au
atom 13.1140298800000004 18.0990271800000002 2.6008558300000000 Au
atom 15.9982509999999998 18.1297865800000011 2.5682488600000002 Au
atom 18.8046480400000000 18.1736626500000007 2.6057651700000002 Au
atom 21.6208703200000016 18.1316183399999993 2.6457449899999999 Au
atom 24.4182424800000000 18.0645620700000009 2.7383096800000000 Au
atom 27.2332664099999988 18.0877384100000000 2.6339833399999999 Au
atom 1.8776752800000001 18.0895031000000017 2.6827724399999999 Au
atom 4.7007579899999996 18.1082186999999983 2.6382492100000001 Au
atom 8.8965920000000001 20.5356270300000006 2.6305302799999999 Au
atom 11.7496341399999995 20.5962429699999987 2.4390606799999999 Au
atom 14.5970536499999994 20.5821116900000014 2.5772714099999998 Au
atom 17.4001811500000017 20.6053612800000003 2.7288128399999998 Au
atom 20.2030601999999995 20.6057607000000012 2.6776831600000000 Au
atom 23.0086109699999994 20.5998145599999987 2.6989291099999999 Au
atom 25.8667378399999990 20.5946446200000004 2.7854919599999999 Au
atom 0.4462161200000000 20.5801247799999985 2.6973573599999998 Au
atom 3.2710390100000000 20.5636834999999998 2.7357051299999999 Au
atom 6.0783915300000002 20.5891876099999998 2.6881692699999999 Au
atom 7.5171188500000001 23.0614224900000018 2.6621383800000000 Au
atom 10.3597190000000001 23.1107170199999992 2.4918464999999999 Au
atom 13.1524542100000001 23.0959708399999997 2.4712080200000002 Au
atom 15.9577493700000002 23.1138208399999989 2.6649843500000001 Au
atom 18.7735618899999999 23.0692196699999990 2.6020379899999999 Au
atom 21.6013823599999988 23.0731401799999993 2.6691116400000001 Au
atom 24.4603553200000015 23.0627509400000008 2.7207807399999999 Au
atom 27.3170499699999993 23.0790850700000014 2.6150063299999999 Au
atom 1.9028097200000000 23.0227278599999998 2.6704080200000000 Au
atom 4.6944805399999998 23.0455751900000010 2.6881220099999998 Au
atom 8.9225730799999994 25.5749847800000012 2.6131939000000002 Au
atom 11.7218545100000000 25.5813129900000007 2.6659865900000002 Au
atom 14.5288125000000008 25.6228415900000002 2.7474498700000001 Au
atom 17.3646399400000000 25.5621627300000007 2.7015930199999998 Au
atom 20.1833423699999983 25.5603535300000004 2.7443095700000000 Au
atom 23.0189383200000002 25.5506790300000013 2.7820412399999999 Au
atom 25.8942321900000003 25.5583084300000003 2.7111994400000001 Au
atom 0.5073438000000000 25.5335460699999999 2.7229767599999999 Au
atom 3.2807002500000002 25.4999211800000012 2.7010051599999998 Au
atom 6.1096501900000000 25.5573187500000003 2.7463237999999999 Au
atom 7.5242162300000004 28.0119997900000008 2.6451118800000000 Au
atom 10.2924002199999993 28.0106339099999992 2.7104979299999998 Au
atom 13.1025454099999994 28.0468363099999998 2.5836836299999999 Au
atom 15.9622040799999994 28.0258871300000010 2.6307956300000002 Au
atom 18.7851147300000001 27.9912491699999997 2.5810534900000000 Au
atom 21.5523504800000012 28.0054435300000009 2.7780594000000001 Au
atom 24.3656432800000005 28.0270106100000014 2.6078180899999999 Au
atom 27.2554340000000010 28.0499569199999996 2.7281428499999998 Au
atom 1.9010821000000000 28.0187723599999998 2.6702925300000002 Au
atom 4.6946289500000002 28.0075916000000014 2.7582484300000001 Au
atom 8.9436175299999991 30.4600251100000001 2.5825680700000002 Au
atom 11.7329332199999996 30.4915991200000001 2.6575712100000000 Au
atom 14.4984277699999993 30.4687368399999983 2.6936333200000000 Au
atom 17.3462572299999991 30.4637141199999988 2.6311107499999999 Au
atom 20.1674645900000016 30.4544984200000002 2.7031032499999998 Au
atom 22.9892468900000004 30.5084135399999994 2.6667028300000002 Au
atom 25.8232182200000011 30.5079159100000012 2.6229944399999998 Au
atom 0.4990942500000000 30.4951607399999993 2.6338589400000001 Au
atom 3.2955727900000000 30.4795762000000003 2.6260300600000002 Au
atom 6.1205097700000000 30.4744175400000010 2.6916014800000001 Au
atom 7.5005301600000003 32.8840922999999989 2.5967909599999999 Au
atom 10.2846125399999995 32.9335407200000034 2.7191696500000000 Au
atom 13.1027768200000008 32.9337274600000001 2.6339782500000002 Au
atom 15.9366310799999997 32.8883763600000023 2.7046822499999998 Au
atom 18.7486004000000008 32.9312483799999995 2.5689450400000000 Au
atom 21.6081179699999986 32.9273927699999973 2.7583487199999999 Au
atom 24.3998883699999993 32.9533011700000031 2.5511538699999998 Au
atom 27.2552542200000012 32.9083034299999966 2.6527130699999999 Au
atom 1.8652680900000000 32.9494801299999978 2.5956223999999999 Au
atom 4.6835893600000000 32.8722627399999965 2.6539239999999999 Au
atom 8.8977654400000006 35.3692374299999983 2.6616691700000001 Au
atom 11.6910879399999992 35.4098743200000001 2.6321794399999998 Au
atom 14.5659324699999999 35.3336261500000006 2.5953655100000002 Au
atom 17.3938516199999995 35.3630830800000027 2.6252742400000000 Au
atom 20.1913145199999988 35.3981735799999981 2.6720453800000001 Au
atom 23.0359517899999986 35.3782328400000026 2.6368262300000000 Au
atom 25.8905952200000016 35.4016139900000013 2.5920637900000001 Au
atom 0.4617094400000000 35.3886713200000003 2.5588022000000001 Au
atom 3.2929370599999999 35.4063751099999990 2.5962174400000002 Au
atom 6.0844985400000002 35.3580037500000017 2.5960153699999999 Au
atom 7.5059690600000000 37.8775803199999999 2.6430445100000002 Au
atom 10.3209571100000002 37.8576638099999983 2.7155421600000000 Au
atom 13.1806155900000004 37.8222922599999976 2.6662195899999999 Au
atom 16.0002427199999993 37.7852763200000012 2.7687436999999999 Au
atom 18.8248699200000011 37.8559316600000031 2.6033858099999998 Au
atom 21.6552360399999984 37.8238818700000010 2.7142019199999998 Au
atom 24.4744629399999987 37.8063499599999986 2.6133418800000001 Au
atom 27.3056255800000010 37.8227988599999989 2.6758646399999999 Au
atom 1.9200005000000000 37.8450892700000026 2.6295207500000002 Au
atom 4.7285093600000003 37.8246815299999994 2.7360262199999998 Au
atom 8.9211729299999991 0.8299945900000000 2.7071982100000000 Au
atom 11.7629644899999999 0.8293513900000000 2.7051129700000001 Au
atom 14.5825519299999993 0.8011095700000000 2.7187799600000000 Au
atom 17.3718930000000000 0.8547457000000001 2.7755468400000001 Au
atom 20.2092326600000014 0.8271159500000000 2.7361419599999999 Au
atom 23.0270038600000007 0.8230819800000000 2.7509256299999998 Au
atom 25.8269656199999993 0.8352483400000000 2.7589168599999998 Au
atom 0.4595652300000000 0.8318439399999999 2.7045874099999998 Au
atom 3.2610213899999998 0.8119300400000000 2.6692013299999999 Au
atom 6.1227176800000001 0.8846704200000000 2.7558805899999999 Au
atom 7.5404635300000002 3.3339509800000000 2.6457496900000002 Au
atom 10.3437936799999992 3.3284559699999998 2.6780382500000002 Au
atom 13.1602329600000001 3.2992380799999999 2.7210878200000002 Au
atom 15.9825289500000007 3.2834710700000000 2.7453940999999999 Au
atom 18.7923017299999984 3.2999524800000000 2.6960092599999999 Au
atom 21.6070294099999991 3.3013580299999998 2.6428175199999999 Au
atom 24.3976745100000016 3.3127724900000000 2.6485745299999999 Au
atom 27.1956889599999982 3.3187448000000002 2.6819830300000000 Au
atom 1.8254002800000000 3.3173904799999998 2.6623558200000002 Au
atom 4.6657517700000000 3.3039465899999998 2.6776819199999999 Au
atom 8.9208861400000004 5.7918649799999997 2.6892907099999999 Au
atom 11.7617763600000007 5.8120731699999997 2.6731393600000000 Au
atom 14.5567642500000005 5.7832682799999997 2.7105533600000000 Au
atom 17.3866099699999985 5.7840013199999998 2.7069028600000000 Au
atom 20.1821105199999984 5.7641033000000004 2.8102391099999999 Au
atom 23.0178170500000014 5.7961471299999996 2.7209729800000000 Au
atom 25.8096056400000009 5.8066640800000000 2.7336078599999998 Au
atom 0.4542277900000000 5.7869641400000003 2.6788449499999998 Au
atom 3.2539347900000002 5.8080704699999997 2.7107183600000000 Au
atom 6.0763986399999999 5.7968876299999996 2.7587745500000000 Au
atom 7.5242208499999998 8.2240086500000000 2.6690228100000000 Au
atom 10.3177492799999992 8.2880328199999997 2.6109634599999998 Au
atom 13.1464877900000001 8.2826857199999999 2.6964654299999999 Au
atom 15.9780219799999994 8.2671030800000000 2.6107896799999999 Au
atom 18.7786882400000010 8.2957943899999993 2.6972138999999999 Au
atom 21.5886901199999990 8.2495103000000007 2.6865280399999998 Au
atom 24.4326264699999989 8.2903026700000009 2.7510313800000001 Au
atom 27.2441257800000010 8.3040006399999999 2.5888171899999999 Au
atom 1.8423809799999999 8.2814278100000003 2.7367903400000002 Au
atom 4.6964689899999996 8.2283159500000007 2.6594136800000001 Au
atom 8.9366496499999997 10.7527727899999999 2.6154628400000002 Au
atom 11.7585411299999993 10.7635042599999995 2.5862861200000000 Au
atom 14.5662890600000008 10.7543161299999994 2.5975815299999998 Au
atom 17.3855072300000018 10.8048867400000006 2.7184125500000000 Au
atom 20.2013294200000004 10.7536604100000002 2.6858539600000002 Au
atom 23.0142668700000002 10.6940306300000003 2.6690933900000000 Au
atom 25.8351430899999990 10.7606462799999996 2.6431296000000000 Au
atom 0.4235960900000000 10.7512586799999994 2.6397510300000002 Au
atom 3.3044805400000001 10.7043858600000004 2.6066697599999999 Au
atom 6.1253418300000000 10.7149790800000009 2.6027150500000000 Au
atom 7.3036238200000003 12.8469333500000005 5.7349291800000000 Cl
atom 7.8214963099999997 16.0805460400000015 8.1018231000000007 Cl
atom 7.4177452300000004 13.2220844799999995 8.5787151099999992 Na
atom 7.3023861099999996 15.6280413100000004 5.4974262400000002 Na
atom 7.1210179599999996 18.7948721600000006 5.5148666600000000 Cl
atom 7.5343280899999998 21.4811234999999989 8.3143501600000000 Cl
atom 7.2021801900000000 18.7362719899999988 7.9926094200000000 Na
atom 7.3157560899999998 21.7409627400000005 5.6186221999999999 Na
atom 7.3530602900000002 24.7504916600000016 5.5580342800000002 Cl
atom 7.4868706400000002 27.3605422699999998 8.6340899400000009 Cl
atom 7.6689221999999999 24.3870457999999992 8.3214935499999996 Na
atom 7.4276415099999999 27.4888417099999991 5.8930972099999996 Na
atom 7.4326379100000004 30.1663292399999996 5.9818642999999998 Cl
atom 7.4807684200000004 32.9545756200000000 8.6135937200000008 Cl
atom 7.4445344200000001 30.1427762500000007 8.1246535699999995 Na
atom 7.4804453700000000 32.9711768499999991 5.8376138800000001 Na
atom 7.4884996800000003 35.7498373800000024 5.6389563500000000 Cl
atom 7.4236183300000000 38.5459569699999989 8.5975989599999991 Cl
atom 7.4914027900000004 35.7671178299999966 8.4758704900000001 Na
atom 7.4343710200000004 38.6021091200000015 5.8273724199999997 Na
atom 7.3887567599999997 1.9337793800000000 6.0546466399999996 Cl
atom 7.4642224300000004 4.6662564700000004 8.6593511299999992 Cl
atom 7.4304561299999996 1.8673010699999999 8.2353524300000007 Na
atom 7.4489535000000000 4.6853619799999997 5.9257941699999996 Na
atom 7.4218291799999996 7.4296296999999996 5.7821149900000002 Cl
atom 7.3853534200000004 10.3388177399999996 8.5746819399999996 Cl
atom 7.4460820300000004 7.5042600699999999 8.4719022899999992 Na
atom 7.3568337300000000 10.1659856400000006 5.8033028299999998 Na
atom 10.1619431299999992 12.8236651500000001 5.9472812900000003 Na
atom 13.2676047900000000 12.9276780799999997 5.6185042000000003 Cl
atom 10.1725359199999996 16.1380020100000010 8.0295304999999999 Na
atom 12.8910318400000001 15.7905372100000001 8.1915180400000001 Cl
atom 13.0856772800000005 13.0352181199999997 8.2220014999999993 Na
atom 10.2817869300000009 13.1483277600000008 8.5185810499999999 Cl
atom 13.1798657600000002 15.6812061800000002 5.3768851000000000 Na
atom 10.2162143800000003 15.5683556099999993 5.5830245800000000 Cl
atom 10.0233427099999997 18.8516354600000007 5.3425378400000003 Na
atom 13.3504973699999994 18.7136368500000003 5.4683521500000003 Cl
atom 10.3215645699999996 21.4530851700000014 8.4803370400000002 Na
atom 13.0020722400000004 21.6635378600000017 8.9441712300000003 Cl
atom 13.1146628100000004 18.5594939399999994 8.3745384299999994 Na
atom 10.3177799199999995 19.0453702900000010 8.2564327899999999 Cl
atom 13.2402490299999993 21.7451110599999993 5.4419931000000004 Na
atom 10.3225670199999993 21.8768760200000010 5.7397235599999998 Cl
atom 10.2494327900000002 24.6308405400000012 5.6289696300000003 Na
atom 13.1444631699999999 24.8418412900000014 5.4341816500000002 Cl
atom 10.3349202099999999 27.3589279099999985 8.0499331099999996 Na
atom 13.3377666999999995 27.4741445999999989 8.4722644599999999 Cl
atom 13.0699720700000004 24.6753845100000007 8.1366252600000006 Na
atom 10.3446460899999995 24.3458200500000004 8.3116391099999998 Cl
atom 13.1508248400000003 27.5624180500000016 5.6378924899999996 Na
atom 10.2730234399999993 27.4979604199999983 5.9120566600000002 Cl
atom 10.2872824800000000 30.2865536900000016 5.8028114799999999 Na
atom 13.1618042800000001 30.2921252800000005 5.8230976900000000 Cl
atom 10.3303727399999996 32.9820457399999967 8.4443331100000005 Na
atom 13.2126951399999992 32.9678280600000022 8.6128228300000007 Cl
atom 13.2481586599999996 30.2389740499999995 8.2958048200000007 Na
atom 10.3107144399999999 30.1981553500000004 8.5794563600000000 Cl
atom 13.1189163600000001 33.0461421899999976 5.8341643400000001 Na
atom 10.3236578800000007 32.9850296099999980 5.7143056999999997 Cl
atom 10.3021750200000000 35.7702570399999971 5.8316103799999999 Na
atom 13.1363026800000000 35.7741525599999974 5.4075777299999999 Cl
atom 10.2970923299999999 38.6248336600000002 8.7386218800000002 Na
atom 13.1099036400000006 38.5776410100000007 8.5726926599999995 Cl
atom 13.1590073899999993 35.8129372499999974 8.6386984899999995 Na
atom 10.3313775900000007 35.7004813799999994 8.5499552199999993 Cl
atom 13.1354166400000008 38.6657507500000008 5.8019746400000001 Na
atom 10.2784114300000002 38.5942205500000028 5.4653030600000001 Cl
atom 10.2916899700000002 1.9309704900000000 5.8593768600000002 Na
atom 13.1265243100000006 1.9129262400000000 5.8209686600000001 Cl
atom 10.2394914799999999 4.6865924899999998 8.7742155499999992 Na
atom 13.1073408300000001 4.6390481599999998 8.6657770200000002 Cl
atom 13.1068010400000006 1.8869101600000000 8.5290639499999994 Na
atom 10.2467321400000007 1.8972827200000000 8.6685567300000006 Cl
atom 13.1321351600000007 4.6256334900000002 5.9019709799999998 Na
atom 10.2363139600000004 4.6212076499999997 5.5067336899999999 Cl
atom 10.2531967700000006 7.3903330599999997 5.8577828500000004 Na
atom 13.1251007000000008 7.3699830200000003 5.6624311399999998 Cl
atom 10.1967168800000003 10.3417791099999992 8.4155490000000004 Na
atom 13.0524607300000000 10.3378619900000004 8.4364246499999993 Cl
atom 13.1057760000000005 7.5067241700000000 8.3797617800000008 Na
atom 10.3025172600000001 7.5201076100000002 8.6232448700000006 Cl
atom 13.1929256099999996 10.1347234099999994 5.6869954299999996 Na
atom 10.2281803300000007 10.1155664900000009 5.7073467100000004 Cl
atom 16.0756475700000010 13.0413879700000006 5.7498608600000001 Na
atom 18.9103397400000013 13.0581656600000002 5.6238026999999997 Cl
atom 15.8646379900000003 16.0183301900000004 8.0677323600000008 Na
atom 18.7835252399999995 15.9893176399999994 8.4870411699999995 Cl
atom 18.7465814799999997 13.1622477599999996 8.3461776800000003 Na
atom 15.9225677099999992 13.1740100499999997 8.4858644499999993 Cl
atom 18.9122879499999996 15.9342968500000008 5.7420003399999997 Na
atom 16.0518083599999990 15.8496005699999998 5.7151318000000000 Cl
atom 16.2106805499999993 18.7930223199999986 5.3902780600000000 Na
atom 19.0282402099999999 18.7504571899999988 5.7562954800000004 Cl
atom 16.0618412299999989 21.4518655000000003 7.8641056400000000 Na
atom 18.7922663700000001 21.8035922100000015 8.1842968400000000 Cl
atom 18.8731860800000000 18.9028993400000012 8.1337583999999996 Na
atom 16.0552055399999993 19.1449620799999991 8.2450657900000000 Cl
atom 19.1142840800000009 21.6866151699999996 5.3952482100000001 Na
atom 15.9993060000000007 21.7393046500000011 5.4978559699999998 Cl
atom 16.0944170000000000 24.6351204000000017 5.6416498300000004 Na
atom 19.0024080300000016 24.6200924500000013 5.8018547299999996 Cl
atom 16.1469314100000005 27.3675080400000006 8.0879579100000001 Na
atom 18.6543396100000010 27.2954283000000011 8.3434627999999993 Cl
atom 18.8668196399999992 24.5533754600000016 7.9749820099999997 Na
atom 15.8136608499999998 24.2950197199999991 8.3172901199999991 Cl
atom 18.9681513600000002 27.4275825399999995 5.6505806400000003 Na
atom 16.0308087199999996 27.5069184299999989 5.8419272400000004 Cl
atom 16.1058828600000012 30.2029395899999997 5.8035911599999999 Na
atom 18.9467457000000010 30.2170816000000002 5.6085080200000004 Cl
atom 16.0465037799999983 33.0281739999999999 8.3696004199999994 Na
atom 18.8579070599999987 32.9607794100000007 8.5542379600000000 Cl
atom 18.8523345199999994 30.1530241799999992 8.4135151500000003 Na
atom 16.1063717599999983 30.1855336299999983 8.5017933100000000 Cl
atom 18.7997155099999986 33.0651233299999987 5.8179102100000000 Na
atom 15.9933925400000003 32.9890749200000002 5.6258698699999998 Cl
atom 15.9374008800000002 35.7945631300000002 5.7418387099999997 Na
atom 18.8120869500000012 35.7574028599999991 5.4994624099999996 Cl
atom 15.9097933699999992 38.5569692999999987 8.3197126499999996 Na
atom 18.7603777600000008 38.5342628900000008 8.6336968600000006 Cl
atom 18.8118596300000007 35.7859792900000002 8.7204998299999996 Na
atom 15.9888538699999998 35.7536506599999981 8.5807483199999997 Cl
atom 18.7804388899999992 38.5546761299999972 5.8144310900000002 Na
atom 15.9280470899999997 38.5929321400000021 5.8165677599999999 Cl