#===============================================================================
# Created using the Atomic Simulation Environment (ASE)

# Tue Dec 23 22:26:13 2025

#=======================================================
lattice_vector 28.1999999999999993 0.0000000000000000 0.0000000000000000 
lattice_vector 0.0000000000000000 39.4799999999999969 0.0000000000000000 
lattice_vector 0.0000000000000000 0.0000000000000000 62.3296083400000001 
atom 7.4852773099999999 14.6936141399999993 -0.1288004800000000 Au
atom 10.3646503899999995 14.7068773900000007 -0.0756726800000000 Au
atom 13.1612098900000003 14.8205470699999999 -0.2311905600000000 Au
atom 15.9359363700000003 14.8864689499999994 -0.1043086000000000 Au
atom 18.7404800899999984 14.8225855299999996 -0.1450771200000000 Au
atom 21.6448244000000010 14.7230115599999998 -0.1665364500000000 Au
atom 24.4631837700000005 14.8228094299999995 0.0366639600000000 Au
atom 27.2522100700000003 14.9389106300000005 -0.1419685800000000 Au
atom 1.8432660599999999 14.7605410599999995 0.1505465900000000 Au
atom 4.6414507199999999 14.7427097800000002 -0.0554266200000000 Au
atom 8.8833275500000006 17.2322539699999986 -0.3408513800000000 Au
atom 11.7465188699999992 17.3032465299999991 -0.3972682700000000 Au
atom 14.5123720100000000 17.3425098599999998 -0.3123108300000000 Au
atom 17.2967669599999994 17.2999751300000000 -0.1581139100000000 Au
atom 20.1735530999999995 17.2626586099999990 -0.2688303800000000 Au
atom 22.9930513000000012 17.2519114199999990 0.0465171300000000 Au
atom 25.8828739500000005 17.2582165699999983 0.1415125600000000 Au
atom 0.4803264400000000 17.3334642400000014 0.1331942100000000 Au
atom 3.2591885600000001 17.2118479800000017 0.0830668700000000 Au
atom 6.0682928599999997 17.2496968799999983 -0.1601028600000000 Au
atom 7.4285802500000004 19.7193658800000016 -0.2128264900000000 Au
atom 10.2796042799999992 19.7794561100000017 -0.3258468000000000 Au
atom 13.0942252799999999 19.7838165400000001 -0.2833490500000000 Au
atom 15.9358202999999996 19.7867340100000000 -0.1467814500000000 Au
atom 18.6784637999999994 19.6534068300000015 -0.1663041000000000 Au
atom 21.6039090300000005 19.7639108999999991 -0.0783206100000000 Au
atom 24.3873623500000001 19.7350556499999996 0.2106860100000000 Au
atom 27.1790509699999987 19.9028275599999986 0.0214300700000000 Au
atom 1.8673126799999999 19.7629372900000000 0.0150776500000000 Au
atom 4.7601003899999998 19.7489384000000001 0.0253733200000000 Au
atom 8.9296529299999996 22.2462061400000017 -0.1530934100000000 Au
atom 11.7292674600000009 22.2328688700000008 -0.2919716100000000 Au
atom 14.6311436300000004 22.2497060100000006 -0.1520677800000000 Au
atom 17.3897859500000003 22.2322982399999987 0.0433950100000000 Au
atom 20.1862243200000009 22.1715877500000005 -0.0065950500000000 Au
atom 23.0016145600000002 22.2146840599999997 0.1322482400000000 Au
atom 25.8256268800000015 22.1414180199999997 0.1309090500000000 Au
atom 0.4251131000000000 22.4789137699999984 -0.3468953300000000 Au
atom 3.2054756800000002 22.1926267400000015 0.0714048600000000 Au
atom 6.0791896899999998 22.2560718800000004 0.1064347200000000 Au
atom 7.3801485400000004 24.7287936100000003 -0.0601792600000000 Au
atom 10.2297078599999995 24.7961793999999998 -0.3184011500000000 Au
atom 13.1324678499999994 24.5846150200000011 -0.0633413900000000 Au
atom 15.8971482300000009 24.7293064099999995 0.0789131900000000 Au
atom 18.7707592199999986 24.6900063500000009 0.0400449100000000 Au
atom 21.5312850299999994 24.6624273900000013 -0.0745589300000000 Au
atom 24.3375647700000002 24.7065063500000015 0.1274010000000000 Au
atom 27.1756774999999990 24.5874298899999992 0.0863662000000000 Au
atom 1.8868273099999999 24.7279408399999987 0.0891691900000000 Au
atom 4.6011081200000001 24.6169840300000011 0.0760371100000000 Au
atom 8.8250540700000002 27.0997120699999989 -0.1380134900000000 Au
atom 11.7153134800000007 27.0974246500000007 -0.1066700300000000 Au
atom 14.4927855099999991 27.1067224399999986 0.0780110700000000 Au
atom 17.2709463700000008 27.1934402199999994 0.0423041600000000 Au
atom 20.1692100799999992 27.1669008100000013 0.0724250000000000 Au
atom 22.9572252299999988 27.1272609100000004 0.2116352900000000 Au
atom 25.8322991799999997 27.1238021200000006 0.1007753300000000 Au
atom 0.3749938700000000 27.1646059599999994 0.1867361100000000 Au
atom 3.2793670000000001 27.1276928899999987 0.2369501600000000 Au
atom 6.0523906900000002 27.1375463600000018 0.0686215300000000 Au
atom 7.4448283300000000 29.6564118800000003 0.0312010700000000 Au
atom 10.2352731499999994 29.6267321899999985 -0.2152594000000000 Au
atom 13.1026501000000000 29.5550658199999994 0.0841920800000000 Au
atom 15.8957532599999993 29.5284410900000012 -0.1048246300000000 Au
atom 18.6875822099999986 29.5716550500000004 -0.0983929600000000 Au
atom 21.5062762700000007 29.6057723899999985 0.1895381400000000 Au
atom 24.3759591899999997 29.5909897199999996 -0.0579952700000000 Au
atom 27.2093206999999992 29.6102193100000015 -0.0794815200000000 Au
atom 1.8176773799999999 29.6224642600000010 -0.0497867700000000 Au
atom 4.6944189400000003 29.5933794799999994 0.2973082400000000 Au
atom 8.8940674200000007 32.1230033599999985 0.1517335800000000 Au
atom 11.7575734099999991 32.0981081500000016 0.0134774100000000 Au
atom 14.6184066000000001 32.0367638099999965 0.1469149200000000 Au
atom 17.3914403100000001 32.0720882500000002 -0.0270855100000000 Au
atom 20.2079308900000001 32.1062905300000025 0.1619620800000000 Au
atom 23.0452848699999997 32.0889361300000004 0.0237567900000000 Au
atom 25.8455241200000003 32.0604937299999975 -0.0020697500000000 Au
atom 0.4268303300000000 32.1757736100000002 -0.2192768400000000 Au
atom 3.2783557700000001 32.0580326099999979 -0.1489051800000000 Au
atom 6.1051944499999999 32.0355557199999978 0.1812499300000000 Au
atom 7.4159252200000001 34.4923954200000011 -0.0962218800000000 Au
atom 10.2833573000000005 34.5594165600000025 0.1288129100000000 Au
atom 13.1755949500000007 34.5137289800000033 0.1318832900000000 Au
atom 16.0056957400000002 34.4928813800000000 0.0927288400000000 Au
atom 18.8680956000000002 34.5387391399999970 -0.1328988200000000 Au
atom 21.6567903999999984 34.5017945399999988 0.1446424500000000 Au
atom 24.5310793700000005 34.5449867100000034 -0.0638032500000000 Au
atom 27.3390831500000004 34.6094141399999984 -0.1328634800000000 Au
atom 1.8986665899999999 34.5844562799999977 -0.1692438600000000 Au
atom 4.6443675600000001 34.5621403399999991 -0.0330334200000000 Au
atom 8.8548101700000004 36.9152115199999997 -0.0543069400000000 Au
atom 11.7661789900000002 36.9443293599999976 0.0930574500000000 Au
atom 14.6064017300000000 37.0101186400000017 0.0473996400000000 Au
atom 17.5803162200000003 36.9559952600000017 0.1120358200000000 Au
atom 20.3169604899999996 36.9951526600000022 0.0564437600000000 Au
atom 23.0866940400000011 36.9922050200000001 0.2170485700000000 Au
atom 25.6522138400000017 37.0617812200000003 0.2294041400000000 Au
atom 0.4340510800000000 36.9206110499999980 -0.0407130100000000 Au
atom 3.2763504399999999 37.0721552899999978 0.1160278300000000 Au
atom 6.1156422700000004 37.0208813100000000 0.0095242900000000 Au
atom 7.4736137300000003 -0.0197326200000000 0.0925266700000000 Au
atom 10.3316550300000003 -0.0165814000000000 0.0650119500000000 Au
atom 12.9977385000000005 -0.0249306200000000 -0.0028452600000000 Au
atom 15.9122978100000001 -0.0807741500000000 0.2433950100000000 Au
atom 18.7901050599999984 -0.0608056500000000 0.1396752500000000 Au
atom 21.6144286699999988 -0.0203186300000000 0.2544568700000000 Au
atom 24.3424142699999990 0.1050027800000000 0.3097693100000000 Au
atom 27.3824037699999998 0.1679086000000000 0.2391866300000000 Au
atom 1.8261951199999999 -0.0500176200000000 -0.0172561400000000 Au
atom 4.8808259500000002 0.0132222900000000 0.1269883500000000 Au
atom 8.9875417300000002 2.4211516099999999 -0.0617108000000000 Au
atom 11.8252679300000008 2.4056458699999999 0.0570026700000000 Au
atom 14.5881291399999995 2.3513431300000001 0.1427645200000000 Au
atom 17.4040528399999985 2.3933707900000001 0.0658095100000000 Au
atom 20.2222359900000015 2.4359183700000000 0.0664146700000000 Au
atom 23.0002885600000013 2.5420920900000001 0.0891703300000000 Au
atom 25.8341550300000016 2.5368843399999998 0.0849266600000000 Au
atom 0.5189989500000000 2.4359977800000001 -0.0846865400000000 Au
atom 3.3455979899999999 2.4465834200000001 -0.1077558100000000 Au
atom 6.1753540500000002 2.5012124299999998 0.0861950600000000 Au
atom 7.5606090000000004 4.9211521500000002 -0.0614880200000000 Au
atom 10.4050343099999996 4.8797059000000003 0.0309989100000000 Au
atom 13.1470180899999995 4.9305653600000001 -0.0670505500000000 Au
atom 15.9888530800000002 4.7977938699999996 0.2979587900000000 Au
atom 18.7505656599999995 4.8822568300000002 0.1759647400000000 Au
atom 21.5822849999999988 4.9373692199999999 0.0870687900000000 Au
atom 24.4092167999999994 4.9191480500000004 0.3084055500000000 Au
atom 27.2485998400000007 4.8968453199999997 -0.0249398600000000 Au
atom 1.8882893999999999 4.9264891200000003 0.0276796800000000 Au
atom 4.6806470200000003 4.8745649300000000 0.0883892800000000 Au
atom 8.9019054900000008 7.4080638299999997 -0.0475265900000000 Au
atom 11.7654726800000002 7.3892362599999997 0.0589783900000000 Au
atom 14.5928361700000000 7.3549846399999996 0.0406953900000000 Au
atom 17.3169028000000012 7.3224825400000002 0.0990397000000000 Au
atom 20.1404674899999989 7.3453463200000000 0.0786295800000000 Au
atom 22.9956675200000014 7.3552369700000000 0.0817308400000000 Au
atom 25.7965312299999994 7.4013924400000004 0.0051266100000000 Au
atom 0.4643722000000000 7.2937503599999998 0.0729334400000000 Au
atom 3.2881434700000001 7.4006093100000001 0.2619360100000000 Au
atom 6.0825043000000001 7.3524598900000004 0.0124233000000000 Au
atom 7.5001359599999997 9.8707992600000001 -0.0817424600000000 Au
atom 10.3243997499999995 9.7961107199999997 -0.0007975700000000 Au
atom 13.1092333500000002 9.8592293400000006 0.0722040600000000 Au
atom 15.9810930899999999 9.8660429100000009 0.1045227700000000 Au
atom 18.7387817199999986 9.8277260299999991 -0.0277759900000000 Au
atom 21.5761486399999995 9.8806356300000004 0.0687234900000000 Au
atom 24.3257879700000004 9.8385780100000009 -0.0570282600000000 Au
atom 27.1553364299999984 9.6620456600000004 0.1877914900000000 Au
atom 1.7905751500000000 9.7653672599999997 0.1088277400000000 Au
atom 4.6425147899999999 9.8493350900000003 -0.0022789300000000 Au
atom 8.9157332399999998 12.2695600599999999 0.0444303900000000 Au
atom 11.7130256700000004 12.3076479800000005 0.2126876000000000 Au
atom 14.5771036899999995 12.3495379399999994 0.0322239100000000 Au
atom 17.3946434100000005 12.4064224299999992 -0.0642418700000000 Au
atom 20.1257008900000010 12.3642469199999994 0.0391421700000000 Au
atom 23.0277848799999987 12.2374650500000008 0.0106430200000000 Au
atom 25.8302523800000010 12.3300493299999996 -0.0536960900000000 Au
atom 0.4193914900000000 12.3479844799999992 0.0960186900000000 Au
atom 3.1944033799999998 12.2982194800000002 -0.0611178500000000 Au
atom 6.1006404700000001 12.3067149899999997 -0.0617838600000000 Au
atom 7.6057746599999998 13.2318059199999993 2.3717493599999999 Au
atom 10.3704635599999992 13.2148831500000004 2.6197010500000002 Au
atom 13.1664169199999996 13.3010085500000006 2.5980152599999999 Au
atom 15.8836288099999994 13.2949853900000008 2.4168728599999998 Au
atom 18.7549456600000006 13.2656165700000006 2.5745939799999999 Au
atom 21.6003879999999988 13.2738899999999997 2.4713190500000000 Au
atom 24.4103726600000002 13.1574811799999996 2.7115271200000000 Au
atom 27.2564265200000015 13.1200091600000004 2.4558940800000002 Au
atom 1.7820493200000000 13.1469112700000004 2.6800364700000001 Au
atom 4.6765622699999998 13.1759695699999995 2.5083296000000002 Au
atom 8.8972146500000004 15.6888247599999993 2.3536508800000000 Au
atom 11.7300335600000007 15.7136201399999997 2.3932251099999999 Au
atom 14.4954684999999994 15.7100451499999991 2.5267395100000001 Au
atom 17.3589742099999995 15.6641605300000002 2.4765690999999999 Au
atom 20.1776164300000005 15.7449403100000005 2.3560141899999998 Au
atom 23.0026067300000001 15.6330140400000008 2.5821401200000000 Au
atom 25.8542059199999983 15.7348318999999996 2.6568680900000001 Au
atom 0.4910141200000000 15.7633912600000006 2.8376052899999999 Au
atom 3.2828346399999999 15.5971258299999995 2.7112835899999999 Au
atom 6.1385080900000002 15.5933332399999998 2.4810385699999999 Au
atom 7.4742164600000001 18.0620271199999998 2.4548268400000000 Au
atom 10.2661728599999993 18.1247655600000002 2.0183210699999998 Au
atom 13.1009145599999997 18.1927038799999998 2.2992782599999999 Au
atom 15.8473858799999991 18.1594632000000011 2.3677005699999998 Au
atom 18.7530791900000011 18.0944639599999988 2.3973550299999999 Au
atom 21.5429006799999989 18.1404409400000013 2.4853120299999998 Au
atom 24.3701584199999992 18.0767307600000002 2.8163567700000001 Au
atom 27.2481607100000005 18.0877431800000004 2.5304648300000001 Au
atom 1.8188188700000001 18.1983991200000013 2.7136936600000001 Au
atom 4.7382536899999996 18.1384264299999991 2.5336313200000000 Au
atom 8.9258053299999993 20.5259949699999993 2.3286134500000002 Au
atom 11.6462807300000009 20.6795269499999996 2.1924495500000001 Au
atom 14.5095624500000007 20.5723968100000008 2.3950856699999998 Au
atom 17.3452601400000006 20.5827050299999996 2.5257350600000001 Au
atom 20.1202240600000017 20.5521767900000008 2.6604437600000002 Au
atom 22.9920530200000002 20.5138134900000004 2.8411916100000001 Au
atom 25.8463069899999986 20.6019372999999995 2.6580933500000001 Au
atom 0.5323154800000000 20.6509817899999994 2.4752619199999999 Au
atom 3.2983693100000000 20.5819181600000007 2.7144755800000002 Au
atom 6.1167667300000002 20.4882794900000000 2.6462526999999998 Au
atom 7.5039415399999996 22.9767344000000016 2.5399304800000002 Au
atom 10.3048771200000004 23.1157825000000017 2.2525832800000001 Au
atom 13.1978258600000000 23.0990840599999991 2.4345443499999999 Au
atom 15.9857838799999996 23.0447176700000007 2.7186268099999999 Au
atom 18.7203062899999999 23.0584679000000001 2.6118207600000001 Au
atom 21.5188709600000010 23.0697002399999995 2.6100108000000000 Au
atom 24.3744570200000013 23.0228210599999983 2.6456837400000000 Au
atom 27.2477231499999988 23.2281135600000006 2.4215138800000000 Au
atom 1.9165210600000000 23.1159829399999985 2.6422507600000000 Au
atom 4.7058119700000001 23.1409673799999993 2.6691348399999999 Au
atom 8.8942464999999995 25.5307253600000017 2.5665675600000002 Au
atom 11.6486024199999996 25.4930466699999982 2.5286534000000001 Au
atom 14.5667319600000003 25.4880782699999990 2.6643185599999999 Au
atom 17.3909091400000015 25.6125710300000016 2.8104049400000002 Au
atom 20.1524638500000002 25.5426539999999989 2.7144510999999998 Au
atom 23.0190176599999994 25.4859851400000004 2.7084537599999998 Au
atom 25.8329452000000011 25.5313253200000005 2.8141501999999998 Au
atom 0.4951584400000000 25.6230069600000014 2.6673761599999999 Au
atom 3.3124024099999998 25.5950252499999991 2.7342474700000001 Au
atom 6.0320592199999998 25.5888362200000010 2.6503570100000000 Au
atom 7.4537201800000004 28.0547487000000011 2.5840658500000000 Au
atom 10.3243513999999994 28.0632014400000003 2.4319442900000001 Au
atom 13.1043450299999993 27.9098627999999991 2.6369140299999998 Au
atom 15.9133102700000002 28.0441937000000010 2.5230731199999998 Au
atom 18.7261129599999983 28.0413792899999983 2.5722414800000002 Au
atom 21.5341073200000004 28.0211924600000017 2.8694311699999999 Au
atom 24.4611272699999986 28.0320545199999991 2.6832761399999998 Au
atom 27.2148750399999990 28.1435217699999995 2.9714800299999999 Au
atom 1.8484315000000000 28.0834054399999999 2.6790182300000001 Au
atom 4.6668516100000002 28.0780474200000008 2.8331412299999998 Au
atom 8.8752668499999992 30.4279128800000009 2.6242723500000000 Au
atom 11.7084989000000004 30.4154272600000013 2.5636472100000001 Au
atom 14.5218683100000003 30.4412785600000007 2.6257111499999999 Au
atom 17.2581822799999998 30.4658946600000000 2.4654679399999999 Au
atom 20.1378537000000009 30.5105454599999995 2.6841803299999998 Au
atom 23.0331460200000002 30.4244372500000004 2.6544509299999999 Au
atom 25.8422624799999987 30.4881217500000012 2.5474583900000001 Au
atom 0.3576143600000000 30.5573364699999992 2.5861298599999998 Au
atom 3.1738478899999998 30.5454092199999998 2.5978048199999999 Au
atom 6.0363877300000004 30.4980396499999991 2.8389873500000000 Au
atom 7.4886533100000001 32.9819000999999972 2.6432716300000001 Au
atom 10.2833451599999997 32.8965506199999993 2.8889939299999998 Au
atom 13.0781470300000002 32.9723841799999988 2.5401989000000000 Au
atom 15.8986829699999994 32.9408547800000022 2.7755297600000000 Au
atom 18.6597632800000000 33.0129113899999993 2.6026407300000001 Au
atom 21.5666965499999996 32.8827326799999966 2.8189724400000000 Au
atom 24.3539117999999988 32.9139660199999966 2.6356885800000001 Au
atom 27.1277408000000015 32.9763959100000008 2.4042549800000002 Au
atom 1.8415403100000001 33.0996991399999985 2.3240332100000001 Au
atom 4.5895294399999997 32.9757920899999988 2.5933800699999998 Au
atom 8.8962038900000007 35.4179466200000022 2.5966181499999998 Au
atom 11.6861766500000002 35.4273674100000022 2.8140123699999999 Au
atom 14.4621148099999992 35.3767256100000012 2.6889033400000000 Au
atom 17.3245959800000016 35.4622452799999976 2.7849333299999999 Au
atom 20.1544661699999992 35.4777896499999983 2.5702619599999998 Au
atom 22.9843662399999999 35.3521388300000012 2.7057755499999998 Au
atom 25.7994032100000013 35.4058181700000034 2.6620669399999999 Au
atom 0.4680553900000000 35.6858926000000025 2.5421056599999998 Au
atom 3.2557871500000002 35.4438851900000031 2.6258385600000000 Au
atom 6.0311865400000002 35.4038464200000007 2.6274361499999999 Au
atom 7.2246894199999998 37.8189212999999995 2.4723039899999999 Au
atom 10.4225760800000007 37.8327866699999973 2.6986877599999999 Au
atom 13.1784181500000006 37.9108465199999998 2.4398326600000000 Au
atom 15.8630740200000009 37.9232544400000009 2.7357403900000001 Au
atom 18.8411032899999995 37.8652589200000023 2.9896299200000001 Au
atom 21.7527942699999990 37.8599372999999986 2.8731005999999999 Au
atom 24.3331769700000002 37.8737061599999976 2.8901988400000000 Au
atom 27.0624326199999992 38.2336520400000026 2.8080729799999999 Au
atom 1.9727446200000001 37.8957185100000018 2.3234855400000001 Au
atom 4.4738047600000002 37.8888820499999994 2.6545147099999999 Au
atom 8.7847581699999999 0.7855800600000000 2.5962124499999999 Au
atom 11.8850244600000003 0.8747060000000000 2.6807958900000002 Au
atom 14.6211753800000004 0.8564823200000000 2.7236981100000000 Au
atom 17.5162613399999998 0.8818757100000000 2.6168737800000001 Au
atom 20.1062486400000004 0.8939051500000000 2.7309952100000001 Au
atom 22.9996965799999984 0.8934568500000000 2.8466988099999999 Au
atom 25.8445737199999996 0.8360596300000001 2.6763567099999999 Au
atom 0.4719910800000000 0.6858735000000000 2.7901284099999999 Au
atom 3.2071298000000001 0.8462370600000000 2.7247571000000002 Au
atom 6.0338018699999996 0.8948098400000000 2.6983180999999998 Au
atom 7.5723345599999998 3.3354170200000000 2.5661886200000001 Au
atom 10.2650778200000001 3.3006661500000001 2.6743991700000000 Au
atom 13.2151823000000004 3.3711321000000001 2.5772752200000002 Au
atom 16.0149891000000011 3.2937211799999999 2.7452956500000001 Au
atom 18.8327366500000011 3.3379436600000001 2.6513776999999998 Au
atom 21.5736335699999984 3.3169434799999999 2.7456966399999998 Au
atom 24.4152986799999994 3.3152966099999999 2.8342835599999998 Au
atom 27.2712586500000000 3.3840675600000001 2.6978090099999998 Au
atom 1.9605235100000000 3.2888798700000001 2.4706419199999998 Au
atom 4.7604434700000002 3.3093749899999998 2.6760058199999999 Au
atom 8.9529872499999996 5.7823850400000003 2.5507900800000001 Au
atom 11.7934427999999993 5.7725570700000004 2.6297036500000002 Au
atom 14.6366665800000000 5.7660502700000000 2.6512918800000000 Au
atom 17.4095918599999990 5.7728300700000004 2.8177974799999999 Au
atom 20.2249871699999986 5.7512655700000002 2.8627520400000002 Au
atom 23.0188808000000016 5.7930073899999996 2.7870316399999999 Au
atom 25.9209129300000001 5.8025829499999997 2.7811178999999999 Au
atom 0.5238593499999999 5.8040577899999999 2.6417560199999999 Au
atom 3.3429611299999999 5.7598475200000001 2.7526785399999998 Au
atom 6.1368300800000002 5.8230190200000003 2.6183729200000001 Au
atom 7.5699635900000004 8.2684442399999991 2.5827203700000001 Au
atom 10.3308292200000000 8.1515269099999994 2.5832486399999999 Au
atom 13.1906138800000008 8.2337431700000003 2.5963104000000001 Au
atom 15.9936467499999999 8.2817734400000003 2.7051137600000001 Au
atom 18.7393593199999984 8.3308133600000005 2.7332048300000000 Au
atom 21.6041663600000007 8.2651804799999997 2.7212866199999999 Au
atom 24.4593391900000015 8.2465164499999997 2.5979270300000001 Au
atom 27.2538299100000003 8.3410094000000008 2.8907430299999999 Au
atom 1.8993109900000000 8.2084877600000006 2.8350463499999998 Au
atom 4.7525054600000001 8.3046606300000008 2.7363553800000000 Au
atom 8.9866359399999993 10.7156253199999991 2.4622986199999999 Au
atom 11.7043071300000001 10.7142191600000007 2.8170733900000000 Au
atom 14.5445604799999995 10.7717562499999993 2.7522460700000000 Au
atom 17.2565463699999988 10.8271328800000006 2.5493037599999999 Au
atom 20.1705496300000000 10.7784396499999993 2.6940794499999998 Au
atom 23.0123903200000015 10.7581970899999995 2.7166120800000000 Au
atom 25.8184005300000017 10.7241180000000007 2.6332823799999998 Au
atom 0.4362548400000000 10.6063343400000001 2.6278399900000000 Au
atom 3.3073687899999999 10.7203900500000007 2.5986117700000002 Au
atom 6.1759042099999997 10.7633998299999991 2.6601239799999998 Au
atom 7.5481309899999998 13.1312728700000001 5.7481949600000002 Cl
atom 7.3698199000000004 15.9327725099999995 8.5490218900000006 Cl
atom 7.4693070600000002 13.1755834000000007 8.5775148399999992 Na
atom 7.2463591999999997 16.0611661099999985 5.6135882400000003 Na
atom 7.6036811000000002 18.9395301899999993 5.7083598300000000 Cl
atom 7.6955466200000000 21.9023656100000004 8.6074445900000001 Cl
atom 7.5555841299999997 18.6827159000000016 8.4695548100000000 Na
atom 7.5956142399999997 21.7045060499999991 5.6771251400000002 Na
atom 7.6201524100000002 24.4915672300000011 5.9107288799999997 Cl
atom 7.7136171800000000 27.3969434800000009 8.8505603799999992 Cl
atom 7.5958233499999999 24.6110110400000011 8.5936756800000005 Na
atom 7.5025487399999999 27.2320646800000006 5.9284242300000001 Na
atom 7.5429767900000000 30.0838241400000008 5.6859329199999999 Cl
atom 7.6560888000000000 32.9632652499999992 8.4897487799999993 Cl
atom 7.6634867699999996 30.1475113499999985 8.3676642399999999 Na
atom 7.6293550999999997 32.9355113100000025 5.8034391599999999 Na
atom 7.6032830899999997 35.8600627900000006 5.7294289799999998 Cl
atom 7.6868847999999996 38.6444967300000002 8.5328403799999997 Cl
atom 7.6619561999999997 35.7654807099999985 8.4077540400000004 Na
atom 7.6273396399999998 38.6714229199999977 5.6402388600000002 Na
atom 7.6843962799999996 1.9306656000000000 5.7192776800000003 Cl
atom 7.5514411299999997 4.7709574400000001 8.6531784700000003 Cl
atom 7.4392851200000001 2.0824683899999998 8.3102563099999998 Na
atom 7.5386766700000001 4.8053694100000000 5.9052100899999997 Na
atom 7.7562503400000002 7.6651632300000001 5.7125371899999999 Cl
atom 7.6123215599999998 10.3953822000000002 8.6543979300000000 Cl
atom 7.6756432200000004 7.7350948800000001 8.4266246999999996 Na
atom 7.5054223499999999 10.3571000200000007 5.7993430899999998 Na
atom 10.2839675499999998 13.1957704499999995 5.8678660400000000 Na
atom 13.1372166200000002 13.1650585600000003 5.6412629100000000 Cl
atom 10.1458820599999999 15.9254010899999994 8.6641776999999998 Na
atom 13.0128005400000006 16.1009999199999996 8.6491035600000004 Cl
atom 13.1700059599999992 13.4341947299999998 8.3838097200000004 Na
atom 10.2830473999999992 13.3271463400000005 8.7121202499999999 Cl
atom 13.1051949499999996 16.0739244100000001 5.8183213499999997 Na
atom 10.3677275099999999 15.9022584100000000 5.7629116099999997 Cl
atom 10.2669747800000000 18.8193092399999991 5.7118005099999998 Na
atom 13.0668621700000003 18.9521885700000006 5.7435216499999999 Cl
atom 10.4426092900000000 21.5654800199999990 8.4829977900000006 Na
atom 13.2971712899999996 21.6774090000000008 8.7573707899999995 Cl
atom 12.9376615299999997 18.7547424400000011 8.3796318700000008 Na
atom 10.2331349199999995 18.8451677300000000 8.5085899800000000 Cl
atom 13.1938705400000007 21.6511999499999988 6.2578906700000001 Na
atom 10.4894371000000000 21.7956649999999996 5.4439709199999999 Cl
atom 10.3777284000000005 24.4837267099999991 5.7578328200000000 Na
atom 13.0747873200000004 24.4603064799999999 5.6516610800000002 Cl
atom 10.4498502299999991 27.3446510600000003 8.6323602400000006 Na
atom 13.1637132599999997 27.4114332199999993 8.7637538500000005 Cl
atom 13.1271592399999992 24.5281802000000013 8.3161848400000000 Na
atom 10.4853325399999999 24.5239212299999991 8.6397070599999992 Cl
atom 13.1152329900000009 27.2292559099999991 6.0203454799999996 Na
atom 10.3897486499999996 27.4486172999999987 5.9378159799999999 Cl
atom 10.4485276599999999 30.1585083199999993 5.8697635400000001 Na
atom 13.2110781900000003 30.1473885499999987 5.8729139899999998 Cl
atom 10.4088060099999993 32.9911790299999979 8.3482838099999999 Na
atom 13.1512882300000005 32.9625872399999977 8.6448604800000002 Cl
atom 13.1963164299999995 30.1892096999999993 8.4228626900000005 Na
atom 10.3926547800000009 30.2359085299999997 8.6049980399999999 Cl
atom 13.1808557900000007 32.9556377500000011 5.8029092899999997 Na
atom 10.4862598899999995 32.9791571299999973 5.7319310400000001 Cl
atom 10.4794962500000004 35.7791194799999985 5.8829920900000001 Na
atom 13.2469816700000003 35.7081521699999982 5.7600387700000004 Cl
atom 10.4238092400000006 38.6657230400000032 8.3535813799999996 Na
atom 13.1357318599999999 38.6363442000000035 8.6355177100000002 Cl
atom 13.2270644999999991 35.7127346099999983 8.3569316899999997 Na
atom 10.4916837399999991 35.8262325899999965 8.5725055099999992 Cl
atom 13.3550604499999999 38.6536093200000010 5.7533821200000004 Na
atom 10.6965154499999997 38.6100410900000028 5.8584355900000000 Cl
atom 10.3881054099999997 2.0164567899999999 5.7592636900000000 Na
atom 13.2769639399999999 1.9984619600000000 5.8653761199999996 Cl
atom 10.3705495100000000 4.8616144099999996 8.3902407300000004 Na
atom 13.1587778699999998 4.8736760200000004 8.6059660600000001 Cl
atom 13.2676156499999998 1.9477852600000001 8.4176505899999992 Na
atom 10.4185699500000002 2.0383526500000002 8.7220086299999995 Cl
atom 13.2050140200000001 4.8657179499999996 5.7786295299999999 Na
atom 10.3995941399999996 4.7763155599999996 5.7038944899999997 Cl
atom 10.3827101699999993 7.7097289199999999 5.8614662600000003 Na
atom 13.1887619100000002 7.6994631299999998 5.8596219800000000 Cl
atom 10.4298058900000008 10.5817054499999994 8.4951738900000002 Na
atom 13.1937833799999993 10.4935471499999995 8.7945058800000009 Cl
atom 13.1246970800000007 7.6442673599999997 8.5053634299999992 Na
atom 10.3245518999999994 7.6220925700000004 8.5997810000000001 Cl
atom 13.1962422499999992 10.4073690899999995 5.9774875300000003 Na
atom 10.4183480999999993 10.5924689799999996 5.8510102200000000 Cl
atom 15.9598511399999996 13.1434488300000005 5.9155806000000002 Na
atom 18.6961387200000004 13.1137098099999996 5.7534222300000000 Cl
atom 15.8553800400000000 16.0962672100000006 8.5741783599999994 Na
atom 18.8574463399999992 16.0679219499999988 8.6957380299999993 Cl
atom 18.8509063999999995 13.3533310000000007 8.3204491300000001 Na
atom 15.9657689499999993 13.4072726400000004 8.7882275399999994 Cl
atom 18.7236623999999985 16.0926621700000005 5.8684349300000003 Na
atom 15.8943140700000001 15.9167055299999998 5.9115389900000004 Cl
atom 15.9917500599999993 19.0571155599999997 5.9242541700000002 Na
atom 18.7656262799999993 19.2146443699999985 5.9127964899999998 Cl
atom 16.2253336899999994 21.7325331599999991 8.5275339199999998 Na
atom 18.7000552000000013 21.7493430900000000 8.9181450499999997 Cl
atom 18.8973422000000006 18.7886525499999983 8.5272291100000004 Na
atom 16.0411557999999985 18.8370624199999988 8.5374697699999995 Cl
atom 18.8120683500000005 21.7257446399999985 5.8104275999999997 Na
atom 15.9276115100000002 21.7573398900000008 5.6369109999999996 Cl
atom 16.0071941100000004 24.6262792399999988 5.7878671600000002 Na
atom 18.9774526799999990 24.4697422700000011 5.9797344299999997 Cl
atom 15.9284297200000005 27.2089670400000010 8.6162111100000001 Na
atom 18.8298665199999995 27.3484804500000003 8.7565550299999995 Cl
atom 18.7289036399999986 24.5306699600000009 8.6762616300000008 Na
atom 15.8781189099999995 24.3795997799999995 8.6862749800000003 Cl
atom 19.0364354499999990 27.4364234300000014 5.8275218400000002 Na
atom 15.9900637999999997 27.4643308600000005 5.9414510900000002 Cl
atom 16.0439959399999985 30.1975394299999991 5.9139803500000001 Na
atom 18.8214365000000008 30.2051133100000015 5.6321146100000004 Cl
atom 16.0136430499999989 32.9572909400000000 8.4561864000000000 Na
atom 18.8077137900000011 33.0288654800000003 8.5460567699999999 Cl
atom 18.7817170100000013 30.1435201200000016 8.4378815800000009 Na
atom 16.0831613599999983 30.0925459599999989 8.6960826800000000 Cl
atom 18.8176376300000001 32.9747678199999967 5.7850647899999998 Na
atom 15.9331591499999998 32.8872585200000032 5.8184230699999997 Cl
atom 16.0090281800000014 35.7534799299999975 5.7719877899999998 Na
atom 18.7664086899999987 35.7307343800000012 5.6664979100000004 Cl
atom 15.9237184999999997 38.5580222299999988 8.3340477800000006 Na
atom 18.9138927800000012 38.5958190200000004 8.6401368999999999 Cl
atom 18.8266939399999984 35.7528553300000027 8.3313413700000005 Na
atom 16.0033852400000001 35.7069456600000024 8.5237566299999994 Cl
atom 18.8045009400000005 38.5285668400000034 5.9636871500000002 Na