#===============================================================================
# Created using the Atomic Simulation Environment (ASE)

# Tue Dec 23 21:42:54 2025

#=======================================================
lattice_vector 28.1999999999999993 0.0000000000000000 0.0000000000000000 
lattice_vector 0.0000000000000000 39.4799999999999969 0.0000000000000000 
lattice_vector 0.0000000000000000 0.0000000000000000 62.3296083400000001 
atom 7.4977551499999997 14.8118359500000008 0.0477371800000000 Au
atom 10.3233230599999999 14.8264741999999998 -0.0240870300000000 Au
atom 13.1464625599999998 14.8380867999999992 0.0565508900000000 Au
atom 15.9708378700000004 14.8131434300000002 -0.0131945200000000 Au
atom 18.7866754500000006 14.8211140799999992 0.0477185400000000 Au
atom 21.6089199900000004 14.8373346900000005 -0.0001772500000000 Au
atom 24.4304522999999989 14.8189578799999992 0.0646051700000000 Au
atom 27.2463157799999998 14.8176707299999997 -0.0159487600000000 Au
atom 1.8530589799999999 14.8163925400000007 0.0515332000000000 Au
atom 4.6832451300000004 14.8304301800000005 -0.0088120000000000 Au
atom 8.9046703399999991 17.2890225099999988 0.0418645700000000 Au
atom 11.7260430000000007 17.2971521400000015 0.0325007900000000 Au
atom 14.5529852599999998 17.2860045400000004 0.0349273800000000 Au
atom 17.3891607700000002 17.2833647900000003 0.0238415700000000 Au
atom 20.2023361500000007 17.2818475999999990 0.0467212300000000 Au
atom 23.0259112799999990 17.2820756700000011 0.0423562900000000 Au
atom 25.8397073400000004 17.2918519900000014 0.0511485200000000 Au
atom 0.4653099900000000 17.3050607200000002 0.0328809600000000 Au
atom 3.2847148399999999 17.2813732000000009 0.0349962500000000 Au
atom 6.1101754699999997 17.2866881499999998 0.0410535000000000 Au
atom 7.5056917700000003 19.7526456300000000 0.1184909500000000 Au
atom 10.3265568200000004 19.7595211599999985 0.0566222200000000 Au
atom 13.1488454600000004 19.7599470100000012 0.1016422100000000 Au
atom 15.9700132400000001 19.7645094700000001 0.0452819700000000 Au
atom 18.7949181799999998 19.7671299000000005 0.1113324200000000 Au
atom 21.6215485299999983 19.7748316300000013 0.0572016200000000 Au
atom 24.4348652900000012 19.7423617500000006 0.1173596300000000 Au
atom 27.2422168599999992 19.7591905099999998 0.0705522900000000 Au
atom 1.8585076199999999 19.7605031900000014 0.1114784800000000 Au
atom 4.6919392000000002 19.7567731299999991 0.0621589700000000 Au
atom 8.9171061199999997 22.2186403100000014 0.0781371300000000 Au
atom 11.7222008199999994 22.2133650399999993 0.0657209600000000 Au
atom 14.5437601900000004 22.2161454800000016 0.0745047500000000 Au
atom 17.3787696199999999 22.2361876800000005 0.0676614600000000 Au
atom 20.2010267799999994 22.2194119299999997 0.0691283100000000 Au
atom 23.0286831300000010 22.2052879099999991 0.0885229800000000 Au
atom 25.8384595300000015 22.2179919199999993 0.0839322100000000 Au
atom 0.4408352200000000 22.2146133100000007 0.0873413700000000 Au
atom 3.2654108599999998 22.2288352799999984 0.0833516900000000 Au
atom 6.0941074999999998 22.2222472199999999 0.1062963500000000 Au
atom 7.5075842100000001 24.7033156799999993 0.1043199300000000 Au
atom 10.3214268600000008 24.6791356600000000 0.1069512100000000 Au
atom 13.1484958499999998 24.6886997599999987 0.0870708200000000 Au
atom 15.9741205399999995 24.6745015899999984 0.0965424300000000 Au
atom 18.7886419899999986 24.6970404099999996 0.0935064400000000 Au
atom 21.5868245200000004 24.6937486499999999 0.1072787600000000 Au
atom 24.4455636600000012 24.6881848300000009 0.1206486500000000 Au
atom 27.2596969700000002 24.6846558999999992 0.1141333100000000 Au
atom 1.8672925100000000 24.6870494399999991 0.1019431200000000 Au
atom 4.6809668799999997 24.6890135700000002 0.1125732600000000 Au
atom 8.9126422900000009 27.1524197200000010 0.0705757200000000 Au
atom 11.7338587299999997 27.1520075600000013 0.0521324900000000 Au
atom 14.5534700400000006 27.1549434699999992 0.0611268700000000 Au
atom 17.3672513299999984 27.1588550499999997 0.0720904500000000 Au
atom 20.1978744399999997 27.1609029699999986 0.0615932800000000 Au
atom 23.0119559500000008 27.1590256500000002 0.0603743100000000 Au
atom 25.8410123799999987 27.1573924799999986 0.0717257900000000 Au
atom 0.4476010800000000 27.1459165700000007 0.0786462300000000 Au
atom 3.2884367299999999 27.1495322200000011 0.0544493500000000 Au
atom 6.1030263700000003 27.1593038600000014 0.0580947500000000 Au
atom 7.4986481999999999 29.6291166299999986 0.0142584900000000 Au
atom 10.3314055099999997 29.6196547800000012 0.0668024800000000 Au
atom 13.1329506400000007 29.6273978900000010 0.0004735800000000 Au
atom 15.9649393600000007 29.6152444499999987 0.0660835600000000 Au
atom 18.7711626699999989 29.6297868099999988 0.0230559000000000 Au
atom 21.6013321500000011 29.6267039799999985 0.0751718800000000 Au
atom 24.4232680100000010 29.6144348899999983 0.0391388300000000 Au
atom 27.2376214499999989 29.6147356399999993 0.0480214800000000 Au
atom 1.8627512700000000 29.6280706100000017 0.0009436400000000 Au
atom 4.6783801800000004 29.6176436500000015 0.0525330100000000 Au
atom 8.9271080299999994 32.0933518200000023 -0.0074403900000000 Au
atom 11.7215995399999997 32.0876331600000029 0.0243097900000000 Au
atom 14.5468816200000006 32.0866867700000000 0.0078831500000000 Au
atom 17.3557189200000010 32.0844230699999997 0.0225782900000000 Au
atom 20.2058084899999990 32.0825310299999984 0.0047929400000000 Au
atom 23.0108315400000016 32.1021165300000035 0.0152123100000000 Au
atom 25.8463354199999991 32.0809883399999975 0.0244087100000000 Au
atom 0.4636984600000000 32.1000213499999987 0.0000686700000000 Au
atom 3.2687093100000002 32.0876052699999974 0.0148641900000000 Au
atom 6.0870513199999996 32.0972447400000007 0.0269819900000000 Au
atom 7.5179389299999997 34.5763590199999982 -0.0052986100000000 Au
atom 10.3265784699999994 34.5515946399999976 0.0530063600000000 Au
atom 13.1412817200000003 34.5755907200000010 -0.0177486300000000 Au
atom 15.9684977499999992 34.5662976300000011 0.0615608800000000 Au
atom 18.7818989599999995 34.5577358000000032 -0.0120787500000000 Au
atom 21.6058122899999994 34.5656448299999965 0.0554846500000000 Au
atom 24.4247703799999982 34.5792398099999971 -0.0127203300000000 Au
atom 27.2462836000000017 34.5687525299999976 0.0402029300000000 Au
atom 1.8740313500000001 34.5578880500000025 -0.0010286500000000 Au
atom 4.6932829299999996 34.5571025899999995 0.0555835600000000 Au
atom 8.9169564700000006 37.0303889099999992 0.0429723800000000 Au
atom 11.7228339699999999 37.0213307900000004 0.0392504100000000 Au
atom 14.5628514500000001 37.0354366799999966 0.0490706800000000 Au
atom 17.3668889799999988 37.0405494899999965 0.0480247000000000 Au
atom 20.2043679400000009 37.0145735199999990 0.0358989400000000 Au
atom 23.0137344100000014 37.0218091200000003 0.0347252400000000 Au
atom 25.8268032100000013 37.0246275000000011 0.0445516400000000 Au
atom 0.4457717400000000 37.0272749800000014 0.0288815600000000 Au
atom 3.2866146899999999 37.0354293299999995 0.0424879600000000 Au
atom 6.0999939899999998 37.0290633400000004 0.0347057900000000 Au
atom 7.4935462199999998 0.0328634100000000 0.0818956000000000 Au
atom 10.3323306800000001 -0.0007308100000000 0.1116965500000000 Au
atom 13.1330101300000006 0.0258557400000000 0.0607918000000000 Au
atom 15.9719566799999999 0.0179657900000000 0.1077071700000000 Au
atom 18.7843935000000002 0.0202628900000000 0.0715697200000000 Au
atom 21.6154135399999987 0.0094821000000000 0.1245267100000000 Au
atom 24.4153692699999993 0.0235726300000000 0.0632078000000000 Au
atom 27.2529511400000004 0.0259301500000000 0.1312402200000000 Au
atom 1.8769764099999999 0.0234717400000000 0.0695711800000000 Au
atom 4.6873981799999997 0.0356271900000000 0.0986095500000000 Au
atom 8.9053302999999993 2.4824872600000001 0.0893834500000000 Au
atom 11.7570231799999991 2.4936581499999999 0.0740088800000000 Au
atom 14.5653770100000006 2.4942925900000001 0.0852835000000000 Au
atom 17.3723765599999993 2.4766918400000000 0.0618126300000000 Au
atom 20.2139162900000002 2.4936736300000000 0.0954924000000000 Au
atom 23.0068768199999987 2.4947515400000002 0.0943312900000000 Au
atom 25.8263897900000003 2.4929058799999999 0.0714287200000000 Au
atom 0.4530508000000000 2.4875924100000000 0.0951304300000000 Au
atom 3.2733826000000001 2.4977391000000000 0.1019320200000000 Au
atom 6.0882367500000001 2.4746737699999999 0.0814886100000000 Au
atom 7.4865115400000004 4.9380374500000004 0.1212505000000000 Au
atom 10.3220738900000004 4.9503488600000001 0.1243594500000000 Au
atom 13.1428673099999997 4.9539850999999997 0.1007342000000000 Au
atom 15.9674529799999991 4.9527551699999997 0.1016743400000000 Au
atom 18.7806437799999983 4.9346714699999996 0.1005447300000000 Au
atom 21.6011966700000002 4.9648545400000001 0.0913362500000000 Au
atom 24.4207219000000002 4.9540264699999996 0.0726430000000000 Au
atom 27.2378779999999985 4.9476026299999996 0.1010557400000000 Au
atom 1.8607861100000000 4.9569650799999998 0.0984888700000000 Au
atom 4.6755455299999999 4.9496079100000001 0.0917272500000000 Au
atom 8.9166544900000009 7.4148108800000001 0.0731141400000000 Au
atom 11.7353028199999994 7.4027668699999998 0.0570376200000000 Au
atom 14.5564135799999992 7.4102549199999999 0.0624284800000000 Au
atom 17.3918010999999986 7.4087189999999996 0.0877783700000000 Au
atom 20.1862754399999993 7.4056354300000002 0.0730340300000000 Au
atom 23.0105222699999992 7.4232729300000004 0.0420567300000000 Au
atom 25.8081637899999983 7.4233802999999998 0.0594038200000000 Au
atom 0.4649835900000000 7.3981032700000000 0.0664876300000000 Au
atom 3.2820676500000001 7.4145226099999997 0.0615259400000000 Au
atom 6.0789854600000002 7.4061964700000003 0.0663708800000000 Au
atom 7.5034207000000004 9.8824194199999997 0.0561994100000000 Au
atom 10.3263113400000002 9.8807199699999995 0.0135816100000000 Au
atom 13.1353285599999996 9.8785116100000003 0.0730821600000000 Au
atom 15.9579269200000002 9.8804375899999997 0.0146440100000000 Au
atom 18.7846667399999987 9.8780911499999995 0.0641618200000000 Au
atom 21.5963842799999988 9.8774533000000009 0.0216070000000000 Au
atom 24.4194050099999984 9.8841493200000006 0.0587053600000000 Au
atom 27.2494935100000006 9.8946873400000008 0.0091930800000000 Au
atom 1.8654038300000000 9.8849215099999999 0.0371369200000000 Au
atom 4.6997623600000002 9.8922270000000001 0.0230744600000000 Au
atom 8.9108633299999997 12.3633339899999992 0.0068673200000000 Au
atom 11.7436843599999996 12.3533468400000004 0.0218041600000000 Au
atom 14.5488550399999994 12.3484515699999999 0.0013479100000000 Au
atom 17.3794646800000017 12.3437178500000009 0.0053942400000000 Au
atom 20.1945050500000001 12.3447526900000000 0.0178352800000000 Au
atom 23.0228578500000012 12.3538824700000003 0.0114712200000000 Au
atom 25.8347283700000006 12.3515128300000008 0.0094234000000000 Au
atom 0.4438999600000000 12.3543960500000001 0.0052562200000000 Au
atom 3.2826516200000002 12.3535849800000008 0.0183436600000000 Au
atom 6.0955718399999999 12.3388364100000008 0.0002360200000000 Au
atom 7.5035692899999997 13.1761752199999993 2.6628261499999999 Au
atom 10.3279294000000004 13.1991779600000001 2.5492675600000001 Au
atom 13.1503442499999998 13.1802058599999992 2.6638238599999999 Au
atom 15.9610511200000005 13.1751664999999996 2.5649929800000000 Au
atom 18.7906084799999995 13.1825280899999999 2.6718030700000002 Au
atom 21.6085815900000000 13.1783652700000005 2.5622562200000001 Au
atom 24.4259075500000016 13.1867527199999994 2.6632756999999998 Au
atom 27.2235945900000011 13.1682597300000008 2.5669181200000000 Au
atom 1.8607966499999999 13.1793424800000007 2.6710081099999998 Au
atom 4.6863352200000001 13.1805497799999998 2.5504468999999999 Au
atom 8.9090846399999997 15.6514859600000005 2.6277775800000001 Au
atom 11.7291245800000006 15.6568914899999996 2.6457682299999998 Au
atom 14.5576811500000005 15.6432857399999996 2.6487181400000002 Au
atom 17.3829521299999996 15.6505541299999997 2.6379316300000002 Au
atom 20.2036345299999986 15.6592888000000006 2.6368333000000002 Au
atom 23.0113741000000012 15.6337780399999993 2.6498196799999998 Au
atom 25.8296436599999986 15.6484605800000001 2.6529527399999999 Au
atom 0.4588716200000000 15.6324731000000003 2.6438663600000001 Au
atom 3.2703623799999999 15.6527918199999991 2.6466631600000001 Au
atom 6.0907945100000003 15.6464125500000009 2.6342688600000002 Au
atom 7.5118864299999997 18.0835895200000003 2.7093683000000000 Au
atom 10.3270545699999996 18.1226084400000005 2.6035340800000002 Au
atom 13.1583428100000006 18.1024023400000011 2.6866080700000001 Au
atom 15.9567528799999998 18.1188376899999994 2.5981864300000002 Au
atom 18.7749123000000004 18.0978159500000011 2.6791151000000002 Au
atom 21.6022833600000013 18.1124779800000013 2.6091981400000002 Au
atom 24.4207334299999985 18.1034225500000012 2.6953196199999998 Au
atom 27.2348486299999983 18.1112978300000016 2.6319020100000001 Au
atom 1.8610785800000000 18.0806679400000014 2.7005508200000001 Au
atom 4.6916133999999996 18.1133320799999993 2.6277952999999998 Au
atom 8.9127556899999991 20.5782483399999983 2.7208120199999999 Au
atom 11.7241032599999997 20.5706616099999984 2.7000334900000000 Au
atom 14.5575021499999995 20.5826643800000006 2.7011316700000001 Au
atom 17.3805923699999987 20.5928971899999986 2.6956112700000001 Au
atom 20.1932761300000010 20.5863062300000017 2.7071036300000002 Au
atom 23.0305491999999994 20.5637206699999986 2.7159339600000001 Au
atom 25.8398227700000014 20.5788296499999994 2.7206124599999999 Au
atom 0.4569521500000000 20.5704631199999994 2.7153157700000001 Au
atom 3.2634141900000002 20.5896711799999999 2.7103163700000001 Au
atom 6.0844799700000003 20.5759216199999990 2.7172806399999998 Au
atom 7.4963499000000002 23.0295387500000004 2.6925050200000000 Au
atom 10.3236000899999993 23.0565847499999990 2.6878714399999999 Au
atom 13.1372615199999991 23.0458699399999993 2.6696677700000002 Au
atom 15.9642869800000007 23.0516684100000013 2.6728818200000002 Au
atom 18.7896202300000006 23.0370207499999999 2.6726920500000002 Au
atom 21.6017988999999986 23.0605724400000014 2.6806046100000001 Au
atom 24.4359032800000016 23.0425876000000009 2.6855691600000000 Au
atom 27.2475664600000016 23.0593771300000014 2.6810285199999999 Au
atom 1.8664702500000001 23.0457677700000012 2.6783838800000002 Au
atom 4.6840466200000002 23.0685799399999993 2.6967503000000002 Au
atom 8.9255514100000006 25.5266254400000001 2.7279716500000002 Au
atom 11.7338158700000008 25.5288935300000013 2.7034269499999999 Au
atom 14.5499736199999994 25.5255415200000009 2.6980434500000001 Au
atom 17.3855540499999996 25.5211141400000017 2.7278699600000000 Au
atom 20.2050729099999984 25.5261706599999982 2.7138260600000002 Au
atom 23.0143403199999987 25.5405645499999991 2.7203612700000002 Au
atom 25.8305159000000017 25.5334488800000017 2.7246855800000001 Au
atom 0.4547163500000000 25.5363103900000006 2.7293462200000000 Au
atom 3.2894249000000002 25.5293832000000016 2.7382512499999998 Au
atom 6.0992253999999999 25.5161649799999992 2.7240118500000001 Au
atom 7.5139447900000000 28.0037665800000006 2.6142625700000002 Au
atom 10.3208830400000000 28.0115129600000010 2.7062566499999998 Au
atom 13.1451635600000003 27.9955047300000004 2.6214248900000001 Au
atom 15.9552585499999999 27.9894978799999983 2.6891158900000001 Au
atom 18.7825949799999989 27.9862450799999998 2.6265247800000000 Au
atom 21.6051567200000001 28.0013676899999986 2.7031372000000000 Au
atom 24.4239426399999999 27.9824595000000009 2.6353317600000001 Au
atom 27.2469049800000001 28.0277193300000000 2.6902046700000000 Au
atom 1.8749333399999999 28.0061625800000016 2.6238152100000001 Au
atom 4.6879521500000001 28.0146577100000016 2.6950396300000001 Au
atom 8.9295588299999995 30.4641433699999986 2.6487283100000001 Au
atom 11.7331483500000004 30.4633497599999998 2.6407959800000000 Au
atom 14.5444214299999999 30.4692264199999983 2.6441345300000001 Au
atom 17.3652859200000016 30.4656398000000017 2.6428904200000001 Au
atom 20.2042750499999997 30.4511826799999987 2.6455501199999998 Au
atom 23.0115757300000006 30.4717079899999987 2.6538891800000002 Au
atom 25.8447603800000003 30.4569015699999994 2.6483851999999999 Au
atom 0.4613892400000000 30.4634958900000008 2.6415780899999999 Au
atom 3.2652470299999998 30.4783485100000000 2.6284729400000000 Au
atom 6.1114193900000000 30.4627045199999991 2.6532040000000001 Au
atom 7.5099880399999996 32.9190942800000030 2.5613329700000000 Au
atom 10.3348553100000000 32.9229368800000017 2.6656119899999999 Au
atom 13.1486874199999999 32.9296937499999984 2.5580181299999998 Au
atom 15.9665615100000000 32.9291297400000005 2.6715370100000002 Au
atom 18.7940905399999991 32.9216945200000026 2.5706350100000002 Au
atom 21.6133518100000011 32.9139423199999968 2.6726096699999999 Au
atom 24.4291080600000008 32.9281020900000030 2.5690413200000002 Au
atom 27.2392712699999997 32.9151931600000012 2.6809120399999999 Au
atom 1.8608400800000000 32.9130930500000005 2.5631124800000000 Au
atom 4.6905135199999997 32.9189492699999988 2.6635248499999999 Au
atom 8.9072831699999995 35.3937169699999998 2.6312308400000002 Au
atom 11.7405453000000009 35.3848540299999996 2.6525804700000002 Au
atom 14.5570730200000007 35.3910766400000014 2.6331266400000000 Au
atom 17.3726377899999989 35.3829323300000027 2.6486808900000001 Au
atom 20.1997332699999994 35.3836935300000022 2.6495446299999998 Au
atom 23.0130275399999995 35.3831103500000026 2.6472157799999998 Au
atom 25.8385554199999987 35.3820420300000009 2.6405192700000000 Au
atom 0.4387097900000000 35.3750667899999982 2.6415474799999998 Au
atom 3.2749984500000000 35.3972399199999970 2.6483964400000000 Au
atom 6.0995874399999996 35.3882226500000030 2.6439300499999998 Au
atom 7.4952452699999998 37.8527269599999983 2.6148261499999998 Au
atom 10.3201905200000006 37.8332985400000013 2.6923339899999998 Au
atom 13.1426722300000005 37.8511856499999979 2.6198322500000000 Au
atom 15.9781527800000003 37.8411218700000020 2.7110850800000001 Au
atom 18.7789419500000001 37.8544643399999998 2.6080463400000000 Au
atom 21.6014044500000004 37.8374479599999987 2.6874911199999998 Au
atom 24.4270243200000010 37.8709068400000035 2.6069390700000001 Au
atom 27.2447578200000002 37.8287867000000020 2.6939609899999999 Au
atom 1.8679501700000001 37.8693000399999988 2.6139214700000002 Au
atom 4.6804882900000004 37.8240674500000011 2.7060728699999999 Au
atom 8.9120900600000006 0.8322748599999999 2.7241812900000002 Au
atom 11.7389471400000005 0.8342709800000000 2.7136061900000001 Au
atom 14.5614533000000002 0.8234047200000000 2.7069333900000001 Au
atom 17.3673419100000004 0.8395644700000000 2.7083467899999998 Au
atom 20.1982652800000011 0.8422219399999999 2.7295029199999998 Au
atom 23.0177763900000016 0.8399638200000000 2.7326511500000001 Au
atom 25.8487063600000013 0.8284254500000000 2.7117909800000000 Au
atom 0.4568606100000000 0.8341055300000000 2.7104024799999999 Au
atom 3.2743817200000001 0.8295271300000000 2.7212472999999999 Au
atom 6.1031142500000000 0.8196513400000000 2.7199371900000000 Au
atom 7.4970932599999998 3.3169937599999999 2.6799394200000002 Au
atom 10.3185769199999999 3.2863895200000002 2.6785047700000000 Au
atom 13.1475484300000005 3.3157723500000000 2.6885152699999999 Au
atom 15.9754136800000008 3.3011354000000002 2.6770865200000000 Au
atom 18.7891618800000018 3.3016710800000002 2.6817264100000000 Au
atom 21.6036052199999986 3.3014237700000000 2.6832979600000000 Au
atom 24.4352371400000017 3.3220621000000001 2.6825348600000001 Au
atom 27.2480283099999987 3.2957932599999999 2.6904909799999999 Au
atom 1.8556072900000000 3.3133602500000001 2.6789153899999998 Au
atom 4.6915071199999998 3.3175745700000001 2.6981662200000001 Au
atom 8.9152544200000001 5.8003127100000000 2.7114806900000001 Au
atom 11.7517390899999992 5.7943944399999996 2.7155449699999998 Au
atom 14.5613563199999998 5.7861572499999996 2.7041424300000001 Au
atom 17.3744918300000002 5.7855064699999996 2.7119099400000000 Au
atom 20.1947484300000006 5.7849275100000002 2.7273125700000000 Au
atom 23.0160668999999984 5.7835625200000003 2.7102299099999998 Au
atom 25.8421420099999999 5.7867125200000000 2.7098446400000000 Au
atom 0.4571543900000000 5.7984477400000003 2.7168857000000002 Au
atom 3.2786332100000002 5.7865248999999999 2.7133502200000001 Au
atom 6.0822790700000002 5.7838522799999996 2.7368130200000000 Au
atom 7.5106900999999997 8.2829606499999997 2.6916658700000000 Au
atom 10.3225362000000001 8.2550283499999999 2.6271031499999999 Au
atom 13.1429946300000005 8.2756029099999999 2.7170056100000002 Au
atom 15.9719859999999994 8.2494849600000002 2.6211610699999999 Au
atom 18.7757490999999987 8.2534578199999995 2.7126670300000000 Au
atom 21.6075564799999995 8.2588423300000002 2.6140075299999999 Au
atom 24.4234447199999991 8.2680294900000000 2.7040061999999998 Au
atom 27.2394265299999994 8.2686249299999997 2.6190142399999998 Au
atom 1.8721464699999999 8.2697836500000008 2.6876294999999999 Au
atom 4.6915311900000001 8.2533970799999992 2.6177417699999999 Au
atom 8.8954310099999994 10.7221327199999994 2.6384394900000001 Au
atom 11.7280764499999997 10.7367756799999992 2.6483983900000001 Au
atom 14.5588627600000002 10.7135643500000004 2.6399064999999999 Au
atom 17.3901887700000017 10.7316634700000009 2.6349398599999998 Au
atom 20.1974379999999982 10.7223686800000007 2.6500569800000000 Au
atom 23.0034713400000008 10.7373685999999999 2.6431369100000000 Au
atom 25.8271510100000015 10.7289288999999997 2.6414716100000000 Au
atom 0.4488121700000000 10.7243815500000004 2.6271068799999999 Au
atom 3.2716647100000000 10.7134687500000005 2.6304105299999998 Au
atom 6.1076292800000003 10.7230285700000003 2.6374150900000002 Au
atom 7.5043827900000002 13.1804521700000006 5.7314048499999997 Cl
atom 7.5043333800000003 15.9558991399999996 8.5377178600000008 Cl
atom 7.4974179599999999 13.1288958900000008 8.3407160099999995 Na
atom 7.5142814400000004 16.0280290600000015 5.7546033599999999 Na
atom 7.4734879799999998 18.8250317299999992 5.7319185299999997 Cl
atom 7.4963196800000000 21.6294351200000001 8.6161346900000009 Cl
atom 7.5082146300000003 18.8025869499999985 8.4064483400000007 Na
atom 7.5280372699999996 21.6190228699999984 5.8305478500000003 Na
atom 7.4803992199999998 24.4142589000000001 5.7547387499999996 Cl
atom 7.5316942700000000 27.2260182600000000 8.5715125699999994 Cl
atom 7.4862250200000000 24.4628560800000017 8.4152558699999993 Na
atom 7.4870394500000002 27.2581914000000012 5.8076149900000003 Na
atom 7.4969789799999997 30.0571195700000011 5.7465284399999996 Cl
atom 7.4792837399999996 32.9045587900000029 8.5306604999999998 Cl
atom 7.5189270099999996 30.0769127900000015 8.3675929700000005 Na
atom 7.5115600799999998 32.9228374599999967 5.7920599099999999 Na
atom 7.5074891800000003 35.7335185900000027 5.7130460599999999 Cl
atom 7.4989399499999996 38.5680172499999969 8.5890516600000009 Cl
atom 7.4973708700000001 35.7333371499999970 8.3803969699999996 Na
atom 7.4928712400000004 38.5932831699999994 5.7988784400000002 Na
atom 7.4857576500000000 1.9021153200000001 5.7558449100000004 Cl
atom 7.4773494100000004 4.6943521700000002 8.5742647200000004 Cl
atom 7.4898408700000001 1.8716933899999999 8.3956186000000006 Na
atom 7.4860045900000003 4.7166201000000001 5.8095444100000000 Na
atom 7.5167376499999996 7.5186655499999997 5.7133330300000003 Cl
atom 7.5054967699999997 10.3596595199999992 8.5472157299999996 Cl
atom 7.4919421899999996 7.5803344600000004 8.3727040699999993 Na
atom 7.4665813700000001 10.3217674800000001 5.7975276100000004 Na
atom 10.3343416599999998 13.1667863999999994 5.8253501500000002 Na
atom 13.1518133200000005 13.1790925899999998 5.7524889699999999 Cl
atom 10.3141565199999992 15.9798274300000003 8.3500260999999991 Na
atom 13.1361572399999993 15.9662415299999996 8.5524854799999996 Cl
atom 13.1237728199999992 13.1891265799999999 8.3947961200000005 Na
atom 10.3030137699999997 13.1371129100000008 8.5654843100000004 Cl
atom 13.1151114999999994 15.9890006400000004 5.7789280500000002 Na
atom 10.3100864100000003 15.9707736699999998 5.7191264600000000 Cl
atom 10.2929785599999999 18.8272644100000015 5.7775064299999999 Na
atom 13.1335354599999992 18.8082334799999984 5.7122687000000001 Cl
atom 10.2755895699999993 21.6294256000000011 8.3750707099999993 Na
atom 12.9834622500000005 21.5301303600000011 8.4098343999999994 Cl
atom 13.1238162200000001 18.7462191500000017 8.3460991500000006 Na
atom 10.3045222299999999 18.7799239399999998 8.5805360200000003 Cl
atom 13.1517808600000006 21.6158656200000010 5.7368434500000003 Na
atom 10.2757106300000007 21.6352502800000011 5.7775055399999999 Cl
atom 10.3119323099999995 24.4536711699999998 5.8038073499999996 Na
atom 13.0541875300000001 24.4394405699999986 5.7124212999999999 Cl
atom 10.3317790800000004 27.2686297400000015 8.4080669500000003 Na
atom 13.1457128000000001 27.2472888699999984 8.6124646400000007 Cl
atom 13.0698125199999993 24.4157568199999986 8.3013332200000001 Na
atom 10.3490632300000005 24.4447885300000003 8.6255743599999999 Cl
atom 13.1587914900000005 27.2452476600000004 5.7801573900000003 Na
atom 10.3148703000000008 27.2536397900000011 5.7770888300000003 Cl
atom 10.3140956100000007 30.0604333500000003 5.8360354000000001 Na
atom 13.1274267600000005 30.0610333400000016 5.7456745800000002 Cl
atom 10.3018409000000002 32.9105017500000017 8.3476547199999995 Na
atom 13.1405452900000004 32.8959138999999965 8.5713573400000005 Cl
atom 13.1704815499999999 30.1100103300000015 8.3792088000000007 Na
atom 10.3346862599999998 30.0850328299999994 8.5493646299999995 Cl
atom 13.1193703300000006 32.8803644300000002 5.8021532100000002 Na
atom 10.3263541599999993 32.9078982300000007 5.7299947199999997 Cl
atom 10.3160319200000004 35.7443088099999997 5.8062256300000001 Na
atom 13.1257921300000007 35.7559972600000009 5.7357967700000003 Cl
atom 10.3205825000000004 38.5422039299999994 8.3840857799999995 Na
atom 13.1420481299999992 38.5282711400000011 8.5897985299999995 Cl
atom 13.1496919499999994 35.7207538199999988 8.3623048099999995 Na
atom 10.2908090500000000 35.7207070299999998 8.5685412400000001 Cl
atom 13.0812197099999992 38.5755718899999991 5.8342800700000002 Na
atom 10.3188159400000004 38.5567088399999989 5.7315994400000001 Cl
atom 10.3419402300000005 1.8840916000000001 5.8275587299999998 Na
atom 13.1105503999999993 1.9140061200000000 5.7760119300000001 Cl
atom 10.2763933200000004 4.7021124700000003 8.3821059699999996 Na
atom 13.1318489500000002 4.7077967899999997 8.6077106600000004 Cl
atom 13.1427740800000006 1.8665305400000001 8.3901135799999995 Na
atom 10.3073666100000008 1.8495524100000000 8.5666080299999994 Cl
atom 13.1467325099999996 4.6906653299999999 5.8303992400000002 Na
atom 10.3285421399999997 4.7103439399999996 5.7635597399999998 Cl
atom 10.3378885599999997 7.4882517499999999 5.8207313500000000 Na
atom 13.1103132799999997 7.5224977199999996 5.7603726699999998 Cl
atom 10.3143124299999993 10.3321175400000005 8.3832064600000002 Na
atom 13.1191155399999992 10.3235761900000007 8.5479342799999998 Cl
atom 13.1408805199999996 7.5113383699999998 8.4207668699999996 Na
atom 10.2897914200000002 7.5520495600000004 8.5578760000000003 Cl
atom 13.1281114700000003 10.3319190800000005 5.7893465900000001 Na
atom 10.2899338300000007 10.3176140400000005 5.7422051099999996 Cl
atom 15.9697693800000007 13.1454543499999996 5.8215042700000001 Na
atom 18.7872729300000003 13.1575705500000009 5.6974384799999997 Cl
atom 15.9673601299999994 15.9530198100000007 8.3752444399999995 Na
atom 18.8093455100000000 16.0041488299999983 8.5314970399999996 Cl
atom 18.8035799799999985 13.1389743200000009 8.3865714800000006 Na
atom 15.9810403300000008 13.1706128800000002 8.5715396500000001 Cl
atom 18.7939789399999988 15.9626745600000000 5.8047757300000002 Na
atom 15.9910692700000006 15.9929705200000001 5.7133713799999999 Cl
atom 15.9775551700000005 18.8167949700000001 5.8130745499999996 Na
atom 18.7280662800000002 18.8448404700000012 5.7272758799999997 Cl
atom 15.9200310399999996 21.6368761099999993 8.3432387699999992 Na
atom 18.7790764800000005 21.6187906100000014 8.5778630299999996 Cl
atom 18.7776044499999983 18.7832900599999988 8.3961480799999997 Na
atom 15.9407365399999996 18.8497082800000015 8.6102032600000005 Cl
atom 18.7957913800000007 21.6024270899999991 5.7987654600000003 Na
atom 15.9535589899999994 21.5811300800000012 5.7399994899999998 Cl
atom 15.9549481300000000 24.4695035200000000 5.5318527499999997 Na
atom 18.8444857600000013 24.4067033699999989 5.7346909799999999 Cl
atom 15.9579939000000000 27.2890693800000008 8.4143434500000005 Na
atom 19.3347046300000009 28.1041832199999995 7.4592139099999999 Cl
atom 18.8259122499999982 24.3543837100000005 8.3547467199999996 Na
atom 15.8704257399999999 24.4129256800000007 7.9646640499999997 Cl
atom 18.7324137899999990 27.2192076699999994 5.2612992700000003 Na
atom 15.9140233900000005 27.2964820000000010 5.7244561100000002 Cl
atom 15.9842700499999992 30.0666553999999984 5.8018269900000004 Na
atom 18.7457858500000007 30.1760150799999991 5.6154235100000003 Cl
atom 15.9413000100000009 32.8935276200000004 8.3575270499999998 Na
atom 18.7473090099999986 32.8893092699999983 8.5533390600000008 Cl
atom 18.8005852299999994 30.2839139499999987 8.3155135700000002 Na
atom 15.9556083799999993 30.0495452999999983 8.5607150200000000 Cl
atom 18.7585731500000001 32.8941015400000012 5.7904241299999999 Na
atom 15.9082023299999999 32.8917208499999987 5.7321733899999998 Cl
atom 15.9557986199999995 35.7287699299999986 5.7811940799999997 Na
atom 18.7630364699999994 35.7311602999999991 5.7369004400000003 Cl
atom 15.9390083400000009 38.5422960499999974 8.3785537300000001 Na
atom 18.7879083199999997 38.5186637199999993 8.5802748100000006 Cl
atom 18.7807216100000005 35.7117699799999997 8.3642018399999998 Na
atom 15.9458617900000004 35.7292917899999978 8.5768023000000007 Cl
atom 18.7869710499999982 38.5701140600000016 5.7944480399999998 Na
atom 15.9435547300000007 38.5835795599999969 5.7059235499999996 Cl