#===============================================================================
# Created using the Atomic Simulation Environment (ASE)

# Tue Dec 23 21:42:13 2025

#=======================================================
lattice_vector 28.1999999999999993 0.0000000000000000 0.0000000000000000 
lattice_vector 0.0000000000000000 39.4799999999999969 0.0000000000000000 
lattice_vector 0.0000000000000000 0.0000000000000000 62.3296083400000001 
atom 7.4999262000000000 14.8182297700000003 0.0582367300000000 Au
atom 10.3122842899999991 14.8285726400000009 -0.0005139900000000 Au
atom 13.1392965400000001 14.8164730599999999 0.0606644200000000 Au
atom 15.9612215899999992 14.8294651900000005 -0.0141741500000000 Au
atom 18.7908051900000004 14.8193112700000000 0.0483288100000000 Au
atom 21.6131860099999997 14.8260835699999998 -0.0062286900000000 Au
atom 24.4203610299999987 14.8121634800000006 0.0328065400000000 Au
atom 27.2448163900000004 14.8439435100000008 -0.0038133300000000 Au
atom 1.8718543999999999 14.8218341000000002 0.0294225700000000 Au
atom 4.6726724099999997 14.8235374899999997 -0.0137512700000000 Au
atom 8.9186864400000001 17.2744782699999995 0.0281747500000000 Au
atom 11.7559664700000006 17.3031001499999988 0.0296556400000000 Au
atom 14.5466077899999995 17.2888360699999986 0.0456822800000000 Au
atom 17.3750768999999998 17.3014424300000016 0.0375317900000000 Au
atom 20.1838522500000010 17.2824687099999998 0.0587692900000000 Au
atom 23.0145653800000005 17.2947549999999985 0.0427873800000000 Au
atom 25.8306660699999995 17.2896299800000008 0.0476493100000000 Au
atom 0.4650925600000000 17.3108815999999983 0.0527780700000000 Au
atom 3.2728630900000000 17.2871041599999984 0.0349741500000000 Au
atom 6.1026064000000000 17.2859505300000009 0.0210573600000000 Au
atom 7.5097047000000003 19.7520989100000008 0.1350621500000000 Au
atom 10.3180090700000004 19.7579070700000017 0.0411401100000000 Au
atom 13.1455810199999998 19.7524521399999990 0.1060687000000000 Au
atom 15.9716041400000002 19.7502704599999994 0.0386832500000000 Au
atom 18.7726192300000001 19.7490370800000008 0.1075428200000000 Au
atom 21.5980538200000005 19.7579834199999986 0.0558437300000000 Au
atom 24.4151908499999983 19.7487601700000006 0.1039915600000000 Au
atom 27.2345327899999994 19.7664400799999989 0.0601838100000000 Au
atom 1.8682410400000000 19.7527483100000012 0.1299270000000000 Au
atom 4.6756301799999997 19.7676601100000013 0.0641512600000000 Au
atom 8.9117069499999992 22.2231501099999988 0.0879005000000000 Au
atom 11.7297444700000000 22.2133149500000009 0.0716666700000000 Au
atom 14.5592500400000002 22.2190797599999996 0.0787488700000000 Au
atom 17.3921339900000014 22.2119637499999989 0.0765974400000000 Au
atom 20.2071736900000012 22.2133236200000006 0.0685583200000000 Au
atom 23.0152152000000001 22.2267089700000007 0.0829471800000000 Au
atom 25.8321849700000001 22.2176970300000001 0.1019119100000000 Au
atom 0.4534379100000000 22.2330260700000011 0.0884528400000000 Au
atom 3.2757198299999999 22.2338407800000013 0.0897677700000000 Au
atom 6.0921807399999999 22.2256688500000017 0.0889301200000000 Au
atom 7.4921579800000000 24.7127978000000006 0.0938243500000000 Au
atom 10.3216561599999999 24.6851899599999989 0.0935203100000000 Au
atom 13.1328209999999999 24.7096389400000014 0.0807434600000000 Au
atom 15.9674626199999992 24.6840709099999991 0.0967477000000000 Au
atom 18.7890796699999996 24.6831112799999985 0.0937826000000000 Au
atom 21.6091627300000013 24.6968511100000008 0.1053791100000000 Au
atom 24.4259038500000010 24.6885146599999992 0.1065355300000000 Au
atom 27.2453093399999986 24.6940726700000006 0.1015108800000000 Au
atom 1.8573843500000000 24.6988780299999995 0.0827337700000000 Au
atom 4.6684666999999997 24.6875393800000005 0.0834484600000000 Au
atom 8.9281748499999996 27.1444511999999989 0.0637515000000000 Au
atom 11.7369024599999996 27.1489337999999982 0.0582921300000000 Au
atom 14.5625181500000007 27.1540443300000014 0.0656634300000000 Au
atom 17.3739856800000005 27.1502408700000011 0.0339775400000000 Au
atom 20.1938673100000017 27.1586346100000000 0.0594536500000000 Au
atom 23.0186375400000003 27.1426894999999995 0.0787671800000000 Au
atom 25.8302993200000017 27.1547817599999988 0.0737831100000000 Au
atom 0.4477857600000000 27.1506819099999994 0.0621536500000000 Au
atom 3.2920625200000000 27.1401137800000001 0.0694971000000000 Au
atom 6.0953444899999996 27.1432892999999993 0.0643291600000000 Au
atom 7.5158159500000004 29.6206779100000013 0.0051141600000000 Au
atom 10.3148967500000008 29.6158862800000016 0.0500826200000000 Au
atom 13.1477833600000000 29.6156851199999984 0.0106673200000000 Au
atom 15.9591050400000007 29.6056932699999997 0.0542969500000000 Au
atom 18.7822579900000015 29.6335966999999982 0.0166433300000000 Au
atom 21.5988494300000013 29.6199288000000003 0.0664715000000000 Au
atom 24.4156179599999987 29.6290841699999987 0.0250250300000000 Au
atom 27.2278272000000001 29.6304093900000005 0.0517042200000000 Au
atom 1.8641552800000001 29.6122156700000012 0.0169940500000000 Au
atom 4.6871723300000001 29.6073058600000003 0.0483674700000000 Au
atom 8.9185707500000007 32.0992568699999978 0.0324138700000000 Au
atom 11.7187131499999992 32.0871252000000027 0.0077818800000000 Au
atom 14.5542666599999997 32.1012871799999999 0.0235295000000000 Au
atom 17.3664438300000015 32.0854865800000013 0.0253067200000000 Au
atom 20.1964892700000007 32.0857437499999989 0.0118516200000000 Au
atom 23.0152010999999987 32.1012416000000016 -0.0200907300000000 Au
atom 25.8283008599999988 32.0993977500000014 0.0163358800000000 Au
atom 0.4459358300000000 32.0908641700000032 0.0061513800000000 Au
atom 3.2752344199999999 32.1118929399999971 -0.0038846000000000 Au
atom 6.0789836399999997 32.0991214499999984 0.0141901300000000 Au
atom 7.4994771800000004 34.5604692900000003 0.0039111900000000 Au
atom 10.3222105400000004 34.5492508299999983 0.0675346200000000 Au
atom 13.1587531299999991 34.5725334400000008 -0.0044783000000000 Au
atom 15.9786869300000003 34.5591328900000008 0.0482146300000000 Au
atom 18.8033193999999995 34.5652364299999988 -0.0063147400000000 Au
atom 21.6086112300000011 34.5440728299999975 0.0606100900000000 Au
atom 24.4298811600000008 34.5674815200000012 0.0066367900000000 Au
atom 27.2460701500000013 34.5627676800000003 0.0559942300000000 Au
atom 1.8586421700000000 34.5596243299999983 -0.0268190000000000 Au
atom 4.6829802300000001 34.5644122699999983 0.0573000900000000 Au
atom 8.9082534100000004 37.0123024600000008 0.0443037300000000 Au
atom 11.7189985199999995 37.0308002900000020 0.0323341800000000 Au
atom 14.5666806399999995 37.0408536999999995 0.0402594000000000 Au
atom 17.3772392400000015 37.0300812500000021 0.0338577200000000 Au
atom 20.2097874200000014 37.0298348199999978 0.0442579600000000 Au
atom 23.0007513299999999 37.0348434900000001 0.0380738200000000 Au
atom 25.8306390999999991 37.0173603100000008 0.0415068000000000 Au
atom 0.4597128500000000 37.0270599700000034 0.0305749200000000 Au
atom 3.2691770299999998 37.0367817300000013 0.0591715100000000 Au
atom 6.0898478999999996 37.0270568099999977 0.0467057500000000 Au
atom 7.4990217499999998 0.0196507700000000 0.0554013600000000 Au
atom 10.3196981999999995 0.0111079000000000 0.1014850600000000 Au
atom 13.1547067000000002 0.0468369200000000 0.0642678100000000 Au
atom 15.9660092599999999 0.0062352900000000 0.1118529400000000 Au
atom 18.7749196299999994 0.0223027200000000 0.0773658300000000 Au
atom 21.5973913099999990 0.0153980400000000 0.1192352400000000 Au
atom 24.4176373600000005 0.0271877900000000 0.0618935100000000 Au
atom 27.2405994500000013 0.0126663000000000 0.1171795000000000 Au
atom 1.8469819599999999 0.0240913100000000 0.0872139800000000 Au
atom 4.6782076200000002 0.0123436400000000 0.1053817200000000 Au
atom 8.9150778699999993 2.4769802799999998 0.0967114200000000 Au
atom 11.7335321599999993 2.4772496600000000 0.0864699600000000 Au
atom 14.5537859300000001 2.4822291000000001 0.0764099500000000 Au
atom 17.3671334299999991 2.5020501600000000 0.0962965300000000 Au
atom 20.1915584000000017 2.4900953900000000 0.0774428700000000 Au
atom 23.0198935099999993 2.5071479600000002 0.0748197600000000 Au
atom 25.8468337599999991 2.5001819799999998 0.0825165300000000 Au
atom 0.4488858600000000 2.4757984700000000 0.0984556500000000 Au
atom 3.2789775500000000 2.4833266799999998 0.0839682700000000 Au
atom 6.0906909000000002 2.4851613100000001 0.0873097700000000 Au
atom 7.5136925400000001 4.9387473499999999 0.0953875800000000 Au
atom 10.3258705000000006 4.9506507700000002 0.1006349800000000 Au
atom 13.1591597900000004 4.9414979700000004 0.0964963400000000 Au
atom 15.9576284899999994 4.9552571199999997 0.1154112700000000 Au
atom 18.7851134900000005 4.9535911400000003 0.1036948900000000 Au
atom 21.6053729200000006 4.9556337199999998 0.0990122000000000 Au
atom 24.4189328199999984 4.9537108700000001 0.0982322800000000 Au
atom 27.2464601600000016 4.9563709300000003 0.0823614700000000 Au
atom 1.8700511700000000 4.9487366899999996 0.1132658900000000 Au
atom 4.6821146300000001 4.9720875500000004 0.0957079100000000 Au
atom 8.9121824099999998 7.3995415500000004 0.0592046600000000 Au
atom 11.7408986599999992 7.4189188699999997 0.0698256400000000 Au
atom 14.5590732500000009 7.4121033100000000 0.0773176500000000 Au
atom 17.3748154899999996 7.4119852300000000 0.0660521900000000 Au
atom 20.1955534900000018 7.4164741200000002 0.0873314700000000 Au
atom 23.0113524200000015 7.4190176200000000 0.0741552300000000 Au
atom 25.8127067500000003 7.4173328700000001 0.0720215000000000 Au
atom 0.4531895100000000 7.4209620000000003 0.0657156100000000 Au
atom 3.2663617600000001 7.4275682900000000 0.0696906300000000 Au
atom 6.0887082899999996 7.4290659699999999 0.0797417300000000 Au
atom 7.5020643099999997 9.8754224399999995 0.0621820800000000 Au
atom 10.3254889900000002 9.8855870699999997 0.0085314000000000 Au
atom 13.1534123800000007 9.8676897900000000 0.0592758800000000 Au
atom 15.9727654900000005 9.8851033200000007 0.0091039700000000 Au
atom 18.8078320099999985 9.8796540299999993 0.0616138900000000 Au
atom 21.6191499299999990 9.8826993800000000 0.0136682300000000 Au
atom 24.4354836900000016 9.8706226400000006 0.0635311200000000 Au
atom 27.2423673000000015 9.8792954700000006 0.0108388100000000 Au
atom 1.8572992200000000 9.8716702000000005 0.0709129200000000 Au
atom 4.6841633399999996 9.8989298600000009 0.0081236600000000 Au
atom 8.9047838200000005 12.3385598099999996 -0.0007059600000000 Au
atom 11.7355302899999998 12.3320081199999994 -0.0107873500000000 Au
atom 14.5517546899999992 12.3489594100000009 0.0177645500000000 Au
atom 17.3870083599999994 12.3531835700000006 0.0257118200000000 Au
atom 20.1822075500000011 12.3506138100000005 0.0204805800000000 Au
atom 23.0364584400000005 12.3493445600000005 0.0043214800000000 Au
atom 25.8386901599999987 12.3514097899999999 -0.0073031800000000 Au
atom 0.4629991000000000 12.3485894399999996 0.0086149500000000 Au
atom 3.2563116000000001 12.3533485400000007 -0.0080402300000000 Au
atom 6.1027201000000000 12.3411223799999998 0.0011149500000000 Au
atom 7.5226829500000001 13.1770968300000000 2.6404146000000002 Au
atom 10.3218588300000000 13.1912035900000006 2.5496229200000000 Au
atom 13.1472536299999998 13.1861034999999998 2.6532254300000000 Au
atom 15.9682790600000004 13.1860718000000006 2.5629704200000001 Au
atom 18.7777937600000016 13.1762846600000003 2.6675268000000001 Au
atom 21.5990778900000002 13.1828166499999995 2.5534921900000001 Au
atom 24.4240357599999989 13.1920438699999991 2.6606248500000000 Au
atom 27.2388797400000016 13.1885547100000000 2.5436796600000000 Au
atom 1.8730929900000000 13.1942946100000000 2.6591325900000000 Au
atom 4.6752313100000000 13.1733590399999994 2.5564977099999999 Au
atom 8.9164755000000007 15.6544915299999996 2.6524828199999999 Au
atom 11.7424671000000007 15.6395052799999998 2.6376635799999999 Au
atom 14.5622676900000005 15.6265214700000001 2.6473263600000001 Au
atom 17.3816244399999995 15.6449561100000007 2.6313749099999999 Au
atom 20.1832787799999984 15.6381249800000006 2.6413063800000001 Au
atom 23.0170595599999999 15.6418824700000005 2.6400328399999999 Au
atom 25.8204581100000006 15.6360858799999995 2.6455374400000000 Au
atom 0.4557334100000000 15.6548108599999996 2.6577018600000000 Au
atom 3.2839327800000002 15.6435691600000002 2.6430497200000000 Au
atom 6.1041330399999998 15.6340302599999994 2.6423419899999998 Au
atom 7.4931073200000000 18.1052545500000015 2.6949580399999999 Au
atom 10.3275782899999999 18.1113368000000001 2.6068225799999998 Au
atom 13.1248535999999998 18.1063880099999999 2.6934974399999998 Au
atom 15.9641346899999998 18.1197534299999994 2.5992784200000001 Au
atom 18.7824004799999997 18.0994599299999983 2.6821418900000000 Au
atom 21.6209790099999992 18.1044663499999992 2.6129778500000000 Au
atom 24.4314539999999987 18.0964049399999993 2.6984904699999999 Au
atom 27.2550649699999994 18.1088595999999988 2.6127286000000001 Au
atom 1.8612692600000000 18.0969157299999992 2.6931422800000000 Au
atom 4.6916230700000003 18.1120366399999995 2.6034515599999999 Au
atom 8.9105316099999996 20.5690184999999985 2.7104429500000000 Au
atom 11.7425945299999999 20.5721041199999988 2.6979150999999999 Au
atom 14.5533535999999994 20.5792167399999997 2.7205934300000001 Au
atom 17.3725478899999999 20.5701868400000016 2.7159418899999999 Au
atom 20.1918539999999993 20.5627435900000002 2.7028991400000000 Au
atom 23.0101388299999989 20.5879368099999986 2.7015971300000001 Au
atom 25.8346620000000016 20.5765791200000017 2.7110730099999998 Au
atom 0.4455075000000000 20.5649348200000013 2.7228778999999999 Au
atom 3.2758425400000002 20.5840487699999990 2.7384392800000001 Au
atom 6.0839612399999998 20.5883657199999988 2.7237478899999998 Au
atom 7.5100652300000004 23.0300048799999999 2.6867727000000001 Au
atom 10.3224779200000008 23.0563609800000009 2.6790622399999999 Au
atom 13.1477852399999993 23.0352805399999987 2.6719800100000000 Au
atom 15.9654811199999997 23.0613001599999983 2.6824911800000000 Au
atom 18.7834690500000008 23.0226940900000017 2.6731935199999999 Au
atom 21.5980633900000001 23.0597745399999994 2.6842520500000000 Au
atom 24.4190179600000015 23.0317978699999983 2.6934467999999998 Au
atom 27.2431970200000002 23.0518068300000003 2.6868207000000002 Au
atom 1.8730281499999999 23.0440185900000003 2.6965733099999998 Au
atom 4.6962799700000000 23.0552942200000004 2.6929720399999999 Au
atom 8.9180537500000003 25.5108028800000000 2.7164919300000001 Au
atom 11.7359514500000000 25.5280176300000008 2.7148960700000000 Au
atom 14.5586013399999992 25.5252608300000006 2.7107421600000001 Au
atom 17.3729360899999996 25.5337468899999998 2.6982547299999999 Au
atom 20.1933447000000008 25.5281784800000011 2.7152434699999999 Au
atom 23.0047348400000011 25.5290199300000005 2.7082519700000001 Au
atom 25.8451784400000015 25.5206766400000014 2.7183497100000000 Au
atom 0.4545257800000000 25.5208840200000004 2.7214739200000002 Au
atom 3.2684238099999998 25.5288608400000001 2.7164995200000002 Au
atom 6.0990163900000001 25.5309270400000017 2.7250565600000001 Au
atom 7.4958043900000000 28.0029285899999998 2.6162589999999999 Au
atom 10.3274264000000002 28.0000441400000000 2.6934597000000000 Au
atom 13.1374872699999994 27.9973979300000018 2.6147968399999999 Au
atom 15.9662416999999994 28.0093633400000002 2.6865819499999999 Au
atom 18.7735588900000003 27.9884969099999985 2.6264126900000000 Au
atom 21.6099692599999997 28.0082384299999987 2.7078280200000000 Au
atom 24.4336766999999995 27.9867061100000001 2.6316850399999998 Au
atom 27.2563010199999987 28.0118622899999998 2.7023036399999998 Au
atom 1.8587941200000000 28.0011725200000008 2.6035120300000001 Au
atom 4.6951164900000002 27.9911860600000004 2.7173533600000002 Au
atom 8.9315104999999999 30.4783021599999984 2.6465246599999999 Au
atom 11.7427741999999995 30.4619165599999988 2.6324055799999999 Au
atom 14.5765757899999997 30.4684438299999982 2.6488465699999999 Au
atom 17.3820468699999999 30.4660989800000017 2.6432836399999999 Au
atom 20.1909163999999990 30.4564345199999984 2.6415684399999999 Au
atom 23.0148922700000007 30.4765977799999987 2.6292319000000002 Au
atom 25.8230205899999987 30.4506955300000008 2.6485321599999998 Au
atom 0.4597542500000000 30.4581857300000003 2.6357436999999999 Au
atom 3.2779422100000000 30.4583533799999984 2.6508152900000002 Au
atom 6.0929149100000002 30.4721363700000012 2.6478439100000002 Au
atom 7.5038547299999996 32.9268744199999972 2.5507127000000001 Au
atom 10.3468889199999996 32.9183351799999997 2.6659584700000001 Au
atom 13.1387689800000000 32.9269048100000035 2.5661684100000000 Au
atom 15.9571767199999996 32.9147484000000006 2.6640010500000000 Au
atom 18.7770911900000002 32.9170395000000013 2.5670918000000000 Au
atom 21.5974113299999999 32.9312363700000006 2.6690236700000001 Au
atom 24.4207203600000007 32.9238113400000003 2.5629299500000000 Au
atom 27.2561982000000000 32.9042531199999999 2.6760250499999998 Au
atom 1.8786882199999999 32.9207644800000025 2.5636559999999999 Au
atom 4.6805348599999999 32.9133212599999965 2.6600419000000000 Au
atom 8.9224501200000006 35.3854271900000015 2.6435844300000002 Au
atom 11.7353785100000003 35.3915190600000003 2.6250819999999999 Au
atom 14.5609334500000003 35.3843833500000002 2.6469727399999998 Au
atom 17.3722734900000013 35.3846355599999995 2.6415620899999999 Au
atom 20.1936728499999987 35.3751801000000015 2.6410019999999998 Au
atom 23.0241214200000002 35.3831138999999979 2.6570434299999999 Au
atom 25.8482305600000011 35.3711623900000021 2.6433254300000000 Au
atom 0.4504843800000000 35.3920741299999975 2.6404735600000002 Au
atom 3.2714298999999998 35.3753990700000003 2.6506900000000000 Au
atom 6.0849286400000002 35.3786951100000024 2.6597700999999998 Au
atom 7.5038174199999998 37.8496938999999983 2.6372583100000000 Au
atom 10.3299778599999996 37.8532541800000004 2.6876712299999999 Au
atom 13.1454926299999997 37.8579692799999989 2.6093202700000000 Au
atom 15.9715914699999999 37.8388817100000026 2.7093202500000002 Au
atom 18.7948268499999998 37.8422862199999983 2.6143873800000001 Au
atom 21.6008280200000016 37.8174208900000011 2.6997703500000001 Au
atom 24.4388192999999987 37.8706565100000034 2.5915493399999998 Au
atom 27.2393584000000004 37.8526906900000029 2.6960421399999999 Au
atom 1.8624093399999999 37.8532535800000005 2.6147774400000001 Au
atom 4.6925157500000001 37.8330055699999974 2.6918282599999999 Au
atom 8.9044260699999995 0.8449603200000000 2.7221518200000001 Au
atom 11.7274880600000007 0.8546055400000000 2.7135363500000000 Au
atom 14.5590630999999995 0.8384617200000000 2.7212496800000001 Au
atom 17.3798904599999986 0.8413178900000000 2.7165590200000000 Au
atom 20.1928708499999985 0.8458396600000000 2.7097692100000002 Au
atom 23.0080878800000015 0.8423639000000001 2.7089362000000001 Au
atom 25.8230963500000001 0.8433214700000000 2.7189697599999998 Au
atom 0.4523147900000000 0.8402623100000000 2.7163539600000002 Au
atom 3.2815392600000002 0.8373300800000000 2.7218430599999999 Au
atom 6.0910700000000002 0.8488927900000000 2.7028778400000002 Au
atom 7.5115200199999999 3.3213984700000001 2.6729660900000001 Au
atom 10.3236326500000004 3.3022411599999999 2.6615348399999998 Au
atom 13.1281473000000002 3.3237975400000002 2.6860727999999998 Au
atom 15.9636608700000000 3.2916257700000000 2.6853207100000001 Au
atom 18.7880197100000004 3.3387778799999999 2.7039629999999999 Au
atom 21.6160352600000003 3.3083284900000001 2.6807349000000000 Au
atom 24.4251362299999997 3.3250822200000001 2.6839228600000000 Au
atom 27.2476895900000002 3.3022591499999998 2.6836515500000000 Au
atom 1.8622302399999999 3.3199251900000002 2.6966110599999999 Au
atom 4.6879505000000004 3.2982832800000002 2.7057321100000000 Au
atom 8.9076659199999995 5.7935334300000001 2.7147510600000002 Au
atom 11.7431775599999995 5.7897788300000004 2.7158448599999998 Au
atom 14.5579417000000007 5.7998060000000002 2.7176757600000001 Au
atom 17.3512710900000009 5.8027230699999999 2.7282112800000000 Au
atom 20.2007880700000015 5.7911742200000003 2.7197436100000001 Au
atom 23.0097514799999985 5.8019661700000000 2.7165511300000000 Au
atom 25.8365302399999983 5.7932817900000000 2.7303728100000000 Au
atom 0.4471062300000000 5.7817324299999999 2.7154505900000001 Au
atom 3.2706203100000000 5.7817512400000002 2.7010379900000001 Au
atom 6.0964751399999999 5.7820130799999996 2.7237657899999999 Au
atom 7.4925353599999998 8.2609733799999994 2.6970710800000002 Au
atom 10.3258728299999998 8.2660631799999997 2.6065198700000001 Au
atom 13.1300312600000009 8.2632933200000007 2.7144177900000002 Au
atom 15.9625524599999995 8.2665178800000003 2.6378311200000000 Au
atom 18.7894088500000009 8.2540776900000008 2.7036351800000000 Au
atom 21.6119725799999998 8.2705862700000008 2.6225746800000000 Au
atom 24.4173437000000000 8.2727595100000002 2.7097028800000000 Au
atom 27.2385467299999995 8.2521808599999993 2.5897114299999999 Au
atom 1.8606805799999999 8.2643114799999999 2.6995686900000000 Au
atom 4.6837424499999996 8.2553972000000009 2.6058922099999999 Au
atom 8.9047074300000002 10.7159322600000007 2.6375759699999999 Au
atom 11.7332910800000008 10.7228723299999995 2.6339697100000001 Au
atom 14.5544500899999996 10.7177942999999996 2.6548867700000001 Au
atom 17.3680789000000004 10.7365063000000003 2.6341030900000000 Au
atom 20.1892622599999996 10.7181535399999994 2.6456518500000001 Au
atom 23.0257520900000010 10.7203516899999993 2.6379076700000001 Au
atom 25.8291050700000007 10.7271192099999997 2.6527322799999999 Au
atom 0.4458523800000000 10.7339195200000006 2.6521248000000002 Au
atom 3.2701421499999999 10.7198063099999992 2.6424635500000000 Au
atom 6.0974575099999999 10.7228796800000001 2.6359398399999998 Au
atom 7.4866394500000002 13.1673104500000004 5.6775279200000002 Cl
atom 7.5095312700000001 16.0064066700000005 8.5842782599999996 Cl
atom 7.4604850400000000 13.1617570599999993 8.3393708800000006 Na
atom 7.4941907399999996 16.0102465699999996 5.7891475000000003 Na
atom 7.5013844199999999 18.7986157100000000 5.7477666000000003 Cl
atom 7.4983146800000000 21.5877370800000001 8.5939488500000003 Cl
atom 7.4261210000000002 18.8148499399999984 8.3429008299999996 Na
atom 7.5069529800000003 21.5990114099999992 5.8052692400000003 Na
atom 7.4896355300000002 24.4201236699999988 5.7771946500000002 Cl
atom 7.5016005600000000 27.2841149099999996 8.6120115500000001 Cl
atom 7.4459099999999996 24.4700941199999988 8.3857152399999997 Na
atom 7.4657761200000001 27.2847445899999990 5.8298996199999999 Na
atom 7.4921465200000004 30.0757155400000009 5.7376156700000003 Cl
atom 7.4642028600000003 32.9398872299999965 8.5892106800000008 Cl
atom 7.4868991100000004 30.1057672399999987 8.4127101000000000 Na
atom 7.5065931399999997 32.9139185100000020 5.8810995100000003 Na
atom 7.4861592300000002 35.7496924599999986 5.7158852800000002 Cl
atom 7.4976893300000000 38.5390818199999998 8.5871852799999999 Cl
atom 7.4899407399999998 35.7123957599999997 8.3688640500000009 Na
atom 7.5134446300000004 38.5704688900000008 5.8066256000000003 Na
atom 7.5018328600000004 1.8823413899999999 5.7494081200000000 Cl
atom 7.5309885000000003 4.7191365100000002 8.5952871200000001 Cl
atom 7.5164314100000000 1.8883951500000000 8.3718294699999998 Na
atom 7.5172341800000000 4.7203909599999996 5.8178990800000001 Na
atom 7.4895760400000002 7.4999357699999996 5.7240071700000001 Cl
atom 7.4943165100000000 10.3772437600000007 8.5292094400000007 Cl
atom 7.4966067299999999 7.5332986000000002 8.3840921999999996 Na
atom 7.4847018800000003 10.3359295299999996 5.7713647899999998 Na
atom 10.1985158299999998 13.1752687200000000 5.6488005599999997 Na
atom 13.1819519599999992 13.2016971999999999 5.4522159200000004 Cl
atom 10.2354347099999998 15.9911507299999993 8.2111535900000003 Na
atom 12.8744173600000007 16.5270329599999997 7.9641050399999997 Cl
atom 12.6209416099999991 12.5933898099999997 7.8958677499999999 Na
atom 10.1200472999999995 13.2152333500000001 8.3048842500000006 Cl
atom 13.1593511299999992 16.0069907399999991 5.5576194599999997 Na
atom 10.2627067699999994 16.0086720299999996 5.7095280800000001 Cl
atom 10.3157104900000007 18.8450412000000007 5.6631238399999999 Na
atom 13.1464085700000002 18.8575157199999985 5.6369785500000003 Cl
atom 10.2297567800000007 21.6617390000000007 8.3139594199999998 Na
atom 13.1543931199999999 21.6374148899999987 8.2144902099999992 Cl
atom 13.0806060700000000 18.9426505700000014 8.1331344600000008 Na
atom 10.2235974100000000 19.0011460899999989 8.0264751200000006 Cl
atom 13.1571718400000002 21.5838124299999983 5.6516130599999999 Na
atom 10.2844361800000001 21.6684257400000000 5.7629848800000003 Cl
atom 10.2329901099999994 24.4782729400000001 5.7195115999999997 Na
atom 13.1441843299999999 24.4438000100000004 5.5875006100000002 Cl
atom 10.2816298199999991 27.3261911899999994 8.3593713100000002 Na
atom 12.9289977199999999 27.5286986499999990 8.3288592399999999 Cl
atom 12.6978150400000001 24.3658210599999983 8.0612837000000006 Na
atom 10.2184519900000002 24.4307059600000009 8.5213485599999998 Cl
atom 13.1334798599999996 27.2909454300000007 5.7097005400000000 Na
atom 10.3072402899999993 27.1916512600000004 5.7117324800000002 Cl
atom 10.3113953299999999 30.0688363400000007 5.7964402699999997 Na
atom 13.1475678200000008 30.1175569900000006 5.7369927299999999 Cl
atom 10.3122459800000001 32.8881075899999971 8.3683017399999997 Na
atom 13.1261934900000004 32.8804514699999970 8.6052052999999997 Cl
atom 13.1435637399999994 30.1395175799999997 8.3738693299999998 Na
atom 10.3015782999999992 30.0811115800000017 8.5992694499999995 Cl
atom 13.1311189899999992 32.9702651799999984 5.8594331300000002 Na
atom 10.3270598400000004 32.8973715099999993 5.7242062899999997 Cl
atom 10.2952357400000007 35.7530484799999968 5.7876682199999996 Na
atom 13.1113755100000002 35.7713243500000004 5.7208351300000002 Cl
atom 10.3076629600000000 38.5672318200000035 8.3858547100000003 Na
atom 13.1529685000000001 38.5599057800000011 8.5723846199999993 Cl
atom 13.1506905199999995 35.7318282600000003 8.4208134999999995 Na
atom 10.3367930999999995 35.7429131000000027 8.5224654399999995 Cl
atom 13.1417762000000007 38.5864065199999970 5.8306753200000001 Na
atom 10.3542447000000006 38.5818786700000018 5.7341007299999998 Cl
atom 10.3104750599999999 1.8840211000000000 5.8363827199999996 Na
atom 13.1378285899999998 1.9269328500000000 5.7949928200000000 Cl
atom 10.3436818600000002 4.7067141499999998 8.4252514999999999 Na
atom 13.1336589099999994 4.7114339100000002 8.6136005200000003 Cl
atom 13.1454480300000007 1.8626000199999999 8.4184460500000000 Na
atom 10.3165529199999995 1.8581564699999999 8.5851359899999995 Cl
atom 13.1625351800000008 4.6778416500000004 5.8264331900000004 Na
atom 10.3103643500000004 4.6509030600000001 5.7682118200000003 Cl
atom 10.3212118099999994 7.4903951700000002 5.8061365199999999 Na
atom 13.1286337500000005 7.5022034599999996 5.7466682000000002 Cl
atom 10.2389797700000003 10.2882421500000003 8.6428425900000008 Na
atom 13.1914969299999996 10.2722035500000004 8.5554915699999992 Cl
atom 13.1332638799999994 7.5202490900000001 8.3671078399999992 Na
atom 10.2963121100000006 7.5264141799999997 8.5955800799999995 Cl
atom 13.1362032200000005 10.2421519799999992 5.6757845500000004 Na
atom 10.3363797700000006 10.3437735899999996 5.7954746100000003 Cl
atom 16.0320524800000008 13.1112774000000005 5.7270123999999996 Na
atom 18.7970148799999990 13.1252917100000008 5.7081721300000003 Cl
atom 15.9985382699999992 15.9454294399999998 8.3170257799999998 Na
atom 18.8134620599999991 16.0102195800000011 8.5331832900000002 Cl
atom 18.8753560799999995 13.1473954000000006 8.3670325200000004 Na
atom 16.3063237000000001 13.0587912199999998 8.2864929699999994 Cl
atom 18.8303902900000004 15.9914070099999996 5.7484662699999998 Na
atom 16.0313009199999996 15.9719096799999996 5.7419189900000003 Cl
atom 15.9541829699999997 18.8134031800000017 5.7077780799999998 Na
atom 18.7759167100000006 18.7735409400000002 5.7016695700000000 Cl
atom 15.9641306400000005 21.6309425299999987 8.3124669699999991 Na
atom 19.0331925400000017 21.5956065700000011 7.9479341899999998 Cl
atom 18.8682547900000017 18.7828929699999989 8.3433872600000001 Na
atom 15.9529829599999999 18.8376998600000007 8.2457732700000008 Cl
atom 18.7745146900000002 21.6573128200000014 5.6087752399999999 Na
atom 15.9686249500000006 21.5708365600000000 5.7526777700000000 Cl
atom 15.9514781699999997 24.4662698499999998 5.3800540000000003 Na
atom 18.8536432800000000 24.4604599399999998 5.7067347899999996 Cl
atom 16.0411393699999998 27.3255234099999988 8.2564816600000004 Na
atom 18.8520768799999985 27.2185349000000016 8.3400565800000006 Cl
atom 19.0009930300000001 24.4964086099999996 8.2538271200000004 Na
atom 16.6582666699999997 24.1030274099999993 7.6437887900000003 Cl
atom 18.7876673200000006 27.2088380299999990 5.7605593199999996 Na
atom 15.9510077900000002 27.3097886199999991 5.7199809699999999 Cl
atom 15.9476025600000000 30.1142566199999990 5.7448517399999997 Na
atom 18.7485283799999998 30.0656828099999984 5.7541250200000000 Cl
atom 15.9757295199999998 32.8782658299999966 8.3820480199999992 Na
atom 18.7550831600000016 32.9009328599999975 8.5531829300000002 Cl
atom 18.7686505699999984 30.0230692700000006 8.5771059399999992 Na
atom 15.9701400499999995 30.0822770099999985 8.5532977300000006 Cl
atom 18.7527867199999996 32.8843268800000033 5.8008886500000001 Na
atom 15.9343667399999998 32.9010396899999975 5.7387296100000000 Cl
atom 15.9402787700000008 35.7559916599999994 5.7917672800000002 Na
atom 18.7884453399999991 35.6983344300000027 5.7357631199999997 Cl
atom 15.9308231899999999 38.5094887099999994 8.3991673599999999 Na
atom 18.7628914900000012 38.5298324500000007 8.5757141899999993 Cl
atom 18.7567206400000011 35.7415305399999994 8.3747757600000003 Na
atom 15.9312786600000003 35.7092792600000024 8.5430037900000002 Cl
atom 18.7639240200000010 38.5522876699999983 5.8186167500000003 Na
atom 15.9778276800000008 38.5668392600000018 5.7187993400000003 Cl