#===============================================================================
# Created using the Atomic Simulation Environment (ASE)

# Tue Dec 23 22:26:18 2025

#=======================================================
lattice_vector 28.1999999999999993 0.0000000000000000 0.0000000000000000 
lattice_vector 0.0000000000000000 39.4799999999999969 0.0000000000000000 
lattice_vector 0.0000000000000000 0.0000000000000000 62.3296083400000001 
atom 7.4528087799999998 14.8058802299999996 0.0526372600000000 Au
atom 10.3138396300000004 14.8800316299999995 0.1093433300000000 Au
atom 13.0776861400000008 14.7113992000000007 -0.6484252300000000 Au
atom 16.0102694600000000 14.8982463900000006 -0.2151783300000000 Au
atom 18.6894896099999990 14.7492264300000002 -0.0337986400000000 Au
atom 21.6475867099999988 14.6996220399999995 0.1385819700000000 Au
atom 24.4884404199999999 14.9559249300000001 0.2808751000000000 Au
atom 27.2110355199999994 14.9256389200000008 -0.0797838700000000 Au
atom 1.9389287200000000 14.8216658599999995 -0.1677764200000000 Au
atom 4.8574971800000002 14.7099646199999992 -0.0776727100000000 Au
atom 8.9704377399999995 17.0746955800000002 0.1597903700000000 Au
atom 11.6984240800000006 17.3970697299999983 -0.1409686000000000 Au
atom 14.5157160600000008 17.2564391499999985 -0.2349831000000000 Au
atom 17.4588672400000000 17.2239411699999998 -0.0214742700000000 Au
atom 20.0297174499999997 17.3179677699999992 -0.1224302900000000 Au
atom 23.0708828399999994 17.2398518500000009 0.1814484400000000 Au
atom 25.9744106600000002 17.1252982699999983 0.2495548200000000 Au
atom 0.5475004300000000 17.1836185800000010 0.2401156200000000 Au
atom 3.2869518200000001 17.2140511600000004 -0.0560803700000000 Au
atom 6.1249328600000004 17.2454266400000016 -0.0617742700000000 Au
atom 7.6586068500000000 19.6966665200000008 0.0213274600000000 Au
atom 10.4305774200000005 19.7102766000000003 -0.1131048300000000 Au
atom 13.1609728500000003 19.8511292200000007 -0.0347674800000000 Au
atom 15.9435725799999997 19.6427945599999987 -0.0427747000000000 Au
atom 18.6562300100000016 19.9947667600000010 0.1468494500000000 Au
atom 21.5583142899999984 19.6926908599999990 -0.1437621000000000 Au
atom 24.4445207899999986 19.6867490700000012 -0.2294786700000000 Au
atom 27.4159581000000010 19.6725920199999997 -0.1503454300000000 Au
atom 1.7313469800000001 19.5906821099999995 0.0880057400000000 Au
atom 4.8097798200000002 19.8599471500000000 0.0715702200000000 Au
atom 8.8743558199999999 22.1237976500000002 -0.0567690400000000 Au
atom 11.7378493000000006 22.2204591600000008 -0.2817563500000000 Au
atom 14.4392289399999996 22.2553518500000003 -0.2186466600000000 Au
atom 17.2048164399999983 22.1549873800000015 -0.0461008200000000 Au
atom 20.2409350100000012 22.2240463300000002 -0.3189254400000000 Au
atom 23.0984150100000001 22.0975047199999999 0.0987394100000000 Au
atom 25.8766995800000004 22.1932773200000000 -0.2631290200000000 Au
atom 0.5111010700000000 22.3359733799999987 0.0188565100000000 Au
atom 3.1595735600000001 22.1417398299999988 0.0303328100000000 Au
atom 6.0920034599999999 22.3845897100000002 0.0569578800000000 Au
atom 7.5191390299999998 24.6826580399999997 0.1430508600000000 Au
atom 10.2052355800000001 24.6502657300000010 0.1446649800000000 Au
atom 13.0869067799999996 24.6132214100000013 -0.1420320700000000 Au
atom 16.0075494999999997 24.8713302799999987 -0.1793847300000000 Au
atom 18.8593158400000007 24.5997829000000010 -0.2098431200000000 Au
atom 21.5872664000000007 24.6805453800000016 -0.0717887000000000 Au
atom 24.3709822699999989 24.7238666800000004 0.1402383600000000 Au
atom 27.1351239799999995 24.7310886399999994 0.1020473400000000 Au
atom 1.7392882800000000 24.7214240099999998 0.3126192800000000 Au
atom 4.6983220100000000 24.9041812299999989 0.1905565600000000 Au
atom 8.7309312099999996 27.2960802499999993 -0.0067250000000000 Au
atom 11.6029141599999992 27.1028593700000009 0.0035440300000000 Au
atom 14.5936022199999993 27.2247481299999983 -0.1372087600000000 Au
atom 17.3717365900000011 27.2001122500000001 0.1597784600000000 Au
atom 20.1938488499999984 27.0421250899999990 0.2624724200000000 Au
atom 23.0036690200000002 27.2440594099999984 0.1223677600000000 Au
atom 25.8758189099999996 27.1772600799999999 0.1449840500000000 Au
atom 0.4411674800000000 27.1900491500000001 0.2346050900000000 Au
atom 3.3821009800000001 27.1339506899999989 0.0233350100000000 Au
atom 6.0379359800000003 27.1844737499999987 0.1749969700000000 Au
atom 7.4943747600000004 29.6507659399999994 0.1741097400000000 Au
atom 10.3134342199999995 29.6247784100000011 -0.0073014900000000 Au
atom 13.1881574300000004 29.5530999200000011 -0.0753810000000000 Au
atom 15.9817761399999991 29.4458457399999993 -0.0259396600000000 Au
atom 19.0399619400000013 29.6323788099999987 0.2242039700000000 Au
atom 21.5945316399999996 29.4823511799999984 -0.0628824800000000 Au
atom 24.3727198399999985 29.6194719000000006 0.0133823300000000 Au
atom 27.4212125299999983 29.6098293000000012 0.0621436800000000 Au
atom 2.0874926800000000 29.7703465399999985 -0.1343561600000000 Au
atom 4.8076528300000003 29.5542999399999999 -0.0920643600000000 Au
atom 8.7740094899999992 32.0718741100000031 0.0758829600000000 Au
atom 11.8066860699999996 32.1839224499999972 0.3479625200000000 Au
atom 14.6867988700000005 32.0476243700000012 -0.0469973600000000 Au
atom 17.2828208399999994 32.2416918799999976 0.1461122400000000 Au
atom 20.4221440299999983 31.9454630399999999 -0.0503253800000000 Au
atom 22.8397996100000000 31.9404298199999985 -0.0545035700000000 Au
atom 25.7595894700000017 32.0700163500000031 0.0079656200000000 Au
atom 0.5903676800000000 32.0332331099999976 0.0831199700000000 Au
atom 3.1405319299999999 32.0358920299999994 0.0655818300000000 Au
atom 6.2776623300000001 32.2144852200000003 -0.1000396200000000 Au
atom 7.4696022900000001 34.5892379900000009 -0.1330881800000000 Au
atom 10.3446729800000004 34.4863338299999995 0.0939011100000000 Au
atom 13.1947161499999996 34.5397175000000018 -0.1196868600000000 Au
atom 15.8076476899999996 34.4253473999999997 -0.1805635200000000 Au
atom 18.9020554099999991 34.5727662899999970 0.0178937500000000 Au
atom 21.7693558899999999 34.4411089299999986 -0.0536534900000000 Au
atom 24.4990800200000010 34.3754972899999984 -0.0596417800000000 Au
atom 27.3407041100000008 34.6331024400000018 -0.0146104100000000 Au
atom 1.9021314600000001 34.4696220499999981 0.0610055500000000 Au
atom 4.7016481399999996 34.3383802999999972 0.0294841700000000 Au
atom 8.7858927500000004 37.1293434299999987 0.3270617100000000 Au
atom 11.7515799199999993 37.0986717299999995 0.0554367600000000 Au
atom 14.6916913000000005 36.8853554499999987 -0.2233353600000000 Au
atom 17.3744931700000009 36.9747385000000008 -0.1832769700000000 Au
atom 20.1776869699999999 36.9296213699999996 -0.0656131900000000 Au
atom 22.9443063800000004 37.0873740799999965 0.1635229700000000 Au
atom 25.8087491399999998 36.8595128199999991 0.1780404500000000 Au
atom 0.3664669300000000 37.0943954399999996 -0.0796322700000000 Au
atom 3.2494985800000000 37.1273509000000033 0.0796152100000000 Au
atom 6.2889799499999999 37.0219004300000023 0.2254329400000000 Au
atom 7.3550794799999997 0.2062339700000000 -0.0986811400000000 Au
atom 10.2042262800000003 -0.0165098000000000 0.1378846000000000 Au
atom 13.2319099500000004 -0.1333503200000000 0.1651740100000000 Au
atom 16.1463614100000008 -0.0182872200000000 0.0977646600000000 Au
atom 18.6620665899999985 -0.0226095700000000 0.0173121900000000 Au
atom 21.4394536199999983 -0.2808050400000000 0.3081948100000000 Au
atom 24.3134151100000011 0.0423050700000000 0.0850869800000000 Au
atom 27.1436107000000000 0.0757060200000000 0.1242869900000000 Au
atom 1.7538385800000000 -0.0201712500000000 -0.0541868400000000 Au
atom 4.6816937400000000 -0.0916257800000000 0.1365279600000000 Au
atom 8.9660117699999997 2.5432316600000000 0.0501722100000000 Au
atom 11.8180196100000003 2.5688660600000000 0.0764030300000000 Au
atom 14.6455199500000006 2.6070004500000001 -0.0131055000000000 Au
atom 17.5079895599999986 2.3798394699999998 0.2591150800000000 Au
atom 20.2143940600000001 2.5784551100000002 0.3036586300000000 Au
atom 22.8367950999999998 2.3456255700000002 -0.0613796900000000 Au
atom 25.7986005600000006 2.5550834600000001 0.1468585700000000 Au
atom 0.3890324700000000 2.2399574200000001 -0.0292084900000000 Au
atom 3.2014413199999998 2.5091388000000001 0.0130189900000000 Au
atom 6.0122190399999997 2.4636851300000000 -0.0958651900000000 Au
atom 7.5514076399999999 4.8704595599999996 0.0020121400000000 Au
atom 10.2261860500000008 4.8815028500000004 0.0756154600000000 Au
atom 13.1408607800000006 4.9776063500000003 0.1843390800000000 Au
atom 16.0452043499999988 4.9468977299999999 -0.0471819000000000 Au
atom 18.8095839799999993 4.8381381899999996 -0.0070178900000000 Au
atom 21.7444419899999986 4.8650206200000001 0.2292854200000000 Au
atom 24.5046061399999999 4.9618255400000004 0.0728823700000000 Au
atom 27.3290807999999998 4.9535960799999996 -0.0168419400000000 Au
atom 1.9183021700000000 5.0472707100000003 0.3164036200000000 Au
atom 4.6099467699999996 4.8234000699999999 -0.0501546400000000 Au
atom 8.9599309300000005 7.3416738199999996 -0.1074717700000000 Au
atom 11.8486868300000001 7.3039788400000001 0.0436338100000000 Au
atom 14.5734872200000005 7.4301759699999996 -0.0810136300000000 Au
atom 17.3573049899999994 7.3860153400000002 0.3087731200000000 Au
atom 20.1414290999999999 7.4177573299999997 0.1145573100000000 Au
atom 22.9970846299999998 7.2733684299999997 0.1857775500000000 Au
atom 25.9826914400000000 7.4103451700000003 -0.0675393200000000 Au
atom 0.3281196000000000 7.2659348799999997 0.0104596800000000 Au
atom 3.2437202599999999 7.4163983099999999 0.0514852100000000 Au
atom 6.1372408099999998 7.4354386200000002 0.0142998300000000 Au
atom 7.5266669600000000 9.6770407800000005 0.0002891600000000 Au
atom 10.4472850299999998 9.8529628400000000 0.2017414100000000 Au
atom 13.0427759800000000 9.8014054399999999 0.0262240000000000 Au
atom 15.7713180299999998 9.7912742300000009 0.2339268300000000 Au
atom 18.7961880800000003 9.8453360500000002 0.1283718500000000 Au
atom 21.6353595100000007 9.8916795499999992 -0.0550304500000000 Au
atom 24.7093056000000004 9.8839473400000006 -0.0154664300000000 Au
atom 27.3563618400000017 9.7445689299999998 0.0387626600000000 Au
atom 1.9648928100000000 9.8640721399999993 -0.1051711800000000 Au
atom 4.5943779600000001 9.8700721300000005 -0.0354111000000000 Au
atom 8.8638574499999994 12.5346088000000009 0.1512772000000000 Au
atom 11.5031354300000004 12.4449711099999991 -0.4135756000000000 Au
atom 14.4478828499999992 12.3908623000000002 -0.2153810800000000 Au
atom 17.2529504100000004 12.1484660299999998 0.0666571700000000 Au
atom 20.1961067099999987 12.3308232499999999 -0.0215108300000000 Au
atom 23.1473452699999989 12.3365046199999995 0.1024530400000000 Au
atom 25.8345968500000005 12.3197042299999993 -0.1707126600000000 Au
atom 0.4644945500000000 12.3472694900000004 -0.0847048100000000 Au
atom 3.3207955999999998 12.1244611199999994 -0.1870254900000000 Au
atom 6.2117914399999998 12.3706216300000005 -0.0090135600000000 Au
atom 7.5223543299999998 13.1920841499999995 2.5526658900000001 Au
atom 10.5363056200000003 13.0875111099999994 2.3683896500000001 Au
atom 13.2974012399999992 13.0591957000000001 2.2552918200000001 Au
atom 15.9666490499999991 13.2736438099999994 2.7253915700000002 Au
atom 18.9136405200000013 13.2521103399999998 2.5802024700000001 Au
atom 21.6911333999999982 13.2876926500000003 2.6465305799999999 Au
atom 24.5287253099999987 13.1973860500000004 2.6907819300000000 Au
atom 27.1900512300000017 13.0166884799999991 2.5274389899999998 Au
atom 1.8370551200000000 13.2926594100000006 2.6016415500000001 Au
atom 4.7261902100000004 13.1605951099999992 2.4475698900000000 Au
atom 9.0494344699999996 15.6244378200000007 2.5617461300000000 Au
atom 11.8066684199999994 15.5686638199999994 2.4200093499999999 Au
atom 14.3917736900000008 15.7536252099999992 2.3653235700000002 Au
atom 17.0500162499999988 15.7068058199999996 2.5758186400000000 Au
atom 20.1286011900000013 15.7921723699999994 2.7000310100000000 Au
atom 23.1183985800000009 15.5442855400000006 2.7768806599999998 Au
atom 25.9721463700000008 15.7149794699999994 2.7216058300000001 Au
atom 0.2248790700000000 15.6230673400000004 2.6366314700000002 Au
atom 3.2258879399999998 15.7451778400000002 2.5135780699999999 Au
atom 6.1471535299999998 15.6754871900000001 2.7375777200000000 Au
atom 7.4118623899999996 18.1707655300000006 2.4552054700000001 Au
atom 10.3593952999999992 18.0205429899999992 2.3941604600000002 Au
atom 13.2143914299999992 18.0964591800000001 2.6076452400000001 Au
atom 15.9567659699999993 18.3330978800000004 2.4270401000000001 Au
atom 18.5712746300000013 18.1222374399999993 2.7316359600000002 Au
atom 21.6239527900000006 18.2585159799999985 2.5856506499999998 Au
atom 24.4793599899999990 18.2099016099999993 2.8151923399999998 Au
atom 27.2441436999999986 18.1151479399999999 2.8108659999999999 Au
atom 1.8365146400000001 17.8389073399999987 2.6586468499999998 Au
atom 4.8486609700000001 17.9265635699999990 2.6093973199999998 Au
atom 9.0590155299999999 20.5270512499999995 2.5624059699999999 Au
atom 11.9200150199999992 20.6995985500000010 2.3354762999999998 Au
atom 14.3600270999999999 20.7322790700000006 2.5429297000000002 Au
atom 17.3104219800000010 20.5961192000000004 2.6228161299999999 Au
atom 20.1684987900000010 20.6546555800000000 2.4475804800000001 Au
atom 23.0565512400000010 20.5699022999999990 2.7019148300000002 Au
atom 25.9708483200000018 20.7150237500000003 2.7090586499999998 Au
atom 0.5570298000000000 20.6366664700000015 2.6218739200000001 Au
atom 3.3151578800000001 20.5365690900000004 2.6905601099999998 Au
atom 6.0189064099999996 20.6858411800000006 2.6727725499999999 Au
atom 7.4622624200000001 23.1079998899999985 2.4852156600000002 Au
atom 10.3096658699999999 22.9896867200000017 2.7028672800000000 Au
atom 13.1021854300000005 22.9568601399999999 2.4299150400000000 Au
atom 15.6688875200000002 23.1778838799999996 2.5422521100000002 Au
atom 18.7610302100000013 23.1275237599999990 2.5344942700000002 Au
atom 21.6402978899999994 23.1108595100000009 2.4491703399999998 Au
atom 24.4472520799999984 23.0671851699999984 2.5200640299999999 Au
atom 27.0997983799999993 22.9113402199999996 2.7282744200000000 Au
atom 1.7047460800000001 23.1687775000000009 2.7720536700000000 Au
atom 4.5066485700000003 23.0230080199999989 2.7702086000000001 Au
atom 8.7768764600000004 25.5957389199999987 2.7224505600000000 Au
atom 11.8758751700000005 25.4759102199999994 2.6876710699999999 Au
atom 14.5340275299999995 25.5119082400000003 2.4643696899999998 Au
atom 17.3725849900000000 25.5593140500000011 2.5963171799999998 Au
atom 20.2720146099999994 25.4429490399999985 2.9124149699999999 Au
atom 22.9328556600000013 25.5284861099999993 2.6386240900000000 Au
atom 25.7896200200000010 25.5176012099999987 2.6490907899999998 Au
atom 0.3926043600000000 25.6425149599999997 2.7331428700000000 Au
atom 3.1072223999999999 25.4083378400000015 2.9320226599999999 Au
atom 6.1698530900000002 25.4985937900000010 2.7238797199999998 Au
atom 7.4761859700000004 28.0174525000000010 2.7476475900000001 Au
atom 10.3082148599999996 27.9853925500000003 2.8310803099999999 Au
atom 13.1282206699999993 27.9661084799999990 2.4952917000000001 Au
atom 15.8367958699999996 27.9090331499999991 2.5954301200000001 Au
atom 18.9813926399999993 27.9520063000000007 2.5609409799999998 Au
atom 21.5506096999999990 28.0566623799999988 2.6573667300000001 Au
atom 24.4579323899999999 27.8936053599999987 2.7038110299999998 Au
atom 27.2330099399999987 28.1518324000000000 2.8104950299999998 Au
atom 1.8503092400000001 28.1248319500000008 2.3879520799999998 Au
atom 4.7102514700000002 27.9712276499999994 2.3529882000000000 Au
atom 8.9624733899999995 30.3866365000000016 2.5506162699999999 Au
atom 11.6980401300000008 30.5336864400000003 2.6962826099999999 Au
atom 14.6859470299999995 30.5383989000000007 2.5271506600000002 Au
atom 17.3336233899999996 30.4941188600000004 2.8668589600000001 Au
atom 20.3259959099999996 30.4138550999999993 2.6229227599999998 Au
atom 23.0496236799999998 30.6163957400000015 2.6360266700000001 Au
atom 25.9083277699999996 30.7075873000000001 2.8023135199999998 Au
atom 0.3010069900000000 30.3694506199999985 2.6654030400000002 Au
atom 3.3968208700000000 30.4594039899999984 2.6060495200000000 Au
atom 6.1371329100000001 30.4264983300000011 2.5337492600000000 Au
atom 7.5224895900000002 32.8115714899999986 2.7706393800000000 Au
atom 10.3043791000000002 32.9451836699999987 2.8868982600000002 Au
atom 13.2130984700000003 32.8961211399999982 2.5667992100000001 Au
atom 15.8537292000000001 32.7930993399999977 2.5849753600000001 Au
atom 18.8456692200000013 32.8149440299999995 2.6592118600000001 Au
atom 21.6501228999999995 32.7436458999999971 2.5728901199999998 Au
atom 24.3433800399999996 32.9715338800000026 2.5065685200000001 Au
atom 27.2162290200000001 32.8662984400000013 2.7278006700000001 Au
atom 1.7735965899999999 32.8873307400000030 2.6248978500000000 Au
atom 4.6592721199999998 32.8638333700000018 2.6831606099999998 Au
atom 8.9006496300000002 35.5090555900000027 2.6299983000000000 Au
atom 11.8691222599999993 35.3345108700000026 2.6059274399999999 Au
atom 14.6646885800000000 35.3973025299999975 2.5755911899999999 Au
atom 17.2956426100000016 35.3650900499999992 2.5520007699999998 Au
atom 20.2573058400000008 35.4371962800000020 2.5955703500000000 Au
atom 23.0295123299999993 35.4034493799999979 2.7085051999999998 Au
atom 25.9221531600000006 35.4298668699999979 2.7808246699999999 Au
atom 0.4238076600000000 35.1838091700000035 2.7634253200000001 Au
atom 3.2096969199999998 35.4190877400000019 2.5719195300000002 Au
atom 6.1866281000000001 35.3657548199999994 2.5783569800000001 Au
atom 7.6481715499999998 37.7565684799999985 2.6365552900000000 Au
atom 10.3556048700000005 37.8842053699999965 2.9671794299999998 Au
atom 13.0878703000000005 37.7506181700000027 2.5921575600000000 Au
atom 15.9956205600000008 37.8192360399999998 2.3944753799999998 Au
atom 18.8511590700000013 37.5606803499999984 2.6697786500000000 Au
atom 21.5225957699999988 38.0505313900000033 2.7209763300000001 Au
atom 24.3699497500000000 37.9321491800000032 2.8733996999999998 Au
atom 27.2651659799999990 37.9461545599999965 2.7051308199999999 Au
atom 1.9938572200000000 38.0169938299999970 2.5758829599999999 Au
atom 4.6458947600000000 37.9105665700000003 2.7213820200000001 Au
atom 8.7850934600000006 0.7987754800000000 2.4612050800000000 Au
atom 11.8831396100000006 0.8450018200000000 2.6308854500000001 Au
atom 14.6073344600000006 0.7119200000000000 2.7753600000000000 Au
atom 17.5193598000000001 0.8055387800000000 2.7536657600000001 Au
atom 20.1086453600000006 0.8514115100000000 2.6996527100000001 Au
atom 23.0042544500000012 0.7962314600000000 2.4354586500000002 Au
atom 25.8304483599999983 0.8232809700000000 2.8196812200000001 Au
atom 0.6524562900000000 0.8103880400000000 2.7782132499999999 Au
atom 3.3390447399999998 0.7932978300000000 2.8070208800000001 Au
atom 5.9083175399999996 0.7958911100000000 2.5632673000000001 Au
atom 7.5772219999999999 3.2951279800000002 2.5165317200000001 Au
atom 10.3877568100000008 3.3131859900000000 2.7135208400000002 Au
atom 13.2147985299999995 3.2119721600000002 2.7597152100000000 Au
atom 16.0503299400000010 3.2611222700000000 2.6435723800000002 Au
atom 18.8208488299999992 3.3581842499999999 2.8090269499999998 Au
atom 21.5580208999999989 3.1667065000000001 2.7528736999999999 Au
atom 24.3053904900000006 3.2917581999999999 2.7486121500000000 Au
atom 27.4034513299999993 3.1897978199999999 2.7919277600000001 Au
atom 1.7754777500000001 3.4257007300000000 2.8212640200000001 Au
atom 4.7505314199999997 3.2859340399999999 2.5118467799999999 Au
atom 8.8279878899999993 5.8748746299999999 2.7003602099999999 Au
atom 11.8666825599999992 5.7053190100000002 2.8462448899999999 Au
atom 14.5990481200000008 5.9275432300000004 2.5131211900000001 Au
atom 17.3637788399999984 5.8367224100000001 2.4439297799999999 Au
atom 20.3939055499999995 5.7692829500000000 2.6718852100000001 Au
atom 22.9549259700000015 5.7793629199999996 2.7978459199999999 Au
atom 25.7429313300000011 5.7274723300000003 2.6254873000000001 Au
atom 0.4493937800000000 5.7158550799999999 2.6593029200000000 Au
atom 3.2086666300000002 5.7502814799999999 2.6963378900000001 Au
atom 6.3181168200000002 5.6098652500000004 2.4383322000000001 Au
atom 7.3899473999999996 8.0442049600000001 2.6701700200000000 Au
atom 10.3574587400000002 8.2790564700000004 2.5407810000000000 Au
atom 13.0113415099999994 8.3711667199999997 2.4783159700000001 Au
atom 15.8668735400000003 8.2165614399999995 2.7213135700000000 Au
atom 18.8368180699999996 8.3055384900000000 2.4841083400000001 Au
atom 21.5147553800000004 8.2947486099999992 2.3944291400000002 Au
atom 24.4408928000000003 8.4651409500000003 2.7879532100000000 Au
atom 27.2925721000000010 8.4724497799999998 2.4841273300000002 Au
atom 1.8742316200000000 8.0139386699999999 2.5900061399999998 Au
atom 4.8782136899999999 8.2533820999999996 2.5457500799999999 Au
atom 8.7437584600000005 10.8008850699999996 2.7600816500000001 Au
atom 11.7123636100000006 10.6605471299999994 2.4249993999999999 Au
atom 14.6264088900000004 10.7828421300000006 2.7433846200000001 Au
atom 17.3390434999999989 10.8351387399999997 2.9410794400000002 Au
atom 20.3303725499999999 10.7033659700000001 2.4352920400000002 Au
atom 23.0494034399999990 10.8436704899999992 2.4852875000000001 Au
atom 25.8976173400000000 10.8377385600000000 2.4618851600000000 Au
atom 0.4691058200000000 10.8221302799999997 2.5818357700000001 Au
atom 3.2445044400000000 10.7971401500000006 2.6603685700000002 Au
atom 6.1641878300000004 10.5347737200000005 3.1690455900000001 Au
atom 7.4442530600000003 13.0122240700000003 6.0193649899999997 Cl
atom 7.4350947200000004 15.9885124500000000 8.7474535400000004 Cl
atom 7.4453053999999996 13.2047396599999995 8.5063063200000002 Na
atom 7.2004152200000000 16.0590235800000016 6.0253907900000003 Na
atom 7.2581914999999997 18.7485718800000001 5.6406670800000001 Cl
atom 7.5840344599999998 21.7962427800000000 8.5525742299999994 Cl
atom 7.4059063800000002 18.9090548799999993 8.5435677499999994 Na
atom 7.4232933599999997 21.7772191100000008 5.7660185999999998 Na
atom 7.5019671800000003 24.3994861800000002 5.6889704999999999 Cl
atom 7.3674224900000000 27.3970241500000000 8.6032494600000007 Cl
atom 7.3960871399999997 24.3999266199999987 8.3651702900000000 Na
atom 7.4878014799999999 27.2788870999999986 5.8555453599999998 Na
atom 7.5071259299999999 30.1489173199999989 5.6129351999999999 Cl
atom 7.6873922099999996 32.8176017199999990 8.7202856400000002 Cl
atom 7.3642683099999999 30.2379486100000001 8.3882366099999999 Na
atom 7.5797958200000002 32.8823573399999987 5.8387687200000000 Na
atom 7.3146174100000003 35.7188730499999991 5.7982016300000003 Cl
atom 7.4559003700000002 38.6356249000000034 8.7815088100000001 Cl
atom 7.4222959199999998 35.7375309600000008 8.6805340599999994 Na
atom 7.7016375000000004 38.4743165800000000 5.9691148299999996 Na
atom 7.5780524099999997 1.6594236400000000 5.7804517100000004 Cl
atom 7.7812327000000003 4.5509902899999997 8.6799724800000000 Cl
atom 7.6692761699999998 1.9224476100000001 8.5285363200000006 Na
atom 7.4963745099999999 4.7120274699999998 5.8321143900000001 Na
atom 7.4596294299999997 7.4623530699999998 5.7415141900000002 Cl
atom 7.2809458700000000 10.5692234400000000 8.8187713900000002 Cl
atom 7.3729661499999999 7.4763684799999996 8.4630006200000008 Na
atom 7.5037638600000003 10.3528573200000000 5.9579370300000001 Na
atom 10.0780542099999995 13.2028407500000000 5.7382661300000004 Na
atom 13.1052060299999997 13.2984730899999999 5.5498884700000000 Cl
atom 10.1003080799999996 15.8522094500000001 8.3245209800000008 Na
atom 13.1162348099999999 15.7106445099999998 8.3016023499999996 Cl
atom 13.0084641600000008 13.2128111500000003 8.3682264199999992 Na
atom 10.2183492600000001 13.0115668000000007 8.4939815700000008 Cl
atom 12.9788327900000002 15.9891612300000006 5.6724308399999996 Na
atom 9.9059366700000009 16.2698289699999989 5.6124777400000001 Cl
atom 10.3125742299999992 18.9346817099999996 5.9844700700000004 Na
atom 13.0327737999999993 18.9065219599999992 5.8678441100000001 Cl
atom 10.3381007500000006 21.8352365800000001 8.2864306499999998 Na
atom 13.2490012900000007 21.6093610699999985 8.8627614500000007 Cl
atom 13.0641388999999997 18.8966937000000001 8.5520558900000001 Na
atom 10.2091068299999996 18.7566864899999999 8.7720615399999993 Cl
atom 13.1337159900000007 21.5713612300000008 5.9114382499999998 Na
atom 10.3172863299999999 21.5299021400000008 5.8636698500000000 Cl
atom 10.6085199899999996 24.1222977299999997 5.9049576300000002 Na
atom 13.1921788000000006 24.4578154999999988 5.9232140900000001 Cl
atom 10.2891618800000000 27.0290985100000007 8.5854352200000008 Na
atom 13.2030100099999999 27.2616059399999990 8.7153932100000002 Cl
atom 13.3266925500000006 24.6764806199999995 8.4161774699999992 Na
atom 10.0888645100000005 24.2228747099999993 8.7029608300000003 Cl
atom 13.4081454200000003 27.3239084900000009 5.8903763299999996 Na
atom 10.5520417900000005 27.4937669100000015 5.7076640500000000 Cl
atom 10.4128101300000004 29.8849308600000008 5.8482532899999997 Na
atom 13.2199357899999992 30.2038850299999986 5.6590290999999997 Cl
atom 10.3284102999999998 32.9820151099999990 8.3567649199999998 Na
atom 13.0591613300000002 32.6866678600000000 8.4628031000000004 Cl
atom 13.1206165499999994 30.0028742100000017 8.4916256299999997 Na
atom 10.2795202499999991 29.9554179599999983 8.4766709599999999 Cl
atom 13.2929327100000005 32.8654619799999992 5.8044443799999996 Na
atom 10.2166698900000004 32.7010225800000001 5.8415656699999996 Cl
atom 10.3032137299999995 35.5169840300000033 5.8949911300000002 Na
atom 13.3558772700000006 35.6190796100000000 5.7562676499999998 Cl
atom 10.3518162000000000 38.5506009699999979 8.4551725300000005 Na
atom 13.2539934400000003 38.3951526600000008 8.6824921100000001 Cl
atom 13.1107609000000007 35.9616447399999970 8.2745130600000003 Na
atom 10.4453779000000004 35.6120779800000022 8.7144733999999993 Cl
atom 13.3052898000000006 38.5062213499999970 5.8578377200000000 Na
atom 10.6011707800000003 38.3803209499999980 5.8091417200000004 Cl
atom 10.2028278799999992 1.8809226400000001 5.9148556200000000 Na
atom 13.0277063399999999 1.8456298700000000 5.8622260700000002 Cl
atom 10.3038592799999993 4.6629435299999997 8.5737291399999993 Na
atom 13.1350976399999997 4.6236739399999998 9.0225549699999998 Cl
atom 13.3268321499999995 1.8445760200000001 8.7318749899999997 Na
atom 10.5272595300000003 1.8796229900000001 8.5997114000000003 Cl
atom 13.1772558800000006 4.5596390199999997 6.0269587500000004 Na
atom 10.4312588000000002 4.7351272800000004 5.9942362500000002 Cl
atom 10.0465988900000003 7.5276560100000003 6.1516190599999998 Na
atom 12.8642393300000002 7.3351666299999998 5.8781613799999999 Cl
atom 10.1630079700000007 10.1579691000000008 9.1886380600000006 Na
atom 13.2206168700000006 10.3230249000000001 8.4866096700000000 Cl
atom 13.1032528900000003 7.5682303400000004 8.4858318300000004 Na
atom 10.2092964599999991 7.3056068099999996 8.6553654899999994 Cl
atom 12.7393247899999995 10.4651575000000001 5.9629951099999996 Na
atom 10.3529167900000001 10.1161703099999993 6.2313127100000001 Cl
atom 15.9398892599999993 13.0947247900000008 5.9668843699999998 Na
atom 18.9115621300000001 13.1024506400000007 5.4774412400000001 Cl
atom 16.0371935199999989 15.8944568499999992 8.1822147199999993 Na
atom 18.7034814500000017 15.8016041800000000 8.6862866000000007 Cl
atom 18.6651068799999997 13.1948785399999995 8.2834390800000008 Na
atom 15.9479044299999995 13.0343297699999994 8.5383462899999998 Cl
atom 18.7057526100000011 15.9272391599999992 5.9203071700000001 Na
atom 15.8520503000000001 16.0825127499999994 5.6902580800000004 Cl
atom 16.0801589000000007 18.8614250100000014 6.1949546099999999 Na
atom 18.7774754699999988 18.6439938500000011 5.8827918199999996 Cl
atom 15.6600418500000007 21.5331979400000009 8.5603633899999991 Na
atom 18.7743819099999989 21.6903121699999986 8.7287743199999994 Cl
atom 18.5919750099999987 18.6515661600000016 8.4575534000000001 Na
atom 15.9164619900000002 18.9534772199999999 8.6266390699999995 Cl
atom 18.7538619199999985 21.7380168400000002 6.0334564799999999 Na
atom 15.7798633699999993 21.4364215700000003 5.9202708499999996 Cl
atom 15.9538927600000005 24.3341149200000011 6.0768077900000002 Na
atom 18.6992978600000015 24.3299472600000009 5.9014119999999997 Cl
atom 15.9271861399999999 27.4166196400000004 8.7734244100000005 Na
atom 19.0304892000000017 27.3624299899999990 8.6153040599999997 Cl
atom 18.8835687300000004 24.5530442499999992 8.5601092500000000 Na
atom 16.0095668800000013 24.2945387000000004 8.9206104499999999 Cl
atom 18.5420474499999983 27.2450152900000013 5.8133745000000001 Na
atom 15.7300189100000001 27.4339070900000017 6.0763497700000002 Cl
atom 16.0124939099999999 30.2142682100000002 5.8926974500000000 Na
atom 18.8847772800000016 30.0466678999999992 5.8366345300000004 Cl
atom 16.0921179899999984 33.0070887999999982 8.4572477700000004 Na
atom 18.8513933599999994 32.9467076099999971 8.8015082400000004 Cl
atom 18.7296570600000010 30.0269073499999983 8.9772825600000008 Na
atom 16.1044144399999993 30.0140210600000010 8.6477581800000003 Cl
atom 19.0110371399999991 32.9078444299999973 6.0618170899999999 Na
atom 15.9855401900000000 33.0508774799999969 5.7294873400000004 Cl
atom 16.0852000500000010 35.6645308000000014 5.8500151300000001 Na
atom 18.9976482400000002 35.8113708699999975 5.7622696400000004 Cl
atom 16.0841434599999999 38.5478293299999990 8.5352601499999992 Na
atom 18.8088781999999988 38.5545993300000021 8.5649853799999995 Cl
atom 18.9310815599999991 35.7577692600000034 8.4302671000000000 Na
atom 16.0465556099999986 35.4807437199999995 8.5810687699999999 Cl
atom 18.8034299199999992 38.6194412199999988 5.9646887599999996 Na