#===============================================================================
# Created using the Atomic Simulation Environment (ASE)

# Tue Dec 23 22:26:02 2025

#=======================================================
lattice_vector 28.1999999999999993 0.0000000000000000 0.0000000000000000 
lattice_vector 0.0000000000000000 39.4799999999999969 0.0000000000000000 
lattice_vector 0.0000000000000000 0.0000000000000000 62.3296083400000001 
atom 7.4525565399999998 14.7496721399999995 0.0005613500000000 Au
atom 10.2688076600000002 14.7944708600000006 -0.1073846300000000 Au
atom 13.0443234599999993 14.8681516299999998 -0.4228274200000000 Au
atom 15.9092584499999994 14.8905987999999994 -0.3092581400000000 Au
atom 18.6687717000000006 14.7705616400000004 -0.3035744900000000 Au
atom 21.5767081500000018 14.7010091400000000 -0.2241271700000000 Au
atom 24.3576807700000018 14.6811753399999994 -0.0620160700000000 Au
atom 27.1908567900000016 14.8930694500000005 -0.0251156900000000 Au
atom 1.8140436300000000 14.9158134100000002 -0.2644197400000000 Au
atom 4.6616169699999999 14.7489815400000008 -0.1365510600000000 Au
atom 8.8980928299999995 17.2283362099999984 -0.0589376600000000 Au
atom 11.7401181799999996 17.3677464400000012 -0.1908251400000000 Au
atom 14.5547124599999993 17.3114519099999988 -0.4145264900000000 Au
atom 17.4136420500000000 17.3146382400000007 -0.3826483600000000 Au
atom 20.1386382899999994 17.1807009800000010 -0.0350436000000000 Au
atom 23.0198569100000014 17.2447472600000005 -0.0497948900000000 Au
atom 25.8628125199999985 17.2634162700000005 -0.1287439200000000 Au
atom 0.4871879200000000 17.3022733500000001 0.1326394500000000 Au
atom 3.2564369499999999 17.2898058399999996 -0.0472949900000000 Au
atom 6.0432093499999997 17.2568137899999989 -0.1050934500000000 Au
atom 7.4350931300000003 19.7148583399999993 -0.0050322700000000 Au
atom 10.3468768699999991 19.8214048699999985 -0.0092680400000000 Au
atom 13.2392009399999999 19.7799950699999982 -0.2765113000000000 Au
atom 15.9795105799999995 19.8042594700000016 -0.2779462900000000 Au
atom 18.7907983099999996 19.7100623800000001 0.1176485500000000 Au
atom 21.6120331400000012 19.7094474899999987 0.0023712900000000 Au
atom 24.3713801699999983 19.6813786899999990 0.1115172400000000 Au
atom 27.2094248599999986 19.7214351900000011 0.1116756900000000 Au
atom 1.7719502899999999 19.7384624100000003 0.0371393400000000 Au
atom 4.6239314599999997 19.7924007599999996 0.0403371700000000 Au
atom 8.8723760899999995 22.2027394099999995 -0.0836672500000000 Au
atom 11.7736345300000007 22.2455557900000009 -0.2173577200000000 Au
atom 14.5902598799999996 22.2589229499999988 -0.0581749000000000 Au
atom 17.4176982100000011 22.1651546199999991 0.1531880100000000 Au
atom 20.2145580199999984 22.2091406400000011 0.0063458400000000 Au
atom 22.9940922400000005 22.1169592600000016 -0.1342604500000000 Au
atom 25.7384434900000016 22.1129136600000002 0.3408170600000000 Au
atom 0.3577670100000000 22.3500228300000003 0.0543131000000000 Au
atom 3.1909867699999999 22.1962447599999990 0.1171697800000000 Au
atom 6.0736895899999999 22.2189596400000013 0.0308121900000000 Au
atom 7.4842747000000003 24.6576075699999997 -0.1160581800000000 Au
atom 10.3024786499999994 24.6631971700000001 -0.1251856300000000 Au
atom 13.1428380400000009 24.7148948200000014 -0.1329871900000000 Au
atom 16.0003020000000014 24.6843844099999998 0.1791703500000000 Au
atom 18.8016635900000004 24.6778268099999991 0.2236371000000000 Au
atom 21.6478638799999992 24.7256835600000002 -0.1383535300000000 Au
atom 24.3552725700000003 24.6564161300000002 0.2699128600000000 Au
atom 27.1448551400000007 24.8866256399999983 0.1502901500000000 Au
atom 1.7151565600000001 24.7168284400000005 0.1206371600000000 Au
atom 4.6976360499999998 24.6225632800000014 -0.0244465700000000 Au
atom 8.8935238200000004 27.1417180699999996 -0.1529898900000000 Au
atom 11.7111211100000006 27.1480256799999999 0.0985492600000000 Au
atom 14.5560377899999995 27.1128407399999993 -0.0337377800000000 Au
atom 17.4033717299999999 27.1495522200000003 0.1063197400000000 Au
atom 20.1437273999999995 27.2169218999999991 0.1771900900000000 Au
atom 22.9656677999999985 27.1540774399999982 0.0836484600000000 Au
atom 25.8225214399999992 27.0960717899999999 0.2865902200000000 Au
atom 0.4513579700000000 27.0698181700000013 0.1150092500000000 Au
atom 3.2492328200000000 27.0250066800000006 -0.0990797100000000 Au
atom 6.0385610500000002 27.1348864300000017 -0.0056097200000000 Au
atom 7.5841047499999998 29.5786340199999991 -0.3641792400000000 Au
atom 10.3753764299999993 29.6363097099999990 -0.1753020200000000 Au
atom 13.1545612300000005 29.6281550500000002 -0.1985391900000000 Au
atom 15.9572576300000009 29.5650151600000015 0.0583058700000000 Au
atom 18.8087385199999986 29.6256032500000011 0.1619070100000000 Au
atom 21.5747013000000010 29.7003382599999988 0.0419989700000000 Au
atom 24.3922553099999995 29.5298438599999997 0.0498897800000000 Au
atom 27.3018885699999991 29.5818219700000000 -0.1122108200000000 Au
atom 1.8674897200000000 29.5953237700000003 0.0440363700000000 Au
atom 4.6476413299999999 29.6017665399999998 -0.0786138000000000 Au
atom 8.9723902899999999 32.0960592799999986 0.0110136800000000 Au
atom 11.7237329300000006 32.1269031900000002 -0.0270468500000000 Au
atom 14.5466682100000000 32.0883601600000006 -0.0219181300000000 Au
atom 17.3488233700000016 32.1088867799999989 -0.1753583400000000 Au
atom 20.2023649799999987 32.1153906099999986 -0.0361115600000000 Au
atom 22.9902873499999991 32.1153480899999977 -0.0290430800000000 Au
atom 25.8338607799999984 32.0505155199999976 -0.1418393100000000 Au
atom 0.4347899700000000 32.0614163700000034 -0.0216831700000000 Au
atom 3.2481000400000002 32.0772021800000005 -0.0473104500000000 Au
atom 6.0701601500000004 31.9961722699999989 -0.1519197300000000 Au
atom 7.4858510300000001 34.4406454200000027 -0.0927827400000000 Au
atom 10.2786873799999992 34.6033770900000022 -0.0565791300000000 Au
atom 13.1188775000000000 34.6102175199999991 0.0625969300000000 Au
atom 15.9185208800000009 34.6515764600000011 -0.0599914000000000 Au
atom 18.6899744299999995 34.5042713799999987 0.1049561900000000 Au
atom 21.5485171599999994 34.5233719399999970 0.0912044600000000 Au
atom 24.3762866600000017 34.5801130099999980 0.0361125600000000 Au
atom 27.1894484399999996 34.3973961599999996 -0.0100613400000000 Au
atom 1.8065857599999999 34.5160527399999992 -0.3192410700000000 Au
atom 4.5714880899999999 34.5673744999999997 0.0887357900000000 Au
atom 8.8340455700000007 37.0281568099999987 -0.0052181900000000 Au
atom 11.7970200900000002 37.0459961099999973 0.0995970800000000 Au
atom 14.4442228600000000 37.0605242199999978 0.0926527400000000 Au
atom 17.3041667900000000 37.0350752900000018 0.1287406700000000 Au
atom 20.1505029799999988 36.9939368300000027 -0.0048891000000000 Au
atom 22.9585288299999988 37.0194053299999979 0.0208360100000000 Au
atom 25.8853257799999987 36.9847947800000014 0.0006199200000000 Au
atom 0.4839824400000000 36.9868999999999986 0.0454083100000000 Au
atom 3.3339637400000002 36.9807041500000011 0.0380227400000000 Au
atom 6.1246068999999999 36.9726921700000020 0.1297852100000000 Au
atom 7.6366918300000002 0.0479138700000000 0.4453380700000000 Au
atom 10.3726284399999997 0.0699370400000000 0.4217258200000000 Au
atom 13.2401949400000003 0.0961435600000000 0.1815892600000000 Au
atom 15.9509684099999998 -0.0405017300000000 0.0586515500000000 Au
atom 18.6741085200000008 0.0074366500000000 0.2151900800000000 Au
atom 21.5146850000000001 -0.0688535800000000 0.2543247800000000 Au
atom 24.5243165599999990 -0.0017308600000000 0.1908465600000000 Au
atom 27.1814608299999989 0.1589372700000000 0.4022451400000000 Au
atom 1.9486642599999999 0.0594306500000000 0.5370308000000000 Au
atom 4.8529239200000003 0.0390452700000000 0.2142134200000000 Au
atom 8.9383108000000000 2.4836265100000001 0.0126377200000000 Au
atom 11.7011249399999997 2.5525313399999998 0.1222627200000000 Au
atom 14.5464937200000008 2.5260497900000001 0.1834729500000000 Au
atom 17.3764325600000014 2.4819282100000000 0.1000425200000000 Au
atom 20.1420290999999985 2.4882602199999999 0.2174311200000000 Au
atom 22.9952380500000011 2.4137533699999998 0.1452181200000000 Au
atom 25.7339177600000006 2.5311104900000001 0.1060013600000000 Au
atom 0.4492142500000000 2.5560045300000001 0.0788726500000000 Au
atom 3.2603015399999999 2.4636687300000002 0.2864843400000000 Au
atom 6.1503063200000003 2.4827524699999999 0.1054121300000000 Au
atom 7.4800560400000000 4.9847624699999997 0.2254359300000000 Au
atom 10.3049347299999994 4.9993087200000002 0.2922977100000000 Au
atom 13.1462028899999996 4.9479066100000004 0.0830185000000000 Au
atom 15.9623268100000004 4.9429196900000001 0.2952484900000000 Au
atom 18.7267840600000000 4.9979822299999999 0.1432397000000000 Au
atom 21.5925601100000009 4.9281191099999999 0.1365617200000000 Au
atom 24.3106459199999989 4.8921744100000000 -0.0443448600000000 Au
atom 27.1546867300000017 4.7566082300000003 0.1100087000000000 Au
atom 1.8670868199999999 4.8346149599999997 -0.0285571000000000 Au
atom 4.6492341699999997 4.9476670499999997 0.0724857600000000 Au
atom 8.9367925800000005 7.3865150000000002 0.0631236500000000 Au
atom 11.7246921799999999 7.4746327099999998 0.0023315400000000 Au
atom 14.6315932600000007 7.3546929900000002 -0.0667098500000000 Au
atom 17.4163319399999992 7.4539490900000001 0.2171398500000000 Au
atom 20.1713294900000015 7.4074222199999999 0.1633629300000000 Au
atom 23.0124728000000012 7.3801235099999998 0.2296353800000000 Au
atom 25.8396614100000015 7.2539142400000003 0.2089169900000000 Au
atom 0.4530425500000000 7.2821708699999999 0.2242091200000000 Au
atom 3.1901169700000001 7.3687849500000002 0.0313598400000000 Au
atom 6.0809011799999997 7.4292591899999998 -0.0786434000000000 Au
atom 7.4692042900000004 9.8590229699999998 0.0014937400000000 Au
atom 10.2008362500000000 9.8593150600000001 -0.0192186600000000 Au
atom 13.1977400399999993 9.8805724200000000 -0.3027267000000000 Au
atom 15.9806352700000005 9.8331186400000004 -0.1267302500000000 Au
atom 18.8136708900000009 9.8963567900000005 0.1149791100000000 Au
atom 21.5480538499999987 9.8779653399999994 0.1048262800000000 Au
atom 24.4084265900000013 9.7902766700000008 0.1977757000000000 Au
atom 27.2059412599999995 9.7874458999999998 0.3518158300000000 Au
atom 1.7863301199999999 9.9401180300000007 -0.1167932000000000 Au
atom 4.5979988399999998 9.8721788700000008 0.0322296500000000 Au
atom 8.9061914699999996 12.3075263100000001 0.0245523800000000 Au
atom 11.6680065200000005 12.2629386199999999 -0.2315642700000000 Au
atom 14.5271898900000007 12.4107365000000005 -0.3164161600000000 Au
atom 17.3103061400000016 12.3128780700000000 -0.1174630100000000 Au
atom 20.1237772799999988 12.3560345799999993 0.0152128700000000 Au
atom 22.9844655200000005 12.2595085299999997 0.0673029400000000 Au
atom 25.8105144499999994 12.2395999599999996 0.0531366100000000 Au
atom 0.3763731800000000 12.5288990400000007 -0.1401248900000000 Au
atom 3.2085391099999998 12.3246812099999996 -0.1263444700000000 Au
atom 6.1036685500000001 12.3154701400000004 0.0321759300000000 Au
atom 7.5827967599999999 13.2269570299999994 2.7407177100000002 Au
atom 10.4182321200000008 13.2092300100000006 2.5543737399999999 Au
atom 13.1191936499999997 13.3166368100000003 1.9674647900000000 Au
atom 15.9278021800000005 13.2127230600000001 2.3114546900000001 Au
atom 18.7097618200000007 13.1576319399999999 2.4908800900000001 Au
atom 21.5555811900000016 13.1514682599999997 2.6484291700000000 Au
atom 24.4712197399999987 13.2225978899999994 2.6347988700000000 Au
atom 27.2046863899999991 13.2498488900000009 2.6961884399999998 Au
atom 1.9245511399999999 13.2221207399999994 2.5103841199999999 Au
atom 4.7032817800000002 13.1458836800000007 2.5382623500000001 Au
atom 8.9362516400000001 15.5913323599999991 2.5373803000000001 Au
atom 11.7309095600000006 15.7969910799999997 2.3497227199999999 Au
atom 14.5945357399999995 15.6803354699999993 2.1630577099999999 Au
atom 17.3563684100000017 15.7198932599999992 2.2876224399999998 Au
atom 20.1180157299999998 15.5682291799999994 2.4663361699999999 Au
atom 22.9023025800000006 15.6484495799999994 2.4684505500000000 Au
atom 25.7856008299999999 15.6751045500000004 2.6181456200000000 Au
atom 0.4408813800000000 15.7041201899999994 2.5355077499999998 Au
atom 3.2605420199999999 15.6538391600000004 2.2973162399999998 Au
atom 6.0999023299999999 15.6215906400000009 2.4970934400000000 Au
atom 7.4160646400000001 18.0872327300000002 2.6044082799999999 Au
atom 10.3095587599999998 18.2063511799999986 2.4795095800000002 Au
atom 13.2336512800000001 18.1817068699999993 2.3671451299999999 Au
atom 15.9789279999999998 18.1172026600000002 2.2005815000000002 Au
atom 18.7767780799999997 18.0393996200000011 2.6056448200000002 Au
atom 21.5764661599999990 18.1579372300000017 2.5476677799999998 Au
atom 24.4023902799999988 18.1032513399999999 2.6017499000000002 Au
atom 27.2363933100000004 18.0362809900000016 2.7352468200000000 Au
atom 1.8698713800000000 18.1525046900000007 2.7497880299999999 Au
atom 4.7309643399999999 18.0621235099999993 2.6142225200000002 Au
atom 8.9526277600000004 20.6095469199999997 2.5394869199999999 Au
atom 11.7595606299999993 20.6206439900000014 2.3773178200000000 Au
atom 14.5622160399999991 20.5742480699999994 2.3347633000000001 Au
atom 17.3668829500000008 20.6095040599999990 2.6562226000000000 Au
atom 20.1941537900000014 20.6422517399999990 2.6284045599999999 Au
atom 22.8897286199999996 20.6279616300000015 2.6282505600000001 Au
atom 25.7636398200000016 20.5591613299999985 2.8956174200000002 Au
atom 0.4406967900000000 20.5409288500000002 2.6394210700000000 Au
atom 3.3587773099999998 20.5841803900000002 2.6815251299999998 Au
atom 6.1563073499999996 20.5532980000000016 2.6080004600000000 Au
atom 7.5487011800000001 23.0275997699999984 2.5254848700000001 Au
atom 10.4334286800000005 22.9551113700000009 2.3951219300000002 Au
atom 13.2292887199999996 23.0306683800000016 2.4701390200000000 Au
atom 16.0416476599999989 23.0900446799999983 2.5273421599999999 Au
atom 18.7507125399999985 23.0973770000000016 2.6848649099999999 Au
atom 21.5765997100000000 23.1669665900000012 2.4359021799999998 Au
atom 24.3520451999999992 23.0304270399999993 2.7981427800000001 Au
atom 27.2136023000000016 23.3452851400000014 2.7181512500000000 Au
atom 1.8072309799999999 23.0254403100000005 2.7411959700000001 Au
atom 4.7053530500000003 23.0436805000000007 2.5662123299999999 Au
atom 9.0151283200000005 25.4522312900000003 2.4332658299999999 Au
atom 11.7786001299999992 25.4908641399999993 2.6956220000000002 Au
atom 14.5762374500000007 25.4989926099999984 2.6361653800000000 Au
atom 17.3617106300000010 25.5628999899999982 2.7624421500000000 Au
atom 20.2056423400000007 25.5816290500000001 2.7396745100000000 Au
atom 22.9476223399999988 25.5959186400000007 2.7279360700000002 Au
atom 25.7253101099999988 25.5551923499999987 2.8223884600000000 Au
atom 0.3865959200000000 25.3491226000000012 2.5312373500000001 Au
atom 3.2790436500000002 25.5470528700000017 2.5518265200000001 Au
atom 6.1423264099999999 25.4931964999999998 2.6581369000000001 Au
atom 7.5603414799999999 27.9870843299999983 2.4075199199999999 Au
atom 10.3760349900000008 27.9851555400000009 2.5654618899999999 Au
atom 13.1810478300000007 27.9947255599999991 2.6765828300000001 Au
atom 15.9465615399999994 27.9153439500000005 2.6604955100000001 Au
atom 18.7665806300000000 28.0098425999999989 2.7872241999999998 Au
atom 21.6275329200000002 28.0486495699999985 2.7197271199999999 Au
atom 24.4955980599999990 28.0411093800000017 2.6896754000000000 Au
atom 27.2589818100000016 28.1878357100000017 2.6353729200000000 Au
atom 1.8347648999999999 28.0085867700000009 2.6066811500000000 Au
atom 4.7241177800000003 28.0745861900000016 2.5778006100000002 Au
atom 8.9590221999999997 30.4006361699999985 2.4721666500000001 Au
atom 11.8298977700000005 30.4225888699999985 2.4583674200000001 Au
atom 14.6065273900000001 30.4231399799999984 2.6452572200000000 Au
atom 17.3665755500000003 30.5347307999999984 2.5720753599999999 Au
atom 20.1436520500000000 30.5636724000000015 2.6555359900000002 Au
atom 22.9626950399999998 30.4194467300000007 2.6100834200000000 Au
atom 25.9554040199999996 30.6135207700000009 2.4914465400000001 Au
atom 0.4466430700000000 30.4782337100000014 2.6451821500000001 Au
atom 3.3236016300000002 30.4563835800000007 2.5694390100000000 Au
atom 6.1647250299999996 30.4764846700000014 2.3999414400000001 Au
atom 7.5799210800000001 32.8891739999999970 2.5209158500000002 Au
atom 10.3678510300000006 32.8561478600000001 2.5861883899999998 Au
atom 13.1803382399999993 32.9798000799999969 2.6230828800000001 Au
atom 15.9777149900000008 32.9824276699999999 2.5000510700000000 Au
atom 18.8326126800000004 32.9644089499999993 2.6184129500000002 Au
atom 21.6031568599999986 32.9637059000000008 2.4876657000000000 Au
atom 24.3932862099999994 32.8633982899999992 2.5476375099999999 Au
atom 27.2498307299999993 33.1429952000000014 2.8583169000000002 Au
atom 1.8819534200000001 32.8960865000000027 2.5130254600000002 Au
atom 4.7403400199999997 32.9349485400000006 2.5888521700000000 Au
atom 8.8991245899999996 35.3680695899999975 2.5662079000000002 Au
atom 11.6809233900000002 35.4070027100000004 2.6212853400000000 Au
atom 14.5773962200000007 35.4393566399999997 2.6491886400000002 Au
atom 17.4046064700000009 35.3931849000000014 2.7450244000000001 Au
atom 20.2202886900000003 35.4864009200000012 2.6698829700000002 Au
atom 23.0023088899999983 35.4394436500000012 2.6736293600000001 Au
atom 25.8576125899999987 35.3250519099999991 2.5088893799999998 Au
atom 0.4647203000000000 35.4101068299999966 2.5861022199999999 Au
atom 3.2512585600000001 35.3426913600000034 2.6841065600000000 Au
atom 6.0396234599999996 35.3454825299999982 2.6338716899999999 Au
atom 7.3576108500000004 37.8278733200000019 2.4524644800000002 Au
atom 10.2146013700000005 37.8261908300000016 2.7221588799999998 Au
atom 13.0455101599999992 37.8768159600000018 2.7255853900000000 Au
atom 16.0542465400000012 37.8193121400000010 2.7267019000000001 Au
atom 18.7581586700000003 37.8565420199999991 2.8774593199999998 Au
atom 21.6014272699999985 37.8538873099999975 3.0557124700000000 Au
atom 24.3969297300000001 37.9047170600000030 2.6089488099999998 Au
atom 27.3431240899999999 37.7686019699999989 2.8290112999999999 Au
atom 1.7165417300000001 37.8387574400000020 2.4402809400000001 Au
atom 4.8104827999999999 37.8324550199999976 2.8168673800000001 Au
atom 8.8804732899999994 0.8073589300000000 2.8308750100000002 Au
atom 11.7379228300000005 0.8921024100000000 2.7937829199999999 Au
atom 14.5563635900000001 0.9124044100000001 2.7522737600000000 Au
atom 17.4076403699999993 0.8199220600000000 2.7247386499999999 Au
atom 20.1923805999999999 0.8594716700000000 2.8707657700000002 Au
atom 23.1138104499999990 0.9260349500000000 2.7904593700000002 Au
atom 25.6745652399999997 0.9362510300000000 2.5069711300000002 Au
atom 0.3572382800000000 0.9868566800000000 3.0011788899999998 Au
atom 3.2901789600000000 0.8662442600000000 2.9102372999999999 Au
atom 6.2446748400000001 0.8752174900000000 2.7990091700000002 Au
atom 7.5461914400000003 3.3576847299999999 2.6505026400000000 Au
atom 10.3014686999999991 3.2271072799999998 2.8057217300000001 Au
atom 13.1158666700000008 3.4263420099999999 2.7858590400000001 Au
atom 15.9687974300000004 3.3644937000000001 2.7887435300000001 Au
atom 18.7810690499999993 3.4217426099999999 2.7328361100000000 Au
atom 21.6420745299999986 3.3349413200000000 2.8100050500000000 Au
atom 24.4377744099999994 3.3363290600000002 2.6194183899999999 Au
atom 27.1599968700000005 3.2073119000000001 2.6349493700000002 Au
atom 1.8883745500000000 3.3812127799999998 2.6999457400000000 Au
atom 4.7241784999999998 3.3885931999999999 2.7665900799999998 Au
atom 8.9846006400000000 5.7920595600000002 2.8750694000000001 Au
atom 11.7963818400000005 5.8835318699999997 2.7034535900000001 Au
atom 14.5932876199999999 5.8906179099999996 2.8076769000000001 Au
atom 17.4636362500000004 5.8668627400000002 2.8622497600000001 Au
atom 20.2718464699999998 5.8170637000000003 2.7262956100000002 Au
atom 23.0094393199999985 5.7272255300000001 2.9078372500000000 Au
atom 25.8592563200000001 5.8034901500000000 2.7177739399999998 Au
atom 0.4525146500000000 5.7760239200000001 2.6087839499999999 Au
atom 3.3271744999999999 5.7860046699999996 2.7921485300000000 Au
atom 6.1568451499999997 5.8732728500000002 2.6222808700000000 Au
atom 7.5852829300000000 8.2806435399999998 2.6681461899999999 Au
atom 10.3736820800000000 8.2493770299999998 2.6044854399999999 Au
atom 13.2542825600000000 8.3505300400000007 2.3718733099999998 Au
atom 15.9831827999999998 8.2549164600000005 2.6704857500000001 Au
atom 18.8128959000000009 8.2797859599999999 2.7937265700000000 Au
atom 21.5973162999999992 8.2863171999999992 2.7263280999999999 Au
atom 24.3865124599999987 8.2499814699999998 2.7697896800000001 Au
atom 27.2542339200000008 8.3396846500000006 2.6828376500000002 Au
atom 1.8527629800000001 8.2368162799999993 2.6529849400000001 Au
atom 4.6833783100000002 8.3025144900000001 2.5381327200000001 Au
atom 9.0146265299999992 10.7349583899999992 2.8192930299999999 Au
atom 11.7445526800000000 10.7715953899999999 2.4005550699999998 Au
atom 14.5664782699999993 10.7825676999999995 2.4709808000000000 Au
atom 17.4147417100000013 10.6883242599999999 2.6144728200000000 Au
atom 20.2331663500000012 10.7500012999999992 2.7110647000000001 Au
atom 23.0402704599999986 10.7405226700000007 2.6592446999999999 Au
atom 25.8341751200000012 10.6473899599999999 2.7813131800000002 Au
atom 0.4766496600000000 10.6824959199999991 2.8047013199999999 Au
atom 3.2955790500000002 10.7109426200000009 2.5623270400000000 Au
atom 6.1811776700000003 10.6968830199999996 2.7813178100000000 Au
atom 7.3619300599999997 13.0752275299999994 5.6852584100000003 Cl
atom 7.6105909599999997 16.0359198899999988 8.5161014799999997 Cl
atom 7.5550197099999998 13.2837353399999998 8.3214448099999991 Na
atom 7.5776195599999996 16.0816449500000012 5.6532746899999999 Na
atom 7.5562966899999999 18.9305641400000013 5.7843529499999997 Cl
atom 7.5079337700000002 21.6563523599999996 8.6595522900000006 Cl
atom 7.3709740000000004 18.8585879399999996 8.4411388100000000 Na
atom 7.6739140499999996 21.6905926200000003 5.9227075400000002 Na
atom 7.6967556200000002 24.4574178700000004 5.7697633599999998 Cl
atom 7.5924009000000003 27.2155838500000016 8.4839635300000005 Cl
atom 7.5408515200000004 24.4609262899999997 8.4505612499999998 Na
atom 7.5091440499999997 27.2303859199999998 5.6554813700000004 Na
atom 7.6022844500000000 30.1865780299999997 5.5890782100000003 Cl
atom 7.6566704799999998 32.8378552900000003 8.4738041000000006 Cl
atom 7.5633622699999998 30.1175963899999992 8.2443799099999993 Na
atom 7.6268219200000003 32.8608959000000027 5.7598018700000004 Na
atom 7.5132610599999996 35.8471067300000001 5.6592818300000003 Cl
atom 7.5694871700000004 38.5276872000000026 8.5415998599999998 Cl
atom 7.5694333299999998 35.6392008600000025 8.3509658899999994 Na
atom 7.7756755499999999 38.6858548800000008 6.0025911699999996 Na
atom 7.7399900300000004 1.9323078700000000 5.8276602200000003 Cl
atom 7.5899233400000004 4.7580112500000000 8.6176585499999998 Cl
atom 7.4263830300000002 2.0273068099999998 8.4761981199999994 Na
atom 7.5291779600000002 4.5988370099999996 5.9680578600000000 Na
atom 7.4595752500000003 7.3364959900000004 5.7383051399999996 Cl
atom 7.7077106200000003 10.1867469800000006 8.7071414800000007 Cl
atom 7.6210648699999997 7.5214135600000001 8.4054580300000001 Na
atom 7.4769698000000000 10.2261882699999997 5.7891769699999998 Na
atom 10.3322503799999996 13.1899156000000009 5.6554096800000000 Na
atom 13.4021345699999994 13.0005646699999993 5.3926611600000003 Cl
atom 10.2537499000000007 16.1158535699999987 8.3440673699999994 Na
atom 13.0734557299999992 16.1156122000000011 8.5054494199999997 Cl
atom 13.2655859300000003 13.2683313300000005 8.4114652000000003 Na
atom 10.4768218500000003 13.1570944300000008 8.3064963800000005 Cl
atom 13.2036567100000006 16.0496401400000011 5.5483402799999997 Na
atom 10.5402087200000008 16.0182909100000010 5.7477452900000001 Cl
atom 10.3737612800000001 18.9369025800000017 5.9013916000000002 Na
atom 13.2043348700000003 19.0882297899999998 5.7029592500000001 Cl
atom 10.5075621699999999 21.7380604999999996 8.5203427299999994 Na
atom 13.1953919699999993 21.5782243600000001 8.7093790299999991 Cl
atom 13.2090837099999998 18.8624043899999982 8.2338951599999994 Na
atom 10.3179619900000006 18.9352862299999991 8.5637637499999997 Cl
atom 13.0980039300000008 21.6340013800000008 5.8854200900000002 Na
atom 10.5772242300000006 21.6242572499999994 5.8642876399999997 Cl
atom 10.3996664600000006 24.4965831499999993 5.9598651499999997 Na
atom 13.0130003100000007 24.4107885399999986 5.8772351000000000 Cl
atom 10.3996088100000001 27.2099851199999989 8.3882306700000004 Na
atom 13.1947668799999995 27.4223211800000009 8.9024326899999995 Cl
atom 13.2746696100000001 24.5042641299999993 8.4865732499999993 Na
atom 10.3402462100000001 24.5149307100000016 8.8625942299999991 Cl
atom 13.2206481000000000 27.1529820800000010 6.0511123900000001 Na
atom 10.5397342100000007 27.3673738299999982 5.7880146899999998 Cl
atom 10.4856925200000006 30.0342392999999994 5.7415004300000003 Na
atom 13.2840762300000002 30.0789657300000002 5.7994300599999997 Cl
atom 10.4491085600000009 32.8795137400000002 8.3020941300000004 Na
atom 13.1394481499999998 32.9039356299999994 8.7072441800000000 Cl
atom 13.1500372300000006 30.1937884399999987 8.5564348399999997 Na
atom 10.2679473199999993 30.1009246600000004 8.5262775400000006 Cl
atom 13.1635446599999995 32.8763574099999971 5.9072335799999998 Na
atom 10.3608128199999996 32.9877851099999972 5.7030653100000004 Cl
atom 10.3293488100000008 35.8340665999999999 5.8554115400000004 Na
atom 13.2099390999999997 35.7440947899999983 5.7619840099999999 Cl
atom 10.4385164899999996 38.5641730299999992 8.6393291899999998 Na
atom 13.1060369899999998 38.5654686600000005 8.6747234100000004 Cl
atom 13.0662748299999993 35.8150377600000027 8.4976344600000004 Na
atom 10.2635745699999994 35.7147510699999984 8.6582217600000000 Cl
atom 13.0513003800000007 38.5093061199999980 5.9438258800000003 Na
atom 10.2029779400000002 38.6109144599999965 5.9143073299999998 Cl
atom 10.2663689700000003 1.8381915600000001 6.0074174200000003 Na
atom 13.1890827900000005 1.8842737199999999 5.8892075100000003 Cl
atom 10.4619836799999995 4.7626537600000001 8.3861589999999993 Na
atom 13.1679177599999999 4.6640550500000000 8.5247256500000006 Cl
atom 13.2424885099999994 1.7846119899999999 8.3928905799999995 Na
atom 10.1722728599999996 1.7816083300000001 8.8039746399999999 Cl
atom 13.1492992300000004 4.6951294499999996 5.7969658600000002 Na
atom 10.3091962499999994 4.6474799800000000 5.7607778400000003 Cl
atom 10.3248852600000003 7.6835334900000003 5.8541527899999997 Na
atom 13.2556318300000004 7.5776441999999999 5.6848243299999996 Cl
atom 10.4332922299999993 10.4828326399999998 8.0705919000000002 Na
atom 13.3400098200000006 10.3933032999999995 8.5625242700000008 Cl
atom 13.1658331499999992 7.7616571800000003 8.3597188500000001 Na
atom 10.3603059099999992 7.6885821999999999 8.5606905799999993 Cl
atom 13.2879985000000005 10.1393425599999993 5.3258580599999998 Na
atom 10.3755195300000000 10.3235298300000000 5.4537144599999996 Cl
atom 16.0414201399999996 12.9654518099999994 5.6113848099999997 Na
atom 18.8984979700000011 13.0329215200000004 5.7965020699999998 Cl
atom 16.1584016800000008 16.0491702600000004 8.3262209299999999 Na
atom 18.7634211300000011 16.1076664899999997 8.5796506299999997 Cl
atom 18.7241302800000007 13.0883082000000002 8.3998013799999995 Na
atom 15.9862674299999998 13.1640002200000001 8.2698017499999992 Cl
atom 18.8600526200000012 16.1325128999999983 5.8508746599999997 Na
atom 16.1437399600000013 16.0280415800000000 5.7094318800000003 Cl
atom 16.1565655700000015 18.7257756499999992 5.9431738699999999 Na
atom 18.7823243099999999 18.7789374299999992 5.7649115100000001 Cl
atom 15.8739310200000006 21.7115504399999999 8.4772617100000005 Na
atom 19.0561333499999996 21.5248662700000004 8.7590062500000005 Cl
atom 18.9477647800000000 18.8876739700000016 8.4879237399999994 Na
atom 16.1573081400000014 18.8764619899999992 8.6774388499999997 Cl
atom 18.7635267600000013 21.6021351300000006 5.9869687300000001 Na
atom 15.9675799299999994 21.6555997299999987 5.8278145200000004 Cl
atom 16.0036430799999998 24.4146562399999993 5.5805206199999997 Na
atom 18.8885835200000010 24.3691484100000011 5.6948889300000003 Cl
atom 16.0081275900000009 27.1284948499999992 8.6382327799999992 Na
atom 18.8704368799999997 27.1525663799999997 8.6884488599999994 Cl
atom 18.7863465800000000 24.2448745800000012 8.3576965199999993 Na
atom 15.9515194900000008 24.3836167300000000 8.3791825099999997 Cl
atom 19.0225054399999998 27.1024527599999985 5.9923036200000004 Na
atom 15.8039029600000003 27.2583019899999996 6.0127189599999999 Cl
atom 15.9057414799999997 30.0498559199999988 5.8237365499999996 Na
atom 18.7846634100000003 30.0851796600000014 5.6968308499999996 Cl
atom 15.9753883400000003 32.8234639400000034 8.4782959899999994 Na
atom 18.8191717800000013 32.9291903900000023 8.5496131900000005 Cl
atom 18.6988162699999982 30.0471248399999986 8.3465810800000000 Na
atom 15.9216558999999993 30.0982151699999996 8.6730398900000001 Cl
atom 18.6092141399999988 32.7107466799999997 5.8987967699999997 Na
atom 16.0157173999999998 32.8527554699999982 5.7836262700000001 Cl
atom 15.9362881400000003 35.7159938799999992 5.8694389999999999 Na
atom 18.6862113299999990 35.6117600800000034 5.7674262399999998 Cl
atom 15.9541815099999997 38.4568909199999993 8.3880025800000002 Na
atom 18.8234402900000006 38.4515688400000002 8.6368257400000008 Cl
atom 18.7477329499999996 35.7226239299999975 8.3810377000000003 Na
atom 15.9248375800000002 35.7966269100000005 8.5965156100000009 Cl
atom 18.6995968700000006 38.4890596600000023 6.0900106699999998 Na