#===============================================================================
# Created using the Atomic Simulation Environment (ASE)

# Tue Dec 23 21:42:51 2025

#=======================================================
lattice_vector 28.1999999999999993 0.0000000000000000 0.0000000000000000 
lattice_vector 0.0000000000000000 39.4799999999999969 0.0000000000000000 
lattice_vector 0.0000000000000000 0.0000000000000000 62.3296083400000001 
atom 7.4495018399999999 14.7839373799999994 -0.1567158000000000 Au
atom 10.2623872499999997 14.9366608500000009 -0.2785329600000000 Au
atom 13.1946886299999999 14.9042117100000002 -0.3214018600000000 Au
atom 15.9937063599999991 14.8770512000000004 -0.3189505800000000 Au
atom 18.7929605600000009 14.9085001500000001 -0.2534637000000000 Au
atom 21.6793453700000001 14.7196517599999996 -0.0177624800000000 Au
atom 24.4845599900000011 14.7550673000000003 0.1249630500000000 Au
atom 27.2826687700000008 14.8207201899999994 0.0499356800000000 Au
atom 1.8224612200000001 14.7910932899999992 -0.0199673500000000 Au
atom 4.6329875100000004 14.7800856700000001 -0.1598642100000000 Au
atom 8.8797900300000006 17.3386167299999983 -0.2463589100000000 Au
atom 11.6883164500000003 17.4077449100000017 -0.2247832500000000 Au
atom 14.5731003500000007 17.4023316299999991 -0.3795202300000000 Au
atom 17.4501764399999999 17.4281363499999991 -0.3556959900000000 Au
atom 20.2207097000000005 17.3679362399999988 -0.1298865100000000 Au
atom 23.0320714500000001 17.2902758500000004 -0.0726768500000000 Au
atom 25.7951222800000011 17.3506387099999984 0.2612139100000000 Au
atom 0.4130502200000000 17.2428831900000006 0.0384836000000000 Au
atom 3.1697844399999999 17.2353664799999997 -0.0280245100000000 Au
atom 5.9357272400000003 17.2284016000000015 -0.1397331000000000 Au
atom 7.4532477200000002 19.7158877200000013 0.0054852700000000 Au
atom 10.2437869900000003 19.8482783100000013 -0.2751068600000000 Au
atom 13.0572272799999993 19.8117490600000004 -0.4490376500000000 Au
atom 15.9356675100000000 19.8718049699999995 -0.4259379900000000 Au
atom 18.7851560100000015 19.8298673799999996 -0.2252444000000000 Au
atom 21.6032443799999996 19.8457474699999992 0.1300312100000000 Au
atom 24.3690661900000016 19.7748792599999987 0.0834442600000000 Au
atom 27.3217267200000009 19.7031878200000001 0.0722574400000000 Au
atom 1.9098035600000001 19.7133136700000016 0.2548092300000000 Au
atom 4.6607779899999997 19.7810191199999998 -0.0969137200000000 Au
atom 8.8429559300000005 22.2430230999999985 0.0126470300000000 Au
atom 11.8266993300000003 22.2577584299999991 -0.1696718000000000 Au
atom 14.5960395700000003 22.2929945499999995 -0.4792031500000000 Au
atom 17.4415208300000018 22.2387641500000015 -0.2273105200000000 Au
atom 20.2073198500000011 22.2620236799999986 -0.0247700400000000 Au
atom 23.0408279200000017 22.2288076200000013 0.0449821600000000 Au
atom 25.8819127000000009 22.2647974200000007 0.1649043400000000 Au
atom 0.4836486700000000 22.1980836699999990 0.2812470300000000 Au
atom 3.2611697899999998 22.2337644200000000 0.0660933000000000 Au
atom 6.0629881699999997 22.1840028400000016 0.0015521000000000 Au
atom 7.5531488700000002 24.7395207699999986 0.0542138300000000 Au
atom 10.3131190900000007 24.5878456300000003 -0.1365331900000000 Au
atom 13.1619815100000004 24.7695975799999992 -0.0585757200000000 Au
atom 15.9770509399999998 24.7396927399999988 -0.3582349800000000 Au
atom 18.7529930900000004 24.6429957699999989 -0.1925744300000000 Au
atom 21.6483036800000015 24.6733489800000001 0.1512082600000000 Au
atom 24.4370782899999988 24.6477216199999987 0.1095593900000000 Au
atom 27.3410694099999994 24.6662895700000000 0.2172015700000000 Au
atom 2.0625592799999999 24.6823670600000007 0.1836399300000000 Au
atom 4.7668766299999996 24.7872200400000011 0.2481039000000000 Au
atom 8.8755125400000008 27.2229801999999985 -0.0437253300000000 Au
atom 11.6636008199999992 27.0431232199999982 0.1554469800000000 Au
atom 14.6267272300000002 27.1848396799999996 -0.1136191800000000 Au
atom 17.4245925700000015 27.1727095399999996 0.0393297400000000 Au
atom 20.3047006400000001 27.1948998400000015 0.0777380800000000 Au
atom 22.9920607299999986 27.1116177200000017 0.2927891700000000 Au
atom 25.8901196999999996 27.1737305599999992 0.0577233900000000 Au
atom 0.5015919400000000 27.1059125399999985 0.0489368500000000 Au
atom 3.2881585499999999 27.1341995000000011 -0.0500785200000000 Au
atom 6.1079116999999998 27.1849421999999983 0.1733128800000000 Au
atom 7.5423641100000003 29.6830124499999997 -0.0853832100000000 Au
atom 10.3709283200000009 29.5102192000000016 0.1441024200000000 Au
atom 13.1166690900000003 29.6363044000000002 -0.3459758600000000 Au
atom 15.9594347600000006 29.5925903099999985 0.0125230800000000 Au
atom 18.8585005000000017 29.6227519800000003 0.0101428100000000 Au
atom 21.7338134700000012 29.6330568200000002 0.0458155800000000 Au
atom 24.4974334700000007 29.5151739299999996 0.0352824000000000 Au
atom 27.3312075000000014 29.6216776800000012 -0.0852322700000000 Au
atom 1.9447260500000001 29.6664318099999988 -0.0532444500000000 Au
atom 4.7361468899999997 29.6345290100000014 0.1594052700000000 Au
atom 8.9709832100000000 32.1414276400000034 -0.1007321400000000 Au
atom 11.7624650899999992 32.0753007599999975 0.0042683000000000 Au
atom 14.5930010299999999 32.0985157200000017 0.0586533300000000 Au
atom 17.3642199400000017 32.0227525700000015 -0.0283031200000000 Au
atom 20.2018671500000018 32.0688491599999992 -0.0606532600000000 Au
atom 23.0492002099999986 32.1366157200000018 -0.0594441700000000 Au
atom 25.8426472499999988 32.0487101000000010 -0.2503822300000000 Au
atom 0.4438125400000000 32.0496189099999995 -0.2521125600000000 Au
atom 3.4109108600000000 32.0548519000000027 -0.1263595100000000 Au
atom 6.1373647800000004 32.1704654600000026 -0.2925323200000000 Au
atom 7.4816563699999996 34.6495938799999976 -0.0679870000000000 Au
atom 10.2750743700000005 34.5845410299999969 0.0291629400000000 Au
atom 13.1427864799999998 34.5161709999999999 -0.0682864800000000 Au
atom 15.8655335799999992 34.6370232299999969 -0.0806150000000000 Au
atom 18.6706393700000000 34.5611474600000008 0.1700112500000000 Au
atom 21.4981987399999994 34.5488587400000000 0.0253295900000000 Au
atom 24.3990170299999996 34.6040067599999972 -0.2851257900000000 Au
atom 27.2560846499999982 34.5615309699999997 -0.2253700900000000 Au
atom 1.8507637500000000 34.5224115899999973 -0.1927795600000000 Au
atom 4.7069071700000000 34.5197587199999987 0.0133145200000000 Au
atom 8.9906572499999999 37.0276466099999979 0.2333140200000000 Au
atom 11.7264274999999998 37.0618409799999995 -0.3040272900000000 Au
atom 14.4679828300000004 37.0614786699999996 0.0928336300000000 Au
atom 17.2280756699999991 37.0235099100000014 0.1038715800000000 Au
atom 20.0371947100000014 37.0037108000000003 0.1093730000000000 Au
atom 23.0062998100000016 37.0379025499999983 0.0656018000000000 Au
atom 25.8443517199999988 37.0174246300000007 -0.3137408000000000 Au
atom 0.4929773800000000 37.0035904100000010 0.0997190400000000 Au
atom 3.2446002500000000 37.0323104300000026 0.0070279700000000 Au
atom 6.0659123399999997 37.0161905800000000 0.2813449900000000 Au
atom 7.4903968200000000 0.0068927300000000 0.1722548500000000 Au
atom 10.2563015100000001 0.1090416100000000 0.3562729500000000 Au
atom 13.0231446000000002 0.1202978500000000 0.1471215900000000 Au
atom 15.8380431000000002 0.0888043000000000 0.2781867400000000 Au
atom 18.6873703700000000 0.0558576700000000 0.2322527200000000 Au
atom 21.5337207600000013 0.0162438200000000 0.2859672600000000 Au
atom 24.4148667800000005 -0.0366386000000000 0.0187120200000000 Au
atom 27.2211265299999994 0.1394243700000000 0.1811436400000000 Au
atom 1.8195687500000000 -0.0145922900000000 -0.0705950900000000 Au
atom 4.6026249999999997 -0.0261343300000000 -0.0379204100000000 Au
atom 8.8885453999999999 2.5664087400000000 0.4269332000000000 Au
atom 11.6852193199999999 2.5864880900000000 0.1566532600000000 Au
atom 14.4845142399999993 2.4931054100000001 0.0649365800000000 Au
atom 17.2573407600000017 2.4720613000000000 0.3561258500000000 Au
atom 20.1176164499999999 2.4164234599999999 0.1125453900000000 Au
atom 22.9104355899999987 2.5320779299999998 -0.0642488200000000 Au
atom 25.7592517200000017 2.4962233199999999 -0.1886354100000000 Au
atom 0.4355505400000000 2.4652539700000000 -0.0342673200000000 Au
atom 3.2264937200000001 2.4938909499999999 0.1246779100000000 Au
atom 6.0750108100000002 2.5333315399999998 0.1941592600000000 Au
atom 7.5008207200000001 4.9793668100000001 0.2751113600000000 Au
atom 10.3348478400000001 5.0310656900000001 0.1200417300000000 Au
atom 13.1361016399999997 4.9984612000000004 0.1197887300000000 Au
atom 15.9672455400000004 4.9561932300000002 0.1878924900000000 Au
atom 18.7920778000000013 4.8778888100000000 0.0579849500000000 Au
atom 21.5801497699999985 5.0043338500000001 -0.1344882200000000 Au
atom 24.3561409799999993 4.9914346099999998 -0.0153449300000000 Au
atom 27.1655595800000000 4.9355341700000004 -0.1095289000000000 Au
atom 1.8585393299999999 4.9398662000000000 -0.0877665000000000 Au
atom 4.6536525099999997 4.8612085399999998 0.3115593400000000 Au
atom 8.9223277499999991 7.5060039800000000 0.1563632600000000 Au
atom 11.6865541099999994 7.4962050600000003 0.1280937800000000 Au
atom 14.4903447799999991 7.4493612100000002 0.0615174800000000 Au
atom 17.3187408299999994 7.3765601099999998 0.0154384100000000 Au
atom 20.1695504099999994 7.4229402599999998 0.0805435200000000 Au
atom 22.9848986199999992 7.3546957700000002 0.1688938700000000 Au
atom 25.7207803099999985 7.4155631199999998 0.1349214900000000 Au
atom 0.3537641200000000 7.4332997100000000 0.1041961400000000 Au
atom 3.2545333500000000 7.3767050799999998 0.1221453900000000 Au
atom 6.1148274499999999 7.4282373699999997 0.3098978200000000 Au
atom 7.4488909400000001 9.9055450000000000 0.1972478500000000 Au
atom 10.2828648099999995 9.9217332000000003 -0.0525533300000000 Au
atom 13.0845918799999996 9.9217877199999993 -0.0648200900000000 Au
atom 15.9154409300000008 9.8711535500000007 -0.3306459000000000 Au
atom 18.7092495700000008 9.9341652000000007 -0.2227615800000000 Au
atom 21.5716642000000007 9.8396883299999995 0.0162148600000000 Au
atom 24.4334063999999991 9.8632037199999996 0.2551245700000000 Au
atom 27.1475658600000003 9.8923111099999996 0.0475628200000000 Au
atom 1.8233016600000000 9.7855556799999999 0.1275652400000000 Au
atom 4.6699755800000000 9.8634889999999995 0.1743835000000000 Au
atom 8.9503576799999998 12.3530309900000006 0.0121442600000000 Au
atom 11.7730500100000004 12.4776342400000004 -0.1408691700000000 Au
atom 14.5708499499999995 12.3600255499999996 -0.3131818600000000 Au
atom 17.2962286700000014 12.3549246900000007 -0.1615067300000000 Au
atom 20.1177606100000013 12.3349044499999998 0.0880312800000000 Au
atom 22.8992878200000014 12.2438924100000008 -0.0467869000000000 Au
atom 25.7294158199999998 12.3386024800000005 -0.0779882200000000 Au
atom 0.3778609100000000 12.3179979500000005 -0.1063522700000000 Au
atom 3.2551156099999998 12.2801366499999993 0.0168906800000000 Au
atom 6.0760642899999997 12.3871436100000007 0.2800794500000000 Au
atom 7.5330221100000001 13.3314543200000006 2.7355670499999998 Au
atom 10.3048670599999994 13.2729836100000007 2.4073638000000002 Au
atom 13.1349048400000008 13.3013060099999993 2.3073929299999998 Au
atom 15.8983901500000009 13.3440744500000008 2.4293220600000001 Au
atom 18.7302977999999989 13.2479333799999992 2.5046750900000001 Au
atom 21.5121751199999984 13.1255245800000004 2.7110786400000002 Au
atom 24.3033254899999989 13.1603783900000000 2.4958684799999999 Au
atom 27.0991743599999992 13.2062069199999996 2.4216796199999999 Au
atom 1.7193365000000000 13.2158882500000008 2.5932030400000001 Au
atom 4.5317563999999999 13.1925058800000006 2.6385606899999998 Au
atom 8.8819832600000002 15.6630954199999994 2.3944590699999999 Au
atom 11.7347717199999995 15.6900383399999992 2.4368741599999999 Au
atom 14.5588535100000005 15.8051882100000007 2.1916135500000000 Au
atom 17.3764973100000013 15.7238463700000004 2.3459312699999999 Au
atom 20.1777397500000006 15.6667768299999999 2.4395923499999999 Au
atom 22.8897143700000001 15.6119620300000008 2.7403977700000000 Au
atom 25.7128213599999995 15.7545546400000003 2.7400091199999999 Au
atom 0.3878070500000000 15.6152125999999996 2.8524710099999999 Au
atom 3.1635877500000000 15.6416778300000008 2.4898617100000000 Au
atom 6.0384100299999997 15.6394406299999993 2.4950413600000001 Au
atom 7.4809731499999996 18.1431999300000015 2.5056639600000001 Au
atom 10.2965538799999994 18.1474401199999988 2.2523899500000000 Au
atom 13.1038457899999994 18.2924652799999983 2.2262562799999999 Au
atom 15.9904597600000002 18.2946086200000018 2.2516871400000000 Au
atom 18.7087315399999987 18.1390427000000010 2.5330912300000001 Au
atom 21.5805822099999993 18.1075412200000017 2.6109678900000000 Au
atom 24.3287770799999983 18.2266814699999991 2.6864529199999998 Au
atom 27.2997754800000010 18.1879189200000013 2.7325309400000002 Au
atom 1.8832166200000000 18.1092915900000015 2.7816824100000002 Au
atom 4.6581760100000000 18.0458286699999988 2.4684494099999998 Au
atom 8.9033615699999995 20.5734256799999997 2.5342930400000001 Au
atom 11.6391191500000009 20.6424535800000015 2.4027834299999999 Au
atom 14.5205865500000009 20.7930714200000004 2.1650720400000001 Au
atom 17.4027042399999985 20.6561185099999989 2.4836024900000000 Au
atom 20.2089977300000001 20.4897162100000010 2.6119191800000001 Au
atom 22.9628842000000013 20.6099035899999983 2.8254264600000001 Au
atom 25.8735949500000011 20.6263459000000005 2.5229075700000001 Au
atom 0.4769636400000000 20.5945514500000009 2.9102244300000000 Au
atom 3.3139835000000000 20.5593943099999983 2.5702333300000002 Au
atom 6.0746933399999996 20.5551567400000010 2.6338343800000001 Au
atom 7.4973149399999999 23.1384544000000005 2.6879785699999998 Au
atom 10.3386295100000005 23.1461166700000014 2.4647764900000002 Au
atom 13.1313758800000002 23.1339296700000006 2.4275703399999999 Au
atom 15.9358230400000007 23.1739415800000010 2.2780027399999998 Au
atom 18.7763409500000016 23.1095475700000001 2.4530853499999998 Au
atom 21.5282675700000006 23.0659822699999992 2.6029899099999998 Au
atom 24.3191139800000009 23.0566415099999986 2.8809978799999998 Au
atom 27.1894823899999984 23.0650152499999983 2.9256747100000000 Au
atom 1.8324589700000000 23.1031507500000011 2.9335931099999999 Au
atom 4.6219661800000003 23.0592923600000006 2.7187472600000002 Au
atom 8.9315409900000002 25.6399305899999987 2.5173644700000000 Au
atom 11.7669912900000000 25.5108635100000001 2.8560493999999998 Au
atom 14.5735954099999994 25.5710332300000012 2.4125085099999999 Au
atom 17.3803904100000004 25.5317532900000010 2.5476587300000002 Au
atom 20.1874841799999984 25.5367005599999999 2.6602400500000001 Au
atom 23.0056394299999987 25.5197435699999993 2.8599093400000002 Au
atom 25.7927353199999985 25.5342721799999985 2.6203391800000002 Au
atom 0.3863160500000000 25.6072257199999989 2.9592851599999999 Au
atom 3.3341110199999999 25.6017207800000008 2.9028452800000002 Au
atom 6.1834999300000000 25.5888327000000011 2.6858146500000002 Au
atom 7.5998373700000004 28.0547652700000008 2.5685469900000002 Au
atom 10.3887997500000004 28.0463992699999984 2.8394908000000001 Au
atom 13.1989508400000002 28.0809970600000014 2.3757923600000002 Au
atom 15.9438052399999997 28.0739111200000018 2.6414034399999999 Au
atom 18.7983351300000017 27.9813692299999985 2.5513983100000002 Au
atom 21.6588272699999997 27.9839130000000011 2.8635440100000000 Au
atom 24.5672703299999995 28.0403546100000014 2.7743645099999998 Au
atom 27.3427857600000017 27.9976135600000013 2.6261879100000001 Au
atom 1.9562652400000000 28.0470825099999992 2.5158141700000001 Au
atom 4.6887420400000002 28.0517024500000005 2.6242202200000002 Au
atom 9.0272938499999995 30.5138978399999985 2.4477499100000002 Au
atom 11.8467522299999999 30.5564256100000016 2.6437206700000000 Au
atom 14.5592320199999996 30.5789285399999997 2.5960215799999999 Au
atom 17.3201076900000004 30.4417872199999984 2.7045495300000000 Au
atom 20.2466949099999987 30.3464533500000009 2.6752420200000002 Au
atom 23.0649112999999986 30.5137181099999992 2.6844281500000000 Au
atom 25.9664613799999984 30.4531042499999991 2.6468712299999999 Au
atom 0.5587934200000000 30.4597547599999992 2.5738117599999999 Au
atom 3.3475241699999998 30.5136463199999994 2.6126868100000000 Au
atom 6.1715427399999996 30.4612410000000011 2.5732764700000001 Au
atom 7.5127265500000000 32.9455263600000023 2.4664997400000002 Au
atom 10.3427599699999995 32.9857630699999973 2.5918945500000001 Au
atom 13.1291915800000005 33.0600514200000006 2.7195499700000001 Au
atom 15.9886964999999996 33.0255680900000002 2.6115431600000001 Au
atom 18.8059849899999989 32.8864538600000031 2.5654513099999998 Au
atom 21.6290293200000008 32.9699527300000028 2.5917013099999999 Au
atom 24.4748918400000015 32.8471139099999974 2.3622450300000000 Au
atom 27.3572649400000003 32.9749490399999985 2.4263653399999998 Au
atom 1.8906295799999999 32.9452852000000007 2.4248191000000001 Au
atom 4.7086174400000003 32.8583087700000007 2.5121822400000000 Au
atom 8.8668335299999992 35.3815707300000000 2.7318185499999998 Au
atom 11.7437526999999999 35.4739905300000018 2.3574764500000001 Au
atom 14.5017255800000004 35.4481337400000029 2.7184320600000000 Au
atom 17.2703836899999992 35.4772774699999971 2.5719894299999999 Au
atom 20.0996124400000014 35.3825443100000001 2.7384765799999999 Au
atom 22.9642303299999995 35.3505876500000014 2.4979434100000000 Au
atom 25.7918086500000001 35.3185126199999999 2.2693147499999999 Au
atom 0.4566317800000000 35.4225635700000012 2.5713836099999998 Au
atom 3.2436086799999999 35.3982823500000023 2.5421596900000001 Au
atom 5.9869033099999998 35.2876479399999994 2.7252844700000001 Au
atom 7.5152766000000000 37.8353154699999976 2.7024194800000001 Au
atom 10.3626662700000001 37.8289834200000001 2.7836596199999999 Au
atom 13.1498842299999996 37.9737036900000007 2.5292507500000001 Au
atom 15.8556386600000003 37.9429521500000035 2.6135602300000000 Au
atom 18.7003670200000016 37.8154170600000015 2.8070359100000002 Au
atom 21.5259488499999989 37.7767983800000025 2.7071560799999999 Au
atom 24.3629881700000013 37.8628922799999970 2.6407414400000002 Au
atom 27.1975696099999986 37.7970952100000019 2.6127575200000002 Au
atom 1.8901848600000000 37.8862824899999993 2.7008428499999999 Au
atom 4.6247507700000003 37.8378230699999989 2.6919892000000001 Au
atom 8.8569722100000003 0.8554100000000000 2.9242866500000000 Au
atom 11.6819941200000006 0.9237549700000000 2.8591454100000000 Au
atom 14.5259092699999997 0.9068089600000000 2.9549910399999999 Au
atom 17.3592555799999992 0.7922361700000000 2.8824876000000001 Au
atom 20.1405839299999982 0.7610044500000001 2.7539176200000002 Au
atom 22.9993631799999996 0.8017774600000001 2.7615954800000000 Au
atom 25.7628120000000003 0.8545215900000001 2.5636776800000001 Au
atom 0.4482343700000000 0.8461824800000000 2.6863199500000001 Au
atom 3.1730472500000002 0.8687582300000000 2.6500009800000002 Au
atom 6.0608124099999996 0.8440696800000000 2.6801887700000000 Au
atom 7.3903840699999996 3.4242308100000001 2.9075834100000000 Au
atom 10.2745334699999997 3.4070424500000001 2.9301635199999998 Au
atom 13.0887601000000000 3.3921725600000001 2.6824738799999999 Au
atom 15.9006932400000007 3.3206680700000000 2.9245367799999999 Au
atom 18.7898606900000011 3.2814849499999998 2.7933250300000001 Au
atom 21.4965726199999985 3.2240857400000000 2.6728398300000000 Au
atom 24.3664950599999983 3.3261089699999999 2.5634893500000002 Au
atom 27.2589408199999994 3.3410096600000001 2.4585489400000000 Au
atom 1.8121227600000001 3.3911292799999999 2.4927454700000000 Au
atom 4.6184938300000002 3.3231201800000001 2.8491252999999999 Au
atom 8.8831481100000005 5.8074641600000003 2.7058244100000000 Au
atom 11.7446403099999994 5.8494235200000002 2.8815027600000001 Au
atom 14.6664963200000003 5.8410049400000004 2.6924614000000000 Au
atom 17.4429309000000003 5.8544004500000000 2.6197508699999998 Au
atom 20.2377001700000001 5.8069423799999997 2.6732342299999998 Au
atom 22.9478248299999983 5.6926271000000002 2.6690145599999999 Au
atom 25.8079680300000014 5.7138491100000000 2.6210500099999998 Au
atom 0.3995123400000000 5.7799992500000004 2.6122619299999998 Au
atom 3.2108322800000000 5.8467574000000004 2.8472382399999998 Au
atom 5.9838246300000000 5.8735223000000003 2.8691493800000001 Au
atom 7.4982026299999998 8.3053756100000005 2.9088050800000000 Au
atom 10.2035911200000005 8.3351679399999998 2.7725660799999998 Au
atom 13.1170961699999999 8.3466642699999998 2.5517938199999999 Au
atom 16.0548849599999990 8.3886334300000005 2.4070111900000000 Au
atom 18.7832745500000016 8.3278905200000004 2.5898279999999998 Au
atom 21.6536471400000003 8.2236653000000004 2.7368619800000000 Au
atom 24.4430325599999989 8.2077401099999996 2.8523423900000000 Au
atom 27.1698506600000016 8.1908100200000007 2.7552930700000000 Au
atom 1.7281898400000000 8.3277954699999999 2.9096255300000000 Au
atom 4.5426326299999999 8.3499922000000009 2.7481631900000001 Au
atom 8.8838214000000004 10.8056254599999999 2.7099899299999999 Au
atom 11.6682047000000004 10.8009969500000000 2.4012031500000002 Au
atom 14.6189127100000000 10.8232062199999994 2.3635312800000001 Au
atom 17.3995164699999982 10.7825259199999994 2.3759353700000001 Au
atom 20.1289679399999990 10.6700006300000005 2.5645134299999999 Au
atom 23.0310337400000016 10.6640080400000006 2.7799752400000002 Au
atom 25.8033841200000005 10.7329711099999994 2.8548711800000000 Au
atom 0.3663080100000000 10.7746475799999999 2.6740736900000002 Au
atom 3.1395991599999999 10.8208224400000006 2.6503760700000001 Au
atom 6.0221083100000001 10.7957998400000008 2.7303540399999999 Au
atom 7.6147732000000001 12.8612431800000007 5.7058616899999999 Cl
atom 7.8086071800000001 15.9203204199999995 8.1970042000000003 Cl
atom 7.8837117799999996 13.0959293999999993 8.3333643700000000 Na
atom 7.6301259000000003 15.8233085199999994 5.6042427100000003 Na
atom 7.6017949500000004 18.6408558100000015 5.5596992800000002 Cl
atom 7.7704878700000002 21.5043943099999986 8.3588655299999992 Cl
atom 7.7762165699999999 18.6584852400000010 8.1844011400000003 Na
atom 7.6392826600000001 21.4062877500000006 5.5620557499999999 Na
atom 7.7282886700000004 24.3139628399999985 5.7661152199999997 Cl
atom 7.7808109200000004 27.0974406399999985 8.5375337299999998 Cl
atom 7.7167127400000002 24.3135747000000002 8.3554006399999992 Na
atom 7.7272271400000001 27.1555730699999991 5.8210692999999996 Na
atom 7.8662318899999999 29.9940882000000002 5.6627693800000003 Cl
atom 7.6482816299999996 32.8039522400000010 8.5923996599999999 Cl
atom 7.6669632099999996 29.9456315900000014 8.3746560700000003 Na
atom 7.6522030699999997 32.9126189500000024 5.7770906899999996 Na
atom 7.7950848500000003 35.7252762600000011 5.6975322500000001 Cl
atom 7.7142511000000002 38.3899838600000010 8.4917685899999995 Cl
atom 7.7182599900000000 35.4947124600000024 8.3519218300000002 Na
atom 7.6300396499999996 38.6211196799999996 5.8371150099999998 Na
atom 7.7490272500000001 1.7782238200000000 5.7933196899999997 Cl
atom 7.6912622900000001 4.3556925399999997 8.5667844199999994 Cl
atom 7.7816341099999997 1.6518189700000001 8.4190679399999997 Na
atom 7.5498174699999998 4.5073156200000000 5.7024426999999998 Na
atom 7.7117579200000002 7.3268623599999998 6.0770735800000004 Cl
atom 7.8986977300000003 10.1193523400000007 8.5052178299999994 Cl
atom 7.8513783699999999 7.1392655100000004 8.6579315599999997 Na
atom 7.6527400099999996 10.0906682799999992 5.8745428100000003 Na
atom 10.4546500899999995 13.0605478599999998 5.5567361599999998 Na
atom 13.2807225199999994 13.0759938600000005 5.4104048999999996 Cl
atom 10.5800698700000009 15.8233189099999993 8.0033034000000001 Na
atom 13.3675799400000006 15.9286754199999994 8.3645480699999997 Cl
atom 13.3408650800000004 13.1161187100000003 8.3812998099999998 Na
atom 10.5842076299999999 13.0613831800000000 8.5946724400000001 Cl
atom 13.3971630699999995 15.9014383499999994 5.5136853800000001 Na
atom 10.5229060800000003 15.8341272199999992 5.4773959400000001 Cl
atom 10.6033868499999997 18.6603278900000014 5.6845828000000003 Na
atom 13.4804501600000002 18.8551438900000008 5.7692441800000003 Cl
atom 10.6524969699999996 21.5887876600000013 8.2361789900000009 Na
atom 13.4898528899999999 21.5945878399999991 8.5089833299999995 Cl
atom 13.4605145099999994 18.7750431199999994 8.3150501200000004 Na
atom 10.5166376899999996 18.8411464600000009 8.4423007900000009 Cl
atom 13.3668940999999997 21.6238220000000005 5.7712899499999999 Na
atom 10.5372214300000007 21.6380211699999982 5.5837514800000001 Cl
atom 10.4605526999999991 24.4939473499999991 5.8886922300000002 Na
atom 13.4324462800000006 24.4449243000000003 5.5899649000000000 Cl
atom 10.4814852199999997 27.3832462300000010 8.4620151700000008 Na
atom 13.2527970600000007 27.4282389199999983 8.6444720000000004 Cl
atom 13.4430021600000007 24.4821479199999992 8.5320540800000000 Na
atom 10.7077338799999993 24.3970291199999991 8.7268997000000006 Cl
atom 13.4155150499999998 27.0353338900000004 5.7170200500000004 Na
atom 10.5625680099999997 27.1284506500000013 5.8344408799999998 Cl
atom 10.6472295999999993 29.8915789700000012 5.7474193299999996 Na
atom 13.3086605900000006 29.9115567300000009 5.8187864700000000 Cl
atom 10.4374823899999996 32.7739465599999988 8.4387793200000001 Na
atom 13.4276191100000002 32.7791690900000035 8.5720491100000000 Cl
atom 13.2058088500000004 30.0837531899999995 8.4535667199999995 Na
atom 10.4734911900000007 30.1196979599999999 8.6594005299999992 Cl
atom 13.3546222100000005 32.9763895000000034 5.8675817900000000 Na
atom 10.5506859100000003 32.9912004999999979 5.8183356399999999 Cl
atom 10.4813761299999992 35.7242511600000014 5.7176086499999998 Na
atom 13.2280559100000001 35.7372546400000033 5.7567093299999996 Cl
atom 10.4851859300000001 38.3705005300000010 8.3890526699999999 Na
atom 13.3314143800000000 38.4283302500000019 8.4615189799999992 Cl
atom 13.3136402900000004 35.6932876300000004 8.3320728200000005 Na
atom 10.5392531900000002 35.5249162499999969 8.5739924199999997 Cl
atom 13.2507953500000006 38.4215988199999998 5.6622347399999997 Na
atom 10.6564224900000006 38.5745195699999996 5.7589623699999999 Cl
atom 10.5193727900000003 1.8379741700000001 5.8578553500000003 Na
atom 13.3399208199999997 1.7803334500000001 5.7840542299999997 Cl
atom 10.6054986299999996 4.6391259099999997 8.3709103200000001 Na
atom 13.4049718700000007 4.5509650700000002 8.6789618100000006 Cl
atom 13.2630687199999997 1.7186208999999999 8.5060585399999997 Na
atom 10.4336922600000008 1.6917098699999999 8.6613955399999991 Cl
atom 13.3268341299999999 4.4503202999999996 5.9862615999999997 Na
atom 10.4245730999999999 4.5490140300000004 5.7002164500000001 Cl
atom 10.4367484499999996 7.1989352499999999 5.9245269299999999 Na
atom 13.4602701200000006 7.3603019400000003 5.9248748500000001 Cl
atom 10.6365890200000006 10.2108755099999993 8.4761674199999995 Na
atom 13.4245241899999996 10.2497364900000001 8.5350669799999999 Cl
atom 13.4107121100000004 7.4117916700000004 8.5561159599999996 Na
atom 10.5751714600000000 7.3837474700000003 8.5032425600000003 Cl
atom 13.4164823099999992 10.2053994200000009 5.6869670899999996 Na
atom 10.5412392700000002 10.0460547200000008 5.5351938699999996 Cl
atom 16.1033954399999999 13.1425436599999994 5.6263697500000003 Na
atom 19.0186414600000013 13.0094033499999995 5.7380826699999998 Cl
atom 16.0902572299999989 15.9288894499999998 8.2531783500000007 Na
atom 18.9038067800000000 15.8612792799999998 8.3912504400000003 Cl
atom 19.0222775499999983 13.0703502599999997 8.2859264100000001 Na
atom 16.0639345700000007 12.9645186300000006 8.3034484099999997 Cl
atom 18.9839123100000009 15.7628237299999991 5.5079080999999999 Na
atom 16.1555397999999997 15.8667622500000007 5.5115970299999999 Cl
atom 16.2866697500000015 18.6639304800000012 5.7073542000000002 Na
atom 19.1710363199999989 18.5308980299999995 5.6147162300000000 Cl
atom 16.1219397399999984 21.5016022800000002 8.1284854000000006 Na
atom 18.9100419899999999 21.4827848500000016 8.4316205199999992 Cl
atom 18.9676870899999983 18.5998263299999991 8.3335438800000006 Na
atom 16.1818561099999982 18.6144031500000011 8.4523675899999997 Cl
atom 19.0267759100000013 21.4912713099999984 5.6898153699999998 Na
atom 16.1360496799999993 21.5414660600000012 5.5750748300000001 Cl
atom 16.1069145700000007 24.3419409299999998 5.7049326300000001 Na
atom 19.0415473199999994 24.3018542500000017 5.7780265499999999 Cl
atom 16.1565633999999996 27.2220326700000008 8.5670833399999999 Na
atom 18.8659326000000007 27.1632756899999990 8.4547845600000002 Cl
atom 18.9417704499999999 24.3694905099999986 8.3357996399999994 Na
atom 16.3107314099999989 24.2329741600000013 8.4265720399999999 Cl
atom 18.7678223499999994 27.1736099499999995 5.6971906199999998 Na
atom 15.9737427299999997 27.1106876999999997 5.8227940000000000 Cl
atom 16.0337022199999986 30.0385437099999990 5.8813712200000001 Na
atom 18.7517786899999983 30.0122525200000005 5.5947295600000002 Cl
atom 16.1994993200000010 32.9036816500000029 8.3016656700000002 Na
atom 18.9126617599999989 32.7906909100000021 8.4788987099999993 Cl
atom 19.0114492599999991 29.8666620899999984 8.3705107600000002 Na
atom 16.2004393600000007 30.0827808700000006 8.4754234700000008 Cl
atom 19.0653592600000010 32.7403430299999982 5.7329987600000001 Na
atom 16.0699456299999994 32.9287412700000033 5.6118424800000000 Cl
atom 16.0596356399999998 35.5907673999999972 5.7703053300000002 Na
atom 18.9794693899999984 35.6140301300000033 5.7159194199999996 Cl
atom 16.0583139000000017 38.3922390399999998 8.4897069599999995 Na
atom 18.9133521999999985 38.3166152399999973 8.5447662100000006 Cl
atom 18.9842231199999993 35.5522741400000015 8.3542388600000006 Na
atom 16.1740549400000013 35.6971216000000027 8.5391078399999998 Cl
atom 18.9105079300000014 38.5029338100000018 5.8224329600000004 Na