#===============================================================================
# Created using the Atomic Simulation Environment (ASE)

# Tue Dec 23 22:26:51 2025

#=======================================================
lattice_vector 28.1999999999999993 0.0000000000000000 0.0000000000000000 
lattice_vector 0.0000000000000000 39.4799999999999969 0.0000000000000000 
lattice_vector 0.0000000000000000 0.0000000000000000 62.3296083400000001 
atom 7.3947664099999999 14.5592072899999998 -0.2793928300000000 Au
atom 10.1999854800000005 14.7561877599999995 -0.4404477500000000 Au
atom 13.0311159599999993 14.7854978500000005 0.0029283200000000 Au
atom 15.9509996100000002 14.6530992999999992 -0.2281311900000000 Au
atom 19.0731492500000002 14.8428784199999999 -0.1002539200000000 Au
atom 21.6696631000000011 14.9800271899999995 -0.3239363800000000 Au
atom 24.5307383100000003 14.6068513200000005 0.0562327100000000 Au
atom 27.3774714999999986 14.9344928699999997 0.1789065100000000 Au
atom 1.8585740700000000 14.7662217299999998 0.1860110000000000 Au
atom 4.7506723400000004 14.8335169100000002 -0.0234136000000000 Au
atom 8.8501080800000000 17.3123921199999984 -0.4375472500000000 Au
atom 11.8096326099999995 17.1398531100000007 -0.4416258800000000 Au
atom 14.6314480299999996 17.3145345900000009 -0.3053071100000000 Au
atom 17.4623285199999998 17.2820162300000000 0.1568151100000000 Au
atom 20.3040914199999989 17.0804909599999988 -0.1423901200000000 Au
atom 23.1152052899999987 17.2020351299999987 -0.1000026400000000 Au
atom 25.9423985100000003 17.3322683899999994 0.0312034500000000 Au
atom 0.4710056000000000 17.1994379799999990 0.1385905100000000 Au
atom 3.2750201699999999 17.1176697799999999 -0.0664962400000000 Au
atom 5.9568755299999996 17.2514381499999985 -0.3359317500000000 Au
atom 7.3611025000000003 19.7177795899999992 -0.1967240300000000 Au
atom 10.3394197099999996 19.8197171599999997 -0.4437887700000000 Au
atom 13.0112445700000006 19.8573311799999992 -0.5020805699999999 Au
atom 15.9951199899999992 19.7617696800000004 -0.2963809000000000 Au
atom 18.7982887599999984 19.7309740500000004 -0.0391917900000000 Au
atom 21.5732705100000004 19.8365763999999984 0.0968033500000000 Au
atom 24.4094285699999993 19.7905796000000009 0.1918360200000000 Au
atom 27.2657193400000004 19.5970165099999996 0.0353360200000000 Au
atom 1.8285651599999999 19.5847216999999993 -0.0526864500000000 Au
atom 4.7897361900000002 19.8836578800000012 -0.1786363400000000 Au
atom 8.6725350599999995 22.1599743999999994 -0.3299155700000000 Au
atom 11.5327395500000005 22.2089444900000004 -0.2202421100000000 Au
atom 14.4786975400000006 22.3097415199999993 0.0927747900000000 Au
atom 17.2617425400000002 22.0317128099999984 -0.0719506000000000 Au
atom 20.2653658199999995 22.4130250699999998 0.0427940700000000 Au
atom 22.8429409600000000 22.2489580899999986 0.0206197300000000 Au
atom 25.8481785500000001 22.2893353199999993 -0.0672896200000000 Au
atom 0.4309096500000000 22.2582042599999994 0.0002329400000000 Au
atom 3.1050413600000000 22.1792286999999995 0.2712533900000000 Au
atom 6.0101449699999998 22.0711368400000012 0.0021785800000000 Au
atom 7.4826448299999999 24.6241853000000006 -0.0660348200000000 Au
atom 10.2521316500000008 24.7897028400000004 -0.1327463100000000 Au
atom 13.0820277600000008 24.7184294999999992 0.0892608500000000 Au
atom 15.8302736199999998 24.7819771700000011 0.0364776600000000 Au
atom 18.7978250899999999 24.8277738499999998 0.1602748000000000 Au
atom 21.6070247000000002 24.6388533900000013 -0.1485164300000000 Au
atom 24.5447783500000014 24.4629996699999985 0.0710012500000000 Au
atom 27.1039760500000000 24.6563865100000008 0.2725850400000000 Au
atom 1.7056952400000001 24.6632364700000011 -0.0333156500000000 Au
atom 4.6874324800000000 24.6132363900000009 0.0434074500000000 Au
atom 8.9082548999999993 27.1719443399999996 -0.0785956700000000 Au
atom 11.6569114099999993 27.2619674600000010 -0.0667531100000000 Au
atom 14.5616772799999996 27.2610577399999983 0.0148909900000000 Au
atom 17.2903389599999997 27.0985549900000002 0.1207436900000000 Au
atom 20.1605471300000012 27.1168604799999997 0.1671271100000000 Au
atom 22.9656698199999987 27.2856482400000004 0.0780975100000000 Au
atom 25.6634636200000017 27.2690896400000007 0.1165268600000000 Au
atom 0.3354587000000000 26.9860773899999984 0.3051244900000000 Au
atom 3.2157769100000002 27.0866966600000012 0.2331123300000000 Au
atom 5.8699537099999999 27.0375434500000011 -0.0572441700000000 Au
atom 7.4265508100000002 29.4864246100000003 0.2103199400000000 Au
atom 10.2004039300000002 30.0976366300000002 -0.0731651900000000 Au
atom 12.8733034300000000 29.7948006300000010 0.0510493400000000 Au
atom 15.7490961499999997 29.6717759399999998 -0.2788025700000000 Au
atom 18.9289810600000017 29.6635535099999998 0.0941746600000000 Au
atom 21.6306836099999984 29.5308667500000013 -0.0409985000000000 Au
atom 24.3715412799999989 29.6618775300000017 0.0996917300000000 Au
atom 27.2345855999999991 29.3495375299999992 0.2022444500000000 Au
atom 1.9273456400000000 29.6211747400000007 -0.0391986900000000 Au
atom 4.7349835599999999 29.5116020799999994 0.1644750600000000 Au
atom 8.7954128899999997 32.0537526999999969 0.0565183000000000 Au
atom 11.4786663600000001 32.1253106099999997 0.0498845200000000 Au
atom 14.4177118800000006 32.1063642399999978 -0.0671096800000000 Au
atom 17.2222431900000004 32.2088378999999989 0.1284625800000000 Au
atom 20.2131564099999999 32.1562343499999983 0.0259522100000000 Au
atom 22.8839995899999984 31.8519270600000013 0.1877562600000000 Au
atom 25.7999788300000006 32.0086876299999972 -0.1333109300000000 Au
atom 0.4269088500000000 32.0079625099999987 -0.0954272700000000 Au
atom 3.2178728400000001 32.0312368900000024 -0.2481701200000000 Au
atom 6.2397429600000001 32.0855790099999965 -0.0430341400000000 Au
atom 7.6394216899999998 34.6218817199999975 -0.0794021400000000 Au
atom 10.3279518299999999 34.6541330100000025 0.0779865800000000 Au
atom 13.3437287599999994 34.5300618400000019 0.2021083300000000 Au
atom 15.9539732599999997 34.5717755599999990 0.2475488200000000 Au
atom 18.8477855100000014 34.4849353800000031 0.0079069900000000 Au
atom 21.7623645600000017 34.6062402700000007 0.1069709500000000 Au
atom 24.2877556500000011 34.6004022799999973 0.2725176300000000 Au
atom 27.0517371900000008 34.5025040299999972 0.1029312600000000 Au
atom 1.7284134799999999 34.4787666900000005 0.0337555600000000 Au
atom 4.6486944399999999 34.5332153399999982 0.2143380200000000 Au
atom 8.8784101300000007 37.0559454099999996 -0.1292601200000000 Au
atom 11.7579029700000000 37.0764091500000035 0.0573685900000000 Au
atom 14.5421293100000000 36.7383128900000031 0.1145721300000000 Au
atom 17.5051153600000013 37.0796850999999990 0.2427025700000000 Au
atom 20.3944697200000000 36.9606420900000003 0.0945395100000000 Au
atom 23.0975824100000011 37.0322993199999999 0.3923662000000000 Au
atom 25.8450039199999999 37.1002623400000004 0.0487402700000000 Au
atom 0.5322601100000000 37.1644148900000033 0.1881074200000000 Au
atom 3.3229227699999999 36.9529540799999978 0.0549499900000000 Au
atom 6.2118908900000003 36.9560169100000024 0.1769343400000000 Au
atom 7.4228259400000001 -0.0223496600000000 -0.1730129100000000 Au
atom 10.3524971400000005 -0.1155290400000000 0.2176630300000000 Au
atom 13.3447273200000005 -0.0793208400000000 0.2445176200000000 Au
atom 15.9912738200000000 0.0560833800000000 0.3521958700000000 Au
atom 18.8278910400000008 -0.2008191300000000 0.1425409300000000 Au
atom 21.7254430300000010 -0.1755728300000000 0.1848761900000000 Au
atom 24.5811711499999994 -0.0072790500000000 0.0600974900000000 Au
atom 27.3398935200000004 -0.0631946800000000 0.2204436200000000 Au
atom 1.9984770999999999 0.1756819300000000 0.2425149100000000 Au
atom 4.7356042800000004 -0.0679636100000000 0.0791336300000000 Au
atom 9.1049055299999999 2.3134270300000002 -0.1353604300000000 Au
atom 11.8112051499999993 2.6660312700000000 0.1324626500000000 Au
atom 14.6165449200000008 2.5174360299999998 0.0940035600000000 Au
atom 17.3370758699999996 2.4511307300000000 0.0683199100000000 Au
atom 20.2341028099999996 2.4385948200000001 0.1557464300000000 Au
atom 23.1594940200000003 2.2736006700000000 0.2481582300000000 Au
atom 25.8312203099999991 2.3757647799999999 0.0583276500000000 Au
atom 0.4009510500000000 2.5286639800000001 0.0984333200000000 Au
atom 3.2521175800000002 2.6674834999999999 0.0287569200000000 Au
atom 6.0842151500000003 2.6346954600000001 0.0316869300000000 Au
atom 7.4242024999999998 5.1033852000000000 -0.0344809600000000 Au
atom 10.2253188799999997 4.9114387400000004 0.0499857500000000 Au
atom 13.3950016900000008 4.8864361900000004 -0.0573416900000000 Au
atom 16.0387376999999987 5.0443757400000004 0.2072690400000000 Au
atom 18.9039570999999995 5.0827273699999997 0.0522952100000000 Au
atom 21.6095561899999993 4.8309762899999997 0.0939670500000000 Au
atom 24.4299730199999985 4.9020804699999996 0.1352838200000000 Au
atom 27.2473994499999996 4.9391776600000004 0.0169725900000000 Au
atom 1.9388491699999999 5.2233330000000002 0.0905860300000000 Au
atom 4.6214001700000003 5.1226773400000001 0.1517587200000000 Au
atom 9.0176132899999999 7.4382031499999997 0.1617664700000000 Au
atom 11.7205938700000001 7.4152139500000001 -0.2721266100000000 Au
atom 14.5829802900000001 7.3421643599999999 -0.0757667900000000 Au
atom 17.2909984899999998 7.3300323000000001 0.3820618400000000 Au
atom 20.0785908999999982 7.3961313899999999 0.1096638700000000 Au
atom 22.7895771200000006 7.2065947299999999 0.1302227200000000 Au
atom 25.7971044800000016 7.5555416299999996 0.2981310700000000 Au
atom 0.3854866900000000 7.3988531000000002 0.1614840600000000 Au
atom 3.1114683699999999 7.4681480499999999 0.4483873300000000 Au
atom 6.0508398799999998 7.4271952499999996 -0.2020044500000000 Au
atom 7.4683151600000004 9.8994066299999997 -0.2046570700000000 Au
atom 10.2102073999999998 10.0082125499999997 0.0454558100000000 Au
atom 13.2875225500000003 9.8775830300000003 0.3065452600000000 Au
atom 16.0438869599999983 9.7652343599999991 0.0494083200000000 Au
atom 18.7387403100000007 9.7661175300000007 0.1111379200000000 Au
atom 21.5493117800000000 9.9955007499999997 0.3115625800000000 Au
atom 24.3602087199999993 9.9216548600000003 -0.3825682000000000 Au
atom 27.2088595099999999 10.0010493500000006 0.2323519500000000 Au
atom 2.0350652100000000 9.8464064800000006 0.1877127800000000 Au
atom 4.6521071799999998 9.9657627000000009 0.0776825900000000 Au
atom 9.0323726000000004 12.3280398600000005 -0.1026539400000000 Au
atom 11.6673483800000000 12.4156868199999995 -0.1878025400000000 Au
atom 14.3996615499999994 12.3528783400000002 -0.0635804100000000 Au
atom 17.4258377499999995 12.2122508599999993 -0.1871484700000000 Au
atom 20.0786382400000001 12.1911327699999994 -0.1661906300000000 Au
atom 22.9494610600000009 12.2963149000000005 -0.0537507900000000 Au
atom 25.8082133800000015 12.3503245699999997 0.1314164100000000 Au
atom 0.2842253300000000 12.4574139000000006 0.1895978600000000 Au
atom 3.2487566299999999 12.1370050500000008 0.0585087700000000 Au
atom 6.0797841100000003 12.2700225900000000 -0.1122585000000000 Au
atom 7.5299538400000001 13.1928482000000002 2.3050818700000000 Au
atom 10.2932895200000001 13.0489973199999998 2.4967715099999999 Au
atom 13.1724976300000005 13.2545416700000001 2.6909836899999999 Au
atom 15.9706565000000005 13.2270961000000007 2.7242959800000000 Au
atom 18.7943120899999982 13.2751790599999993 2.6701252200000001 Au
atom 21.6706055800000001 13.2279562899999998 2.3332466200000002 Au
atom 24.4265661200000004 13.2473892200000005 2.8475784000000002 Au
atom 27.1839703899999989 13.2335331899999993 2.6374820200000002 Au
atom 1.8204804100000000 13.1576940499999999 2.6897407800000002 Au
atom 4.7457054599999999 13.0049600299999994 2.5616587700000002 Au
atom 8.9052716600000004 15.7932533700000004 2.2925642399999999 Au
atom 11.6481098500000009 15.5742590700000001 2.2269137200000002 Au
atom 14.4193346699999996 15.6952605999999992 2.1244915299999998 Au
atom 17.4668285400000016 15.6778336599999992 2.5796742099999999 Au
atom 20.2552252800000012 15.5630438200000007 2.6695435600000001 Au
atom 22.9707468199999987 15.7656851000000007 2.7009346900000000 Au
atom 25.6983349300000015 15.6357481400000005 2.6746205900000000 Au
atom 0.5454549300000000 15.6130865700000001 2.7344047699999998 Au
atom 3.4669160799999998 15.6432150100000005 2.7345268599999999 Au
atom 6.1843105600000001 15.8089404299999998 2.5448700600000000 Au
atom 7.4988785499999997 18.0420033999999987 2.2458107500000000 Au
atom 10.2990529599999991 18.0852873900000013 1.9827938199999999 Au
atom 13.2894545999999991 18.1187534799999987 2.0948501500000001 Au
atom 15.8340878800000002 18.1903591599999999 2.3095424499999999 Au
atom 18.8001825999999994 18.0508885799999987 2.4759139000000001 Au
atom 21.6468876700000017 18.2432026500000006 2.5268877600000001 Au
atom 24.5291776100000014 18.0379686100000001 2.5638554400000002 Au
atom 27.2417476000000001 18.0691367900000017 2.6861874100000001 Au
atom 2.0082549699999999 18.1149723899999984 2.8105562100000001 Au
atom 4.7891392499999998 18.1997771600000000 2.4466335099999998 Au
atom 8.8579005300000002 20.6069423799999996 2.1078174399999998 Au
atom 11.7432384100000000 20.6882980399999994 2.2665916400000001 Au
atom 14.5995329399999996 20.4944603399999998 2.4496740799999999 Au
atom 17.4114930000000001 20.3923698900000012 2.4940839100000001 Au
atom 20.1097769500000005 20.4593971199999984 2.6687849099999998 Au
atom 23.0592584299999999 20.5508257699999994 2.6669219499999999 Au
atom 25.9505395800000009 20.5270029799999989 3.0023577600000002 Au
atom 0.4552088200000000 20.6572506400000009 2.4797162600000000 Au
atom 3.3376282599999998 20.5256690500000012 2.6115921700000002 Au
atom 6.2163282000000004 20.5432118700000004 2.5776024299999998 Au
atom 7.6294575199999999 23.0167050499999988 2.4971046000000001 Au
atom 10.2544782199999993 22.9757093700000006 2.1093001299999998 Au
atom 12.9084871999999997 23.0182383799999997 2.5407383600000002 Au
atom 15.9047576399999997 22.7199958899999999 2.4078383699999999 Au
atom 18.5860181699999991 22.9610011000000007 2.8132744500000002 Au
atom 21.6722236300000013 22.7475115599999995 2.6021311599999999 Au
atom 24.4984911899999993 23.0533499400000004 2.6060269200000001 Au
atom 27.2232874500000008 22.9710567800000014 2.7756502400000000 Au
atom 1.7999858099999999 23.3142503300000001 2.5940785800000001 Au
atom 4.5297466399999999 23.1185472499999989 2.7492618599999998 Au
atom 9.0477398999999998 25.7733414799999991 2.6175658999999998 Au
atom 11.5837707699999992 25.5370188200000001 2.3891418299999998 Au
atom 14.3806691499999992 25.5558228900000017 2.7489920400000001 Au
atom 17.3399660599999983 25.4508336200000009 2.5791933399999998 Au
atom 19.9730575799999990 25.4087916999999983 2.6280373699999999 Au
atom 23.0323072099999990 25.3796017300000010 2.8283593800000002 Au
atom 25.6181767799999989 25.5097288800000008 2.8338849200000000 Au
atom 0.2514036900000000 25.5941133900000004 2.8933335200000001 Au
atom 3.3635201600000002 25.4789055799999993 2.8746189200000001 Au
atom 6.0107972500000004 25.4885705099999988 2.6596699400000001 Au
atom 7.3003930500000003 28.0205887199999992 2.5889326900000000 Au
atom 10.3081866800000004 27.9426816100000011 2.4584144000000001 Au
atom 13.0503360700000002 27.8874863399999988 2.7129224000000001 Au
atom 15.9246893299999996 27.9854671099999983 2.6887024400000001 Au
atom 18.6463901800000009 28.1207292600000009 2.7005385999999998 Au
atom 21.5225370900000001 27.9813749099999995 2.9504121500000000 Au
atom 24.3506645699999993 27.8557731900000007 2.6054898199999998 Au
atom 27.2685934600000017 28.0637411300000004 2.8695552700000002 Au
atom 1.9503722600000000 27.9795894199999999 2.4449370799999999 Au
atom 4.5506732799999998 28.2659701699999992 2.8937375400000001 Au
atom 8.8389798099999997 30.2174019300000012 2.5568735500000002 Au
atom 11.5024026900000003 30.2681314599999993 2.7037261199999998 Au
atom 14.5774994299999996 30.2080628599999983 2.7237876200000000 Au
atom 17.4440240300000013 30.3026397000000003 2.4431567099999998 Au
atom 20.1808625200000016 30.5847351399999994 2.8356933000000000 Au
atom 22.9174542099999989 30.4489365899999989 2.8372082500000002 Au
atom 25.5179738500000006 30.4210223900000010 2.6498147599999999 Au
atom 0.3613158100000000 30.6139624099999992 2.5806030600000001 Au
atom 3.3444643300000001 30.5151062400000015 2.6623356199999999 Au
atom 6.2448543399999998 30.4233983399999985 2.6940417600000002 Au
atom 7.5440063000000004 32.8436100799999977 2.6044930800000001 Au
atom 10.1489967500000002 32.9297039599999977 2.5945761400000000 Au
atom 13.1430707699999996 32.9556858400000010 2.5595436100000000 Au
atom 15.9166747599999994 32.6592973799999982 2.7679340099999998 Au
atom 18.5319816899999985 32.9518729600000029 2.4759830799999998 Au
atom 21.5617339600000015 32.7540714699999995 2.7625966200000001 Au
atom 24.2701690100000000 32.7348780599999998 2.6617582500000001 Au
atom 27.1198205299999984 32.8662130599999998 2.5926652799999998 Au
atom 1.8937826000000000 33.0237446000000006 2.3269732900000002 Au
atom 4.5795779999999997 32.8318117000000029 2.7606488699999998 Au
atom 8.8828816300000000 35.3556394599999990 2.7813664500000002 Au
atom 11.7274099300000003 35.1616574099999966 2.7004956800000000 Au
atom 14.3226658100000002 35.3811299199999993 2.7213844500000000 Au
atom 17.4060991200000004 35.4377207100000007 2.6184193499999999 Au
atom 20.2022019700000008 35.3640517799999969 2.6419441500000000 Au
atom 22.8915870699999999 35.3778591399999982 2.8889235000000002 Au
atom 25.7705129299999989 35.4443400099999977 2.6594105799999999 Au
atom 0.3440237900000000 35.4448792700000013 2.6086092700000001 Au
atom 3.1030890200000001 35.2711797600000025 2.6768915500000001 Au
atom 6.0242540499999997 35.3527248299999997 2.7073733400000002 Au
atom 7.3634590600000003 38.1213634799999994 2.3794596800000001 Au
atom 10.2595689399999994 38.0917747000000020 2.5834647400000001 Au
atom 13.1911244300000003 37.7972991700000023 2.6480272600000001 Au
atom 15.9936095799999993 37.7252817399999998 2.6784355199999998 Au
atom 18.8782657500000006 37.8633442200000019 2.6884383000000001 Au
atom 21.5719786700000000 37.9170318800000032 2.8477145400000001 Au
atom 24.4032161599999995 37.7136574800000020 2.8528455199999998 Au
atom 27.1826040099999986 37.8491489900000033 2.8261167800000000 Au
atom 1.7495916000000000 37.9581087600000018 2.8860971200000001 Au
atom 4.7865697799999998 37.6910175900000013 2.7588645800000000 Au
atom 8.8475365499999992 0.8074569400000000 2.6687898600000000 Au
atom 11.8169569600000006 0.7800671700000000 2.7506723499999999 Au
atom 14.5822310000000002 0.7962794600000001 2.6534868800000000 Au
atom 17.3815101399999996 0.9757239300000000 2.5782588899999999 Au
atom 20.1466608399999991 0.6929492500000000 2.8865973600000001 Au
atom 22.9296783200000007 0.6511319400000000 2.7089765200000002 Au
atom 25.5776163399999987 0.7858110100000000 2.8971670199999999 Au
atom 0.3874830300000000 0.8684996900000000 2.7243362300000000 Au
atom 3.5034322599999999 0.7185670400000000 2.8565335799999998 Au
atom 6.0727668799999996 0.7080134600000000 2.7257907800000001 Au
atom 7.4211132900000001 3.4742307299999999 2.8180958199999999 Au
atom 10.5466838599999999 3.2580179299999998 2.5530976000000001 Au
atom 13.0983961900000008 3.3282650800000000 2.3622181200000001 Au
atom 15.9570554700000002 3.4796030899999999 2.8043728200000002 Au
atom 18.7746973799999992 3.3114230400000002 2.6653891000000001 Au
atom 21.6539785199999990 3.4150288400000002 2.8633046300000000 Au
atom 24.6843312499999996 3.2885675200000000 2.7917177500000001 Au
atom 27.1116279200000001 3.2854452300000001 2.6810493800000001 Au
atom 1.8725822299999999 3.3299805899999999 2.5952734799999999 Au
atom 4.7307531799999998 3.2298031699999998 2.6204372800000000 Au
atom 8.8462799000000008 5.8005680999999996 2.7228972400000000 Au
atom 11.6898920600000000 5.8521696700000003 2.6357935499999998 Au
atom 14.6546946400000007 5.6728839600000001 2.6691284999999998 Au
atom 17.3442172399999990 5.8348217699999996 2.7119436499999998 Au
atom 20.1256330100000014 5.9179256300000000 2.7461411299999998 Au
atom 22.9989768599999991 6.1413793900000000 2.8850270800000000 Au
atom 25.9021580299999989 5.7490299699999996 2.6530179600000001 Au
atom 0.4235262200000000 5.8199230200000001 2.7095002699999999 Au
atom 3.1218933000000000 5.7591541299999998 2.7795966100000000 Au
atom 6.3830968199999996 6.0507800300000003 2.2818495599999999 Au
atom 7.6201287999999998 8.3426177500000005 2.3220171299999999 Au
atom 10.3898349799999998 8.4386259300000006 2.2858743100000001 Au
atom 13.2943421799999992 8.5588399000000006 2.8562216199999999 Au
atom 15.8810307799999997 8.2222350899999999 2.5611263399999999 Au
atom 18.7638705899999998 8.2477242299999993 2.3269771800000001 Au
atom 21.7941703099999984 8.2388075099999991 2.6861147600000002 Au
atom 24.6333344899999993 8.4199610800000002 2.6240632900000000 Au
atom 27.2339428900000016 8.0713655400000004 2.9840690599999999 Au
atom 1.7371348400000000 8.2627140200000007 2.9120322600000002 Au
atom 4.8384270999999996 8.2045227999999994 2.5704634000000000 Au
atom 8.8256006300000003 10.8273259199999998 2.6935727200000001 Au
atom 11.8073574800000003 10.8226583099999996 2.8191661500000000 Au
atom 14.6883847599999999 10.7918880500000007 2.6113630099999998 Au
atom 17.2092759700000002 10.7904727200000004 2.7414413600000000 Au
atom 20.4767556800000001 10.7567033799999994 2.6762178300000001 Au
atom 22.8440197900000008 10.6397769100000001 2.7238631400000002 Au
atom 25.9017252999999990 10.7714794000000005 2.7052607100000001 Au
atom 0.4983544900000000 10.6931977400000005 2.8601338200000002 Au
atom 3.2051057500000000 10.4951153099999992 2.4900377300000001 Au
atom 6.0222711300000000 10.4286966299999992 2.6241545199999998 Au
atom 7.6376619899999998 13.2899327199999995 5.8583050999999999 Cl
atom 7.7870978800000001 16.0346013200000002 8.2806290499999999 Cl
atom 7.5922805100000001 13.3177721200000008 8.1919042900000001 Na
atom 7.5805699700000000 16.0001034000000004 5.4019019100000003 Na
atom 7.5688721499999998 19.0172312499999983 5.2824764899999996 Cl
atom 7.4488865200000003 21.5434816100000006 8.4530895000000008 Cl
atom 7.6680943800000003 18.7399707299999996 8.0213460699999999 Na
atom 7.4324938700000001 21.6176030700000013 5.7136221000000003 Na
atom 7.5642535899999999 24.6040220100000013 5.5522536899999997 Cl
atom 7.7442744200000000 27.2031201500000002 8.6318474300000005 Cl
atom 7.5217795799999996 24.4421436900000018 8.1163155400000004 Na
atom 7.6704382899999999 27.3868206900000004 5.8273625400000002 Na
atom 7.5976245899999997 30.3046257099999998 5.7683295200000000 Cl
atom 7.4849476399999997 32.9716693399999983 8.8147105200000002 Cl
atom 7.4194337700000004 30.1304794399999984 8.4674138100000000 Na
atom 7.5578646699999998 33.0632422300000002 6.1089134500000002 Na
atom 7.4850866500000004 35.8918836300000024 5.8219252499999996 Cl
atom 7.5413080399999997 38.4206825400000014 8.6107220499999997 Cl
atom 7.4206240499999998 35.7309301800000014 8.6491904999999996 Na
atom 7.6840298699999998 38.8714791599999998 5.8960642300000004 Na
atom 7.7649355199999999 2.0154439800000001 5.7309240700000004 Cl
atom 7.6019499699999997 4.7414413399999997 8.4647058499999996 Cl
atom 7.8060104199999998 2.0008962800000001 8.4021585800000000 Na
atom 7.4856582200000004 4.7164650000000004 5.8698346700000004 Na
atom 7.4298850800000000 7.6260234999999996 5.6404201499999997 Cl
atom 7.7011929400000003 10.5644222800000005 8.3571855100000008 Cl
atom 7.6545590600000004 7.6972420899999996 8.4512170300000005 Na
atom 7.3986821100000002 10.5011132699999994 5.7495186499999997 Na
atom 10.5287361900000001 13.3694306699999999 5.6827052499999997 Na
atom 13.2148417800000004 13.2808099199999994 5.6108026899999999 Cl
atom 10.6382616199999998 16.0542201999999996 8.0210934700000003 Na
atom 13.3781080299999999 16.1467109600000001 8.5820100700000008 Cl
atom 13.3245344800000005 13.0583386000000008 8.1729398799999995 Na
atom 10.3389692499999999 13.1395499200000003 8.4572380500000008 Cl
atom 13.2950690300000005 16.0469723100000010 5.6132943400000004 Na
atom 10.5354395699999994 16.1418652599999994 5.7168402800000004 Cl
atom 10.0300444899999999 19.0139128900000003 5.5433030700000003 Na
atom 13.2331019300000001 18.8579335000000015 5.4087457800000003 Cl
atom 10.0479309699999995 21.7906129499999999 8.1048272000000008 Na
atom 13.7079306400000007 21.8770781300000010 8.0672419099999999 Cl
atom 13.3151380800000005 18.8016378099999990 8.0357482800000000 Na
atom 10.5511451800000007 19.1073908699999997 8.3530771999999995 Cl
atom 13.2804564599999999 21.7277424400000001 5.6184030900000002 Na
atom 10.3478018100000000 21.8488452500000001 5.5996337199999999 Cl
atom 10.3396529600000004 24.3862892900000006 5.5105144599999996 Na
atom 13.4081107399999997 24.6528446899999985 5.3972679299999999 Cl
atom 10.1943921199999998 27.3765067699999989 8.3851367499999991 Na
atom 13.2990073300000002 27.2944411299999992 8.5748208500000000 Cl
atom 13.1389876799999996 24.4851160400000012 8.3033851900000002 Na
atom 10.1789398700000007 24.4047490899999993 8.4815407199999999 Cl
atom 13.1595952399999998 27.2403022600000000 5.7375640099999998 Na
atom 10.2887403000000006 27.1748191900000009 5.7936189499999999 Cl
atom 10.5114385000000006 29.9228984300000000 5.7177117700000002 Na
atom 13.1986080599999998 30.2197455200000000 5.6372619700000000 Cl
atom 10.3998205400000003 32.7612137400000023 8.4043759599999994 Na
atom 13.3395675499999999 32.9540930100000011 8.7679428099999992 Cl
atom 13.0752610600000008 30.3129451000000003 8.4976038200000001 Na
atom 10.4267889700000005 29.9911505799999993 8.3550330800000001 Cl
atom 13.0803250200000001 33.1495825900000014 5.9141776000000004 Na
atom 10.4829008800000008 32.9051130900000004 5.8023758499999998 Cl
atom 10.2995507499999999 36.0641125499999973 5.9351171799999998 Na
atom 13.1721250199999993 35.8796460000000010 6.0197184799999999 Cl
atom 10.2411436100000000 38.5457883999999993 8.4225274799999994 Na
atom 13.2731851699999996 38.8185150500000020 8.7267058800000008 Cl
atom 13.2328574000000003 35.7769916299999977 8.5489774000000001 Na
atom 10.0211488600000003 35.7576562599999974 8.5780959600000006 Cl
atom 13.1550294300000008 38.7775519699999975 6.0716739100000003 Na
atom 10.3150649199999993 38.5537728999999985 5.9938783700000000 Cl
atom 10.5486965300000008 2.0666721600000000 5.6164302700000004 Na
atom 13.3001801200000003 2.0576290400000001 5.7689488000000004 Cl
atom 10.4213562300000007 5.0573897700000003 8.3259026699999996 Na
atom 13.2427220099999996 4.7290211600000003 8.5164682599999999 Cl
atom 13.1708772599999993 1.9942086200000000 8.4768410400000000 Na
atom 10.4803764899999994 2.0983462500000001 8.6459459299999999 Cl
atom 13.4047911000000006 4.8137198300000001 5.8455016000000004 Na
atom 10.5212157200000007 4.7238569200000002 5.8301148700000001 Cl
atom 10.5524200100000005 7.5335366700000002 5.8216875000000003 Na
atom 13.3744935100000006 7.5512109199999999 5.6712081999999997 Cl
atom 10.4072751799999992 10.6157460700000001 8.1273187100000008 Na
atom 13.1220572299999994 10.2394427399999994 8.5559387600000001 Cl
atom 13.0470378599999997 7.5086876399999998 8.4208374599999996 Na
atom 10.4010371799999994 7.5544699900000003 8.6689962600000001 Cl
atom 13.4141287899999995 10.3388781800000000 5.9711201899999997 Na
atom 10.3241861200000002 10.4050387400000002 5.6470614899999996 Cl
atom 16.3480434999999993 13.2770035199999992 5.9165958600000002 Na
atom 18.9171869599999987 13.2950598499999995 5.6332447700000001 Cl
atom 15.9401946599999995 16.1921600800000007 8.1505943599999995 Na
atom 18.7767911699999992 16.0250971299999989 8.4594177800000008 Cl
atom 18.8159846699999989 13.3776524000000006 8.5489637599999995 Na
atom 16.2786686899999999 13.2634422700000005 8.5064080200000003 Cl
atom 18.6959140099999992 16.3428527199999998 5.8365455500000003 Na
atom 16.1680494099999983 16.1764116499999986 5.6813643500000000 Cl
atom 16.1585337399999993 18.8464169300000002 5.7412460899999997 Na
atom 18.8412853700000014 19.0248166699999999 5.5702425800000004 Cl
atom 16.0675451600000017 21.5478206900000018 8.2053658200000008 Na
atom 18.8699903400000011 21.4927319300000015 8.5602213999999996 Cl
atom 18.8169894100000015 19.1068734300000003 8.2147530700000004 Na
atom 16.0041361699999989 18.7375791099999986 8.5680368199999997 Cl
atom 19.0016211999999989 21.7775045600000006 5.5399151800000004 Na
atom 16.0296301399999983 21.6156465199999985 5.5605121999999998 Cl
atom 16.1859119500000013 24.5546339099999997 5.8328757500000004 Na
atom 18.9042760500000000 24.3386898400000007 5.8399299899999999 Cl
atom 15.9383849000000009 27.2589416600000014 8.3382369500000006 Na
atom 18.9449460499999986 27.3962048200000012 8.6032924600000005 Cl
atom 18.9055972799999985 24.7316850399999986 8.6058636600000007 Na
atom 16.2204955700000006 24.3377735299999998 8.8709233500000000 Cl
atom 18.9207603400000011 27.3999201499999998 5.6720399300000004 Na
atom 16.0573708599999989 27.2201411700000016 5.7011724600000004 Cl
atom 15.9994977499999997 30.2315832899999997 5.8414145599999996 Na
atom 18.7926805500000000 30.0634692299999990 5.5885097999999997 Cl
atom 15.8988959300000001 32.8898625100000004 8.4704410200000009 Na
atom 19.1646321800000017 33.1512075099999990 8.7054275899999993 Cl
atom 18.8499910300000018 30.4489701199999985 8.2556445200000006 Na
atom 16.0111805599999997 30.1444659000000001 8.3406591999999993 Cl
atom 18.7280895899999997 32.8855393699999965 5.8290550200000002 Na
atom 16.0977256799999999 33.0628802100000030 5.7244776599999998 Cl
atom 16.1040408900000003 35.8426411200000032 6.0598888300000002 Na
atom 18.9711413499999999 35.8923013900000001 5.9154492500000000 Cl
atom 16.1369188600000015 38.6886296099999996 8.6796638799999997 Na
atom 18.8222255999999994 38.8895693199999997 8.7290735399999999 Cl
atom 18.9458728299999990 35.6585997800000030 8.6061395800000007 Na
atom 16.0923123100000005 35.7743628699999974 8.7211309700000008 Cl
atom 18.8382942900000003 38.8963558299999974 5.8879002399999996 Na