#===============================================================================
# Created using the Atomic Simulation Environment (ASE)

# Tue Dec 23 22:26:44 2025

#=======================================================
lattice_vector 28.1999999999999993 0.0000000000000000 0.0000000000000000 
lattice_vector 0.0000000000000000 39.4799999999999969 0.0000000000000000 
lattice_vector 0.0000000000000000 0.0000000000000000 62.3296083400000001 
atom 7.5155388199999997 14.7501897199999998 0.1100706200000000 Au
atom 10.2862282999999994 14.9865963099999995 -0.1475334400000000 Au
atom 13.0841121499999993 14.8909636699999997 0.0275595900000000 Au
atom 15.8825485499999992 14.8797547699999999 -0.4046020500000000 Au
atom 18.6111070699999992 14.8486656499999992 -0.1396974000000000 Au
atom 21.4843275700000014 14.8487344199999995 -0.1123486600000000 Au
atom 24.3109109399999994 14.8750145299999996 0.0775229200000000 Au
atom 27.0733499900000005 14.9023470299999996 -0.3221212700000000 Au
atom 1.8789334300000000 14.8446576199999996 0.1621085000000000 Au
atom 4.7809942500000000 14.8417466900000008 -0.1375460700000000 Au
atom 8.8304733300000002 17.3364067999999989 -0.0454970100000000 Au
atom 11.7003883900000005 17.3956536600000007 -0.3011150400000000 Au
atom 14.4452234700000002 17.5091842200000016 -0.2697394000000000 Au
atom 17.3010207700000009 17.4964145199999983 -0.0696599300000000 Au
atom 20.0698285299999988 17.3830923900000016 0.0485959700000000 Au
atom 22.9577903600000006 17.2903008599999986 0.0447288100000000 Au
atom 25.6544216499999997 17.3581942900000001 -0.0104655600000000 Au
atom 0.3739313200000000 17.4653624000000001 -0.0654711700000000 Au
atom 3.1888797300000000 17.2681656100000005 0.2811387200000000 Au
atom 6.0413456300000004 17.3253519199999992 0.1990750700000000 Au
atom 7.3804054800000003 19.7814972800000000 0.3573082500000000 Au
atom 10.2976964800000008 19.8976632500000008 0.0930382300000000 Au
atom 13.1177782700000005 19.9943779699999986 0.0119285800000000 Au
atom 15.9310729299999991 19.8355067100000007 0.2012533600000000 Au
atom 18.6924703900000004 19.8410734200000007 0.5199710400000001 Au
atom 21.5179119199999995 19.8303172299999986 0.2704364900000000 Au
atom 24.2945187900000015 19.7960322200000007 0.2449295400000000 Au
atom 27.0494050600000016 19.8614918399999993 0.0101152500000000 Au
atom 1.7102936000000000 19.8122156800000013 0.1262166100000000 Au
atom 4.6201088500000003 19.7813242799999998 0.3565384300000000 Au
atom 8.7688160199999992 22.1732049700000005 0.5558931000000000 Au
atom 11.5348732300000005 22.3988640399999994 0.0585481400000000 Au
atom 14.5089284200000002 22.3570474700000013 0.1300431500000000 Au
atom 17.3842378500000017 22.1972194099999989 0.5803392100000000 Au
atom 20.1247556600000017 22.3495820000000016 0.3316687600000000 Au
atom 22.9023159000000014 22.2729893600000004 0.4874313400000000 Au
atom 25.5945119299999995 22.1349200099999983 0.0558621200000000 Au
atom 0.3356692600000000 22.2108026900000013 0.1313027200000000 Au
atom 3.0676656300000000 22.1720445599999998 0.4423428200000000 Au
atom 6.0428383200000004 22.1937755900000013 0.3075657900000000 Au
atom 7.4239458300000001 24.6802731599999987 0.4405986300000000 Au
atom 10.1368738199999999 24.6574151499999985 0.2947350000000000 Au
atom 13.0166400099999997 24.7806435299999990 -0.0417409600000000 Au
atom 15.8940104200000007 24.7527824500000015 0.3362397100000000 Au
atom 18.6402347400000004 24.7276515900000007 0.3082580100000000 Au
atom 21.4525546899999995 24.8438094400000011 0.5316168500000000 Au
atom 24.2923451800000016 24.6387459100000008 0.5828991200000000 Au
atom 27.1128897100000010 24.5879163799999994 0.0117757700000000 Au
atom 1.7129860400000001 24.7000938599999991 0.2433957800000000 Au
atom 4.5995247199999998 24.6562686299999996 0.1649941800000000 Au
atom 8.8181959899999995 27.1303797499999995 0.1573904200000000 Au
atom 11.6548458900000007 27.2115272399999988 -0.0034106600000000 Au
atom 14.4203251100000003 27.1365520300000007 0.2224373700000000 Au
atom 17.1506309500000000 27.1788451000000002 0.4862514900000000 Au
atom 20.0351276700000014 27.1999098799999999 0.3471223700000000 Au
atom 22.8723058899999998 27.1930672099999988 0.2551999800000000 Au
atom 25.5850148600000011 27.0184354199999994 0.1689496800000000 Au
atom 0.3287379800000000 27.1081819300000006 0.1464974200000000 Au
atom 3.2557883799999998 27.1972473299999997 0.1971439100000000 Au
atom 6.0838187300000000 27.1517074100000002 0.1157428600000000 Au
atom 7.4797272299999999 29.5534721100000013 -0.1357584600000000 Au
atom 10.3245950400000002 29.6299568700000009 -0.1391622500000000 Au
atom 13.1005409600000000 29.6422697600000014 0.1079761500000000 Au
atom 15.8878457300000004 29.6083436300000002 0.4016758300000000 Au
atom 18.6635138500000011 29.5456023499999993 -0.0109384800000000 Au
atom 21.5822894000000005 29.5397091299999985 -0.2074153400000000 Au
atom 24.3561035399999994 29.6043141399999996 -0.0322121300000000 Au
atom 27.1460177400000013 29.5380307500000008 0.2094906400000000 Au
atom 1.7777771800000000 29.6619586999999996 -0.0017371800000000 Au
atom 4.5716925499999999 29.7111428800000006 0.3125297300000000 Au
atom 8.8321483500000006 32.0722016699999983 -0.1340661600000000 Au
atom 11.7960282500000009 32.1068690999999973 -0.1532476600000000 Au
atom 14.5918085200000007 32.0298591299999984 -0.0911257700000000 Au
atom 17.3832648700000014 32.0664705100000020 0.1918913500000000 Au
atom 20.1324187999999999 32.0549312300000011 -0.0046103000000000 Au
atom 22.9977230400000003 32.0711991599999990 -0.0976315500000000 Au
atom 25.8865164700000001 32.0984941700000022 -0.1960819900000000 Au
atom 0.4949745200000000 32.0608639100000019 -0.6436014000000000 Au
atom 3.2887966500000001 32.1669379800000002 -0.2137978900000000 Au
atom 6.0557516700000003 32.0386987500000018 -0.0523351700000000 Au
atom 7.5201468199999999 34.6444331800000000 0.1073140800000000 Au
atom 10.2886255599999998 34.6041818599999971 -0.1376535300000000 Au
atom 13.1584487699999997 34.5903346400000018 -0.1954992000000000 Au
atom 15.9806265300000003 34.5179365899999979 0.1499814100000000 Au
atom 18.7789959899999985 34.5966853899999975 -0.2343014300000000 Au
atom 21.5117941700000017 34.5929508799999965 -0.2079119600000000 Au
atom 24.3508646000000013 34.5815775100000025 -0.1421111800000000 Au
atom 27.2260647800000015 34.6324052000000009 -0.1748737200000000 Au
atom 1.8686992200000001 34.5321295800000030 -0.4837865100000000 Au
atom 4.6154729400000001 34.5851114000000024 0.0212577000000000 Au
atom 8.7767494999999993 36.9956975699999973 -0.1208361300000000 Au
atom 11.9733754300000008 37.0131084499999972 -0.2436763600000000 Au
atom 14.4064274099999992 36.9523301700000033 -0.2142982600000000 Au
atom 17.2943206899999993 36.9228484200000011 -0.0594506900000000 Au
atom 20.3405320900000000 37.0159261000000015 -0.2083939700000000 Au
atom 22.9070162000000010 37.0214359499999972 0.1272954300000000 Au
atom 25.8066639199999983 37.1282728700000035 0.0611542600000000 Au
atom 0.3406021100000000 37.0433337300000005 -0.3228771000000000 Au
atom 3.1694237300000001 37.0170415799999972 0.0136183100000000 Au
atom 5.8424759799999997 37.0045790300000021 0.0528833600000000 Au
atom 7.5422821700000000 -0.0465851300000000 0.0736385400000000 Au
atom 10.5551859700000001 -0.0407182500000000 -0.0320795300000000 Au
atom 13.0694210999999996 -0.1070388500000000 -0.2040495000000000 Au
atom 16.0313966999999984 -0.0787521000000000 0.0051986700000000 Au
atom 18.6256743900000004 -0.1137078600000000 -0.2062065000000000 Au
atom 21.6099385200000000 -0.0253854100000000 0.1245244600000000 Au
atom 24.3088240099999986 0.0600844600000000 -0.3564625400000000 Au
atom 27.1468605399999987 0.1357700700000000 -0.2576805200000000 Au
atom 1.6536607699999999 0.0045232800000000 -0.2643479000000000 Au
atom 4.7657327000000000 -0.0193539200000000 0.0379774800000000 Au
atom 8.8614974800000006 2.5072345500000002 -0.1775800600000000 Au
atom 11.7161662999999994 2.4422581200000000 -0.2183711200000000 Au
atom 14.6149852800000009 2.5835990799999999 -0.2430573800000000 Au
atom 17.3107937199999995 2.4603988999999999 -0.2417717800000000 Au
atom 20.1055567500000016 2.3621883000000001 0.1530673600000000 Au
atom 22.8813454000000007 2.5394001400000001 0.0603963900000000 Au
atom 25.8055115700000002 2.6433963299999998 -0.0526330200000000 Au
atom 0.3562722300000000 2.5035125300000001 0.0523156400000000 Au
atom 3.2493915300000000 2.3720083100000000 0.1052314600000000 Au
atom 6.1095145300000002 2.3842035799999999 -0.0579715200000000 Au
atom 7.5098745200000003 4.9481387500000000 0.0118134800000000 Au
atom 10.3837874400000008 4.9846897400000003 -0.0131059500000000 Au
atom 13.0816932999999995 4.8526758100000000 -0.1908576700000000 Au
atom 15.8871724200000006 4.9924622899999997 0.0513134900000000 Au
atom 18.7920107700000010 4.8450703199999996 0.2378856900000000 Au
atom 21.5501535799999999 4.9549446599999998 0.0778355700000000 Au
atom 24.3644007800000004 5.0364933199999999 0.0415686300000000 Au
atom 27.2166641100000000 5.0130212299999997 -0.0043977700000000 Au
atom 1.8981227100000000 4.8266655399999996 0.2677095500000000 Au
atom 4.7437081399999999 4.8644623999999999 0.2305701500000000 Au
atom 8.8831002500000000 7.4123183199999998 -0.1177957100000000 Au
atom 11.6792863800000006 7.4590229499999996 0.2091438900000000 Au
atom 14.5722117699999991 7.4594608800000000 -0.1531066900000000 Au
atom 17.3645944599999993 7.4268265400000004 0.0142347100000000 Au
atom 20.0892631600000016 7.3679178099999998 0.1953462200000000 Au
atom 22.8680094700000005 7.4315567700000003 -0.3727796000000000 Au
atom 25.7495501599999983 7.3552607200000004 -0.0767273400000000 Au
atom 0.4151490000000000 7.3465928900000002 0.0461596000000000 Au
atom 3.1815410700000002 7.3266036400000001 0.0935844600000000 Au
atom 6.0372402400000000 7.3771040799999996 0.0752799700000000 Au
atom 7.5150985400000003 9.7914970100000005 0.0648937800000000 Au
atom 10.3373267599999998 9.9745692800000008 -0.0342692000000000 Au
atom 13.1555900500000007 9.8795553100000006 0.1639736800000000 Au
atom 15.9746497999999999 9.9077939900000001 -0.0960614600000000 Au
atom 18.7028188799999988 9.8495853400000009 0.1321212400000000 Au
atom 21.6142853399999986 9.9265046600000009 0.1593471600000000 Au
atom 24.3838677799999992 9.9489571199999993 -0.0659936900000000 Au
atom 27.1631235000000011 9.8993720100000004 -0.1969158700000000 Au
atom 1.7496683900000001 9.8640975799999993 -0.1825722200000000 Au
atom 4.6206930599999998 9.8409547199999992 -0.0408614800000000 Au
atom 8.8528809299999995 12.2981713999999993 -0.3527660300000000 Au
atom 11.7024406800000005 12.4416070800000007 -0.0219824600000000 Au
atom 14.4722920700000000 12.4058436000000007 -0.0723054600000000 Au
atom 17.3042815099999991 12.3373950600000004 -0.0123705200000000 Au
atom 20.1573689400000013 12.3018686000000006 -0.1748180900000000 Au
atom 22.9816313600000015 12.3701582400000003 -0.2063061800000000 Au
atom 25.7534963499999989 12.3439443799999999 0.1558017700000000 Au
atom 0.3804738700000000 12.4741950100000007 -0.1037078000000000 Au
atom 3.1223705599999998 12.3891886600000003 -0.0620060900000000 Au
atom 6.0371745399999996 12.3387326200000000 -0.1068636500000000 Au
atom 7.4524080699999997 13.0461152499999997 2.5130345900000002 Au
atom 10.2392039300000004 13.2154558099999999 2.4627197700000001 Au
atom 13.0849365300000002 13.1863446900000003 2.5864108300000002 Au
atom 15.9478776799999995 13.2832390300000007 2.3166493699999999 Au
atom 18.7089744799999984 13.2447066600000003 2.4841643200000001 Au
atom 21.6937131000000001 13.1639724099999995 2.4511632300000001 Au
atom 24.4720811599999983 13.1525601999999999 2.7997446099999999 Au
atom 27.2377277199999988 13.2066429700000008 2.3900470000000000 Au
atom 1.7742839800000001 13.1437066399999996 2.6938162399999999 Au
atom 4.5609381600000001 13.1664420000000000 2.4289770599999998 Au
atom 8.8551423600000003 15.6105221699999994 2.4974068699999998 Au
atom 11.6970031100000007 15.7507641300000003 2.4891956500000001 Au
atom 14.4031128299999995 15.7055160699999998 2.4633105099999999 Au
atom 17.2996327600000015 15.6904967899999992 2.4065106799999998 Au
atom 20.1530802499999986 15.5858424800000002 2.4652118199999999 Au
atom 22.9149616599999995 15.6478102400000001 2.7962940800000000 Au
atom 25.7452862499999995 15.7236794799999995 2.5195124899999999 Au
atom 0.3621824000000000 15.4554045400000000 2.5448662500000001 Au
atom 3.1525098599999999 15.6413015600000005 2.7323167700000002 Au
atom 6.0797453299999997 15.5407888100000005 2.7710400700000002 Au
atom 7.4624044200000004 17.9881282400000018 2.8981926300000000 Au
atom 10.1870364000000002 18.1830630900000010 2.4413179600000001 Au
atom 13.1791403799999998 18.2669058600000014 2.3497813800000000 Au
atom 15.9646507799999995 18.1072356100000000 2.5695349900000002 Au
atom 18.8127465799999989 18.0237833700000003 2.8655080200000000 Au
atom 21.5411125199999987 18.1606299799999995 2.6970107600000000 Au
atom 24.3394378399999987 18.2207760100000016 2.6426774200000001 Au
atom 27.1267690200000011 18.1093659900000006 2.2750385199999998 Au
atom 1.8394791600000000 18.1104619900000010 2.5939315600000001 Au
atom 4.6450672400000004 18.1225174200000012 2.8889318500000001 Au
atom 8.9754120400000001 20.5928800500000015 3.0781067400000000 Au
atom 11.7303703699999993 20.6491833199999988 2.5589389599999999 Au
atom 14.5658098400000000 20.7006139400000002 2.5553557599999999 Au
atom 17.3017970900000009 20.5482197999999983 3.2605756200000000 Au
atom 20.1856106000000004 20.6594223899999996 3.0198474399999999 Au
atom 23.0112302299999989 20.6330211599999984 2.9988835200000001 Au
atom 25.8089315799999994 20.6417753399999988 2.7194923100000001 Au
atom 0.4527316500000000 20.6338731499999994 2.8557066799999999 Au
atom 3.2595957200000001 20.5663409000000001 2.9183193300000001 Au
atom 6.1036518800000001 20.5437992899999990 2.9730995600000001 Au
atom 7.6369492200000000 23.0905755200000016 3.0561347200000002 Au
atom 10.2975763600000008 23.1199377400000010 2.7660786900000001 Au
atom 13.0423013399999999 23.2141375900000000 2.7537808600000000 Au
atom 15.7926768499999994 23.1548571999999986 3.0691184499999999 Au
atom 18.7006813700000016 23.0615413700000005 2.9950450499999999 Au
atom 21.5849059399999987 23.1753775299999987 3.0992413999999999 Au
atom 24.4456111100000015 23.0557331999999988 3.0891557299999999 Au
atom 27.1848551000000000 23.2594428600000001 2.8728917500000000 Au
atom 1.8566673600000001 23.0424756299999984 2.8830630799999999 Au
atom 4.8167380199999998 23.0752735199999996 2.8568403700000000 Au
atom 9.0077199700000001 25.6391326799999995 3.0073468700000001 Au
atom 11.7439532500000006 25.6593710799999997 2.7679359899999998 Au
atom 14.4396104100000002 25.6341171099999983 2.7370975899999999 Au
atom 17.2749274399999990 25.5062277000000002 3.0103360200000000 Au
atom 20.1003856700000014 25.5703648000000001 3.1459971800000002 Au
atom 22.9612302300000017 25.6113457199999992 3.0765931100000001 Au
atom 25.8283446300000001 25.6075024300000003 2.9073856700000000 Au
atom 0.4469838100000000 25.5918704099999985 2.8482218399999999 Au
atom 3.2250305600000000 25.5015373899999993 2.9098908500000000 Au
atom 6.1358542700000003 25.6255955399999991 2.7452192000000002 Au
atom 7.4753901300000001 28.0446013799999996 2.6767109300000000 Au
atom 10.2678813000000009 28.0874678399999986 2.6288489600000000 Au
atom 13.0511502700000008 28.1857326599999993 2.7981513599999999 Au
atom 15.8021636099999991 27.9982182399999999 3.0646610100000000 Au
atom 18.5917598499999990 27.9012582000000009 2.9768311299999999 Au
atom 21.5568399100000008 28.0333758999999993 2.8270614100000002 Au
atom 24.4173878000000002 27.9850487900000005 2.6157616300000002 Au
atom 27.2341998300000014 27.9604935200000000 2.9508016600000002 Au
atom 1.8313075700000001 28.1117553099999995 2.7065736299999998 Au
atom 4.6011712400000002 28.0399421400000008 2.7820654899999999 Au
atom 8.8639152800000005 30.4659943499999990 2.5090408800000001 Au
atom 11.7127053700000001 30.6314857399999987 2.6596908099999998 Au
atom 14.5333693799999999 30.6418759999999999 2.8301974400000001 Au
atom 17.3778173500000008 30.4199580300000001 2.7730137899999998 Au
atom 20.0714263399999986 30.4051526500000016 2.3956741099999999 Au
atom 23.0168479300000008 30.4196557200000015 2.3900039099999999 Au
atom 25.7508755600000008 30.4662104400000011 2.8929130700000001 Au
atom 0.4010466700000000 30.6557192200000017 2.5971351399999998 Au
atom 3.2591847700000001 30.6162814499999989 2.8296917900000000 Au
atom 6.1216138000000004 30.4307602800000012 2.7101735599999999 Au
atom 7.5592816300000001 32.8056447900000023 2.5367720100000000 Au
atom 10.2053457800000000 32.9014407100000028 2.3288944100000002 Au
atom 13.1624021599999992 33.0060164300000025 2.4420107700000000 Au
atom 16.0442844499999993 33.0257101099999986 2.6821937700000000 Au
atom 18.8191868199999988 32.9704949899999988 2.5690941999999999 Au
atom 21.6285135199999985 32.8762577899999968 2.6432425600000000 Au
atom 24.4795409500000005 32.9987462699999980 2.3897266199999998 Au
atom 27.3314811800000008 32.9067711499999973 2.2394870700000000 Au
atom 1.8959195700000000 32.9636405600000018 2.2445019899999998 Au
atom 4.6612616700000000 32.8612419099999968 2.5711550399999998 Au
atom 8.8385486899999997 35.3495409000000009 2.7258206500000002 Au
atom 11.6689363099999994 35.3796025099999980 2.4569424000000000 Au
atom 14.3625879899999997 35.5167733199999986 2.5106869500000002 Au
atom 17.2429592599999992 35.4228054800000010 2.6603618800000000 Au
atom 20.2472825199999988 35.4567473899999968 2.3805304700000001 Au
atom 23.0983192200000005 35.3409497800000025 2.4294315599999998 Au
atom 25.9648128400000004 35.4071455599999965 2.5650753100000001 Au
atom 0.5035701800000000 35.3805592300000029 2.2125699900000000 Au
atom 3.2694795399999999 35.4478227700000019 2.5541366000000001 Au
atom 5.9442166600000004 35.2515614699999986 2.6233795299999998 Au
atom 7.3678077399999999 37.8751006299999986 2.2948505099999998 Au
atom 10.0903558400000009 37.9035647999999981 2.5966683300000000 Au
atom 12.9825807300000005 37.8414728799999978 2.5191736599999999 Au
atom 16.1631880899999985 37.8184985199999986 2.6408456500000002 Au
atom 18.8401665300000012 37.9042124799999982 2.2789567700000002 Au
atom 21.6082691300000000 37.8056729300000001 2.7211913800000000 Au
atom 24.6301312999999986 37.7892261399999967 2.8989040600000000 Au
atom 27.5038004700000016 37.7135401500000000 2.4277910399999998 Au
atom 1.7693654200000000 37.9722324600000007 2.4396555300000000 Au
atom 4.6562261400000002 37.8469935399999997 2.7652230400000000 Au
atom 8.8146594799999995 0.8253003799999999 2.6153786600000002 Au
atom 11.7692796600000005 0.9128436500000000 2.4736596799999999 Au
atom 14.5775031700000000 0.8811464600000000 2.3209614900000002 Au
atom 17.3036429600000012 0.9455352700000000 2.4374836400000000 Au
atom 19.9476169200000015 0.7421668700000000 2.8411532500000001 Au
atom 23.0660781800000017 0.7380098500000000 2.6326771400000002 Au
atom 25.8193455100000016 0.8998977300000000 2.4514592799999999 Au
atom 0.5086653400000000 0.8909855000000000 2.5786897999999998 Au
atom 3.3309757699999998 0.7899789600000000 2.8894515200000002 Au
atom 6.0953670700000000 0.8088052000000000 2.6644464800000001 Au
atom 7.5331037800000002 3.2277019800000000 2.5418804599999998 Au
atom 10.3530239999999996 3.2793079100000000 2.5160801400000001 Au
atom 13.1898382499999993 3.2989338400000001 2.5079275999999999 Au
atom 15.8617558400000007 3.3599724900000001 2.5536199200000000 Au
atom 18.7111949799999984 3.3100367300000002 2.7923825600000001 Au
atom 21.4893861400000006 3.2704769699999998 2.5430944700000002 Au
atom 24.2719097800000014 3.2534166700000000 2.5987546500000001 Au
atom 27.2648256700000005 3.2243729499999998 2.6967953900000001 Au
atom 1.9032081999999999 3.4132100300000001 2.7993538800000000 Au
atom 4.6470835499999996 3.2910655000000002 2.7242787200000000 Au
atom 8.9611182800000009 5.6924982200000001 2.7298271000000001 Au
atom 11.7806923099999992 5.8047803000000000 2.6504525999999999 Au
atom 14.5238273299999996 5.8686320299999997 2.6059355900000001 Au
atom 17.4319970799999986 5.8604490299999998 2.6340053700000001 Au
atom 20.1602175400000014 5.8001465300000001 2.7301799700000000 Au
atom 22.9812435599999993 5.7891773600000000 2.5333221199999998 Au
atom 25.7861505199999996 5.5454305399999999 2.6211213700000000 Au
atom 0.3409406200000000 5.7166506799999999 2.5443499799999998 Au
atom 3.2839619199999999 5.7844281300000002 2.7547511299999998 Au
atom 6.1049220399999999 5.7478122799999998 2.6776563900000001 Au
atom 7.5316447100000001 8.1877743600000006 2.6244117800000000 Au
atom 10.3175004599999998 8.2858471900000001 2.6307615800000002 Au
atom 13.1138415500000001 8.2604308500000005 2.7067939000000001 Au
atom 15.9575142299999992 8.3213684600000004 2.2331194499999998 Au
atom 18.8049241999999985 8.3079941999999996 2.6718868400000000 Au
atom 21.6277350000000013 8.3167707699999998 2.6581803900000001 Au
atom 24.4823589599999991 8.1779586799999997 2.4174109000000001 Au
atom 27.2466057500000005 8.1609540799999998 2.2962890900000001 Au
atom 1.8508712300000001 8.1434894900000003 2.5507810599999998 Au
atom 4.7698780400000000 8.1913134200000002 2.7920426100000002 Au
atom 8.9608803100000003 10.6959763599999995 2.5569160100000001 Au
atom 11.7027220900000000 10.7132220300000007 2.7583693800000000 Au
atom 14.5632726600000009 10.8058668299999994 2.5745663300000001 Au
atom 17.3232517699999988 10.7592068500000000 2.7710863500000000 Au
atom 20.2836138599999991 10.7904552400000000 2.6366285299999999 Au
atom 23.1284916799999998 10.7229840299999992 2.8292628700000000 Au
atom 25.9761492599999997 10.6345756999999992 2.6615308400000002 Au
atom 0.5818455700000000 10.6946563799999996 2.3979292200000000 Au
atom 3.2882491800000002 10.7322888899999995 2.5267054099999999 Au
atom 6.0699079600000001 10.6652723300000005 2.7772326399999998 Au
atom 7.6709406600000003 13.1536727800000008 5.8377631299999999 Cl
atom 7.9105856599999997 15.8453120999999992 8.7981314400000006 Cl
atom 7.9646238800000004 13.1444186700000003 8.3903740100000004 Na
atom 7.7910184700000000 15.9574275900000000 5.8344145400000000 Na
atom 7.8747716399999996 18.6288653099999983 5.9103755700000002 Cl
atom 7.8116973300000003 21.7715195600000015 8.8858484099999995 Cl
atom 7.8965944800000001 18.6959236699999991 8.6102761900000004 Na
atom 7.8891691599999998 21.6636814800000010 6.1999143300000004 Na
atom 7.7681342400000002 24.6132654799999990 5.8999341999999997 Cl
atom 7.9635922600000004 27.3535610300000016 8.7396037399999997 Cl
atom 7.7982665999999998 24.4897002599999993 8.7036787899999997 Na
atom 7.7190114000000003 27.3267342699999993 6.0528735899999999 Na
atom 7.9062158699999996 29.9774521800000002 5.8197846899999996 Cl
atom 7.7841047500000000 32.9012830599999972 8.4720622300000006 Cl
atom 7.7999235000000002 29.9925294099999995 8.4690022099999993 Na
atom 7.9605335400000001 32.8605541299999970 5.8796507599999996 Na
atom 7.8222260099999996 35.7518801399999973 5.7026445299999997 Cl
atom 7.9512672699999998 38.6025023099999984 8.6734846799999996 Cl
atom 7.8562721199999999 35.7837489899999994 8.2695485699999995 Na
atom 8.0833589900000007 38.6038093100000026 5.5464818700000000 Na
atom 7.8085146500000002 1.8211922100000000 5.7964628400000002 Cl
atom 7.8767521399999998 4.6980818500000003 8.5125372000000006 Cl
atom 7.9155895799999998 1.6796277600000000 8.5646489399999997 Na
atom 7.6834331400000000 4.6402526000000002 5.9519739500000002 Na
atom 7.6542583300000002 7.3891180299999997 5.6724370600000000 Cl
atom 7.6964443500000002 10.1196555600000000 8.6799881699999997 Cl
atom 7.6892046900000004 7.3459854099999999 8.3861044499999995 Na
atom 7.6900364699999999 10.4150031999999992 5.8351750300000003 Na
atom 10.5166684200000002 13.1996025199999991 5.7236544599999997 Na
atom 13.5113658200000000 12.8882886800000005 5.6821910200000003 Cl
atom 10.6960803500000008 15.8663741199999997 8.4488898700000004 Na
atom 13.6032392000000009 15.8718014899999993 8.6111223599999995 Cl
atom 13.4209697899999991 13.0280866700000004 8.1680103099999997 Na
atom 10.6591532499999992 13.1237590799999992 8.5919312600000008 Cl
atom 13.5661250500000001 15.8124638399999995 5.9224711299999999 Na
atom 10.6298417399999998 15.9011924199999992 5.8393166900000004 Cl
atom 10.6953540799999995 18.7239977999999994 5.9019422199999996 Na
atom 13.4483508700000005 18.7572362900000016 5.8356705900000003 Cl
atom 10.6263145199999993 21.5804957799999997 8.5309354800000001 Na
atom 13.5895524000000005 21.7545294499999997 8.7108938400000007 Cl
atom 13.4599172399999993 18.6355619700000013 8.4565834399999993 Na
atom 10.7878831999999996 18.7581865400000005 8.7304008100000008 Cl
atom 13.6231205600000003 21.6412143099999987 6.0866101800000001 Na
atom 10.7003670399999997 21.6697281900000007 5.9384763999999999 Cl
atom 10.7120357399999993 24.4748617400000015 6.1061346299999997 Na
atom 13.4884072199999991 24.4040446099999997 5.9614275599999997 Cl
atom 10.6811191599999997 27.2168640000000011 8.5145889300000004 Na
atom 13.4837735300000006 27.2851363599999992 8.7360547299999993 Cl
atom 13.5995630599999995 24.3790415799999991 8.7270209800000007 Na
atom 10.6789437700000001 24.4348385599999993 8.8928156200000004 Cl
atom 13.5358473600000000 27.3269765299999996 5.8436813900000004 Na
atom 10.7332845999999993 27.2686010600000017 5.8803964000000004 Cl
atom 10.6263730299999999 30.0457193499999988 5.9079677799999999 Na
atom 13.5276367000000004 30.0478819399999999 5.8444777099999996 Cl
atom 10.8146035900000008 32.8258133000000001 8.3262186299999996 Na
atom 13.5035166300000000 32.8908817800000008 8.5702624600000004 Cl
atom 13.5913807900000005 30.0159541200000000 8.5313037900000008 Na
atom 10.7346195200000007 30.1557554100000011 8.6983349200000006 Cl
atom 13.4624609399999997 32.8140757700000023 5.9087370200000002 Na
atom 10.7008496700000002 32.7883630800000034 5.6272199900000004 Cl
atom 10.5747711399999993 35.5904814100000024 5.5648580699999997 Na
atom 13.4420283400000002 35.4928735299999971 5.6983306899999997 Cl
atom 10.9613110900000006 38.5452959100000001 8.1630435899999991 Na
atom 13.4767126400000006 38.3951650300000011 8.6433165600000006 Cl
atom 13.5227265699999997 35.7763628000000011 8.3304920700000000 Na
atom 10.5904460300000007 35.7234053800000027 8.5310204499999998 Cl
atom 13.4906779700000001 38.3717277499999980 5.7458531700000002 Na
atom 10.7086264900000003 38.5312555000000003 5.3871647600000001 Cl
atom 10.4704385999999996 1.7555004400000001 5.6436759299999997 Na
atom 13.4308969299999994 1.7590128500000000 5.6266304399999996 Cl
atom 10.6250167300000005 4.5271306200000003 8.4663932400000004 Na
atom 13.3507173199999993 4.5961385999999997 8.5031438200000000 Cl
atom 13.6851118300000003 1.7190394000000000 8.2793946799999993 Na
atom 10.5248648199999995 1.7000753200000001 8.5472021999999992 Cl
atom 13.4608824699999996 4.7536430000000003 5.7340582199999997 Na
atom 10.5162647499999995 4.6134861000000003 5.7734573300000003 Cl
atom 10.4097847300000002 7.4326618399999997 5.7181210299999998 Na
atom 13.4452824100000008 7.5566501700000002 5.5866910699999996 Cl
atom 10.4846643499999992 10.0827179099999995 8.3768270900000008 Na
atom 13.5022302300000003 10.2381412500000000 8.4516304499999997 Cl
atom 13.5290431200000008 7.4724960100000004 8.4345963899999994 Na
atom 10.7025933999999996 7.4005247599999997 8.5040424399999992 Cl
atom 13.4132152500000004 10.2414796300000006 5.7889911100000004 Na
atom 10.4804012100000001 10.2499145600000006 5.7735413800000002 Cl
atom 16.4464174400000012 13.1049016700000003 5.7798395999999999 Na
atom 19.0456571699999984 12.9654490300000003 5.8056430299999997 Cl
atom 16.3353825199999996 15.8969855800000008 8.4189288599999994 Na
atom 19.1449686300000010 15.8123191999999992 8.7779780400000007 Cl
atom 19.0572682899999997 12.9680649500000005 8.4407906399999995 Na
atom 16.2783499800000016 13.0693615800000007 8.8220424400000006 Cl
atom 19.1814660400000001 15.9317421699999997 6.0106498700000000 Na
atom 16.4668024300000013 15.8369215099999998 5.7389722499999998 Cl
atom 16.3173877800000007 18.8467782200000009 5.9751041899999997 Na
atom 19.1009387400000001 18.8936808999999997 6.0177771599999996 Cl
atom 16.2740129700000011 21.4598086399999985 8.6551311500000008 Na
atom 19.1044457100000002 21.5262733299999987 9.0093466600000003 Cl
atom 19.0876737799999994 18.7608951899999994 8.7218209200000008 Na
atom 16.1732038200000012 18.7641364400000015 8.8631489400000003 Cl
atom 19.1150392300000007 21.5305092500000015 6.1234624999999996 Na
atom 16.3601057200000000 21.5919947400000005 5.9370621000000003 Cl
atom 16.3827286600000015 24.2825195299999983 6.0460283199999996 Na
atom 19.1635388599999992 24.3132751999999996 6.0670075099999998 Cl
atom 16.2187423899999992 27.1166181000000002 8.5386194599999996 Na
atom 19.1754840999999985 27.0956365900000016 8.8218540300000008 Cl
atom 19.1122639300000010 24.4947969000000008 8.7086413900000004 Na
atom 16.3957697700000011 24.3536596100000011 8.8617561499999997 Cl
atom 19.0047414699999990 27.1788870699999983 6.1076562799999996 Na
atom 16.3122366399999983 27.0858619199999993 5.8822872799999999 Cl
atom 16.4594749000000000 30.0498637899999999 5.8085459400000001 Na
atom 19.3298035199999987 29.9530944900000016 5.7591972699999996 Cl
atom 16.2679888400000010 32.8167391599999974 8.4614683700000004 Na
atom 19.2516144300000001 32.8733717900000002 8.6794522300000008 Cl
atom 19.2425972999999999 30.0548388799999984 8.5944788800000005 Na
atom 16.5345389300000001 30.0011654700000001 8.5346449500000006 Cl
atom 19.1100436299999998 32.6569953200000000 5.7952838900000003 Na
atom 16.2972441299999993 32.7886169900000013 5.7856398699999998 Cl
atom 16.2848020799999986 35.4859175699999980 5.9365173400000000 Na
atom 19.1424284500000006 35.5770229399999991 5.5659146000000002 Cl
atom 16.4011561899999982 38.3809873499999981 8.4293399400000002 Na
atom 19.2696237000000004 38.3745022000000020 8.5333807400000001 Cl
atom 19.1659646899999991 35.3818859100000012 8.2808243200000007 Na
atom 16.3838446200000014 35.5195306399999993 8.5857818500000000 Cl
atom 18.9268986699999999 38.2530982600000016 5.8810263100000002 Na