#===============================================================================
# Created using the Atomic Simulation Environment (ASE)

# Tue Dec 23 21:42:41 2025

#=======================================================
lattice_vector 28.1999999999999993 0.0000000000000000 0.0000000000000000 
lattice_vector 0.0000000000000000 39.4799999999999969 0.0000000000000000 
lattice_vector 0.0000000000000000 0.0000000000000000 62.3296083400000001 
atom 7.4963096299999998 14.8297690400000004 -0.2061769300000000 Au
atom 10.2912788299999995 14.7771692699999999 -0.1683381500000000 Au
atom 13.0924453599999993 14.8179426299999992 -0.1738771200000000 Au
atom 15.9683219399999992 14.8003117399999997 -0.0862502500000000 Au
atom 18.7904514899999988 14.7750304000000003 -0.2568086900000000 Au
atom 21.6179267800000012 14.7748700100000008 -0.2674898600000000 Au
atom 24.4247084500000007 14.7937252000000008 -0.1048463900000000 Au
atom 27.2372160699999988 14.7955453800000001 0.0501984600000000 Au
atom 1.8372155699999999 14.8497424200000001 -0.0083517500000000 Au
atom 4.6799980000000003 14.9092280299999995 -0.0364430200000000 Au
atom 8.9152455300000000 17.2711820100000004 -0.1301062500000000 Au
atom 11.7731981300000008 17.3101308799999991 -0.1300317300000000 Au
atom 14.5899389700000004 17.3357068400000003 -0.1180471200000000 Au
atom 17.4078085099999988 17.3536548599999989 -0.0345275800000000 Au
atom 20.1649387299999994 17.2588273000000001 -0.1599500500000000 Au
atom 23.0169515000000011 17.2638292399999997 -0.0880469800000000 Au
atom 25.8213069500000003 17.2781114199999983 -0.0754719900000000 Au
atom 0.4143704100000000 17.3410261000000006 -0.0938745600000000 Au
atom 3.1848832100000002 17.2959773000000006 0.0896727800000000 Au
atom 6.1568000800000000 17.2942259400000005 -0.0045467300000000 Au
atom 7.5025445900000003 19.7490949600000008 0.1857023000000000 Au
atom 10.2960685000000005 19.7306709399999995 -0.0949963700000000 Au
atom 13.1557999999999993 19.7698442700000001 -0.0866904000000000 Au
atom 16.0187797799999991 19.8116286399999986 -0.1466586200000000 Au
atom 18.8158108499999983 19.7831852899999987 0.0722646300000000 Au
atom 21.5879746700000013 19.7511404000000006 -0.0608044500000000 Au
atom 24.3932964400000003 19.7214128200000012 0.0835653800000000 Au
atom 27.2552156600000011 19.7696900599999985 -0.0539644200000000 Au
atom 1.8496130900000001 19.7741196600000002 -0.0037257500000000 Au
atom 4.7024468800000001 19.7335349300000011 -0.0262235700000000 Au
atom 8.8650844499999994 22.2308545500000001 0.0670546200000000 Au
atom 11.7549065099999996 22.2110271700000013 0.0229967900000000 Au
atom 14.5933230199999997 22.2956711799999994 0.0291243400000000 Au
atom 17.4647772799999998 22.2779123400000003 -0.0950074300000000 Au
atom 20.2326874200000013 22.2272200099999999 -0.0315590000000000 Au
atom 23.0475678700000017 22.2097870399999984 -0.0693289800000000 Au
atom 25.8503557099999988 22.2330128999999985 0.0846546800000000 Au
atom 0.4315545600000000 22.2197352399999986 0.0999452500000000 Au
atom 3.2361226099999998 22.1608877299999989 0.1405077000000000 Au
atom 6.0467313300000001 22.2155850199999989 0.0797778800000000 Au
atom 7.4266824800000002 24.6809023299999986 -0.0070625300000000 Au
atom 10.2788453799999999 24.6771154999999993 0.0779690900000000 Au
atom 13.1607334599999994 24.7089114300000006 0.0599550200000000 Au
atom 16.0290782000000007 24.6933973500000015 -0.0756865700000000 Au
atom 18.8060013599999998 24.7831077099999995 0.0353454800000000 Au
atom 21.6046207700000004 24.6388388599999999 0.0582424600000000 Au
atom 24.4124182199999993 24.6515205600000016 0.1200859300000000 Au
atom 27.2492967099999994 24.6924215599999997 0.2313141600000000 Au
atom 1.8227168300000001 24.6283916400000003 0.1811532700000000 Au
atom 4.6469597199999999 24.6112058599999983 0.1046919600000000 Au
atom 8.8563399399999998 27.1673193499999996 -0.0107650800000000 Au
atom 11.6425265400000004 27.1576480899999986 0.0871848100000000 Au
atom 14.4757398199999994 27.1241599499999992 -0.0603144400000000 Au
atom 17.4090943500000002 27.1689959799999983 -0.0842599100000000 Au
atom 20.2354095200000010 27.1599599900000008 -0.1738443700000000 Au
atom 23.0466229700000014 27.1281575799999999 0.0446197900000000 Au
atom 25.8526080600000014 27.0774182400000001 0.1398940600000000 Au
atom 0.4209855400000000 27.1309691999999991 0.2355962300000000 Au
atom 3.2043602400000002 27.1123629900000012 0.1235473500000000 Au
atom 6.0251983800000000 27.1361759499999984 0.1569211700000000 Au
atom 7.4919259800000004 29.5964385000000014 -0.0337143500000000 Au
atom 10.2908963000000000 29.6207671499999989 0.1252052500000000 Au
atom 13.0981836800000000 29.5953437199999989 0.0485685200000000 Au
atom 15.9620795900000001 29.6276251700000017 -0.1550234600000000 Au
atom 18.7890987100000011 29.5957692200000011 -0.0825055100000000 Au
atom 21.6724617399999993 29.6561920800000003 0.0081701500000000 Au
atom 24.4733376699999994 29.5788926100000005 0.0291740500000000 Au
atom 27.2527196499999995 29.5877797899999990 0.1110104300000000 Au
atom 1.8846924800000000 29.5912702000000003 0.0223195100000000 Au
atom 4.6742881399999998 29.5718889000000011 0.0035454000000000 Au
atom 8.9649955000000006 32.0809331399999991 0.0472497100000000 Au
atom 11.7735227200000008 32.0761164399999998 0.0083663900000000 Au
atom 14.5697344300000005 32.0659405700000022 0.0466537000000000 Au
atom 17.4163425499999995 32.0904929800000005 -0.1059370200000000 Au
atom 20.2103223199999995 32.0830651799999984 -0.1031229800000000 Au
atom 23.0605499700000003 32.1035500300000010 -0.2048998500000000 Au
atom 25.8334699000000008 32.0503629299999986 -0.0078013300000000 Au
atom 0.5015928200000001 32.0322163200000034 -0.0018263900000000 Au
atom 3.3074701900000001 32.0246156199999987 0.1475289100000000 Au
atom 6.1752513200000001 32.0556450500000025 -0.0258967700000000 Au
atom 7.5263878899999996 34.6207389200000009 -0.0004345900000000 Au
atom 10.3999194799999994 34.5158317300000022 0.0466165800000000 Au
atom 13.1679918399999991 34.5127772100000030 -0.0886688100000000 Au
atom 16.0076012799999994 34.5895874699999979 0.0122472600000000 Au
atom 18.8207269500000010 34.5511276300000034 -0.1148347300000000 Au
atom 21.6303167999999992 34.5651587500000019 -0.1532309000000000 Au
atom 24.4559424599999993 34.5955976899999982 0.0008026300000000 Au
atom 27.2744250400000006 34.4861837999999992 0.0677163800000000 Au
atom 1.8735048100000000 34.5369268700000021 -0.1046682500000000 Au
atom 4.7109090399999998 34.5040108800000027 -0.0752856800000000 Au
atom 8.9797500200000009 37.0153282699999977 0.0319318000000000 Au
atom 11.7238578800000006 36.9603423100000015 0.1635819700000000 Au
atom 14.5744221899999999 37.0219123800000034 0.0894642800000000 Au
atom 17.3891291700000004 37.0175666700000008 0.0663781600000000 Au
atom 20.2026509599999997 37.0131626800000006 0.0487644600000000 Au
atom 23.0395900699999991 37.0519420299999993 0.0720652400000000 Au
atom 25.8776202899999994 36.9606409100000022 0.1627654400000000 Au
atom 0.4388927900000000 37.0092647000000028 0.1226797900000000 Au
atom 3.3348722000000000 36.9779010299999982 -0.0498964400000000 Au
atom 6.0975566600000004 37.0371008600000025 -0.0910947500000000 Au
atom 7.5083107499999997 0.0100895600000000 0.0354954800000000 Au
atom 10.3372888900000000 0.0028539600000000 0.1991582400000000 Au
atom 13.0893538300000003 -0.0193303500000000 0.0768104300000000 Au
atom 15.8745609000000005 0.0032011900000000 0.1141497000000000 Au
atom 18.7756243400000002 -0.0027119800000000 0.0027834900000000 Au
atom 21.6075761499999999 -0.0208238800000000 0.1442737400000000 Au
atom 24.3980978999999998 0.0051847600000000 -0.0691293600000000 Au
atom 27.2280074799999987 0.0012146500000000 0.0918079700000000 Au
atom 1.8833857800000000 0.0260514200000000 0.0388984000000000 Au
atom 4.6785389400000001 -0.0036462100000000 0.0756675800000000 Au
atom 8.9379152800000004 2.4380218500000002 0.1602258900000000 Au
atom 11.6887242899999997 2.4638711999999998 0.0815111800000000 Au
atom 14.5367226899999995 2.4730275000000002 -0.0605922300000000 Au
atom 17.3446307200000014 2.4477429700000002 0.0131656100000000 Au
atom 20.1668179700000003 2.4660845800000000 0.1279429200000000 Au
atom 22.9863725499999987 2.4722782900000002 0.0169229000000000 Au
atom 25.8340156299999997 2.4527751800000002 -0.1023118600000000 Au
atom 0.4846769300000000 2.4494824500000001 -0.0076987900000000 Au
atom 3.2727859300000000 2.4966561399999998 -0.0155266300000000 Au
atom 6.0995298399999998 2.4202726200000000 -0.0738437300000000 Au
atom 7.4903621300000003 4.9447298499999999 0.0869766700000000 Au
atom 10.2935235800000005 4.9747590600000002 0.1568512800000000 Au
atom 13.1550063000000002 4.9541763999999997 0.2484662400000000 Au
atom 15.9849932300000006 4.9929895399999999 0.0422268800000000 Au
atom 18.7668396999999985 4.9090642500000001 -0.0118178900000000 Au
atom 21.6024121600000001 4.9445195399999999 0.0871520700000000 Au
atom 24.4052589399999995 4.9061638600000004 0.0976763700000000 Au
atom 27.2253504299999989 4.8780696600000004 0.0104828000000000 Au
atom 1.8166954600000000 4.9313491599999999 0.1704868000000000 Au
atom 4.6695461199999997 4.9365006200000003 0.0776384600000000 Au
atom 8.8765201900000008 7.3749087700000002 0.2062216900000000 Au
atom 11.7319741999999998 7.4085536899999997 0.2390589200000000 Au
atom 14.5367317200000006 7.3970865999999997 0.0328376900000000 Au
atom 17.3978919199999993 7.4171508199999998 0.0421266400000000 Au
atom 20.2102546099999998 7.3965227400000000 0.0708377200000000 Au
atom 23.0520794100000010 7.4062530799999999 0.2740490600000000 Au
atom 25.8209040499999993 7.3369043300000003 0.0853091100000000 Au
atom 0.4235173600000000 7.3421698600000003 0.1355736100000000 Au
atom 3.2703046400000000 7.3985132399999998 -0.0129273200000000 Au
atom 6.0631286299999996 7.4310653899999997 0.0703087900000000 Au
atom 7.4853925700000001 9.9019880400000009 0.0861567000000000 Au
atom 10.3285528600000003 9.8454316700000000 0.2736957000000000 Au
atom 13.1451618999999997 9.8285486399999993 0.1216012700000000 Au
atom 16.0174528500000015 9.8411967800000006 0.0424046400000000 Au
atom 18.8214817799999992 9.8913568400000003 0.0064305600000000 Au
atom 21.6427665500000010 9.8815553499999993 0.0059726800000000 Au
atom 24.5074101999999989 9.8272680000000001 0.0011670400000000 Au
atom 27.2352459799999984 9.8559085399999997 0.0650512400000000 Au
atom 1.8329984600000000 9.7983233500000004 -0.0123814200000000 Au
atom 4.6287279600000000 9.8697352899999995 0.0169395800000000 Au
atom 8.8282278800000000 12.3292362700000009 0.0167260700000000 Au
atom 11.6530553900000005 12.3122773199999997 0.0103052500000000 Au
atom 14.5295339000000006 12.3453492699999998 -0.1196482300000000 Au
atom 17.3669396499999991 12.3681559799999992 0.1062812200000000 Au
atom 20.2668881300000017 12.3652853700000005 -0.0374133200000000 Au
atom 23.0656538500000003 12.3030268100000004 -0.1434815500000000 Au
atom 25.9133724500000007 12.3466100399999998 -0.0334165500000000 Au
atom 0.4807646700000000 12.2592990400000001 0.1087765300000000 Au
atom 3.1803211199999999 12.3726787700000003 -0.0679860700000000 Au
atom 5.9923859000000004 12.3955957600000009 0.0386278400000000 Au
atom 7.4734359100000001 13.2163199900000006 2.5313561000000000 Au
atom 10.3132824700000008 13.2343675600000008 2.6240972199999999 Au
atom 13.1537179500000008 13.2244259700000004 2.4829252799999999 Au
atom 15.8903546599999999 13.2492671299999998 2.6357451699999999 Au
atom 18.7737917000000003 13.2073369100000004 2.5927275700000001 Au
atom 21.6488289099999989 13.2010524100000008 2.4966157700000000 Au
atom 24.3690992000000008 13.1880542399999996 2.6074003900000000 Au
atom 27.1898894999999996 13.1403549000000002 2.6085138699999999 Au
atom 1.8114062799999999 13.2292773100000005 2.7095910900000000 Au
atom 4.5993250999999997 13.1913593400000000 2.6166592400000002 Au
atom 8.9079252800000006 15.6597664699999992 2.5140934599999998 Au
atom 11.7034505899999992 15.6822708800000008 2.4571904999999998 Au
atom 14.5360019800000000 15.6229007299999996 2.4656649499999999 Au
atom 17.3841384400000010 15.6451021299999997 2.4217505600000000 Au
atom 20.1992644100000014 15.5939430399999992 2.4128890699999999 Au
atom 23.0196913499999987 15.6820979400000002 2.5446720799999998 Au
atom 25.8140710400000017 15.6442754999999991 2.5822332200000000 Au
atom 0.5125377500000000 15.6547242799999999 2.5802936299999999 Au
atom 3.3282882900000001 15.6401350699999995 2.6725491799999999 Au
atom 6.1497053700000004 15.6531199200000000 2.5031441000000001 Au
atom 7.5079466000000004 18.1487591799999990 2.7468065799999999 Au
atom 10.3232396400000006 18.1100630500000008 2.3816583400000000 Au
atom 13.2139103000000002 18.1007366199999993 2.6160798999999999 Au
atom 16.0198818500000009 18.1105302299999984 2.5231243900000000 Au
atom 18.8732623699999991 18.0987403100000002 2.7075850199999998 Au
atom 21.6286707100000015 18.1529423500000000 2.5241394700000002 Au
atom 24.4410610199999994 18.1141964299999998 2.5685170700000000 Au
atom 27.2771207000000011 18.0669736199999988 2.5536313800000001 Au
atom 1.8664613999999999 18.1498783800000005 2.6884889400000000 Au
atom 4.6926360100000002 18.1148956000000005 2.4755936400000000 Au
atom 8.9933012600000009 20.5838219799999997 2.7286251699999999 Au
atom 11.8175245199999992 20.6001045299999994 2.4460702300000001 Au
atom 14.6321225399999992 20.6127253000000010 2.7478540400000000 Au
atom 17.3611076599999983 20.6046014699999986 2.6558777600000001 Au
atom 20.1859668600000006 20.6151751999999995 2.6917726200000001 Au
atom 23.0523463699999986 20.5762957799999988 2.5476488900000001 Au
atom 25.8915653200000015 20.5633830099999990 2.6919534500000002 Au
atom 0.4694962800000000 20.6189529600000014 2.5840027900000000 Au
atom 3.3281953299999998 20.5767058200000008 2.6680248299999998 Au
atom 6.1312745900000003 20.6030648899999989 2.7954601100000001 Au
atom 7.5413810100000003 23.0462979700000012 2.6119977400000001 Au
atom 10.3757577899999998 23.0464771100000014 2.7478279500000000 Au
atom 13.1467128899999999 23.0254444599999992 2.6131056400000001 Au
atom 15.9720698399999996 23.1205636900000009 2.6863328200000001 Au
atom 18.8357373899999985 23.0780047400000008 2.5738139499999999 Au
atom 21.6514496899999997 23.0631184400000002 2.6366991799999999 Au
atom 24.5018125299999987 23.0353432799999993 2.7021241599999999 Au
atom 27.2953761800000017 23.1199128000000016 2.8207302699999999 Au
atom 1.8852405500000000 23.0611121399999988 2.7370263300000000 Au
atom 4.6784875699999997 23.0738974900000002 2.7049159000000000 Au
atom 8.8717119600000007 25.5047218300000011 2.6091765100000002 Au
atom 11.6874272500000007 25.5510116499999995 2.6681194000000001 Au
atom 14.5929332899999995 25.5046829200000005 2.6050933999999999 Au
atom 17.4304126500000010 25.5590995700000008 2.6603633200000001 Au
atom 20.2420121299999991 25.5771830300000005 2.6197503499999999 Au
atom 23.0202779100000008 25.5033718699999987 2.7038142600000001 Au
atom 25.7886531400000010 25.5300928200000001 2.7785836300000000 Au
atom 0.4829948700000000 25.5881097900000007 2.8881645100000002 Au
atom 3.2212713300000000 25.5644888700000017 2.7994216000000001 Au
atom 6.0650919700000001 25.4996967099999985 2.8357180500000001 Au
atom 7.5061223799999999 27.9957807999999986 2.6459333200000001 Au
atom 10.2404047400000007 28.0231269300000001 2.6816959900000001 Au
atom 13.0833214800000004 28.0126127800000013 2.6555693400000000 Au
atom 15.9488993699999995 28.0287760000000006 2.4885548700000002 Au
atom 18.7472182099999998 28.0504412000000016 2.5206534600000001 Au
atom 21.6291215900000005 28.0503299900000016 2.5178003400000000 Au
atom 24.3592152900000016 28.0252896999999983 2.6006384800000002 Au
atom 27.2064859299999995 28.0023747000000007 2.8547416399999999 Au
atom 1.8479519200000001 28.0749563600000016 2.6802199099999999 Au
atom 4.6389024599999997 27.9753454700000006 2.6915786800000001 Au
atom 8.8582946299999996 30.5198982299999990 2.6506983100000001 Au
atom 11.7172374300000008 30.5181599500000011 2.6500462100000002 Au
atom 14.5440933099999992 30.4501924799999983 2.5298551100000002 Au
atom 17.3521541699999986 30.5408708599999983 2.4566074300000000 Au
atom 20.1845782500000013 30.4584769000000009 2.5365636600000001 Au
atom 23.0023927000000015 30.5485095400000013 2.5597726100000000 Au
atom 25.8050562799999987 30.4597983399999990 2.7246180500000001 Au
atom 0.4596530400000000 30.4468773900000009 2.6399987800000000 Au
atom 3.3440905100000000 30.5051368700000012 2.7896181200000001 Au
atom 6.0950237600000001 30.4326604699999983 2.5804052300000002 Au
atom 7.4530864299999999 32.9962385400000002 2.5713035299999998 Au
atom 10.2720360100000008 32.9169456999999994 2.8385500600000002 Au
atom 13.0832339999999991 32.9437293800000006 2.5678287399999999 Au
atom 15.9108101499999997 32.9480559300000024 2.7104620300000000 Au
atom 18.7750752799999994 32.9494779799999975 2.4582278600000000 Au
atom 21.5813310200000004 32.9569187800000023 2.4526084500000001 Au
atom 24.3764312300000014 32.9455233799999974 2.5837290300000002 Au
atom 27.2418348500000000 32.8782224799999980 2.6325338800000000 Au
atom 1.8180415999999999 32.8840061900000009 2.5461813499999999 Au
atom 4.6831365500000004 32.9640580900000018 2.6985521900000000 Au
atom 8.8857197499999998 35.3944189099999988 2.7401639699999998 Au
atom 11.6965237999999996 35.3546727900000022 2.6462834800000001 Au
atom 14.5811460099999994 35.3835472199999970 2.6943406900000002 Au
atom 17.3881996799999996 35.3486383799999970 2.6139906700000002 Au
atom 20.2425658900000016 35.3753387799999999 2.5529411299999998 Au
atom 23.0419892699999984 35.4126113599999996 2.5085753600000000 Au
atom 25.8723750499999987 35.3995672599999978 2.6812140000000002 Au
atom 0.4090523500000000 35.3889403100000024 2.6251620299999998 Au
atom 3.1923123000000002 35.3852370199999982 2.5598323199999999 Au
atom 6.0530411099999997 35.4167596799999984 2.5132558100000000 Au
atom 7.5071711700000003 37.8408254799999995 2.6217950399999999 Au
atom 10.2949043000000007 37.8584890099999996 2.8456691799999998 Au
atom 13.1338820500000004 37.8377284800000027 2.6378585600000002 Au
atom 16.0035819600000018 37.7956055499999977 2.6481172399999999 Au
atom 18.8091460499999990 37.8448950599999989 2.5523437000000002 Au
atom 21.6117550700000010 37.8748294000000030 2.7887401299999999 Au
atom 24.4214119300000014 37.8513423699999976 2.6381601699999999 Au
atom 27.3333741400000001 37.8983806800000025 2.8211758400000000 Au
atom 1.9155750800000000 37.8300837900000033 2.5704034000000000 Au
atom 4.7004141199999996 37.8160008999999988 2.6674757200000001 Au
atom 8.8812591600000008 0.8276896700000000 2.7948661200000000 Au
atom 11.7149445900000000 0.8251311800000000 2.8156305599999998 Au
atom 14.5826890400000000 0.8151621100000001 2.6385780900000002 Au
atom 17.3947071000000015 0.8581221600000000 2.6838676900000000 Au
atom 20.1741049799999992 0.8063302200000000 2.6909157800000001 Au
atom 23.0208304300000002 0.8520678300000000 2.7597638700000000 Au
atom 25.8798297700000006 0.8850690300000000 2.5817217499999998 Au
atom 0.4899897100000000 0.8465207600000000 2.6736465400000000 Au
atom 3.2862895800000000 0.8287724400000001 2.7178198700000000 Au
atom 6.0776949100000000 0.8479800199999999 2.6763910300000000 Au
atom 7.4857594699999996 3.3323475000000000 2.6702501399999998 Au
atom 10.2961038899999995 3.2832713700000000 2.6701498799999999 Au
atom 13.1715604800000001 3.3331166300000001 2.6035069499999999 Au
atom 15.9549348900000005 3.3365710200000001 2.6124974399999998 Au
atom 18.7529338400000007 3.3347894199999999 2.6643908700000001 Au
atom 21.5612785699999989 3.2524706800000001 2.6945965699999999 Au
atom 24.4163273700000012 3.3344633300000002 2.5358987700000002 Au
atom 27.2724286999999990 3.2966879300000000 2.5170357800000001 Au
atom 1.8782545500000001 3.3148906999999999 2.7160694500000000 Au
atom 4.7031109899999999 3.2611338999999999 2.5355352199999999 Au
atom 8.8693274300000002 5.7843087700000000 2.8348906600000001 Au
atom 11.7777905599999997 5.7916764599999997 2.7966066100000000 Au
atom 14.5730624100000004 5.8207706600000000 2.8096504699999998 Au
atom 17.3667297000000005 5.7612619199999999 2.7853618400000002 Au
atom 20.1907541299999984 5.7623055299999999 2.6828387400000002 Au
atom 22.9711685599999988 5.7684992900000003 2.7666956599999999 Au
atom 25.8521496500000012 5.8112386000000003 2.6605281900000000 Au
atom 0.4525073300000000 5.7738918300000002 2.7999603700000000 Au
atom 3.2714796100000001 5.7612924400000001 2.6946828500000000 Au
atom 6.0751549699999998 5.7468383599999999 2.6170518700000001 Au
atom 7.5110059500000004 8.2900111600000006 2.7196070799999998 Au
atom 10.3094758700000000 8.2660721099999996 2.7991932600000000 Au
atom 13.1475578500000001 8.3450609599999996 2.7954229900000001 Au
atom 15.9333647599999999 8.2560494099999993 2.6001451000000002 Au
atom 18.7570356800000013 8.2868210700000002 2.6083622000000002 Au
atom 21.5123375199999991 8.2400388499999995 2.7006138200000001 Au
atom 24.3830640699999996 8.2616270800000002 2.8042187400000000 Au
atom 27.1483997200000005 8.3295779099999994 2.5694918000000002 Au
atom 1.8017404600000000 8.2844191699999996 2.7138637900000000 Au
atom 4.6880024799999997 8.2586996100000007 2.5688612900000001 Au
atom 8.8686073699999994 10.7979230600000005 2.7975154600000001 Au
atom 11.8032444200000004 10.7919092100000000 2.7767412899999999 Au
atom 14.6018130199999998 10.7489132000000005 2.6278072699999999 Au
atom 17.3980682400000006 10.7082271099999993 2.6525682900000001 Au
atom 20.1705565000000000 10.7581144500000008 2.5629514200000001 Au
atom 22.9362706500000009 10.6724807800000008 2.5341579500000000 Au
atom 25.7648605000000011 10.7286411099999999 2.6842951199999998 Au
atom 0.4505348000000000 10.7358194499999993 2.7321225299999998 Au
atom 3.2380235800000001 10.7310738600000004 2.5228101999999999 Au
atom 6.0362427500000004 10.7620456999999998 2.7135246500000001 Au
atom 7.3729281599999998 13.0669732100000004 5.8252782999999999 Cl
atom 7.4283239500000002 15.9319432600000006 8.8092821000000008 Cl
atom 7.4652462499999999 13.0842122100000005 8.4493479800000006 Na
atom 7.5321286399999998 16.0125340099999995 5.9023411899999996 Na
atom 7.4059152299999997 18.8558318999999983 5.6718096100000004 Cl
atom 7.5691661999999997 21.5841910800000001 8.5107666500000008 Cl
atom 7.4192055400000001 18.7948636600000007 8.2988565899999998 Na
atom 7.5687905400000002 21.5881097199999985 5.8519683799999997 Na
atom 7.5246687000000003 24.5040694999999999 5.7008916500000000 Cl
atom 7.4927667600000003 27.4735366899999995 8.5843969599999994 Cl
atom 7.3813943499999999 24.3468555299999991 8.3829154300000006 Na
atom 7.5364711800000004 27.2440338000000004 5.8856403799999999 Na
atom 7.5664817800000002 30.0496541000000015 5.7886379400000001 Cl
atom 7.4410092900000002 33.0433547599999997 8.5990390600000008 Cl
atom 7.4925136999999999 30.2279855200000007 8.4241148500000005 Na
atom 7.4210782300000000 32.9474381799999989 5.8719127999999996 Na
atom 7.5232127200000001 35.7699339600000030 5.8452658000000000 Cl
atom 7.4832371300000000 38.6367779400000018 8.7257521699999998 Cl
atom 7.4652745800000000 35.8395296500000029 8.5401528500000001 Na
atom 7.5172256800000001 38.5480583900000013 6.0331326100000000 Na
atom 7.5258801699999998 1.8568067600000000 5.8342896199999998 Cl
atom 7.5450149199999998 4.7420630299999997 8.7806119099999993 Cl
atom 7.5327063000000001 1.8841671600000001 8.5452220499999996 Na
atom 7.5167936099999997 4.7439269900000003 5.9787024799999999 Na
atom 7.7030864499999998 7.5387719200000003 5.9189085900000000 Cl
atom 7.5551135800000004 10.2735883200000000 8.8852121000000004 Cl
atom 7.5371627700000001 7.4893912800000004 8.5778232899999995 Na
atom 7.6517030999999998 10.3955265699999995 6.0125197100000003 Na
atom 10.3480732900000003 13.4231015399999993 5.7869430299999998 Na
atom 13.2155632700000005 13.0188625699999996 5.8307985200000001 Cl
atom 10.1371643799999998 15.9165533099999994 8.6067159600000007 Na
atom 13.1822604099999996 16.0213727500000012 8.6931918800000005 Cl
atom 13.0821407799999996 13.1476490100000003 8.5022557299999999 Na
atom 10.1862636000000002 13.2470401899999999 8.5176903599999996 Cl
atom 13.0261300700000007 15.9474718099999997 5.9756763199999998 Na
atom 10.2695691300000007 16.1494340500000000 5.8351549100000000 Cl
atom 10.3085193000000004 18.9196420699999983 5.7952343700000002 Na
atom 13.2370131499999992 18.9531100300000013 5.8537108900000003 Cl
atom 10.3954271699999996 21.6582989400000017 8.4213530900000002 Na
atom 13.0710039200000008 21.6697827799999985 8.7237423300000003 Cl
atom 13.1129145299999994 18.7484663000000005 8.4113750700000001 Na
atom 10.3887750600000004 18.8866571299999997 8.7655760800000007 Cl
atom 13.1628449900000000 21.7961869200000002 5.9976550299999998 Na
atom 10.4775688700000007 21.5163967199999995 5.7715596500000004 Cl
atom 10.4360683299999994 24.5129704699999991 5.9474664500000003 Na
atom 13.1815792399999996 24.3997543400000012 6.0002524700000004 Cl
atom 10.3264484400000001 27.2304894399999995 8.3349581799999992 Na
atom 13.1298925200000003 27.2674055700000011 8.6500406000000005 Cl
atom 13.1535623899999994 24.5953582600000011 8.5609228999999996 Na
atom 10.2972859499999991 24.4742571200000008 8.6318779200000009 Cl
atom 13.0901595999999998 27.1650720399999983 5.8525363400000003 Na
atom 10.4163353500000007 27.3262991799999995 5.6572846900000000 Cl
atom 10.3808800500000000 30.1332193100000012 5.7386746500000001 Na
atom 13.2191285399999998 30.1285011400000009 5.8239978900000002 Cl
atom 10.2785830800000006 33.0009124600000021 8.4062772999999993 Na
atom 13.1501491000000001 32.9264426800000010 8.4903075300000008 Cl
atom 13.1413938699999999 30.1053619099999992 8.4799148700000000 Na
atom 10.2451657500000000 30.0860133900000015 8.5625244499999997 Cl
atom 13.1390681899999997 32.9883493000000030 5.8474771199999998 Na
atom 10.2877073299999999 32.9259426200000007 5.7665176999999996 Cl
atom 10.2935073599999996 35.7395358999999999 5.8536798499999998 Na
atom 13.0761956799999997 35.7528857799999997 5.7885557900000002 Cl
atom 10.3417645500000006 38.5390381400000024 8.5092428699999996 Na
atom 13.1555675900000004 38.5797408000000033 8.5554478300000003 Cl
atom 13.2364212800000001 35.7322211800000034 8.4368057800000003 Na
atom 10.2880136499999999 35.7427858599999979 8.6127659899999998 Cl
atom 13.0492635400000001 38.5813813400000001 5.8922129900000000 Na
atom 10.2924448500000008 38.6194984300000002 5.9065236700000003 Cl
atom 10.3304497299999998 1.9958238200000000 5.9615388200000003 Na
atom 13.1227495699999999 1.9600582799999999 5.8098334700000001 Cl
atom 10.3028599300000003 4.8064628300000001 8.5451018300000001 Na
atom 13.2177229500000006 4.6655306999999997 8.7339069600000006 Cl
atom 13.1483922100000008 1.9461584900000000 8.4450606700000002 Na
atom 10.2790247000000008 1.9514877700000000 8.6859470699999992 Cl
atom 13.1560676399999998 4.7629931100000000 5.9017268899999999 Na
atom 10.3309264800000005 4.6726191300000002 5.8772171000000002 Cl
atom 10.3256488300000004 7.5182925100000002 6.0359513900000001 Na
atom 13.1207715300000007 7.5156174000000000 5.9111577300000002 Cl
atom 10.3481654200000008 10.3129493700000001 8.7955257099999997 Na
atom 13.2358952999999993 10.3297188599999998 8.7396002900000003 Cl
atom 13.1787126800000003 7.5284568800000002 8.5600542100000006 Na
atom 10.4325654599999993 7.4481519699999996 8.7862287800000001 Cl
atom 13.0298689200000002 10.3806207199999996 6.0248456099999999 Na
atom 10.4292912399999995 10.3264454099999998 6.0956245500000001 Cl
atom 15.9106363700000006 13.1675531800000005 5.9602942800000003 Na
atom 18.8042101200000005 13.0441532700000007 5.5057972900000003 Cl
atom 16.0220999100000014 16.0210877300000014 8.4817751500000007 Na
atom 18.7749236199999991 15.9406347999999998 8.4360302699999998 Cl
atom 18.7685632700000014 13.1104141799999994 8.2281038599999992 Na
atom 15.9488546699999993 13.2358440599999998 8.6118079600000002 Cl
atom 18.5599416899999987 15.9749922499999997 5.6322457799999999 Na
atom 15.7635329399999993 15.9668529800000005 5.8915788400000002 Cl
atom 16.0269040899999986 18.7180297899999992 5.9286605300000002 Na
atom 18.6875512199999996 18.8067203399999983 5.7770384600000000 Cl
atom 15.9100637000000003 21.7268140900000013 8.6144346600000006 Na
atom 18.7004112000000013 21.6506636800000010 8.6480891500000006 Cl
atom 18.8205228700000013 18.8117160599999984 8.3868394899999998 Na
atom 16.0297325000000015 18.7714164600000011 8.6899565699999997 Cl
atom 18.6507140299999996 21.6938737900000014 5.9854839100000001 Na
atom 15.8491730700000009 21.6361917199999993 5.8579216799999996 Cl
atom 15.9442495399999995 24.5634177600000001 6.0978409700000000 Na
atom 18.7301912100000010 24.5188895900000006 5.8597927399999996 Cl
atom 15.9451915000000000 27.3331196399999996 8.9133599100000005 Na
atom 18.7264899199999988 27.4149418800000007 8.7937381099999996 Cl
atom 18.8059559000000007 24.6109332099999989 8.3756896100000002 Na
atom 15.8703906799999999 24.5785067999999995 8.7956492700000002 Cl
atom 18.5830165299999983 27.1819514099999999 6.0240829400000004 Na
atom 15.7930163199999996 27.3300811500000016 6.0243193200000000 Cl
atom 15.9934882100000006 29.9849885500000006 5.9510211599999998 Na
atom 18.7277665700000000 30.1148615699999986 5.7695160699999999 Cl
atom 15.9579491200000003 32.8304965700000011 8.3347903700000003 Na
atom 18.7922064000000013 33.0395522800000023 8.5856151999999994 Cl
atom 18.7348154200000003 30.1308921199999986 8.4240461700000004 Na
atom 16.0489641200000008 30.2195448700000000 8.7445012799999997 Cl
atom 18.7524811100000015 32.8495107899999965 5.7966924999999998 Na
atom 15.9682781499999997 32.9172843400000019 5.6817209499999999 Cl
atom 16.0099752700000018 35.7444678499999995 5.7517265000000002 Na
atom 18.8359243300000010 35.6894576299999997 5.6576833100000004 Cl
atom 15.9379048300000008 38.4815837900000020 8.3703599000000004 Na
atom 18.8127129500000017 38.4520311699999979 8.6303256200000007 Cl
atom 18.8017240500000007 35.7646403800000030 8.3473111099999997 Na
atom 15.9329105099999992 35.7182815299999987 8.4872145499999991 Cl
atom 18.8088070300000005 38.5527411099999995 5.9089995699999998 Na