#===============================================================================
# Created using the Atomic Simulation Environment (ASE)

# Tue Dec 23 21:42:00 2025

#=======================================================
lattice_vector 28.1999999999999993 0.0000000000000000 0.0000000000000000 
lattice_vector 0.0000000000000000 39.4799999999999969 0.0000000000000000 
lattice_vector 0.0000000000000000 0.0000000000000000 62.3296083400000001 
atom 7.4775883600000004 14.8065458200000002 0.0002949600000000 Au
atom 10.2729399200000007 14.8057640900000003 -0.1844722900000000 Au
atom 13.0553557100000006 14.8139892599999996 -0.1921147900000000 Au
atom 15.9125904600000005 14.8392429700000008 -0.1400191000000000 Au
atom 18.7980610299999995 14.8133148000000006 0.1241634400000000 Au
atom 21.6516649399999999 14.8930002899999998 0.0144606800000000 Au
atom 24.4364124199999999 14.8254869100000004 -0.0201990400000000 Au
atom 27.2285471600000015 14.7789693900000003 -0.1244596000000000 Au
atom 1.8967276700000000 14.7585433300000002 -0.1341876300000000 Au
atom 4.6668533999999999 14.8113443700000005 -0.0308235400000000 Au
atom 8.8636161300000005 17.2378453399999998 0.0385404800000000 Au
atom 11.6497739899999999 17.3264165800000001 -0.2683299400000000 Au
atom 14.5452820799999998 17.3064726799999988 -0.3072128200000000 Au
atom 17.4035297399999997 17.2649613200000012 -0.1020997200000000 Au
atom 20.2231924700000008 17.3355370800000017 0.1129448300000000 Au
atom 23.0591930900000008 17.3009859199999987 0.1192117300000000 Au
atom 25.8493259600000016 17.2416946300000014 -0.0313558800000000 Au
atom 0.4552831700000000 17.1936451000000012 -0.0403107900000000 Au
atom 3.2628179700000000 17.2725229400000018 0.0430864700000000 Au
atom 6.0839559699999999 17.2735186499999998 -0.0720338000000000 Au
atom 7.4869827400000002 19.6740513300000011 0.1969905200000000 Au
atom 10.3640700700000004 19.7988387199999991 0.0284202300000000 Au
atom 13.1394525800000004 19.8151143699999999 -0.1014428000000000 Au
atom 15.9630011900000000 19.7369595099999984 -0.2025505800000000 Au
atom 18.7325486900000016 19.7209939399999996 -0.0361497700000000 Au
atom 21.6175293699999997 19.7746977100000016 -0.0198567000000000 Au
atom 24.4249257799999988 19.7420372099999994 0.1131569100000000 Au
atom 27.2642075699999999 19.7595019799999996 -0.0021886000000000 Au
atom 1.8224784599999999 19.7163114399999984 0.0283724300000000 Au
atom 4.6420575399999997 19.7349983900000012 0.0522204400000000 Au
atom 8.8672185399999996 22.1902590500000017 0.0417700600000000 Au
atom 11.6888889599999999 22.2517507600000002 -0.0392982800000000 Au
atom 14.5607033900000005 22.2706268600000001 -0.0324403500000000 Au
atom 17.3832275000000003 22.2523390499999998 0.0092354000000000 Au
atom 20.1835789699999992 22.2534446099999990 -0.0680244800000000 Au
atom 23.0051188599999996 22.2276059100000012 -0.0531804800000000 Au
atom 25.8728520000000017 22.1938449999999996 -0.0066819600000000 Au
atom 0.4750324400000000 22.2269042799999994 0.1379196600000000 Au
atom 3.2072516499999999 22.1553481400000010 0.1119902200000000 Au
atom 6.0569914599999999 22.1374431800000018 -0.0673750900000000 Au
atom 7.4701762599999997 24.7087661199999999 0.1986070200000000 Au
atom 10.2725290999999999 24.6939988300000017 0.0045115100000000 Au
atom 13.1437982299999998 24.6846644300000015 0.0674828000000000 Au
atom 15.9784129400000001 24.6739543599999998 -0.0573243300000000 Au
atom 18.8023279400000014 24.7126829800000003 0.0389036600000000 Au
atom 21.6576801699999990 24.6911175199999988 -0.0441725200000000 Au
atom 24.4580601199999990 24.6213897700000004 0.1274304200000000 Au
atom 27.2765981400000008 24.7209848699999988 0.0862968000000000 Au
atom 1.8638519899999999 24.6361541600000002 0.0661752700000000 Au
atom 4.6663171099999996 24.6215229800000017 0.1534718900000000 Au
atom 8.9259447699999992 27.1175549400000016 0.1666792900000000 Au
atom 11.7823416800000000 27.1347633500000001 -0.0502933400000000 Au
atom 14.5650746299999998 27.1634502200000014 0.0624083300000000 Au
atom 17.3752724299999990 27.1089879399999987 0.0979262000000000 Au
atom 20.1992463999999998 27.1429121799999997 0.0612068200000000 Au
atom 23.0872807000000009 27.1066347199999989 0.0879627700000000 Au
atom 25.8910205500000004 27.1313833899999999 0.0828444300000000 Au
atom 0.4983298500000000 27.1481136399999983 0.0632336800000000 Au
atom 3.2632551599999999 27.1007229400000007 0.0775180500000000 Au
atom 6.0711375600000004 27.0669155400000001 0.0861567800000000 Au
atom 7.5661690999999998 29.5363082699999993 0.0637835700000000 Au
atom 10.3788849600000006 29.5392207000000013 0.0984356500000000 Au
atom 13.1394231099999992 29.6294225900000008 0.0828291200000000 Au
atom 16.0137776299999999 29.5854427099999988 0.2546243300000000 Au
atom 18.8399136200000008 29.6110037099999985 0.0373055800000000 Au
atom 21.6244389900000016 29.5457327700000008 0.0674697200000000 Au
atom 24.4758703299999993 29.5854925599999987 -0.0795797500000000 Au
atom 27.2752425999999986 29.6424500199999983 -0.0830277900000000 Au
atom 1.9469316000000001 29.5817845699999999 -0.0134137000000000 Au
atom 4.7391458100000001 29.5373769099999990 -0.0543095800000000 Au
atom 8.9235434700000003 32.0587063400000005 0.1655337500000000 Au
atom 11.7634149699999995 32.0533363999999992 0.1515600600000000 Au
atom 14.5797082699999994 32.0687172599999997 -0.0543745500000000 Au
atom 17.3805502700000005 32.0631599800000018 -0.0468705600000000 Au
atom 20.2133159900000017 32.0524600099999972 0.0218392900000000 Au
atom 23.0044022400000010 32.0604278300000018 -0.0914895500000000 Au
atom 25.8610560700000001 32.0710640100000006 -0.1098008000000000 Au
atom 0.4786788500000000 32.0685394500000029 -0.0482371500000000 Au
atom 3.3230597500000001 32.0713409000000027 -0.1409613800000000 Au
atom 6.0984974799999998 32.0389847200000020 0.0306992600000000 Au
atom 7.5322293199999999 34.5396372100000022 0.0345981900000000 Au
atom 10.3200840300000003 34.5061561200000000 0.0144335400000000 Au
atom 13.1210435699999994 34.5520001599999986 -0.0905008100000000 Au
atom 15.9977434299999999 34.5221998900000031 -0.1908337900000000 Au
atom 18.8250297800000013 34.5433853999999982 -0.0833708400000000 Au
atom 21.6528553200000005 34.5579913099999985 0.0899976500000000 Au
atom 24.4241939600000002 34.5238070799999974 -0.0692924900000000 Au
atom 27.2397054800000014 34.5443688200000025 0.0571242800000000 Au
atom 1.8533111499999999 34.5756304399999976 0.0953735100000000 Au
atom 4.6675989299999996 34.5302937800000009 0.1154135400000000 Au
atom 8.9353774700000006 36.9784965400000019 0.0119814900000000 Au
atom 11.7595782100000008 37.0120611199999985 0.0587477300000000 Au
atom 14.5424387300000006 37.0532237500000008 0.0427724300000000 Au
atom 17.3609679800000016 37.0164128400000010 0.0875937200000000 Au
atom 20.1660679800000011 36.9800053199999965 -0.0010872500000000 Au
atom 22.9959556300000010 37.0471869100000006 -0.0284432600000000 Au
atom 25.8114137799999988 36.9578857099999993 0.0087388600000000 Au
atom 0.3933607500000000 37.0801251700000023 -0.0354243600000000 Au
atom 3.2563383699999999 37.0044845400000000 0.1042829100000000 Au
atom 6.0542256500000002 37.0244746099999986 -0.0001528000000000 Au
atom 7.4764249899999999 0.0203037800000000 0.0470981200000000 Au
atom 10.3541497800000002 0.0299482300000000 0.1775269700000000 Au
atom 13.1298868599999992 0.0497041600000000 -0.0356878200000000 Au
atom 15.9460280599999997 0.0133594500000000 0.0310671800000000 Au
atom 18.7587222999999987 -0.0872756800000000 0.1451339200000000 Au
atom 21.5701204900000008 -0.0147685700000000 -0.0513711400000000 Au
atom 24.4218122300000005 -0.0041389000000000 -0.0043536900000000 Au
atom 27.2109889400000000 0.0191914300000000 0.2211961500000000 Au
atom 1.8351034200000000 0.1478446100000000 0.2086766300000000 Au
atom 4.6348722000000002 -0.0037720500000000 0.1508738400000000 Au
atom 8.8897345899999998 2.4821896500000000 0.0508392600000000 Au
atom 11.6923182099999998 2.4705807700000002 0.1163141500000000 Au
atom 14.5167818799999999 2.4770684400000000 0.0819044100000000 Au
atom 17.3166840999999998 2.5007722499999998 0.0798904400000000 Au
atom 20.1312061200000016 2.4849326199999999 0.0341837300000000 Au
atom 22.9204989499999989 2.4722611600000000 0.0772450000000000 Au
atom 25.7799486699999996 2.4769868200000000 0.1518388600000000 Au
atom 0.4416324700000000 2.5437802000000000 0.2272783900000000 Au
atom 3.2918344400000001 2.5061240699999998 0.2611813600000000 Au
atom 6.0782278400000003 2.4816681100000002 0.0404771000000000 Au
atom 7.5049605499999998 4.9870109200000003 0.0736000500000000 Au
atom 10.3049306299999994 4.9899900199999996 0.2044512900000000 Au
atom 13.0838647899999998 4.9648652999999996 0.1381763800000000 Au
atom 15.9344485999999996 4.9562501200000000 0.1711124600000000 Au
atom 18.7529376100000000 4.9437069899999999 -0.0253783600000000 Au
atom 21.6072812700000014 4.9652601599999997 0.0571660300000000 Au
atom 24.4044198899999998 4.9028116099999997 -0.0182868100000000 Au
atom 27.2773316799999996 4.9401409200000002 0.0401658300000000 Au
atom 1.9366930600000001 4.9584068400000003 -0.0713445900000000 Au
atom 4.7148216800000000 4.9483874700000001 0.0954138200000000 Au
atom 8.8899159700000006 7.3647619600000001 0.1045143900000000 Au
atom 11.7195541399999996 7.4576122399999996 0.1041207500000000 Au
atom 14.5342704900000008 7.3718639100000001 -0.0994408600000000 Au
atom 17.3613331700000018 7.3491925199999999 0.0378059400000000 Au
atom 20.1910133199999997 7.3824808199999996 0.0323361000000000 Au
atom 23.0296673600000013 7.3580190200000004 0.0336662500000000 Au
atom 25.8782372100000018 7.3411188000000003 0.0110339600000000 Au
atom 0.4808111300000000 7.3946303699999998 0.1529371900000000 Au
atom 3.2586871500000001 7.4302204400000003 0.1076944400000000 Au
atom 6.0967316900000004 7.3570858399999999 -0.1070339600000000 Au
atom 7.5779283499999996 9.8620750899999994 0.0129437600000000 Au
atom 10.3963971300000004 9.8583341400000002 -0.0588112400000000 Au
atom 13.1910391899999997 9.8668400799999993 0.1170588300000000 Au
atom 15.9989500299999996 9.8676564100000004 -0.1010110100000000 Au
atom 18.7625703500000007 9.8004707599999996 -0.0585900700000000 Au
atom 21.6287102000000004 9.9144904199999999 -0.0236298400000000 Au
atom 24.4431564899999998 9.9142523699999998 -0.0627775600000000 Au
atom 27.2160189599999995 9.8572104500000002 0.0967117400000000 Au
atom 1.8612198000000000 9.8590684599999996 -0.0329067200000000 Au
atom 4.6734522900000002 9.8494472599999998 0.0282213500000000 Au
atom 8.9061410799999994 12.3063135199999998 -0.1752016600000000 Au
atom 11.7097953799999992 12.3436537699999995 -0.2407884100000000 Au
atom 14.5648580100000000 12.3594172100000002 -0.1283241300000000 Au
atom 17.4329810999999992 12.3398972899999997 0.0124879600000000 Au
atom 20.2203562699999999 12.3389744700000001 0.1088923700000000 Au
atom 23.0259037900000010 12.4321434699999998 -0.1462869000000000 Au
atom 25.8672353100000016 12.3549910300000008 0.1270051400000000 Au
atom 0.4680175800000000 12.2637492500000000 -0.0323207500000000 Au
atom 3.3519639500000000 12.2904581900000007 -0.0081094700000000 Au
atom 6.1229840900000001 12.2818613400000007 -0.0429905900000000 Au
atom 7.5074522999999997 13.1722649999999994 2.5382790300000000 Au
atom 10.3220226299999993 13.1988122200000007 2.3310809099999998 Au
atom 13.0968572800000000 13.1944004899999996 2.4300421000000001 Au
atom 15.9794807900000002 13.2103091500000005 2.4336406799999999 Au
atom 18.7594702399999989 13.1699443499999997 2.6983753699999999 Au
atom 21.6124647100000011 13.1683690900000006 2.5612344999999999 Au
atom 24.3676333300000003 13.1794203799999998 2.6328596200000001 Au
atom 27.2637479800000015 13.1515102200000005 2.5746186799999999 Au
atom 1.8760751800000000 13.1918566300000002 2.6250208100000001 Au
atom 4.6441327100000001 13.2065832800000003 2.4799163399999999 Au
atom 8.9406906100000008 15.5758908300000005 2.6397145499999999 Au
atom 11.7475935000000007 15.6430471600000001 2.4363631699999999 Au
atom 14.4890880899999992 15.6265532000000000 2.4579305300000001 Au
atom 17.3499899500000012 15.6553725099999994 2.6296318300000001 Au
atom 20.2094600600000014 15.6166653100000001 2.7086761699999999 Au
atom 23.0504664199999993 15.6512260800000007 2.6315088900000001 Au
atom 25.8785067200000007 15.6214098600000000 2.6084489199999998 Au
atom 0.4769531700000000 15.6738745799999997 2.4888841700000000 Au
atom 3.2398933300000001 15.6268691700000009 2.5729543000000001 Au
atom 6.1228944800000003 15.6463083899999997 2.6447783299999998 Au
atom 7.5278577300000000 18.0794370200000003 2.7359323099999999 Au
atom 10.3386547300000000 18.1013167199999998 2.5787385100000000 Au
atom 13.1209319099999995 18.0573243999999988 2.3645281499999999 Au
atom 15.8780791699999995 18.1090662900000012 2.3237477499999999 Au
atom 18.7107947900000013 18.0564483399999993 2.6968476899999998 Au
atom 21.5906537999999983 18.1033331299999993 2.7481400800000002 Au
atom 24.4800512800000014 18.0533804700000005 2.6680197799999998 Au
atom 27.2898190300000003 18.1125180899999982 2.5308729699999999 Au
atom 1.8876708200000001 18.1137020299999989 2.6611522900000000 Au
atom 4.7294328099999996 18.1145522099999994 2.5810387900000000 Au
atom 8.9079066099999995 20.6021406399999982 2.7015994800000001 Au
atom 11.7384158599999999 20.5882134599999986 2.6318442599999998 Au
atom 14.5547839000000003 20.5305512800000010 2.5603129299999998 Au
atom 17.3199829299999983 20.5741447499999985 2.5859444699999998 Au
atom 20.1423562700000005 20.5808454699999999 2.5509933500000002 Au
atom 23.0031667499999983 20.4919028700000005 2.6670142999999999 Au
atom 25.8217411500000011 20.5086499599999996 2.7037893899999998 Au
atom 0.4676195800000000 20.5876644000000013 2.6732181900000000 Au
atom 3.2526456900000000 20.5566219399999994 2.7497659799999998 Au
atom 6.0400137300000001 20.6293210699999996 2.6888678100000001 Au
atom 7.4890517799999996 23.0082908999999987 2.5666042199999999 Au
atom 10.3267151599999991 23.0656254999999994 2.5459326600000001 Au
atom 13.1098202100000005 23.0225170100000014 2.6295239800000001 Au
atom 15.9337873999999999 23.0533160600000002 2.6088340099999998 Au
atom 18.7735594500000005 23.0112739399999988 2.6131704999999998 Au
atom 21.6297183100000012 22.9817387800000006 2.4769011800000000 Au
atom 24.4136417700000017 22.9807842899999990 2.6460185699999998 Au
atom 27.2228185799999984 23.0260719400000013 2.6929160699999999 Au
atom 1.8987731100000000 23.0893371999999992 2.7136892100000001 Au
atom 4.7314835100000003 23.1099559899999996 2.6559811899999999 Au
atom 8.8980210999999994 25.4735930300000000 2.7652340600000000 Au
atom 11.7308588500000006 25.4983261799999994 2.6584153700000002 Au
atom 14.4971741600000001 25.5495309299999995 2.6775695399999999 Au
atom 17.3559568300000002 25.4677357600000001 2.6905421899999999 Au
atom 20.1637998699999983 25.5079818799999991 2.7260887500000002 Au
atom 22.9983796299999987 25.4969577500000000 2.7096624199999999 Au
atom 25.7901268700000017 25.5074670200000000 2.7453688999999999 Au
atom 0.4177137300000000 25.5509792299999994 2.7751017299999998 Au
atom 3.2359784999999999 25.5921277300000014 2.6643053800000001 Au
atom 6.0826103500000004 25.5767943500000001 2.7980033600000001 Au
atom 7.4819699599999998 28.0251522299999998 2.6658534899999999 Au
atom 10.2947662999999991 27.9776650499999988 2.6914178299999998 Au
atom 13.1338533599999998 28.0172504999999994 2.6449875000000000 Au
atom 15.9469328400000006 27.9502852200000014 2.7393106999999999 Au
atom 18.7306381799999997 28.0048435299999987 2.5769409799999998 Au
atom 21.5380771300000013 27.9540377800000002 2.6926754800000001 Au
atom 24.4246891599999998 27.9876779099999986 2.6126852299999999 Au
atom 27.2357390399999986 28.0418993299999997 2.6894409600000002 Au
atom 1.8585982100000000 28.0441414800000004 2.6888097700000002 Au
atom 4.6497031499999997 28.0602080100000002 2.6000250800000000 Au
atom 8.9485425299999992 30.4961033700000002 2.6459170900000002 Au
atom 11.7442959899999995 30.4511056400000015 2.7959064699999998 Au
atom 14.5627163999999993 30.5129106199999995 2.7312079200000001 Au
atom 17.3834504999999986 30.4516720399999983 2.6657053999999998 Au
atom 20.2232242000000006 30.4591777899999983 2.6261079100000000 Au
atom 23.0254221000000001 30.4183076899999989 2.5955212400000001 Au
atom 25.8358712600000011 30.4709276600000010 2.4975208699999998 Au
atom 0.4798667200000000 30.4345815399999999 2.6065995399999999 Au
atom 3.2869517799999999 30.5383538200000011 2.5533936399999999 Au
atom 6.1121661300000003 30.5162925399999985 2.6481645199999999 Au
atom 7.5373501799999998 32.9704860100000019 2.6465205400000000 Au
atom 10.3687281700000007 32.9609245099999981 2.7527676799999998 Au
atom 13.1996860199999997 32.9313365699999991 2.6229720699999999 Au
atom 15.9471052300000000 32.9599508000000014 2.5463529299999998 Au
atom 18.8155110599999986 32.8712949600000002 2.4572382199999998 Au
atom 21.6564421600000010 32.8702938400000022 2.6225501900000001 Au
atom 24.4649174400000007 32.9734568000000010 2.5142170600000000 Au
atom 27.3179676399999991 32.8511005299999965 2.6307733700000000 Au
atom 1.9002372500000000 32.9187529900000015 2.5322322000000002 Au
atom 4.7226208600000001 32.9637289300000020 2.7489377400000001 Au
atom 8.9505814699999995 35.4051271000000014 2.6168901999999998 Au
atom 11.7800777199999995 35.4216035899999966 2.6852051700000001 Au
atom 14.5604917700000005 35.3918538200000015 2.5921948499999998 Au
atom 17.3870838100000000 35.3599751400000031 2.4501703799999999 Au
atom 20.2431347099999996 35.3424893700000027 2.6697028899999999 Au
atom 23.0706022100000006 35.3696413799999974 2.6002816599999998 Au
atom 25.9070856700000007 35.3822941499999999 2.6817050500000001 Au
atom 0.4876705500000000 35.3844844300000005 2.6133543900000000 Au
atom 3.3053800199999999 35.3650623999999993 2.8272885600000000 Au
atom 6.1340421899999997 35.4012767500000010 2.6758927799999999 Au
atom 7.4908340600000001 37.9502750899999981 2.6311791300000000 Au
atom 10.3432021899999995 37.9457309499999980 2.7838803300000001 Au
atom 13.1590392900000008 37.9316345599999991 2.5812802600000002 Au
atom 15.9501760400000006 37.8431985400000030 2.7085856800000001 Au
atom 18.7468787799999994 37.8304615300000009 2.7894137699999999 Au
atom 21.6646517000000003 37.8802263500000009 2.5829710200000000 Au
atom 24.4326184600000005 37.8344468499999991 2.5828892500000000 Au
atom 27.2504302000000003 37.8400373899999991 2.7513566900000002 Au
atom 1.8315741500000000 37.8852623399999970 2.5677051099999999 Au
atom 4.7361969300000002 37.8201533599999991 2.7294283899999998 Au
atom 8.8493451000000007 0.9520838200000000 2.6527184400000001 Au
atom 11.7165053599999993 0.8807943400000000 2.7484573600000002 Au
atom 14.5437317600000000 0.8979451000000001 2.5996074400000002 Au
atom 17.4242868100000017 0.8701750200000000 2.7372409499999999 Au
atom 20.1872369599999999 0.8362430199999999 2.6594765599999999 Au
atom 22.9894493299999993 0.8228762400000000 2.6724075400000000 Au
atom 25.8205758900000006 0.7817140800000000 2.8491220799999999 Au
atom 0.4680966500000000 0.8310691800000000 2.8532379699999999 Au
atom 3.2877789800000001 0.8537350400000000 2.8522255500000000 Au
atom 6.0504186700000000 0.8847026700000000 2.6982840800000001 Au
atom 7.4777668400000001 3.3600656999999998 2.5967538700000001 Au
atom 10.2930292699999999 3.3706621299999999 2.7682788199999999 Au
atom 13.1679625300000005 3.4027647800000000 2.7387760399999999 Au
atom 15.9524694599999997 3.3055518400000001 2.7270615299999998 Au
atom 18.7721977100000004 3.3740815899999999 2.6807341899999999 Au
atom 21.6124545599999998 3.3349281999999998 2.6390247100000002 Au
atom 24.4381377600000000 3.2867272100000000 2.6875878200000001 Au
atom 27.2326048299999997 3.2543324100000000 2.7291598100000001 Au
atom 1.8308871799999999 3.3530525400000002 2.7147122900000000 Au
atom 4.6386650999999999 3.3837993100000001 2.7799678900000000 Au
atom 8.9017143799999996 5.8562243299999999 2.7703967299999999 Au
atom 11.7415417699999995 5.8835028899999999 2.8034527800000002 Au
atom 14.5585693000000003 5.8418633399999997 2.6947454000000000 Au
atom 17.3484763000000015 5.8544503399999996 2.7455774000000002 Au
atom 20.2013873100000012 5.8204032200000002 2.6712981000000000 Au
atom 23.0697156899999989 5.7722823600000002 2.6618603799999998 Au
atom 25.8412245100000000 5.7294210899999998 2.6856915699999999 Au
atom 0.4247283000000000 5.7765179000000000 2.7458329400000001 Au
atom 3.2404821899999998 5.8462958299999999 2.6955545399999998 Au
atom 6.0702451100000001 5.8128190999999996 2.6708294000000001 Au
atom 7.4784391100000001 8.2707021899999997 2.6793968499999998 Au
atom 10.2969762700000000 8.3066740499999998 2.6281151500000002 Au
atom 13.1660972899999997 8.2886660200000009 2.6816901799999999 Au
atom 15.9523624500000007 8.3306950999999998 2.5276908300000001 Au
atom 18.7789853600000001 8.2361976899999991 2.6528262300000001 Au
atom 21.5797513300000006 8.2064133899999998 2.6322953899999999 Au
atom 24.3909190799999998 8.2669496999999996 2.5485525500000001 Au
atom 27.2302645000000005 8.2366896500000006 2.7540692500000001 Au
atom 1.8450652299999999 8.3118889300000003 2.7228358300000002 Au
atom 4.7419459899999996 8.3141392900000000 2.5653864600000000 Au
atom 8.9109702300000002 10.7408171200000009 2.4997547199999999 Au
atom 11.7656306399999995 10.7583077800000009 2.5612045100000000 Au
atom 14.5629945900000006 10.8501508599999994 2.6224801599999998 Au
atom 17.3718761099999988 10.7052761800000003 2.5573395300000001 Au
atom 20.1661789700000007 10.6716238000000008 2.6374415099999999 Au
atom 22.9996840200000001 10.6665151199999997 2.4754665400000002 Au
atom 25.7961891700000017 10.7409702700000000 2.7583061999999998 Au
atom 0.4135490200000000 10.7073643399999998 2.6368249200000000 Au
atom 3.2264409399999998 10.7591860100000005 2.5284908499999998 Au
atom 6.0713763199999997 10.7547011000000001 2.6444024399999999 Au
atom 7.5042316099999997 13.1276656400000000 5.8019921600000002 Cl
atom 7.5675289000000001 15.9393187800000007 8.7203153100000002 Cl
atom 7.6283260799999999 13.2147701400000006 8.4518191900000001 Na
atom 7.6434035800000002 15.8870595500000000 5.8884417600000001 Na
atom 7.6001141800000003 18.7192027500000009 5.7622528700000002 Cl
atom 7.5916191099999999 21.6047158199999991 8.5103393199999999 Cl
atom 7.6058866299999996 18.8209030700000000 8.4234164200000006 Na
atom 7.5348329500000002 21.6459021500000013 5.7443332700000003 Na
atom 7.5785904600000000 24.4067183900000018 5.7185834499999997 Cl
atom 7.6674537300000001 27.4329668099999999 8.5475274100000007 Cl
atom 7.6588494100000002 24.4642904700000017 8.3049397299999992 Na
atom 7.6266926499999999 27.3200667899999985 5.8450332800000000 Na
atom 7.6669181499999999 30.2065997800000012 5.6840077899999999 Cl
atom 7.5953486600000000 33.0267518499999966 8.5933136200000000 Cl
atom 7.7017565799999996 30.2900593799999989 8.3462069799999998 Na
atom 7.5798482900000002 33.0331240800000003 5.8084327099999999 Na
atom 7.6642333999999996 35.8029759100000007 5.7168114399999999 Cl
atom 7.4986443899999999 38.5377696899999975 8.5908625500000007 Cl
atom 7.5683816600000000 35.8018997900000002 8.4127428200000001 Na
atom 7.4927916500000000 38.5823463300000000 5.8956244099999999 Na
atom 7.5017853499999996 1.9192684799999999 5.8006891500000002 Cl
atom 7.5337201800000004 4.7373039500000003 8.5802554400000002 Cl
atom 7.4835909000000003 1.9404560000000000 8.4274097799999996 Na
atom 7.5641210399999999 4.7982705699999997 5.7872397099999997 Na
atom 7.5975773300000000 7.5567390000000003 5.8645795200000004 Cl
atom 7.7124862900000002 10.4306027700000001 8.6778664400000007 Cl
atom 7.5459928400000003 7.5567189299999997 8.5006968100000009 Na
atom 7.6141000200000004 10.4318681899999994 5.8480016299999997 Na
atom 10.3991149699999994 13.2401047500000004 6.0156710400000000 Na
atom 13.1299711099999996 13.0326498100000006 5.7531103600000000 Cl
atom 10.3321269299999994 16.1246339499999998 8.4182764700000003 Na
atom 13.3438767200000008 16.1351202100000002 8.3696477799999993 Cl
atom 13.3137288399999996 13.1363445500000005 8.3610075300000002 Na
atom 10.4916449800000002 13.4350226999999993 8.5259572499999994 Cl
atom 13.1324530999999993 15.9867556099999995 5.8635355599999999 Na
atom 10.3468253899999993 15.9794315800000000 5.7589050799999999 Cl
atom 10.4946231799999996 18.8655547100000014 5.8050499599999998 Na
atom 13.1674726599999996 18.9223359900000005 5.7284713399999996 Cl
atom 10.4218010900000007 21.5227844499999996 8.3825782300000000 Na
atom 13.1573695100000005 21.5731937400000007 8.5641564199999998 Cl
atom 13.2352699200000004 18.8505392399999998 8.3345432699999993 Na
atom 10.3985014400000004 18.7893186800000009 8.6091260199999997 Cl
atom 13.3012399600000002 21.6634382800000012 5.8569741799999999 Na
atom 10.3280581500000004 21.6550642899999986 5.7555197700000003 Cl
atom 10.2397709300000006 24.5009279500000012 5.7738468999999997 Na
atom 13.2550165500000006 24.4505939999999988 5.7889676999999997 Cl
atom 10.4605678900000001 27.2366775600000004 8.3766411400000003 Na
atom 13.2293399500000000 27.1663426299999990 8.6947182000000005 Cl
atom 13.0751977099999994 24.4616778199999985 8.3915278200000003 Na
atom 10.3733453000000004 24.4241968900000010 8.5664103199999992 Cl
atom 13.4086125500000009 27.2542916499999990 5.9083166199999999 Na
atom 10.4755174199999992 27.1597130799999995 5.7797655299999997 Cl
atom 10.4423327300000004 30.0689816400000005 5.7087397500000003 Na
atom 13.2523734199999996 30.0320354999999992 5.8843515000000002 Cl
atom 10.4520753600000003 32.9261258599999991 8.4168340399999995 Na
atom 13.2672835199999994 32.9650190999999992 8.5940513500000009 Cl
atom 13.3028723499999995 30.1680376999999993 8.4196185900000007 Na
atom 10.5021376100000001 30.0512116300000010 8.5239052799999993 Cl
atom 13.2256202500000004 33.0802019999999999 5.8716651600000000 Na
atom 10.3870589399999993 33.0414448499999978 5.7406333299999996 Cl
atom 10.3966116500000005 35.8377394199999983 5.7677355600000002 Na
atom 13.2117822100000009 35.8502345599999970 5.7313920300000003 Cl
atom 10.2835893499999997 38.6355945399999996 8.4821124700000006 Na
atom 13.2721779299999998 38.5203070700000012 8.6301151300000001 Cl
atom 13.2141569699999994 35.9009203900000031 8.3801574199999997 Na
atom 10.4189414100000004 35.7712425100000004 8.6385194399999996 Cl
atom 13.1169199899999995 38.6838019500000030 5.8072306100000004 Na
atom 10.3353958899999991 38.6257485200000019 5.8122497099999997 Cl
atom 10.2096588500000003 1.9057390599999999 5.8748749499999997 Na
atom 12.9703695299999993 1.8871307100000001 5.7529244400000001 Cl
atom 10.2641308500000008 4.7384763200000002 8.3954626099999992 Na
atom 13.0144234300000008 4.7636677599999997 8.5887382599999995 Cl
atom 13.1041579600000002 1.9030459600000000 8.3924979799999999 Na
atom 10.3611654000000009 1.9897485800000001 8.6269093699999999 Cl
atom 13.1447510300000001 4.8019204200000001 5.8465341999999998 Na
atom 10.2657796599999998 4.6894803800000000 5.7824608700000004 Cl
atom 10.2894155099999995 7.6350959300000003 6.0416516600000003 Na
atom 13.2308481199999992 7.5371199600000001 5.9108439300000004 Cl
atom 10.3215520200000004 10.3656947200000005 8.5364692600000005 Na
atom 12.9153899899999995 10.4242760800000003 8.7214971000000006 Cl
atom 13.0965243999999998 7.4602209200000003 8.5002884499999993 Na
atom 10.3187001600000006 7.4296789299999997 8.7007271199999998 Cl
atom 13.0110885500000002 10.3028547499999998 5.9901545699999996 Na
atom 10.2170136800000009 10.3836397399999996 5.8638808100000004 Cl
atom 16.0150311000000016 13.0573341900000006 5.9050307200000001 Na
atom 18.7807504200000004 13.0145316700000002 5.7790288099999998 Cl
atom 16.0291695199999999 15.9340792400000009 8.2952579800000006 Na
atom 18.9306360799999993 15.9758465800000007 8.4515572700000003 Cl
atom 18.6755549300000006 13.1578224499999994 8.4192240799999993 Na
atom 15.9150137100000002 13.1449718299999994 8.5857462800000004 Cl
atom 18.7762444399999993 15.9507249800000004 5.7611832800000000 Na
atom 16.1071567800000004 15.8224652799999994 5.7973183800000001 Cl
atom 16.0155592300000009 18.7616303199999983 5.7508313099999997 Na
atom 18.7533429799999993 18.7969381400000017 5.7794270799999996 Cl
atom 16.0206234499999987 21.5745570999999998 8.4969190599999997 Na
atom 18.9895171400000002 21.8873829600000001 8.5930500700000003 Cl
atom 18.8089733899999985 18.7785761999999998 8.3271374399999996 Na
atom 15.9276584700000008 18.6150743500000004 8.5546786499999996 Cl
atom 18.7846706899999987 21.7826168299999985 5.7652918299999998 Na
atom 15.9873378200000005 21.5612883400000008 6.0179606799999998 Cl
atom 16.0140415000000012 24.4360813800000010 6.0320646599999996 Na
atom 18.7084689799999992 24.4671087299999996 5.9501236300000002 Cl
atom 15.8289636399999996 27.3955096900000008 8.6484661599999999 Na
atom 19.2072332699999997 27.3892065100000011 8.6098967099999992 Cl
atom 18.8931892899999987 24.6080066200000012 8.5892699900000000 Na
atom 16.0247354800000004 24.3117002299999996 8.5940066099999992 Cl
atom 18.8750108200000000 27.2536099199999988 6.0028054500000003 Na
atom 16.1531578700000011 27.2811827200000003 6.1465125100000000 Cl
atom 16.0542261900000014 30.1401051899999999 5.9530254300000003 Na
atom 18.8532699500000014 30.1802275299999998 5.8810631799999999 Cl
atom 16.0726526999999990 32.9637324400000011 8.3599076599999993 Na
atom 18.9133213799999993 32.9798306100000005 8.6362208999999996 Cl
atom 19.0188748399999987 30.1631940599999986 8.5524295800000001 Na
atom 16.0822030100000006 30.2671181300000001 8.6676287799999994 Cl
atom 18.8938418199999987 33.0678293699999983 5.8336185199999999 Na
atom 16.1379852499999998 33.0702057100000033 5.7158790000000002 Cl
atom 16.0820051600000014 35.8342030499999993 5.8383976500000001 Na
atom 18.8891980500000010 35.8375215499999982 5.7813064799999996 Cl
atom 16.0232647399999983 38.6462740699999969 8.3059246600000005 Na
atom 18.7811658799999996 38.7059725499999985 8.6694255600000005 Cl
atom 18.8532665699999988 35.7682620100000008 8.4434195899999995 Na
atom 16.0349215500000000 35.8411189300000004 8.4966985099999999 Cl
atom 18.8420138199999982 38.6877226300000032 5.8838865699999996 Na