#===============================================================================
# Created using the Atomic Simulation Environment (ASE)

# Tue Dec 23 22:26:30 2025

#=======================================================
lattice_vector 28.1999999999999993 0.0000000000000000 0.0000000000000000 
lattice_vector 0.0000000000000000 39.4799999999999969 0.0000000000000000 
lattice_vector 0.0000000000000000 0.0000000000000000 62.3296083400000001 
atom 7.3584764900000001 14.8550710299999995 0.0031238800000000 Au
atom 10.3652555000000000 14.8385236799999998 -0.2963639500000000 Au
atom 13.2206389699999995 14.8625000499999995 0.1690807600000000 Au
atom 16.0365308400000011 14.9099060500000000 -0.0321487900000000 Au
atom 18.6695970299999985 14.6379638199999995 0.0486865500000000 Au
atom 21.6396949899999989 14.8809790900000003 -0.0435654600000000 Au
atom 24.4984707700000008 14.6829650899999997 -0.1423883600000000 Au
atom 27.4561979899999997 14.7468024500000006 0.0050126300000000 Au
atom 1.6324925699999999 14.7745129199999994 -0.0502633500000000 Au
atom 4.6810898099999996 14.8304005300000004 -0.0936332900000000 Au
atom 8.7400147100000005 17.2534417500000004 -0.0500439400000000 Au
atom 11.7445278500000008 17.3174839300000016 0.1076901300000000 Au
atom 14.5154762200000000 17.2996404699999999 0.1173503400000000 Au
atom 17.5956975399999997 17.4173410500000010 0.2281827000000000 Au
atom 20.1290795399999993 17.2799452699999989 -0.0558577300000000 Au
atom 23.1517706200000006 17.2433410199999990 0.1055416500000000 Au
atom 25.7105008099999992 17.4053823299999983 0.0746623700000000 Au
atom 0.4223688300000000 17.1997995000000010 -0.0534123400000000 Au
atom 3.1595739400000000 17.4323948999999985 -0.1137981700000000 Au
atom 6.1445675099999999 17.2082298199999997 0.0409260300000000 Au
atom 7.4414949300000002 19.6420993400000015 0.0462529100000000 Au
atom 10.2814460099999998 19.8028435400000014 -0.1542584300000000 Au
atom 13.0085317099999997 19.6763825700000012 0.0040502500000000 Au
atom 15.8705625000000001 19.6612948199999984 0.1277882700000000 Au
atom 18.6546573000000002 19.7304457999999983 0.1692750400000000 Au
atom 21.5949915600000004 19.6633231299999984 0.0187125300000000 Au
atom 24.3474143400000003 19.8666167999999992 0.1703088600000000 Au
atom 27.1055258799999983 19.6260374999999989 -0.0229054400000000 Au
atom 1.9186179999999999 19.8570808300000010 0.0057131900000000 Au
atom 4.7573687500000004 19.7753869299999998 -0.0964084600000000 Au
atom 8.9911843800000000 22.0752241100000006 0.1418992800000000 Au
atom 11.8824765600000006 22.3212804499999997 -0.0169348100000000 Au
atom 14.7448922099999997 22.3253968399999998 0.0670270800000000 Au
atom 17.4219046499999983 22.2501173600000008 -0.1183871800000000 Au
atom 20.4134707000000013 22.2251054699999990 0.1568104100000000 Au
atom 23.2265736800000013 22.2470195000000004 0.1207057800000000 Au
atom 25.9205498100000007 22.2078540800000006 0.0627739400000000 Au
atom 0.4998427500000000 22.1091710299999988 0.2083407300000000 Au
atom 3.2176149199999999 22.1666176899999989 0.1762090500000000 Au
atom 5.9509363300000002 22.3339144400000009 0.1985423400000000 Au
atom 7.3769714500000001 24.6940896800000012 0.1864710700000000 Au
atom 10.2641398200000005 24.6023367499999992 0.1565274400000000 Au
atom 13.2067676800000005 24.6888180599999991 0.0632403100000000 Au
atom 15.8378126500000000 24.6586060600000003 0.1749895500000000 Au
atom 18.7535811400000014 24.6943327799999999 0.0165513600000000 Au
atom 21.6468515900000007 24.6949819300000009 0.0469501600000000 Au
atom 24.5685832499999997 24.6688114499999998 0.1173866100000000 Au
atom 27.1766312799999987 24.4877498699999983 0.1959420900000000 Au
atom 2.0169022399999998 24.4762250100000003 0.0927852100000000 Au
atom 4.4726230200000003 24.7468602400000002 0.0333211000000000 Au
atom 8.8629772700000000 27.1884463499999995 -0.0995917000000000 Au
atom 11.7343676800000001 27.1985327499999983 -0.0883465800000000 Au
atom 14.5478290900000005 27.0963475699999989 0.1042662800000000 Au
atom 17.1914264699999997 27.0063070299999985 0.0492725100000000 Au
atom 20.1388340100000001 27.1315730500000001 0.2038547100000000 Au
atom 22.8938889699999990 26.9805075499999987 -0.0024172800000000 Au
atom 25.9192702799999992 27.1157067699999992 0.0445272600000000 Au
atom 0.4769459800000000 27.1105237199999998 -0.1400703000000000 Au
atom 3.2786027899999999 27.0874899400000011 -0.0621145000000000 Au
atom 6.0483368500000001 27.0970742000000016 0.1741840900000000 Au
atom 7.5726706500000001 29.6304231000000016 -0.0142048800000000 Au
atom 10.3480108699999995 29.4329044700000004 -0.2044850300000000 Au
atom 13.1601251900000005 29.5039826299999994 0.0866982800000000 Au
atom 15.9444649700000003 29.7184774900000015 -0.0357999900000000 Au
atom 18.7620548999999990 29.4644797400000016 0.0300598900000000 Au
atom 21.5546974599999999 29.6990006599999994 0.0700811700000000 Au
atom 24.3175908800000009 29.6044489099999986 -0.1059701100000000 Au
atom 27.3462399400000002 29.5566926199999997 0.0505264100000000 Au
atom 1.9177124400000001 29.6317866499999987 -0.1500873900000000 Au
atom 4.7730999900000004 29.8330654300000013 -0.0236155600000000 Au
atom 9.0583476699999999 32.1694474999999969 -0.0317764600000000 Au
atom 11.5182594500000004 31.8513045999999989 -0.0605578900000000 Au
atom 14.5336045699999996 32.2103448800000010 -0.0862715700000000 Au
atom 17.5195434399999996 32.1139538199999990 -0.0825112900000000 Au
atom 20.2615588600000009 32.0378537400000027 -0.1558304000000000 Au
atom 23.0628415900000014 32.0803209500000008 -0.1649115300000000 Au
atom 25.7254917600000006 32.0196170299999991 -0.0350443000000000 Au
atom 0.4122056100000000 32.1523975799999988 0.0969437400000000 Au
atom 3.2276787200000001 31.9312279500000002 -0.1520696900000000 Au
atom 5.9309055300000004 31.9094036599999988 -0.0570740100000000 Au
atom 7.3234737000000001 34.5006717199999997 0.0090685400000000 Au
atom 10.1866635100000007 34.4993683000000004 -0.0278639400000000 Au
atom 13.0117745599999992 34.5174333699999991 0.0093583500000000 Au
atom 15.9163608799999992 34.4242873800000027 0.1152515800000000 Au
atom 18.8882402099999993 34.2976960599999998 0.1687395900000000 Au
atom 21.7248525100000016 34.5392805400000000 -0.1360018800000000 Au
atom 24.3042213499999988 34.6118785600000010 -0.1452701700000000 Au
atom 27.4121564599999985 34.4032005299999994 -0.1689213600000000 Au
atom 1.7391329499999999 34.5965145600000028 0.0776548800000000 Au
atom 4.7000016899999997 34.4689799499999978 -0.1046857600000000 Au
atom 8.8498415700000006 37.0532450199999985 -0.0227656900000000 Au
atom 11.8242747900000005 37.1847734199999991 0.0683490700000000 Au
atom 14.5209413000000005 36.8701551899999984 0.2407848200000000 Au
atom 17.4068663000000008 37.0565293399999973 0.0449983200000000 Au
atom 20.0337162299999996 37.0769789900000006 -0.0235941400000000 Au
atom 22.8723199599999987 37.1812703399999975 -0.1338038800000000 Au
atom 25.7914922000000004 36.9709546500000030 0.1642065200000000 Au
atom 0.4775616100000000 37.0854813899999982 -0.1008679800000000 Au
atom 3.3628001300000001 37.1912370800000005 -0.0031854100000000 Au
atom 6.0800160999999999 37.1719935500000034 0.1488990600000000 Au
atom 7.5575391800000000 -0.0274450400000000 -0.0251235600000000 Au
atom 10.2742040899999996 -0.0651948000000000 0.1204917400000000 Au
atom 13.1341271299999995 -0.0291162800000000 -0.0902153000000000 Au
atom 15.8603363900000005 -0.1355484800000000 0.2110356000000000 Au
atom 18.7100594300000012 -0.0885900000000000 0.1275594800000000 Au
atom 21.4805560500000006 0.0761062900000000 -0.0108714600000000 Au
atom 24.4840432700000008 0.0874705200000000 -0.1794712200000000 Au
atom 27.2258438699999985 0.0232022200000000 0.1120626900000000 Au
atom 1.8661141900000000 0.0543743100000000 -0.0142788000000000 Au
atom 4.7336555100000002 -0.0021129400000000 0.1306583000000000 Au
atom 8.9882981100000006 2.4732430900000000 0.0505644900000000 Au
atom 11.7929227200000000 2.1384416000000002 0.1941262400000000 Au
atom 14.6036283900000008 2.5302201200000001 0.1318818100000000 Au
atom 17.5000472699999996 2.4250992600000001 -0.1076321600000000 Au
atom 20.1580869199999988 2.5167869999999999 -0.0099239200000000 Au
atom 23.1261734099999998 2.3668376699999998 0.2234300800000000 Au
atom 25.8413216199999987 2.4050896399999999 0.2861361400000000 Au
atom 0.4173323800000000 2.5772973399999999 0.0572448300000000 Au
atom 3.1666585500000002 2.5300577700000000 0.0872813000000000 Au
atom 6.1721091200000000 2.5612429799999998 0.2522549300000000 Au
atom 7.6314425000000004 4.9174541400000003 0.0416908300000000 Au
atom 10.4309597699999994 4.9271127100000003 -0.1052775800000000 Au
atom 13.1893469999999997 4.9030860399999998 0.2294291000000000 Au
atom 15.8374290999999996 4.8928306900000003 0.1646090600000000 Au
atom 18.4715718799999991 4.9435653799999999 0.0850643800000000 Au
atom 21.6037107000000006 4.9506278899999998 0.2329367300000000 Au
atom 24.4641782499999998 4.9909761100000001 0.0547798700000000 Au
atom 27.1944510999999984 4.8008362900000003 0.0647698700000000 Au
atom 1.9814353600000001 4.9382451200000004 0.2962641800000000 Au
atom 4.4975478500000001 5.0143053300000000 -0.0523755700000000 Au
atom 8.9095474499999998 7.2704024900000004 0.0791259900000000 Au
atom 11.7674069699999997 7.4059184100000000 0.0524995500000000 Au
atom 14.4289170500000008 7.1943173399999996 0.0155215400000000 Au
atom 17.3125951100000002 7.3449551900000003 0.1094487000000000 Au
atom 20.2908559299999993 7.3173533700000002 0.0355725900000000 Au
atom 22.8402822400000005 7.2960139100000001 0.0748838700000000 Au
atom 26.0239964199999996 7.4423202200000000 0.1782212600000000 Au
atom 0.4416557800000000 7.4122634800000000 -0.0004845000000000 Au
atom 3.1600025199999999 7.5179776800000004 0.1085013400000000 Au
atom 6.2001964100000002 7.3712782700000004 0.0860590900000000 Au
atom 7.5686030400000002 9.7259443099999991 0.1260390100000000 Au
atom 10.1621367199999995 9.9737206999999994 -0.0864905700000000 Au
atom 13.1032043500000004 9.8980541199999994 -0.1037561900000000 Au
atom 15.8867171200000001 9.9523756599999995 -0.0053601700000000 Au
atom 18.6592142699999997 9.7475890700000001 0.0000453300000000 Au
atom 21.5387048700000001 10.0279512200000003 0.1082082200000000 Au
atom 24.4857998600000002 9.7963778300000008 -0.0653796400000000 Au
atom 27.3342656999999996 10.0195096100000001 -0.1072660000000000 Au
atom 2.0955011799999999 9.7129254199999995 0.0112385600000000 Au
atom 4.6794951800000000 9.7341358800000002 -0.1042594000000000 Au
atom 8.8118515899999998 12.4638825700000009 -0.1949993100000000 Au
atom 11.6827622299999998 12.3725079699999991 -0.0967554000000000 Au
atom 14.5683039599999997 12.4320343900000001 -0.0655752200000000 Au
atom 17.3478025199999983 12.3446717300000000 0.1621015400000000 Au
atom 20.4617817500000001 12.3517736100000004 -0.0694533800000000 Au
atom 23.1386180900000014 12.2561205799999993 0.1117556700000000 Au
atom 25.8863510099999985 12.4259613200000008 0.2517128300000000 Au
atom 0.4657718200000000 12.3109689099999997 -0.1800636900000000 Au
atom 3.1195262700000002 12.3390782600000009 -0.1105128400000000 Au
atom 6.2008444899999997 12.2535360600000001 -0.3112863100000000 Au
atom 7.5917119199999998 13.2695419200000000 2.4480947600000000 Au
atom 10.5309513500000005 13.1328235800000002 2.4275150000000001 Au
atom 13.1444530299999993 13.2751085399999997 2.7017131600000002 Au
atom 15.9356973699999998 13.4031584400000003 2.3559709299999998 Au
atom 18.7448919600000004 13.0953184599999997 2.5173032499999999 Au
atom 21.7468629299999989 13.0642978599999999 2.5992095100000001 Au
atom 24.4318658599999985 13.2383643299999996 2.5742468100000000 Au
atom 27.3749144000000015 13.3305042999999994 2.6147792399999998 Au
atom 1.7263886500000001 13.2454661999999992 2.7283973399999999 Au
atom 4.6347690500000001 13.2866246500000003 2.5241810800000000 Au
atom 8.8395005300000005 15.6953958100000008 2.3490270999999998 Au
atom 11.7579049199999996 15.7395934999999998 2.4732192500000001 Au
atom 14.4112429300000002 15.6409977100000006 2.5388636500000001 Au
atom 17.3596599800000000 15.7481506499999995 2.6273490700000002 Au
atom 20.2399826900000015 15.5293181800000006 2.5675784799999999 Au
atom 22.9914564400000003 15.5236484499999996 2.5606007399999999 Au
atom 25.8619236599999986 15.6534569500000007 2.6342618500000001 Au
atom 0.3082690300000000 15.4726387299999999 2.7693169300000000 Au
atom 3.2767050100000001 15.6305737899999997 2.7175145800000000 Au
atom 5.9271676099999997 15.7459753599999992 2.4698056400000001 Au
atom 7.2656579299999997 18.2071121299999987 2.5581376699999998 Au
atom 10.3964640300000006 18.1359984400000016 2.6279349999999999 Au
atom 13.1741300700000004 17.9363666899999998 2.7062430900000001 Au
atom 16.1106727099999993 18.2024907899999988 2.9021174799999998 Au
atom 18.9659107300000009 18.1512766200000009 2.7053879300000001 Au
atom 21.5523319499999992 18.1401764099999987 2.7358563100000000 Au
atom 24.4584810399999988 18.1154797599999995 2.6726475600000001 Au
atom 27.2522287299999988 18.0991692899999990 2.6180976600000001 Au
atom 1.8434210499999999 18.0869325699999983 2.8226172300000001 Au
atom 4.5385242500000000 18.2285043599999987 2.5960525900000002 Au
atom 8.7839272200000007 20.4785985900000007 2.7128208599999999 Au
atom 11.6349271299999995 20.7954097000000004 2.5521493300000002 Au
atom 14.6382017900000001 20.5862882999999997 2.7138691800000001 Au
atom 17.3738145499999987 20.4810519699999993 2.6579486499999998 Au
atom 20.0681834600000002 20.4556163799999986 2.5300850300000000 Au
atom 23.0860427699999988 20.5552463799999998 2.6112758700000001 Au
atom 25.8475142799999986 20.6915175299999987 2.6537138400000000 Au
atom 0.5388916500000001 20.5419629400000012 2.6822019600000000 Au
atom 3.3385457999999999 20.7658079800000017 2.7402796000000000 Au
atom 6.1222205900000004 20.5872994499999997 2.7027311599999999 Au
atom 7.4900906699999998 22.8818219499999991 2.7394303199999999 Au
atom 10.2794723200000000 23.2232546299999996 2.8108893300000002 Au
atom 13.2903566600000005 23.1917748599999989 2.5627674200000001 Au
atom 15.9883307299999995 23.0637404000000004 2.7862386300000002 Au
atom 18.8452584499999993 22.9865215999999997 2.6684678399999999 Au
atom 21.4819288700000008 22.9422956900000017 2.6816007300000000 Au
atom 24.3782943400000001 23.0021770799999992 2.7744934300000001 Au
atom 27.2523328499999984 22.9491801299999985 2.6635969500000001 Au
atom 1.6852969200000001 23.0787267800000002 2.7440745199999999 Au
atom 4.4977257699999997 22.9370040400000015 2.4815800100000001 Au
atom 9.0274912199999999 25.5792859200000002 2.8154191599999998 Au
atom 11.5885340699999997 25.4939845299999988 2.8223559499999999 Au
atom 14.5855948699999995 25.6007950199999996 2.6789625600000000 Au
atom 17.1830541799999992 25.4877247699999998 2.8472018299999999 Au
atom 20.2924704600000005 25.6620229500000008 2.9941377600000001 Au
atom 23.0595156800000005 25.6053536400000006 2.7046978400000001 Au
atom 25.7119337500000000 25.5787166900000003 2.7991110799999999 Au
atom 0.3784804600000000 25.5438734099999998 2.6576938999999999 Au
atom 3.2964599200000002 25.4682021200000008 2.7366179300000000 Au
atom 6.1711865100000001 25.3992328100000009 2.6215032400000000 Au
atom 7.6033559799999999 28.1622622000000007 2.7649047300000000 Au
atom 10.3212611899999995 28.0862643600000013 2.6743056100000002 Au
atom 13.1995006099999994 28.0229365699999988 2.5703709400000001 Au
atom 16.0322249700000015 27.9668124800000015 2.6148544500000002 Au
atom 18.7417258800000006 27.9372458700000017 2.7752098400000000 Au
atom 21.7113549299999988 28.1030896299999995 2.9008520199999999 Au
atom 24.4438180000000003 27.7553917000000006 2.6069312299999998 Au
atom 27.3400325200000012 28.1421498300000010 2.4346466300000000 Au
atom 1.9177033900000000 28.0683759600000009 2.6242707699999999 Au
atom 4.7177618600000004 27.9916449199999988 2.8727211700000002 Au
atom 8.7888526700000007 30.5152006799999995 2.5570002500000002 Au
atom 11.7880279199999993 30.4460058899999986 2.5989467799999999 Au
atom 14.6568095300000003 30.5071337999999983 2.5682201999999998 Au
atom 17.5165074300000008 30.4156362800000011 2.4171001300000001 Au
atom 20.0922419499999982 30.5534530800000006 2.4660320300000000 Au
atom 23.2189255099999983 30.6041843699999987 2.7581636000000000 Au
atom 25.7310378300000018 30.5379195699999997 2.5450535400000001 Au
atom 0.4186096200000000 30.3806227500000006 2.6790720600000002 Au
atom 3.1682097200000001 30.4847872500000001 2.5514382400000000 Au
atom 6.2267789000000002 30.5284325900000013 2.8268270900000001 Au
atom 7.4853635100000000 32.7961199000000008 2.7638589800000002 Au
atom 10.1456698700000008 32.9437743900000015 2.7932631400000001 Au
atom 13.2179939999999991 32.9272916800000033 2.6127358200000002 Au
atom 16.0917887999999998 33.0303031199999992 2.5380525999999999 Au
atom 18.9245398300000005 32.8373938699999997 2.5984809100000001 Au
atom 21.4769953499999993 33.0119040599999991 2.7207077599999998 Au
atom 24.4552151900000005 32.5994708500000030 2.5120435400000001 Au
atom 27.2544672699999992 32.9464345700000010 2.5801636800000001 Au
atom 1.8947440400000000 32.9170228999999992 2.4647497800000000 Au
atom 4.6486266900000004 32.9771999199999968 2.4271622700000002 Au
atom 8.8697605599999996 35.4073263200000028 2.5865558100000001 Au
atom 11.7840676599999998 35.4262310900000017 2.7554307699999998 Au
atom 14.7392661500000006 35.3425885400000013 2.6210123599999999 Au
atom 17.3989488899999998 35.4366235500000002 2.6418860099999999 Au
atom 20.2558530999999995 35.3619256799999988 2.6881384399999999 Au
atom 22.8914242600000009 35.3825218699999979 2.6370001900000002 Au
atom 25.7423221499999997 35.3963273099999967 2.7430563600000002 Au
atom 0.4950829300000000 35.1898802199999992 2.7282266100000001 Au
atom 3.3821619799999998 35.3770580199999998 2.6124819000000001 Au
atom 6.1532817299999998 35.1518026299999988 2.5524094200000000 Au
atom 7.4564160700000004 37.9721470599999975 2.5655367600000001 Au
atom 10.3842818799999996 37.7394309199999967 2.8223584100000001 Au
atom 13.0755899400000004 37.9446537700000022 2.5737544899999998 Au
atom 16.0126775200000004 37.7491131000000024 2.7740841000000001 Au
atom 18.7306624699999986 37.7575142700000015 2.8703810900000000 Au
atom 21.7883631999999992 37.9131953199999998 2.8138322400000000 Au
atom 24.4358742599999985 37.8545263600000013 2.3933119299999999 Au
atom 27.3136841799999992 37.8066336699999965 2.6628303500000001 Au
atom 1.7342226199999999 37.6605806000000030 2.6037697400000002 Au
atom 4.6174747099999998 37.8784977199999986 2.7531504600000001 Au
atom 8.9134005500000004 0.8608541700000000 2.7882985900000001 Au
atom 11.8236082099999997 0.6558001800000000 2.5940350900000002 Au
atom 14.5663812600000000 0.8048024100000000 2.7354581599999999 Au
atom 17.2117866699999986 0.7539810800000000 2.6236289500000001 Au
atom 20.2471348199999994 0.8010708700000000 2.7116949099999998 Au
atom 23.0805709899999982 0.7756288099999999 2.8744131600000000 Au
atom 25.8741039400000012 0.9098145300000000 2.5328503800000002 Au
atom 0.4365760400000000 0.8231291700000000 2.7423936499999999 Au
atom 3.2729375799999998 0.8935474000000000 2.8769013299999999 Au
atom 6.0216650500000002 0.8765008900000000 2.8140903399999999 Au
atom 7.5034151600000003 3.2642289099999999 2.7991973300000002 Au
atom 10.3648364700000002 3.3875060800000001 2.6579104299999998 Au
atom 13.0778542400000006 3.2675829099999998 2.6433856200000001 Au
atom 15.9782924899999994 3.1004747600000000 2.7835150700000000 Au
atom 18.8137806400000009 3.1900659800000000 2.5394259600000000 Au
atom 21.6140234999999983 3.0966914100000000 2.6694418000000000 Au
atom 24.3926958700000007 3.2749827800000002 2.6926362300000002 Au
atom 27.2208293800000014 3.1427083599999999 2.7175492299999999 Au
atom 1.8682901100000000 3.3219925500000000 2.8067457999999998 Au
atom 4.7263104900000004 3.2299438600000001 2.6359592100000002 Au
atom 8.9163937999999998 5.8510262199999996 2.9773224400000000 Au
atom 11.8080518600000008 5.7614703900000004 2.7450570600000002 Au
atom 14.5193307100000002 5.6076152199999996 2.6159867299999999 Au
atom 17.4368934700000011 5.7128370799999999 2.7357910799999998 Au
atom 20.1828534799999986 5.8805214599999998 2.8358231699999998 Au
atom 22.9799048600000013 5.9472917599999997 2.6786988300000001 Au
atom 25.7496904899999990 5.8142615400000004 2.5648293000000000 Au
atom 0.3771340600000000 5.9368457699999997 2.6700511300000001 Au
atom 3.2127579800000001 5.8960733799999998 2.8950279000000001 Au
atom 6.2256705400000003 5.8393035900000001 2.7515799200000002 Au
atom 7.6674995499999996 8.2181165699999994 2.7234257199999998 Au
atom 10.3054458199999992 8.2974054000000006 2.7716922500000001 Au
atom 13.3622491700000001 8.3572810600000000 2.7131236599999999 Au
atom 16.1788273599999997 8.4553713599999991 2.7293455999999998 Au
atom 19.0093818200000015 8.1521413599999999 2.8830127600000002 Au
atom 21.7106466100000013 8.3302929300000006 2.5799559900000002 Au
atom 24.2711985900000009 8.2886992700000004 2.5792765599999998 Au
atom 27.2098242100000007 8.2211642299999994 2.4781282099999999 Au
atom 1.8319741300000001 8.3713124200000006 2.6869339499999998 Au
atom 4.8197837500000000 8.3249000399999993 2.7492274499999998 Au
atom 8.9513835099999994 10.7749471099999994 2.5309767500000002 Au
atom 11.7658656799999992 10.7056500299999993 2.5784571800000000 Au
atom 14.7420737800000001 10.6267469299999995 2.6195027400000002 Au
atom 17.3659674200000005 10.6305712900000007 2.5590344300000001 Au
atom 20.2033309000000010 10.7413921600000002 2.7857855200000001 Au
atom 22.9416326700000006 10.3568912100000006 2.5262071200000000 Au
atom 25.9670580300000005 10.6416431399999993 2.6666913999999999 Au
atom 0.4341920400000000 10.6630821699999991 2.4664725700000001 Au
atom 3.1707560199999998 10.7025215500000002 2.5430416100000000 Au
atom 6.2030369600000004 10.5375901100000000 2.7146780000000001 Au
atom 7.1786788599999998 12.7799544899999997 5.5115800400000001 Cl
atom 7.4558249300000004 15.8052723200000003 8.2469182599999993 Cl
atom 7.2524401999999997 13.2968619799999992 8.1516004599999992 Na
atom 7.4881677599999996 16.0958483900000004 5.7560360399999997 Na
atom 7.4610002199999998 19.0002466199999986 5.5940643600000000 Cl
atom 7.4795130500000004 21.8667194900000013 8.5560861199999998 Cl
atom 7.7125246199999999 18.6676568299999985 8.2036451400000008 Na
atom 7.3747514199999999 21.7353152300000012 5.8526584399999999 Na
atom 7.4264443199999999 24.5544970599999992 5.7419212000000002 Cl
atom 7.5349611899999998 27.5041904799999983 8.6840462299999999 Cl
atom 7.4612539399999998 24.5738169800000001 8.4520956799999993 Na
atom 7.2420090500000001 27.3791530700000010 5.7235222300000004 Na
atom 7.4079791200000003 30.2814262800000016 5.7454397899999998 Cl
atom 7.3666162399999999 32.9322944600000014 8.6100547499999998 Cl
atom 7.5456759599999996 30.1307009299999997 8.4549239600000003 Na
atom 7.5683116600000000 32.7858779399999989 5.9265461400000001 Na
atom 7.3958824800000000 35.6805655799999997 5.5994490900000002 Cl
atom 7.3452087800000001 38.5511989499999999 8.7541609400000002 Cl
atom 7.4730209500000004 35.8576959299999984 8.3996534100000009 Na
atom 7.4975706600000001 38.5587479799999997 5.8946704900000002 Na
atom 7.6392754700000003 1.8827653200000001 5.7379773800000002 Cl
atom 7.5139265499999999 4.5860480800000003 8.7529105900000008 Cl
atom 7.3743673799999998 2.0543163899999999 8.2538211300000004 Na
atom 7.3249025000000003 4.4933637099999997 5.8815071799999998 Na
atom 7.5476917800000001 7.4961453599999999 5.7521493200000000 Cl
atom 7.7413107400000003 10.4607813699999994 8.4413744699999995 Cl
atom 7.4053880999999997 7.4482773699999996 8.3759174299999994 Na
atom 7.5257555900000002 10.3074129600000006 5.7417006700000002 Na
atom 10.1897746500000004 13.1250228199999999 5.7456041300000003 Na
atom 13.1706582500000007 12.8512438299999996 5.4947081999999998 Cl
atom 10.2505538400000002 15.8153982699999993 8.7336939699999991 Na
atom 12.9358647500000004 15.9374769700000005 8.0633749600000009 Cl
atom 13.0986710700000000 13.0660356499999999 8.1469874600000001 Na
atom 10.3992665700000000 13.3044173899999993 8.4277925499999995 Cl
atom 13.0981847899999995 15.8714559400000006 5.5429711599999996 Na
atom 9.9967605499999994 16.1342207199999983 5.8766668500000003 Cl
atom 10.2414699500000008 18.6596631200000012 5.4860046899999997 Na
atom 13.1225983999999993 18.8540854700000011 5.3325781499999998 Cl
atom 10.2005948899999996 21.6013684499999989 7.9776309999999997 Na
atom 13.2113809900000003 21.4805478699999988 7.8268996800000004 Cl
atom 12.9766346299999995 18.8244938099999999 7.8336816200000001 Na
atom 10.2625655899999995 18.7984738799999995 8.2842516199999991 Cl
atom 12.9689233500000007 21.6980812100000016 5.3366942599999998 Na
atom 10.0010267800000001 22.0941524399999984 5.6870026300000003 Cl
atom 10.1161596500000002 24.6050098000000013 5.5500964300000000 Na
atom 13.0939695999999994 24.6115912100000003 5.6204905700000003 Cl
atom 10.2797995199999992 27.5562411800000007 8.4953364100000002 Na
atom 13.0994875099999994 27.1190761699999996 8.5852229399999995 Cl
atom 13.2095319700000005 24.3495695099999985 8.3129515999999999 Na
atom 10.3921728299999998 24.6120005900000010 8.6042587299999997 Cl
atom 13.0317598199999996 27.3275392400000001 5.6077658300000000 Na
atom 10.1227371300000009 27.5445503699999996 5.7533337299999996 Cl
atom 10.1108367200000000 30.3303884299999993 5.7978774299999998 Na
atom 13.0247460700000008 30.1253826599999996 5.8835888199999999 Cl
atom 10.4003611100000004 32.8409949699999970 8.5010113100000009 Na
atom 13.1066613600000004 32.9496878200000012 8.9279681199999992 Cl
atom 13.2046368600000008 30.0212895199999998 8.3661654599999995 Na
atom 10.3556910200000001 30.4425537199999994 8.7231136800000009 Cl
atom 13.0722930300000009 32.9217787799999968 5.8904762599999998 Na
atom 10.2837678199999996 33.0310371099999998 5.9473648900000002 Cl
atom 10.1361652699999993 35.8438998999999967 5.8457090300000001 Na
atom 13.0707463300000004 35.8677007200000020 5.7721379300000004 Cl
atom 10.3090967100000004 38.6032963600000016 8.5163056800000003 Na
atom 13.2068403599999993 38.5706396599999977 8.5339618399999999 Cl
atom 13.0525289000000004 35.8860604199999997 8.3712200800000005 Na
atom 10.3665722200000001 35.7703827899999993 8.8030628600000007 Cl
atom 13.1230400100000004 38.7834554399999973 5.7865515900000002 Na
atom 10.2796221400000007 38.6377075099999985 5.7646038500000003 Cl
atom 10.2174173300000000 1.9850719100000001 5.8243926999999998 Na
atom 13.1331221700000000 1.8891325200000000 5.7493598600000002 Cl
atom 10.1940209799999995 4.6562461500000003 8.5231041699999999 Na
atom 13.3113101900000004 4.7232192399999997 8.6247069500000002 Cl
atom 12.9850814600000000 1.9226543599999999 8.3632912699999995 Na
atom 10.2865432499999994 2.0228151300000001 8.7068404400000006 Cl
atom 13.2040415600000003 4.6124377100000000 5.9403933100000001 Na
atom 10.2851806299999993 4.8640998299999998 6.0042643800000004 Cl
atom 10.4759913200000003 7.3985827100000003 5.9838353700000004 Na
atom 13.2818661000000002 7.6688084400000003 5.7590132399999998 Cl
atom 10.3861013999999994 10.4610270199999995 8.3974789399999992 Na
atom 13.0290842199999997 10.2119651000000005 8.3887694499999998 Cl
atom 13.0946131300000008 7.5359417600000000 8.3918607699999992 Na
atom 10.1504730100000007 7.4818757600000003 8.5658635200000006 Cl
atom 13.0746614200000000 10.3132495199999994 5.9112905199999997 Na
atom 10.1994203999999993 10.3839895099999993 5.8204929400000003 Cl
atom 16.0345077499999995 13.0586345399999999 5.6345659000000001 Na
atom 19.0187130199999999 12.7087531800000004 5.6340568400000004 Cl
atom 15.8745950800000006 15.8800511699999998 8.0287608600000002 Na
atom 18.7339016500000000 15.8499896499999995 8.5588098899999991 Cl
atom 18.7579705600000004 13.0371944000000006 8.5115912900000001 Na
atom 15.9696652300000004 13.1618061999999991 8.3507937800000001 Cl
atom 18.9934505199999997 15.8379924400000007 5.9458124500000000 Na
atom 16.0745156300000005 15.8197724999999991 5.6746613500000000 Cl
atom 16.2488171399999999 18.8102830899999987 5.2290187799999996 Na
atom 19.2193392100000011 18.7489979700000013 5.6961828299999997 Cl
atom 15.8764376100000000 21.3516229600000003 7.7543486899999996 Na
atom 18.6698555100000014 21.7208133699999983 8.4213309899999995 Cl
atom 18.7453670199999998 18.8652276699999994 8.1913138599999993 Na
atom 16.0221208500000003 18.6817929599999992 8.0503955800000000 Cl
atom 19.2014477799999987 21.6474975900000004 5.7897946500000002 Na
atom 16.1048142200000015 21.6801220699999995 5.1072939200000000 Cl
atom 15.9050091299999998 24.4510125800000004 5.6948248299999999 Na
atom 18.6656762399999998 24.3472092999999994 5.5696072900000004 Cl
atom 15.7130632499999994 27.1984070200000012 8.4008397099999996 Na
atom 18.5339379899999983 27.0136664599999996 8.4418404500000008 Cl
atom 18.8478771899999984 24.4410166300000000 8.3512498799999992 Na
atom 16.0648345600000013 24.3001337399999997 8.3102770600000007 Cl
atom 18.6638336799999998 27.3237637100000015 5.7004901600000002 Na
atom 15.8094705599999994 27.2344961999999988 5.5530759800000000 Cl
atom 15.8899301099999999 30.0934616699999999 5.8943576599999998 Na
atom 18.8058969900000008 30.1265849699999997 5.6892046799999996 Cl
atom 15.8161667599999998 33.0672392199999976 8.3035584000000000 Na
atom 18.6990162399999988 33.1264052200000023 8.6390398299999998 Cl
atom 18.6699621399999991 30.1481749100000016 8.5741197400000004 Na
atom 15.9033982100000006 30.0380021299999989 8.7371128000000002 Cl
atom 18.9286503500000016 32.9273164499999993 5.8414381000000004 Na
atom 15.8419981700000001 32.8479460499999973 5.6474142499999997 Cl
atom 15.8480864199999996 35.7431757000000019 5.8622872499999996 Na
atom 18.8811661800000010 35.6882514300000011 5.8815779600000004 Cl
atom 15.8053048100000009 38.5828861900000035 8.4024177400000006 Na
atom 18.6690956600000000 38.4519258300000004 8.6146953600000007 Cl
atom 18.6502978800000001 35.7349699700000016 8.5550309900000006 Na
atom 16.1699667399999996 35.7682750000000027 8.5663414099999997 Cl
atom 18.7274409400000010 38.8935554099999976 5.6896624899999999 Na