#===============================================================================
# Created using the Atomic Simulation Environment (ASE)

# Tue Dec 23 22:26:12 2025

#=======================================================
lattice_vector 28.1999999999999993 0.0000000000000000 0.0000000000000000 
lattice_vector 0.0000000000000000 39.4799999999999969 0.0000000000000000 
lattice_vector 0.0000000000000000 0.0000000000000000 62.3296083400000001 
atom 7.4559194599999996 14.8211473599999994 -0.0837744200000000 Au
atom 10.3320689800000007 14.9507198799999994 -0.1791583400000000 Au
atom 13.1123449000000001 14.7785384299999993 -0.0666692800000000 Au
atom 15.8931221399999991 14.8452209400000008 -0.0728684500000000 Au
atom 18.7675509699999985 14.8957855299999995 0.0297082700000000 Au
atom 21.5824391800000015 14.8592225100000004 0.0615976600000000 Au
atom 24.4369147700000013 14.7952269399999992 0.0825583800000000 Au
atom 27.1992253099999992 14.8102520799999997 0.1097037400000000 Au
atom 1.8108649900000000 14.7775528900000008 -0.1509233000000000 Au
atom 4.6693948000000001 14.8417443200000001 -0.0135188000000000 Au
atom 8.8513325999999992 17.2807819999999985 0.0617182500000000 Au
atom 11.7128442100000001 17.2964434800000006 0.0583514000000000 Au
atom 14.5561874699999994 17.3268744300000002 0.0104568600000000 Au
atom 17.4250894500000015 17.2849393300000003 -0.0981328200000000 Au
atom 20.1634239700000002 17.2886989299999989 0.0595778400000000 Au
atom 23.0261621900000009 17.2954059099999995 0.0610236600000000 Au
atom 25.8202798000000016 17.2448327200000016 0.0617743800000000 Au
atom 0.4930894200000000 17.2168406300000001 0.1011920800000000 Au
atom 3.3049903800000000 17.3139662899999998 -0.1247577500000000 Au
atom 6.0730593199999996 17.2980535999999994 -0.0678063100000000 Au
atom 7.5065077300000000 19.7383696999999998 0.0929873400000000 Au
atom 10.3102794499999995 19.8011048199999991 0.0481725900000000 Au
atom 13.1422276300000007 19.8030485899999995 0.1388985900000000 Au
atom 15.9639285199999996 19.7835358100000001 0.1010061200000000 Au
atom 18.7788673300000006 19.7752184100000008 0.0489406200000000 Au
atom 21.5705592499999987 19.7972463099999985 0.0901000100000000 Au
atom 24.3754626499999993 19.7743644900000000 0.0524738700000000 Au
atom 27.2135852100000015 19.6749445200000004 0.1910118600000000 Au
atom 1.8819416700000000 19.7750500600000017 0.1362629800000000 Au
atom 4.7152039400000003 19.7522526399999983 -0.1514896700000000 Au
atom 8.8915319099999994 22.2164126700000004 0.1544282700000000 Au
atom 11.7681059599999998 22.2666107099999984 0.0259591400000000 Au
atom 14.5236441700000007 22.2772787500000007 0.1302214400000000 Au
atom 17.2935196299999987 22.2485635500000001 0.2039500500000000 Au
atom 20.1913942199999994 22.2089792700000004 0.2006553000000000 Au
atom 22.9540140999999984 22.2105540999999995 -0.0235252000000000 Au
atom 25.7201117000000004 22.1372645000000006 -0.0964846000000000 Au
atom 0.4134355400000000 22.2592178400000016 0.0492904800000000 Au
atom 3.2749854500000000 22.2111170999999992 0.1382498200000000 Au
atom 6.0679385699999999 22.2139902000000014 -0.0010055100000000 Au
atom 7.4932185499999999 24.7471160300000008 0.1807665800000000 Au
atom 10.2961274199999995 24.6740725500000018 0.0997841000000000 Au
atom 13.0818048400000002 24.7332020999999997 0.1263289800000000 Au
atom 15.9063609699999997 24.7334872799999985 0.1239745000000000 Au
atom 18.7861291600000015 24.6903287400000018 0.1765657400000000 Au
atom 21.6258921499999985 24.6698476999999983 0.1969774200000000 Au
atom 24.3969772099999993 24.6818655000000007 0.0660720800000000 Au
atom 27.2056408900000015 24.5815334300000004 0.1411185700000000 Au
atom 1.8213010100000000 24.6633204900000003 0.0180777300000000 Au
atom 4.6638773799999997 24.6698909200000003 0.0830345600000000 Au
atom 8.9569126000000008 27.1361020599999989 -0.0696831800000000 Au
atom 11.7576620100000007 27.1311078899999991 0.0446318100000000 Au
atom 14.5585514299999996 27.1578361100000016 0.0791486400000000 Au
atom 17.4082004700000006 27.1272040300000015 -0.0098064800000000 Au
atom 20.1481120800000006 27.1265419100000003 0.2005737800000000 Au
atom 23.0278160999999990 27.1493321799999983 0.1732793800000000 Au
atom 25.8384294700000012 27.0879804799999988 0.0898243700000000 Au
atom 0.4566444900000000 27.1062897300000003 0.1774550600000000 Au
atom 3.2682787400000000 27.1694967299999988 0.1626981400000000 Au
atom 6.0371744600000001 27.0891052899999991 0.1097923900000000 Au
atom 7.5003519299999999 29.5624420900000011 0.0409516400000000 Au
atom 10.3444869900000000 29.6203637099999995 -0.2147844600000000 Au
atom 13.1702496100000008 29.5800142400000006 -0.2490805600000000 Au
atom 15.9902787300000000 29.5632444099999994 -0.1792255600000000 Au
atom 18.7941263599999999 29.6128247500000015 -0.0901847100000000 Au
atom 21.6118022100000005 29.6271617899999988 -0.0300081400000000 Au
atom 24.3951676299999995 29.5692605099999994 0.0771810500000000 Au
atom 27.1946709499999990 29.5518586600000006 0.1126374700000000 Au
atom 1.8332475100000001 29.6197961999999997 -0.0235914500000000 Au
atom 4.6486413799999999 29.6657769800000004 0.1214579600000000 Au
atom 8.9308984099999993 32.1264771000000025 -0.1091592400000000 Au
atom 11.7407418600000000 32.0767610300000001 0.0299142700000000 Au
atom 14.5898925100000003 32.0317251299999981 -0.0030516400000000 Au
atom 17.4038100699999987 32.0664566299999976 0.0682244000000000 Au
atom 20.2535468200000004 32.0298917799999998 -0.0687377900000000 Au
atom 23.0932937299999992 32.0369513300000008 0.0630336300000000 Au
atom 25.8144377499999997 32.1298347500000006 0.0576647500000000 Au
atom 0.4255654500000000 32.1611132600000005 0.0187169000000000 Au
atom 3.2281508799999998 32.0580314199999989 0.1405885300000000 Au
atom 6.0049092999999996 32.1353086700000006 -0.0358470500000000 Au
atom 7.4341698999999997 34.6665710600000025 -0.0464801800000000 Au
atom 10.2912989199999991 34.6016318900000002 0.0318634600000000 Au
atom 13.1242880300000007 34.5346384999999998 -0.1045443700000000 Au
atom 16.0076731599999995 34.5071021600000023 -0.0521401400000000 Au
atom 18.9145313000000002 34.4187626900000012 -0.1710529000000000 Au
atom 21.7434850200000014 34.5259464700000009 -0.0173399000000000 Au
atom 24.5106192100000015 34.5005171299999986 -0.0263340700000000 Au
atom 27.2480598299999990 34.5530866799999998 0.0804805000000000 Au
atom 1.8803521900000000 34.4388577300000023 0.0032439600000000 Au
atom 4.6138150500000004 34.5679091000000014 0.2382491600000000 Au
atom 9.0238254100000006 37.0347414700000002 0.0504365000000000 Au
atom 11.7798726899999995 36.9825408999999965 -0.0708179700000000 Au
atom 14.7010543899999995 36.9853654100000000 -0.0584900600000000 Au
atom 17.4428885700000009 36.9087457700000030 -0.2051250000000000 Au
atom 20.1554805200000011 37.0559826400000034 0.2020353500000000 Au
atom 23.0440157899999996 37.0159005300000032 0.0735943100000000 Au
atom 25.9653704199999993 37.1002919599999998 0.0948576300000000 Au
atom 0.4394993700000000 37.0890353500000032 0.1547003600000000 Au
atom 3.2934779700000001 37.0692066100000019 0.1488084600000000 Au
atom 6.0529790600000002 37.0173291600000027 0.2498941700000000 Au
atom 7.4580151900000002 0.0337540800000000 -0.1682574700000000 Au
atom 10.6270210600000006 0.0150301000000000 0.1377805200000000 Au
atom 13.1944863399999992 0.0020773900000000 0.0268398500000000 Au
atom 16.0222301899999984 -0.0594690700000000 0.1081288500000000 Au
atom 18.6665526499999999 -0.0349692300000000 0.1850530300000000 Au
atom 21.5215668099999995 0.0224773900000000 0.0711393400000000 Au
atom 24.4912411299999988 0.0390280600000000 -0.0529567500000000 Au
atom 27.3256752100000000 -0.0074638400000000 0.1037509500000000 Au
atom 1.7402455999999999 0.0477017700000000 0.1916684200000000 Au
atom 4.6090321000000003 -0.0163911000000000 0.4634099200000000 Au
atom 8.8748508299999997 2.4757457199999999 0.0434937000000000 Au
atom 11.7159909100000004 2.4277491900000001 -0.0729432100000000 Au
atom 14.5842161000000008 2.4298513000000002 0.0902424600000000 Au
atom 17.4210646699999998 2.4818087599999998 -0.0147139100000000 Au
atom 20.3109365400000002 2.4596842099999998 0.0713961200000000 Au
atom 23.0267160199999985 2.5140268200000002 0.2743061900000000 Au
atom 25.8788420799999983 2.5162686500000002 0.0737604800000000 Au
atom 0.4071705600000000 2.5805068900000001 -0.1254470100000000 Au
atom 3.2772119599999998 2.4867930199999999 0.2059824200000000 Au
atom 6.1156492699999996 2.4633786000000000 0.0997435800000000 Au
atom 7.4707823099999997 4.9330177300000004 0.1047978700000000 Au
atom 10.2829280900000004 4.9920616300000002 0.0535906900000000 Au
atom 13.0200596300000004 4.8503360500000001 0.1274586900000000 Au
atom 15.9057893400000001 4.8760832599999997 0.1172840500000000 Au
atom 18.7378343600000008 4.9993462500000003 -0.0180400100000000 Au
atom 21.5902758400000003 4.9822974499999999 0.0417933400000000 Au
atom 24.4331148800000015 4.9906899600000001 0.0994715600000000 Au
atom 27.2431349599999990 4.9199950599999998 0.0950661100000000 Au
atom 1.8763626200000001 4.9594992099999997 0.0526004600000000 Au
atom 4.6808942299999998 4.9016475000000002 0.0740565800000000 Au
atom 8.9097407000000004 7.3758404700000000 0.1165305900000000 Au
atom 11.6458423000000000 7.3708917500000002 0.0039481500000000 Au
atom 14.5213080100000003 7.4033454699999997 0.2331114100000000 Au
atom 17.3227615099999994 7.4102412400000004 0.1431126900000000 Au
atom 20.1850089500000003 7.4024836299999999 0.0772919400000000 Au
atom 22.9902480999999987 7.4148784100000000 0.0591040700000000 Au
atom 25.8389547200000003 7.4202357000000001 0.1302961600000000 Au
atom 0.4177666000000000 7.3694117500000003 0.2747477300000000 Au
atom 3.2177454999999999 7.3871386399999999 0.0270609800000000 Au
atom 6.0881403599999997 7.4703762899999999 0.0642573600000000 Au
atom 7.5019037199999996 9.8654371800000007 0.0501406000000000 Au
atom 10.2791366100000001 9.8849651699999992 -0.0647549100000000 Au
atom 13.0407166599999993 9.8203733599999996 0.0452145100000000 Au
atom 15.8560042400000007 9.9111148599999996 0.0883567300000000 Au
atom 18.6934701499999996 9.9133635499999997 0.0577146900000000 Au
atom 21.5447284299999993 9.8992611600000000 0.0511207000000000 Au
atom 24.3872641600000009 9.9140317499999995 -0.0038542400000000 Au
atom 27.2563718900000005 9.8134096999999993 0.0382912500000000 Au
atom 1.8335048000000000 9.8239873000000006 -0.0445966200000000 Au
atom 4.6658931199999998 9.8550912299999993 0.0067659000000000 Au
atom 8.8582270600000008 12.3563341100000006 -0.0598578400000000 Au
atom 11.6125897800000004 12.3975058199999992 -0.1340334300000000 Au
atom 14.4801321400000003 12.3541426800000007 0.1182724300000000 Au
atom 17.3184388899999995 12.3965855600000001 0.0244211500000000 Au
atom 20.1179428400000013 12.3822755999999998 0.0479473800000000 Au
atom 23.0024264999999986 12.3592466200000004 0.0577706500000000 Au
atom 25.7520510700000003 12.2969110300000004 0.0149041900000000 Au
atom 0.3796949100000000 12.3070233000000009 0.0972467100000000 Au
atom 3.2353600199999999 12.3948064200000001 -0.0886031900000000 Au
atom 6.0584419399999998 12.3626287000000001 -0.0388632900000000 Au
atom 7.4925712100000004 13.1642438300000002 2.6270952599999999 Au
atom 10.2565305900000006 13.2174562299999998 2.4558971199999999 Au
atom 13.0590974200000005 13.2067101499999993 2.6381260700000002 Au
atom 15.8401884000000006 13.2300852399999993 2.6156019700000002 Au
atom 18.7720334300000005 13.2747999199999995 2.6403169399999999 Au
atom 21.5871312199999998 13.2468488900000008 2.6894707300000000 Au
atom 24.4217892100000000 13.2067085700000000 2.6373084200000001 Au
atom 27.2486810499999983 13.0973515200000001 2.6824676599999999 Au
atom 1.8541630700000000 13.1452948700000007 2.6061185999999998 Au
atom 4.6682905899999998 13.1577733699999992 2.6064447700000000 Au
atom 8.7718373900000000 15.6523889199999999 2.5401584300000000 Au
atom 11.5971522599999997 15.6724916299999997 2.5631537199999999 Au
atom 14.4658689900000006 15.6571686000000003 2.5702786099999999 Au
atom 17.3181343000000005 15.7505866700000006 2.5796274700000001 Au
atom 20.2035943799999984 15.7234320899999993 2.7418394099999999 Au
atom 23.0203175400000006 15.6990997799999992 2.7090613900000000 Au
atom 25.8412846099999989 15.5841277399999996 2.6844514700000000 Au
atom 0.4316994900000000 15.7770386899999995 2.6893228900000001 Au
atom 3.2161068899999998 15.6234079799999996 2.6426740199999998 Au
atom 6.0218821800000004 15.6606430499999991 2.5700404600000000 Au
atom 7.4211142499999996 18.1057412000000006 2.7919516799999999 Au
atom 10.2454587700000008 18.1285768099999984 2.6155895999999998 Au
atom 13.0781503099999998 18.1169189700000004 2.7204474400000001 Au
atom 15.9978152700000003 18.1319442500000001 2.5790086699999999 Au
atom 18.8123870699999998 18.1286412400000003 2.5734730600000000 Au
atom 21.5875670600000014 18.1432535799999997 2.6905076000000001 Au
atom 24.4080316599999989 18.1925548900000003 2.7930273400000001 Au
atom 27.2385542299999983 18.1997286600000017 2.8613941000000001 Au
atom 1.8857339099999999 18.0824322100000003 2.5955317800000000 Au
atom 4.5795743199999999 18.1083098500000013 2.5318880899999998 Au
atom 8.8474619000000008 20.5150271900000014 2.8505981500000002 Au
atom 11.7090074200000007 20.5863808199999987 2.6961330200000000 Au
atom 14.5376994800000006 20.5812952100000004 2.7142347700000000 Au
atom 17.3815088700000011 20.6245019800000016 2.8064526700000001 Au
atom 20.1672326899999987 20.5942752300000009 2.7560740600000000 Au
atom 22.9811197500000013 20.6655002600000017 2.5882296000000000 Au
atom 25.8163443500000014 20.5878590300000006 2.5948151899999998 Au
atom 0.4903321800000000 20.5503731800000011 2.6975276600000000 Au
atom 3.3076780800000001 20.6429577199999983 2.7359617599999999 Au
atom 6.0967137200000003 20.5828775800000017 2.5869195000000000 Au
atom 7.4704104500000001 23.0485438299999998 2.7186290000000000 Au
atom 10.2941550900000003 23.0529641299999994 2.6942078500000002 Au
atom 13.0717729499999997 23.0622436999999998 2.6032053300000002 Au
atom 15.8531609699999994 23.1211838299999997 2.8494168900000001 Au
atom 18.8130327299999998 23.1195659400000011 2.6716418499999999 Au
atom 21.5948996400000013 23.0761798999999996 2.7955797499999999 Au
atom 24.3781425600000006 23.0208227699999988 2.6138814699999999 Au
atom 27.1838723000000009 23.1513719900000012 2.8351890599999998 Au
atom 1.7902533199999999 23.0076529000000001 2.7034864800000000 Au
atom 4.7229712299999997 23.0414429900000002 2.6242799400000001 Au
atom 8.9571058099999998 25.5861989899999998 2.8050664200000002 Au
atom 11.6798150700000001 25.5501748500000012 2.7264623299999999 Au
atom 14.4630187899999996 25.5726209199999985 2.7807171600000000 Au
atom 17.3589899599999988 25.5517240100000009 2.7874460700000001 Au
atom 20.2595370599999995 25.5777177199999990 2.8696153400000002 Au
atom 23.0141627399999997 25.4639183600000010 2.7810752100000000 Au
atom 25.8327339999999985 25.6072874400000003 2.7069654100000000 Au
atom 0.4136403400000000 25.5583827700000015 2.7234414400000002 Au
atom 3.2345278600000000 25.5505261300000015 2.7828643999999998 Au
atom 6.0569805800000003 25.5833541300000000 2.7762346800000000 Au
atom 7.5143467900000003 27.9971564400000013 2.5260601100000000 Au
atom 10.2788103000000000 27.9846304900000007 2.5635886900000000 Au
atom 13.1595056699999997 27.9523504500000008 2.5551887000000000 Au
atom 15.9579238799999992 27.9964637299999985 2.6880498500000001 Au
atom 18.7520481500000002 28.0059776199999995 2.4864066600000001 Au
atom 21.5898005200000007 28.0103059200000004 2.7546878600000002 Au
atom 24.3862980200000017 27.9696569699999991 2.6613334399999999 Au
atom 27.1856648700000001 27.7960006100000001 2.8500306000000002 Au
atom 1.8302899100000001 27.9850002400000015 2.6685026199999999 Au
atom 4.6433728099999998 28.0859647899999985 2.7593957300000000 Au
atom 8.9652253200000001 30.4315243200000012 2.5173900400000000 Au
atom 11.7597009499999992 30.4429994700000002 2.4898689300000001 Au
atom 14.4603798599999998 30.4363528199999998 2.4908013900000001 Au
atom 17.2988650100000001 30.4819323400000002 2.5228589600000002 Au
atom 20.1665018600000003 30.5038131099999994 2.5745201099999999 Au
atom 22.9921678199999988 30.5023842800000011 2.7094621600000002 Au
atom 25.8003326599999987 30.5130545200000007 2.4558676400000001 Au
atom 0.4094374900000000 30.3241387200000005 2.6914183299999999 Au
atom 3.2229861700000000 30.4300317800000002 2.7937113800000000 Au
atom 6.0924966899999999 30.4142707600000008 2.6427506599999999 Au
atom 7.4818754600000004 32.9492839799999970 2.4879035100000002 Au
atom 10.3127901699999995 32.8747719500000031 2.5983728899999998 Au
atom 13.1552428799999994 32.9038107299999965 2.5548654900000001 Au
atom 16.0093771199999999 32.9577624300000025 2.6149495500000000 Au
atom 18.8303653400000002 32.9445567400000030 2.5455123500000001 Au
atom 21.6148067899999994 32.9387064800000005 2.5900438600000002 Au
atom 24.4119705200000006 32.9696326999999982 2.6105868200000000 Au
atom 27.2316525100000000 32.8125813300000004 2.5412339199999998 Au
atom 1.7740300800000000 33.0324242599999991 2.6266574000000000 Au
atom 4.6737121300000002 32.9158551100000025 2.6874405800000001 Au
atom 8.9568562299999996 35.2823858300000026 2.6444470199999999 Au
atom 11.7780331900000004 35.2959778299999982 2.6167506999999999 Au
atom 14.5285564800000007 35.3593216200000029 2.5067249399999998 Au
atom 17.3795851100000007 35.3256206699999993 2.4656141900000001 Au
atom 20.2314130200000015 35.3865428399999971 2.5106358100000001 Au
atom 22.9754614199999985 35.4053613700000014 2.5899057399999998 Au
atom 25.7821094600000009 35.4037206300000022 2.6606211599999998 Au
atom 0.4182839300000000 35.3974706099999992 2.7754812900000001 Au
atom 3.2343520899999998 35.3723037299999987 2.8177352500000001 Au
atom 6.1681819400000002 35.4378034699999986 2.8429890900000001 Au
atom 7.5475701099999997 37.7974749700000032 2.5543155400000002 Au
atom 10.1689974900000006 37.8272401199999990 2.7353248099999998 Au
atom 13.2416372599999992 37.8145830500000031 2.2978190800000000 Au
atom 16.1220147999999988 37.7794506299999995 2.6338242100000002 Au
atom 18.6504611000000011 37.8138795300000012 2.7432330999999999 Au
atom 21.3604785899999996 37.8976170899999971 2.6625365599999999 Au
atom 24.3040755500000003 37.8860437000000019 2.8325448899999999 Au
atom 27.1892684600000010 38.0324846999999977 2.8388125899999999 Au
atom 2.0233214899999998 37.7659039600000028 2.5868476899999999 Au
atom 4.7117376499999999 37.8247599199999982 2.8242569300000002 Au
atom 8.7409441099999992 0.7292807700000000 2.7488410600000002 Au
atom 11.8525750399999996 0.8262648400000000 2.5875657599999999 Au
atom 14.5819073299999999 0.8156311000000001 2.7353898200000000 Au
atom 17.3135958800000012 0.8647602000000000 2.5702638200000001 Au
atom 20.1176919199999986 0.8480193400000000 2.7735170000000000 Au
atom 23.0331183599999996 0.9072891500000000 2.7858738399999998 Au
atom 25.9152532399999984 0.8448185900000000 2.7489114899999998 Au
atom 0.4091800400000000 1.0791870800000001 2.7655695200000001 Au
atom 3.2135650000000000 0.8523892600000000 2.8363981599999999 Au
atom 6.2749317500000004 0.7912571700000000 2.7704145100000002 Au
atom 7.5124244300000003 3.2699138200000002 2.6726863399999998 Au
atom 10.3900353899999995 3.3398871600000000 2.5385809899999998 Au
atom 13.2617902000000001 3.2802584200000000 2.6024709499999998 Au
atom 16.0523983799999996 3.3190786000000001 2.6732719399999998 Au
atom 18.8305045100000008 3.3686955599999999 2.6086006400000001 Au
atom 21.6729070200000002 3.3759493900000002 2.7472778199999999 Au
atom 24.4688620700000001 3.3837034300000002 2.7180217000000000 Au
atom 27.2410555199999997 3.1571233900000002 2.6177529300000000 Au
atom 1.8273891499999999 3.3535250200000002 2.6230473700000001 Au
atom 4.7226924800000001 3.2725271500000002 2.7363699800000001 Au
atom 8.9154806799999999 5.7545667800000002 2.7739912300000000 Au
atom 11.8390410300000006 5.7511928599999997 2.7125272400000000 Au
atom 14.5897264900000003 5.7952529999999998 2.7779819400000001 Au
atom 17.4130162199999994 5.8411259199999996 2.6237161100000002 Au
atom 20.2248242400000002 5.8340225600000002 2.6769806200000001 Au
atom 23.0314417499999990 5.8286101900000000 2.6384288599999999 Au
atom 25.8234493699999987 5.7970967900000003 2.8091404199999999 Au
atom 0.4274403800000000 5.8514241800000004 2.7799428100000001 Au
atom 3.2552515700000000 5.7546834799999997 2.7233363300000000 Au
atom 6.0963320100000002 5.7621262499999997 2.7859627900000001 Au
atom 7.4916877900000003 8.2720133300000001 2.6699471199999998 Au
atom 10.3514134099999993 8.2276494899999992 2.6263045500000000 Au
atom 13.1575023699999996 8.2812465500000005 2.7591598899999998 Au
atom 15.9625807799999997 8.3742691600000008 2.7524611399999999 Au
atom 18.8310359299999988 8.3549696499999992 2.7288968800000002 Au
atom 21.6328514399999996 8.3313661499999991 2.6903578100000001 Au
atom 24.4226789500000017 8.2527798299999997 2.7020983799999998 Au
atom 27.2117866799999994 8.1427179200000008 2.6939374200000001 Au
atom 1.9007568800000001 8.2484748799999998 2.6012596700000001 Au
atom 4.6873960500000003 8.2364387600000004 2.6751933200000000 Au
atom 8.9051502500000002 10.7219625599999997 2.6992787100000002 Au
atom 11.7086327800000003 10.7773428899999999 2.5171590199999998 Au
atom 14.4556848900000006 10.7137803199999997 2.7545554700000001 Au
atom 17.3197876199999996 10.8087604000000006 2.6901170099999998 Au
atom 20.1271463500000003 10.7729404599999992 2.6066145199999999 Au
atom 22.9884528900000014 10.8185654099999997 2.6078866999999999 Au
atom 25.7429249999999996 10.7803547000000002 2.4757074399999999 Au
atom 0.4257071800000000 10.6508095199999993 2.7485878700000002 Au
atom 3.2396587499999998 10.6270543300000000 2.5092380400000001 Au
atom 6.0504768599999998 10.6633401200000009 2.6467897100000002 Au
atom 7.5956667600000003 13.2019753400000006 5.5739583499999998 Cl
atom 7.6408328900000004 15.9102707399999996 8.4945507100000004 Cl
atom 7.5135975899999998 13.1339393700000002 8.2754030299999997 Na
atom 7.6630139100000001 15.9583843999999999 5.7817347600000000 Na
atom 7.6908767700000000 18.8240938799999995 5.7203984700000001 Cl
atom 7.5953848600000002 21.6485622400000004 8.6136654400000001 Cl
atom 7.6319413699999998 18.7885950199999989 8.3715646800000005 Na
atom 7.6373194900000003 21.5529374699999998 5.8812293699999998 Na
atom 7.5241172000000001 24.3750939799999990 5.8230979899999999 Cl
atom 7.6565291799999997 27.3723676500000010 8.5643339199999993 Cl
atom 7.5838119700000002 24.4747099299999995 8.3832478500000001 Na
atom 7.5662154299999997 27.1915225000000014 5.8437684299999999 Na
atom 7.6188801599999998 30.1258030000000012 5.6825425200000002 Cl
atom 7.6047779499999999 32.8722306200000034 8.5093939299999999 Cl
atom 7.6183098400000002 30.1538944999999998 8.3771719600000001 Na
atom 7.6283136100000002 32.8476280599999981 5.7931172499999999 Na
atom 7.5447152800000001 35.7670786199999995 5.8691071900000003 Cl
atom 7.3702070300000004 38.5953438599999998 8.6725990900000003 Cl
atom 7.5036267199999998 35.8858103399999990 8.4586918499999992 Na
atom 7.3763004900000002 38.6308391700000016 5.8347347100000002 Na
atom 7.5434418000000001 1.8036710400000000 5.7671981399999996 Cl
atom 7.5866152900000001 4.7409346299999999 8.6287897099999995 Cl
atom 7.3828544300000001 1.9535030900000001 8.4799216099999999 Na
atom 7.4700911200000002 4.5817370700000000 5.8763728300000002 Na
atom 7.5490440799999998 7.5001778000000003 5.7011722200000001 Cl
atom 7.5324747299999997 10.3158477600000005 8.6025123699999995 Cl
atom 7.5877814499999996 7.5235254200000004 8.3579738900000002 Na
atom 7.6055713100000002 10.3236118500000007 5.8663252699999999 Na
atom 10.4193331100000002 13.0910837299999994 5.6808244999999999 Na
atom 13.2087239400000005 13.0978865100000004 5.6877966300000002 Cl
atom 10.3741984100000000 15.8908300300000001 8.2970392299999993 Na
atom 13.2273154700000006 15.9135753599999994 8.5495145699999995 Cl
atom 13.1543438399999992 13.1037420699999991 8.3335376399999994 Na
atom 10.3113674799999995 13.1622147700000003 8.3876643000000008 Cl
atom 13.2591786999999997 15.9973031199999998 5.8374407899999996 Na
atom 10.4832444299999992 15.9879609899999995 5.6927263999999997 Cl
atom 10.4798546399999992 18.8279367200000003 5.8623887300000002 Na
atom 13.2774256299999998 18.8132698299999994 5.7054309900000000 Cl
atom 10.4357440100000005 21.7268330600000006 8.4625084600000005 Na
atom 13.1286718899999997 21.6682734799999999 8.6260110099999991 Cl
atom 13.2221485300000001 18.7755854100000015 8.4402600099999994 Na
atom 10.4832768999999999 18.7700305199999988 8.5707249999999995 Cl
atom 13.2564764000000004 21.5941506499999996 5.9460884500000004 Na
atom 10.4706724100000006 21.6285249499999992 5.8484811600000004 Cl
atom 10.3919321399999998 24.5404413499999983 5.8189426900000001 Na
atom 13.1537945000000001 24.5219435200000007 5.7970687400000003 Cl
atom 10.4471232999999994 27.4223301299999989 8.5037203500000000 Na
atom 13.2450653999999997 27.2599622699999991 8.6964579000000004 Cl
atom 13.1534885799999994 24.5491633299999990 8.4203189599999995 Na
atom 10.4152011099999999 24.5340584899999996 8.6452539700000006 Cl
atom 13.1337709300000007 27.2932207700000014 5.9164986500000003 Na
atom 10.3629766900000000 27.3698369100000001 5.8000841000000003 Cl
atom 10.4499577499999994 30.1601338199999987 5.7181956800000000 Na
atom 13.1148498300000007 30.1403301699999986 5.7741964699999997 Cl
atom 10.3617324899999996 32.9647364899999999 8.3366658999999999 Na
atom 13.2059522800000000 32.9821967800000024 8.5765785300000008 Cl
atom 13.2762692900000001 30.1256666200000005 8.4578155800000001 Na
atom 10.4987658400000008 30.2232190400000000 8.6014697400000006 Cl
atom 13.1397127900000008 32.9249289099999984 5.8748946200000001 Na
atom 10.3707051999999997 32.9810073000000017 5.6495128599999997 Cl
atom 10.3835803599999998 35.8286542199999971 5.8645720600000004 Na
atom 13.1759624599999992 35.7379468399999993 5.7849250899999998 Cl
atom 10.3221831500000008 38.5484727799999973 8.5396837100000003 Na
atom 13.1621380699999992 38.4701410799999977 8.5439985200000006 Cl
atom 13.2296553299999999 35.6660603699999967 8.4355459300000000 Na
atom 10.4025570500000004 35.8523449999999997 8.7233816799999992 Cl
atom 13.1289692000000002 38.5477424899999974 5.8097840600000001 Na
atom 10.2978196400000002 38.5978984199999999 5.6411903900000002 Cl
atom 10.4296070800000003 1.8625108600000000 5.7975790700000003 Na
atom 13.0245253000000005 1.9306971100000001 5.7299500300000004 Cl
atom 10.3302964199999998 4.6929888999999996 8.3817962799999997 Na
atom 13.2047044600000003 4.7078233599999999 8.5819369200000004 Cl
atom 13.1626498400000003 1.8690797100000001 8.4355505399999995 Na
atom 10.5197875599999993 1.8154941899999999 8.5349739299999996 Cl
atom 13.1758908800000007 4.7266824900000000 5.8484316900000000 Na
atom 10.2805969099999999 4.6691855599999998 5.7784322000000001 Cl
atom 10.3929718900000001 7.4730459400000004 5.7808555600000000 Na
atom 13.2269022300000003 7.4127369400000003 5.7864511399999996 Cl
atom 10.3281414900000001 10.4476379200000000 8.4011156299999996 Na
atom 13.1353063799999994 10.2996428899999994 8.5651898200000005 Cl
atom 13.2530487200000007 7.5061100200000004 8.3599425000000007 Na
atom 10.4256022000000002 7.5158425600000003 8.4969021999999992 Cl
atom 13.1476799799999995 10.3183134699999997 5.8074407800000003 Na
atom 10.3856515100000006 10.2562076700000002 5.7115114900000004 Cl
atom 15.9623102100000001 13.1595567399999993 5.9053065399999998 Na
atom 18.7588623400000003 13.1590681499999995 5.8852242300000004 Cl
atom 16.0210274800000008 15.9703045100000001 8.4570666200000009 Na
atom 18.7361826399999991 16.0412644899999997 8.7212831699999995 Cl
atom 18.7937736099999988 13.1113076000000000 8.4747825500000005 Na
atom 15.8741501599999992 13.1140582200000004 8.6558530800000000 Cl
atom 18.8205993800000009 15.9902063900000009 5.8942604899999997 Na
atom 16.0346134800000009 15.9294169199999995 5.8158012699999997 Cl
atom 16.0743650400000000 18.8398281200000000 5.7898380700000001 Na
atom 18.8930152599999985 18.7957764000000012 5.8780005199999996 Cl
atom 15.9584486099999996 21.6429087600000010 8.4152020899999993 Na
atom 18.8503489000000002 21.6212001799999989 8.7886585200000003 Cl
atom 18.7306134399999991 18.7986113000000010 8.4374095199999992 Na
atom 15.9464064000000008 18.8462764299999996 8.5760648100000001 Cl
atom 18.7919072000000007 21.5708024400000014 5.9414336199999997 Na
atom 15.9554296600000001 21.7464092700000009 5.7286490299999997 Cl
atom 15.9161234000000000 24.5521950199999992 5.8938056999999997 Na
atom 18.7835508199999985 24.4693924299999992 5.8869866000000002 Cl
atom 16.0343681400000015 27.2824671800000012 8.5660006200000005 Na
atom 18.9045667900000005 27.3448186500000006 8.6412635000000009 Cl
atom 18.8013874200000011 24.5046058400000000 8.5309265500000002 Na
atom 16.0131903000000015 24.4208785100000014 8.6048613300000003 Cl
atom 18.8499312600000017 27.2271005499999994 5.8779053100000000 Na
atom 16.0257037699999998 27.2883595999999997 5.8433488300000000 Cl
atom 16.0048200499999993 30.0219762900000013 5.6955788299999996 Na
atom 18.7566870399999992 30.1123765900000002 5.7840271300000001 Cl
atom 16.0185211400000007 32.8899832299999986 8.2485699100000005 Na
atom 18.8489017899999993 32.9407884700000011 8.5561456200000006 Cl
atom 18.8263217000000012 30.1618320299999993 8.3960349300000008 Na
atom 16.0417160800000005 30.2138799099999993 8.4549383599999999 Cl
atom 18.8382635900000004 32.9554764599999999 5.7228324600000002 Na
atom 15.9608207800000006 32.9966312700000017 5.6065535899999999 Cl
atom 15.9971171800000000 35.7503468600000005 5.7691110700000001 Na
atom 18.7734001500000005 35.7885561399999972 5.6286816399999999 Cl
atom 15.8971510299999998 38.4929914000000011 8.3663345499999995 Na
atom 18.9175068300000007 38.4403054400000030 8.6412823700000008 Cl
atom 18.8925963099999983 35.7283705500000011 8.3960876800000008 Na
atom 16.0290479400000017 35.6891758200000027 8.4916805800000006 Cl
atom 18.6400457899999985 38.6315743700000027 6.0004325500000002 Na
atom 15.9420561099999993 38.5992333000000016 5.4796303399999999 Cl