#===============================================================================
# Created using the Atomic Simulation Environment (ASE)

# Tue Dec 23 21:42:29 2025

#=======================================================
lattice_vector 28.1999999999999993 0.0000000000000000 0.0000000000000000 
lattice_vector 0.0000000000000000 39.4799999999999969 0.0000000000000000 
lattice_vector 0.0000000000000000 0.0000000000000000 62.3296083400000001 
atom 7.2839095299999999 14.6514370500000002 -0.2279057800000000 Au
atom 10.1038787899999996 14.6625749600000006 -0.2574519500000000 Au
atom 12.9200759000000005 14.6548907699999997 -0.2067620600000000 Au
atom 15.7386783900000005 14.6658165199999999 -0.2622595000000000 Au
atom 18.5590510500000008 14.6506391199999992 -0.2045914000000000 Au
atom 21.3782587600000014 14.6644874200000004 -0.2570674900000000 Au
atom 24.1974682799999989 14.6499164099999994 -0.2046898000000000 Au
atom 27.0164456599999987 14.6636663699999996 -0.2668716000000000 Au
atom 1.6360777399999999 14.6501210200000003 -0.2257624900000000 Au
atom 4.4590369100000000 14.6618767999999999 -0.2816247000000000 Au
atom 8.6914949900000007 17.1238931200000017 -0.2005073000000000 Au
atom 11.5106156899999998 17.1232091400000002 -0.1833117600000000 Au
atom 14.3275086300000005 17.1242827200000001 -0.1875958800000000 Au
atom 17.1511512699999997 17.1237058799999993 -0.1865536700000000 Au
atom 19.9663144999999993 17.1231363300000012 -0.1757388700000000 Au
atom 22.7908412899999995 17.1227402200000007 -0.1739928900000000 Au
atom 25.6059893000000010 17.1226627100000002 -0.1815072000000000 Au
atom 0.2299418400000000 17.1240464900000013 -0.1941666300000000 Au
atom 3.0469282500000001 17.1240851200000002 -0.2098399100000000 Au
atom 5.8719718600000004 17.1251758699999996 -0.2215543900000000 Au
atom 7.2805350300000002 19.5895080499999992 -0.1272092900000000 Au
atom 10.1008290499999998 19.5881688300000008 -0.1412335600000000 Au
atom 12.9194927899999996 19.5871652999999988 -0.1066804800000000 Au
atom 15.7381759399999996 19.5925859600000010 -0.1397410000000000 Au
atom 18.5564956999999993 19.5856527599999986 -0.0934176100000000 Au
atom 21.3789384399999989 19.5915815100000010 -0.1302378300000000 Au
atom 24.1997764099999984 19.5844241299999986 -0.0975391200000000 Au
atom 27.0183814399999989 19.5921789299999993 -0.1446011100000000 Au
atom 1.6394377099999999 19.5888107299999987 -0.1136087300000000 Au
atom 4.4591757400000001 19.5944918100000010 -0.1645432700000000 Au
atom 8.6919918299999992 22.0475526899999998 -0.1717711800000000 Au
atom 11.5083246100000007 22.0455045600000012 -0.1619743100000000 Au
atom 14.3287969900000007 22.0474669299999988 -0.1611059600000000 Au
atom 17.1479843699999996 22.0461288599999996 -0.1501553100000000 Au
atom 19.9718629099999987 22.0468424499999998 -0.1442716500000000 Au
atom 22.7922237299999999 22.0487786300000010 -0.1565570400000000 Au
atom 25.6074011900000009 22.0494758900000001 -0.1567740500000000 Au
atom 0.2244622300000000 22.0482578899999986 -0.1614215000000000 Au
atom 3.0500031000000001 22.0482338200000001 -0.1701376300000000 Au
atom 5.8705197000000000 22.0501791000000011 -0.1791196100000000 Au
atom 7.2812786699999998 24.5174737399999998 -0.1941508100000000 Au
atom 10.0999525600000002 24.5117118699999992 -0.1971145000000000 Au
atom 12.9180723000000004 24.5153731999999991 -0.1868042400000000 Au
atom 15.7385841400000004 24.5105453299999994 -0.1912036900000000 Au
atom 18.5603485699999986 24.5141476000000011 -0.1816319300000000 Au
atom 21.3836950399999992 24.5119996200000010 -0.1870522700000000 Au
atom 24.2000585000000008 24.5147928800000017 -0.1994880900000000 Au
atom 27.0153234600000012 24.5127904600000015 -0.1863893600000000 Au
atom 1.6356025800000000 24.5166692700000013 -0.1916179100000000 Au
atom 4.4598206400000002 24.5121049699999993 -0.2073818600000000 Au
atom 8.6927553300000007 26.9774725500000017 -0.2631492700000000 Au
atom 11.5062053899999999 26.9767778400000005 -0.2611213900000000 Au
atom 14.3321293099999991 26.9764723000000011 -0.2588571100000000 Au
atom 17.1455677199999990 26.9759073299999983 -0.2559387700000000 Au
atom 19.9726083000000010 26.9751436899999995 -0.2513335200000000 Au
atom 22.7891864800000015 26.9743160700000004 -0.2391384900000000 Au
atom 25.6095489900000004 26.9737164599999986 -0.2425407200000000 Au
atom 0.2260466400000000 26.9749749100000002 -0.2527292600000000 Au
atom 3.0528900499999998 26.9793604400000007 -0.2693491700000000 Au
atom 5.8662501799999998 26.9781331299999998 -0.2637639400000000 Au
atom 7.2795789199999996 29.4514779299999994 -0.3485896400000000 Au
atom 10.0994408799999995 29.4414164300000003 -0.3252876700000000 Au
atom 12.9191544700000005 29.4506491799999992 -0.3468770200000000 Au
atom 15.7387819199999992 29.4404603000000016 -0.3224605600000000 Au
atom 18.5584413700000006 29.4498093700000005 -0.3427725800000000 Au
atom 21.3780823700000013 29.4384709700000009 -0.3197967600000000 Au
atom 24.1995551300000002 29.4441481299999985 -0.3366114100000000 Au
atom 27.0205491900000006 29.4387859799999987 -0.3233226300000000 Au
atom 1.6394392300000000 29.4512860699999983 -0.3467727800000000 Au
atom 4.4598983900000002 29.4424643000000010 -0.3258771400000000 Au
atom 8.6927188599999994 31.9246742800000014 -0.3245596100000000 Au
atom 11.5061265299999995 31.9243079200000004 -0.3239452300000000 Au
atom 14.3326703700000007 31.9240379099999991 -0.3232783400000000 Au
atom 17.1458956100000002 31.9236964199999989 -0.3216213500000000 Au
atom 19.9726874000000016 31.9230906700000006 -0.3198896800000000 Au
atom 22.7855975899999983 31.9227581399999991 -0.3257700000000000 Au
atom 25.6131031900000004 31.9232491600000010 -0.3268214600000000 Au
atom 0.2258197700000000 31.9239873699999990 -0.3209713500000000 Au
atom 3.0527042400000002 31.9251292199999988 -0.3239555600000000 Au
atom 5.8661699799999996 31.9249540100000004 -0.3241355900000000 Au
atom 7.2793087400000003 34.4042416699999976 -0.2830396300000000 Au
atom 10.0994172399999993 34.3904205799999971 -0.2283787800000000 Au
atom 12.9194580099999996 34.4037619300000017 -0.2827515000000000 Au
atom 15.7394644300000000 34.3898434299999991 -0.2270222900000000 Au
atom 18.5593971000000018 34.4032132600000011 -0.2807120600000000 Au
atom 21.3794833500000010 34.3893473600000021 -0.2237541600000000 Au
atom 24.1992127299999993 34.4051436499999994 -0.2844421100000000 Au
atom 27.0191155899999984 34.3901491900000025 -0.2246118700000000 Au
atom 1.6392163099999999 34.4043891900000034 -0.2818226000000000 Au
atom 4.4593145300000003 34.3907135500000010 -0.2275693800000000 Au
atom 8.6911973499999995 36.8642345900000024 -0.2125442700000000 Au
atom 11.5076197300000000 36.8639490999999992 -0.2120888900000000 Au
atom 14.3313979699999994 36.8637771100000009 -0.2120896600000000 Au
atom 17.1476611599999984 36.8633935200000025 -0.2102911400000000 Au
atom 19.9712324899999984 36.8633677799999973 -0.2092280900000000 Au
atom 22.7872024199999998 36.8636308999999969 -0.2074235100000000 Au
atom 25.6112916700000000 36.8640032400000024 -0.2080434600000000 Au
atom 0.2274238200000000 36.8640677699999983 -0.2094231500000000 Au
atom 3.0511280900000002 36.8643518499999985 -0.2112461900000000 Au
atom 5.8674210300000000 36.8642150000000015 -0.2115709600000000 Au
atom 7.2792705099999999 -0.1466032500000000 -0.1634517200000000 Au
atom 10.0993716100000004 -0.1515283000000000 -0.1259549300000000 Au
atom 12.9194681800000009 -0.1469131400000000 -0.1633990100000000 Au
atom 15.7395241800000001 -0.1520846900000000 -0.1247977800000000 Au
atom 18.5594632600000011 -0.1475095000000000 -0.1611064400000000 Au
atom 21.3793127600000012 -0.1524617300000000 -0.1217841400000000 Au
atom 24.1992684599999990 -0.1474603800000000 -0.1594416000000000 Au
atom 27.0192654099999992 -0.1519998400000000 -0.1221302500000000 Au
atom 1.6392153400000000 -0.1468174100000000 -0.1614967100000000 Au
atom 4.4592297199999997 -0.1514881300000000 -0.1246971400000000 Au
atom 8.6887713000000009 2.3087646899999998 -0.1773264700000000 Au
atom 11.5101527200000007 2.3086123100000000 -0.1772937700000000 Au
atom 14.3290084699999998 2.3083133100000000 -0.1771376800000000 Au
atom 17.1503005600000016 2.3079282200000000 -0.1754007000000000 Au
atom 19.9689717599999987 2.3076300299999999 -0.1740654000000000 Au
atom 22.7900909499999997 2.3075613399999999 -0.1729786800000000 Au
atom 25.6087015899999990 2.3077740900000001 -0.1734478000000000 Au
atom 0.2298919700000000 2.3081647400000000 -0.1742970100000000 Au
atom 3.0486383400000001 2.3085365000000002 -0.1758438100000000 Au
atom 5.8699614100000002 2.3087258799999999 -0.1765100300000000 Au
atom 7.2793854400000004 4.7730737899999998 -0.2055056700000000 Au
atom 10.0994985800000006 4.7775296300000001 -0.1984605600000000 Au
atom 12.9196704699999998 4.7729434299999998 -0.2060057400000000 Au
atom 15.7396815900000000 4.7769662300000002 -0.1975803300000000 Au
atom 18.5597207600000011 4.7720914900000002 -0.2032837600000000 Au
atom 21.3795547900000003 4.7762352200000002 -0.1947790900000000 Au
atom 24.1994278999999999 4.7718670200000002 -0.2015103600000000 Au
atom 27.0192776300000013 4.7766427399999998 -0.1951546000000000 Au
atom 1.6392850200000000 4.7727013100000004 -0.2037341900000000 Au
atom 4.4592827300000000 4.7774347099999996 -0.1973567100000000 Au
atom 8.6862868899999999 7.2385560599999996 -0.2674921100000000 Au
atom 11.5128494099999994 7.2389575900000001 -0.2673177100000000 Au
atom 14.3266336899999995 7.2386347000000004 -0.2664834800000000 Au
atom 17.1530183799999989 7.2380628500000004 -0.2651038300000000 Au
atom 19.9666155200000013 7.2376060300000002 -0.2630079100000000 Au
atom 22.7926332699999996 7.2374761400000001 -0.2622627100000000 Au
atom 25.6060985000000016 7.2375780000000001 -0.2628757500000000 Au
atom 0.2324204900000000 7.2382083799999997 -0.2641885700000000 Au
atom 3.0462426100000002 7.2387421200000004 -0.2656180900000000 Au
atom 5.8725015799999998 7.2387129200000002 -0.2667553500000000 Au
atom 7.2797016399999999 9.7045137399999994 -0.3195439200000000 Au
atom 10.0987873900000000 9.7133864800000005 -0.3462220100000000 Au
atom 12.9194651000000000 9.7041828900000002 -0.3230878400000000 Au
atom 15.7397293999999999 9.7131072500000002 -0.3449134300000000 Au
atom 18.5598574200000002 9.7027240300000006 -0.3192924800000000 Au
atom 21.3795131100000013 9.7121036000000007 -0.3405457800000000 Au
atom 24.1990544999999990 9.7022934500000009 -0.3174768200000000 Au
atom 27.0188243600000000 9.7122712199999999 -0.3421752400000000 Au
atom 1.6394260500000000 9.7033086700000002 -0.3207469700000000 Au
atom 4.4603737700000003 9.7138568400000000 -0.3437705500000000 Au
atom 8.6886600499999993 12.1877486699999995 -0.2997242900000000 Au
atom 11.5114569499999995 12.1878418899999996 -0.3072311000000000 Au
atom 14.3261093800000001 12.1869239900000004 -0.3166507000000000 Au
atom 17.1528491599999988 12.1862674700000007 -0.3129958400000000 Au
atom 19.9662311400000014 12.1854525000000002 -0.3089080500000000 Au
atom 22.7920453800000011 12.1854049399999997 -0.3077336000000000 Au
atom 25.6047190600000008 12.1851861400000008 -0.3095798000000000 Au
atom 0.2312908600000000 12.1850587200000007 -0.3140066000000000 Au
atom 3.0465423600000001 12.1861603400000007 -0.3111608400000000 Au
atom 5.8743330399999998 12.1873251800000002 -0.3060141900000000 Au
atom 7.2799044899999998 13.0094065099999998 2.3835355699999998 Au
atom 10.1012435699999994 13.0178821800000009 2.3107273699999999 Au
atom 12.9210232600000001 13.0050123800000001 2.3616895499999999 Au
atom 15.7392116899999994 13.0160826699999994 2.2772731400000001 Au
atom 18.5586562800000010 13.0007944299999991 2.3739015700000001 Au
atom 21.3788565099999985 13.0125553099999998 2.2840724899999998 Au
atom 24.1991300000000003 13.0000921799999993 2.3769363100000001 Au
atom 27.0185901000000008 13.0141524799999999 2.2795532800000000 Au
atom 1.6385064800000000 13.0043304099999997 2.3678224800000001 Au
atom 4.4593282099999998 13.0187627599999995 2.2874864100000001 Au
atom 8.6925052300000001 15.4791550499999992 2.4016448399999999 Au
atom 11.5082508099999998 15.4777868299999994 2.4275161399999998 Au
atom 14.3274846900000004 15.4745924800000001 2.4146596100000002 Au
atom 17.1474747100000009 15.4733848500000004 2.4071083099999999 Au
atom 19.9678196200000002 15.4707193600000004 2.4152257900000000 Au
atom 22.7893322199999986 15.4712031000000003 2.4123177099999999 Au
atom 25.6076658399999992 15.4729500200000007 2.4054799800000000 Au
atom 0.2272781000000000 15.4744366699999993 2.3937607800000000 Au
atom 3.0460973099999999 15.4748170199999997 2.3731010900000000 Au
atom 5.8739503400000004 15.4781625900000002 2.3654696300000002 Au
atom 7.2796671899999996 17.9398774799999998 2.4268524000000000 Au
atom 10.0993987099999991 17.9554684699999996 2.4417437199999998 Au
atom 12.9194069799999998 17.9393807299999999 2.4591309899999998 Au
atom 15.7382955199999994 17.9575923800000012 2.4154235300000000 Au
atom 18.5585940799999989 17.9351769099999991 2.4736225400000000 Au
atom 21.3811912799999995 17.9550639399999987 2.4234810200000001 Au
atom 24.1999226199999988 17.9400154399999998 2.4758639200000001 Au
atom 27.0175008299999995 17.9595446000000010 2.4142005700000002 Au
atom 1.6399717500000000 17.9391989800000005 2.4464447900000001 Au
atom 4.4613007099999997 17.9634472199999990 2.3844085000000002 Au
atom 8.6929417400000002 20.4349822799999998 2.4864530299999998 Au
atom 11.5074378100000008 20.4313965300000007 2.5046486899999998 Au
atom 14.3280396099999994 20.4320198399999988 2.5034163600000001 Au
atom 17.1450853999999993 20.4319140899999994 2.5138375499999999 Au
atom 19.9664358799999988 20.4258070799999985 2.5026114200000000 Au
atom 22.7886248299999998 20.4343220000000017 2.4939241299999999 Au
atom 25.6106199200000013 20.4370429499999986 2.4961272499999998 Au
atom 0.2280794300000000 20.4322379599999984 2.4939525200000001 Au
atom 3.0504665800000001 20.4335794799999988 2.4943476200000001 Au
atom 5.8676593700000002 20.4371678699999997 2.4741547300000000 Au
atom 7.2802900199999998 22.9046639499999998 2.4079326999999999 Au
atom 10.0991576300000006 22.9188663499999983 2.4363546600000001 Au
atom 12.9180697000000002 22.9025067900000003 2.4216918399999998 Au
atom 15.7383197500000005 22.9202232899999991 2.4444971400000002 Au
atom 18.5593577500000002 22.9007700900000017 2.4259062000000000 Au
atom 21.3801577899999984 22.9185111900000003 2.4429345599999999 Au
atom 24.1996469500000018 22.9090875199999999 2.4471126999999999 Au
atom 27.0207161999999990 22.9205510100000005 2.4499849100000000 Au
atom 1.6401207700000000 22.9011538299999984 2.4044898500000000 Au
atom 4.4602218699999998 22.9212151199999994 2.4271976099999999 Au
atom 8.6926682300000007 25.3876771800000007 2.4102229999999998 Au
atom 11.5059433900000005 25.3869691099999990 2.4137792600000001 Au
atom 14.3305972199999996 25.3870511000000008 2.4127450499999998 Au
atom 17.1473258900000012 25.3877287100000011 2.4141577500000002 Au
atom 19.9746094399999983 25.3827666299999990 2.4131815099999998 Au
atom 22.7915333900000014 25.3802375699999985 2.4422008399999999 Au
atom 25.6073889000000001 25.3817564100000013 2.4466439000000002 Au
atom 0.2239509500000000 25.3851436899999996 2.4251455000000002 Au
atom 3.0520509699999998 25.3881888899999986 2.3891301500000002 Au
atom 5.8674889900000000 25.3877853400000006 2.4019387999999999 Au
atom 7.2803471899999996 27.8463684200000010 2.2892264199999999 Au
atom 10.0989914899999995 27.8519422500000005 2.3648447199999998 Au
atom 12.9177574899999996 27.8458363599999998 2.2923306900000000 Au
atom 15.7388012300000000 27.8507761599999988 2.3706906000000001 Au
atom 18.5607064299999998 27.8430624299999998 2.2967349300000000 Au
atom 21.3814127300000010 27.8483232799999989 2.3640337900000001 Au
atom 24.2006005199999983 27.8419418199999988 2.3388097000000001 Au
atom 27.0199925299999997 27.8487890399999998 2.3663520000000000 Au
atom 1.6396244300000000 27.8437247100000000 2.2935690800000001 Au
atom 4.4597389200000004 27.8513394299999995 2.3651944999999999 Au
atom 8.6919258100000008 30.2997546000000000 2.2685784400000002 Au
atom 11.5058960500000005 30.2995837500000000 2.2698220500000001 Au
atom 14.3300516400000006 30.2990622199999997 2.2700508600000000 Au
atom 17.1456399499999996 30.2975764900000009 2.2709324600000000 Au
atom 19.9708521899999987 30.2958870699999991 2.2740927000000002 Au
atom 22.7867518699999998 30.2957988500000006 2.2612759100000002 Au
atom 25.6136589699999995 30.2965195499999993 2.2607866200000002 Au
atom 0.2281068100000000 30.2970019999999991 2.2738546300000002 Au
atom 3.0526015000000002 30.2985862499999996 2.2676226599999998 Au
atom 5.8678335900000000 30.2994386499999990 2.2686649600000002 Au
atom 7.2800755700000002 32.7595095699999987 2.2642429800000001 Au
atom 10.0992430300000002 32.7468600999999992 2.3573826900000001 Au
atom 12.9184274099999996 32.7592951900000031 2.2647984700000001 Au
atom 15.7385032000000002 32.7463641499999980 2.3588341499999999 Au
atom 18.5591978600000012 32.7575816900000021 2.2662427699999999 Au
atom 21.3795159199999993 32.7433435000000017 2.3622202699999999 Au
atom 24.1997056599999993 32.7564115300000012 2.2536743900000000 Au
atom 27.0199208400000010 32.7445730199999971 2.3620954699999999 Au
atom 1.6399319699999999 32.7584361299999998 2.2645516699999999 Au
atom 4.4602688700000002 32.7467403400000023 2.3579337599999999 Au
atom 8.6898113299999995 35.2168325000000024 2.3837205899999998 Au
atom 11.5084766700000003 35.2165318200000002 2.3844664199999999 Au
atom 14.3288863699999993 35.2167713199999994 2.3843172799999999 Au
atom 17.1483518199999985 35.2160937700000005 2.3861363400000002 Au
atom 19.9693854100000010 35.2159536200000005 2.3860697599999998 Au
atom 22.7893571799999997 35.2142986500000035 2.3880402200000002 Au
atom 25.6093658499999997 35.2146806599999991 2.3874141600000001 Au
atom 0.2292261500000000 35.2162471199999985 2.3863729600000001 Au
atom 3.0501323500000002 35.2168560200000016 2.3849101500000001 Au
atom 5.8694097100000002 35.2167635899999993 2.3847877000000000 Au
atom 7.2796181100000004 37.6993011400000029 2.3925578199999999 Au
atom 10.0993521899999994 37.6798324000000022 2.4350217100000000 Au
atom 12.9190836099999995 37.6991127699999993 2.3925621000000001 Au
atom 15.7388981900000005 37.6796737600000000 2.4362584100000002 Au
atom 18.5590984799999994 37.6988457499999967 2.3947549900000000 Au
atom 21.3793775599999982 37.6790001399999994 2.4391039000000001 Au
atom 24.1994286400000007 37.6986682900000005 2.3956939600000000 Au
atom 27.0194359700000000 37.6792637200000016 2.4386453399999999 Au
atom 1.6396635600000000 37.6991658700000016 2.3944410999999999 Au
atom 4.4597834699999996 37.6800008700000006 2.4362438700000002 Au
atom 8.6878015299999998 0.6924787000000000 2.4832136299999998 Au
atom 11.5102818599999992 0.6920824600000000 2.4833221999999999 Au
atom 14.3274839400000005 0.6922163200000000 2.4836440000000000 Au
atom 17.1500684700000008 0.6916868100000000 2.4851450599999998 Au
atom 19.9675076900000015 0.6916730100000000 2.4865874400000001 Au
atom 22.7903015800000013 0.6912788000000000 2.4874377399999998 Au
atom 25.6078052199999995 0.6916947000000000 2.4871836400000000 Au
atom 0.2305928300000000 0.6917471800000000 2.4862427299999998 Au
atom 3.0479668300000000 0.6923385800000000 2.4848672999999999 Au
atom 5.8705865900000003 0.6921997000000000 2.4839427999999999 Au
atom 7.2795719400000003 3.1779393200000001 2.4260811900000001 Au
atom 10.0994493399999996 3.1617852800000001 2.4063066100000001 Au
atom 12.9193353900000005 3.1777123600000001 2.4254436199999998 Au
atom 15.7391806299999999 3.1612787199999999 2.4073127900000002 Au
atom 18.5591595900000002 3.1769822900000002 2.4281115899999999 Au
atom 21.3792448800000017 3.1606748200000001 2.4102278500000001 Au
atom 24.1994231699999993 3.1767564799999999 2.4298375499999998 Au
atom 27.0195147300000009 3.1609822699999999 2.4098023400000002 Au
atom 1.6396530100000000 3.1775169100000000 2.4277835600000000 Au
atom 4.4595798300000000 3.1617110300000002 2.4073940999999999 Au
atom 8.6869019800000000 5.6447591199999998 2.4042695400000000 Au
atom 11.5117415500000000 5.6444862599999999 2.4030481300000002 Au
atom 14.3268262400000008 5.6441648600000001 2.4041996200000000 Au
atom 17.1515668900000016 5.6434633400000003 2.4051916499999999 Au
atom 19.9667183900000005 5.6430880500000002 2.4072186000000002 Au
atom 22.7916414299999985 5.6427749900000004 2.4076905800000001 Au
atom 25.6069464899999986 5.6432076300000000 2.4078349000000001 Au
atom 0.2319166100000000 5.6436351000000000 2.4061389300000000 Au
atom 3.0471414299999999 5.6444654400000003 2.4051460100000002 Au
atom 5.8719833100000001 5.6445410000000003 2.4043859500000000 Au
atom 7.2797532599999997 8.1080283899999994 2.3614428400000000 Au
atom 10.0992047500000002 8.1033004799999997 2.2864834300000001 Au
atom 12.9194107900000006 8.1081031600000006 2.3618373699999999 Au
atom 15.7394260500000005 8.1020936599999995 2.2885539300000000 Au
atom 18.5592706700000001 8.1064914800000007 2.3652994800000000 Au
atom 21.3793890299999987 8.1004927700000007 2.2924777399999998 Au
atom 24.1995835600000007 8.1058814800000007 2.3669932199999999 Au
atom 27.0197314400000010 8.1012651099999999 2.2911257699999998 Au
atom 1.6401235199999999 8.1076440200000004 2.3639751400000000 Au
atom 4.4601804200000004 8.1032990199999997 2.2883632899999999 Au
atom 8.6866138199999998 10.5577916500000004 2.2799312500000002 Au
atom 11.5112182300000008 10.5562718300000000 2.2715457899999998 Au
atom 14.3265749400000004 10.5561958100000002 2.2749663800000000 Au
atom 17.1512109399999986 10.5547330600000002 2.2752420999999998 Au
atom 19.9665673699999999 10.5532591999999994 2.2792473499999999 Au
atom 22.7915339500000016 10.5528725699999999 2.2795349200000001 Au
atom 25.6070119600000012 10.5534318700000007 2.2787985700000002 Au
atom 0.2322553600000000 10.5549590200000001 2.2763342000000000 Au
atom 3.0481823900000000 10.5562201000000009 2.2750566999999999 Au
atom 5.8725152500000002 10.5581670299999999 2.2817218600000002 Au
atom 7.2657412800000003 13.3484129500000002 5.5691469299999996 Cl
atom 6.9773320600000002 16.3186267399999991 8.0307011700000004 Cl
atom 7.3863697799999999 13.5960523700000007 8.4557209699999998 Na
atom 7.2488739200000003 16.1959052700000008 5.4514921999999997 Na
atom 7.2645608599999996 19.0952936199999996 5.4256269799999997 Cl
atom 7.2746218599999999 21.8117677900000011 8.3888847599999998 Cl
atom 7.2282652799999996 18.9955521500000017 8.0931912599999993 Na
atom 7.2929190300000002 21.8290784299999991 5.6061414400000000 Na
atom 7.3009617799999997 24.5930178499999990 5.4882415000000000 Cl
atom 7.2894738200000004 27.4771685099999985 8.2807583900000008 Cl
atom 7.2972958400000003 24.6412941299999986 8.1522194599999995 Na
atom 7.2836612499999998 27.4202273699999992 5.5265079000000004 Na
atom 7.2738574099999997 30.2711261200000017 5.4041384199999998 Cl
atom 7.2729331799999999 33.0825721100000010 8.2699106199999992 Cl
atom 7.2789412300000000 30.2803183999999987 8.0506070699999999 Na
atom 7.2690478699999996 33.1187144700000005 5.5186973300000002 Na
atom 7.2696332400000001 35.9425867799999992 5.4879597200000001 Cl
atom 7.2697583799999999 38.7240136599999971 8.3558368600000001 Cl
atom 7.2705348499999998 35.9037730599999989 8.1291634300000002 Na
atom 7.2690004100000003 38.7483995300000004 5.5958898200000000 Na
atom 7.2688596299999997 2.0600940599999999 5.5242996399999997 Cl
atom 7.2692592600000001 4.9055372600000000 8.3233424599999992 Cl
atom 7.2693742099999996 2.0750088000000000 8.1686295300000005 Na
atom 7.2691539799999996 4.8743390499999997 5.5630358700000002 Na
atom 7.2674553800000004 7.7020437399999997 5.4401836899999996 Cl
atom 7.2606450499999999 10.5263450699999996 8.3057145800000001 Cl
atom 7.2679031900000002 7.7247338599999997 8.0975559300000004 Na
atom 7.2810574600000004 10.5634613300000009 5.5573833099999996 Na
atom 10.0400831799999999 13.4247282999999999 5.6600088900000003 Na
atom 12.8963272000000000 13.3882573199999992 5.4406847500000000 Cl
atom 10.1648162600000003 16.2268808799999995 8.4848301999999993 Na
atom 12.8851541600000008 16.1431745400000004 8.4351575000000008 Cl
atom 12.8803287900000001 13.3400259200000004 8.1224568799999997 Na
atom 10.2075876999999995 13.1297736199999999 8.2535242800000006 Cl
atom 12.8494093599999992 16.1800846199999988 5.6626217199999997 Na
atom 10.0638664299999991 16.1882048599999990 5.7508306500000002 Cl
atom 10.0698063199999996 18.9532182899999988 5.7086696100000003 Na
atom 12.8797817000000006 18.9819111099999986 5.5644175599999999 Cl
atom 10.0803721599999996 21.8067597800000001 8.2081619999999997 Na
atom 12.8952273999999996 21.7961496299999986 8.3882223800000002 Cl
atom 12.8714345899999998 18.9579509600000016 8.2200550499999991 Na
atom 10.0332091200000004 19.0211372300000008 8.4552305800000003 Cl
atom 12.8924288499999999 21.7711752700000005 5.6309682700000003 Na
atom 10.0975102799999998 21.7756874700000012 5.5615600499999998 Cl
atom 10.1012420699999996 24.5939931600000001 5.5725922800000003 Na
atom 12.9036547899999992 24.5886238299999995 5.5095226600000000 Cl
atom 10.0915995400000007 27.4625081000000009 8.0831439799999991 Na
atom 12.9030051199999996 27.4664097100000006 8.2825726100000008 Cl
atom 12.9000202200000000 24.6288132100000006 8.1542023599999993 Na
atom 10.0859695800000004 24.6438816000000003 8.3360754999999997 Cl
atom 12.9036554999999993 27.4172142699999988 5.5330896100000002 Na
atom 10.0902186100000009 27.4110822300000017 5.4291350100000004 Cl
atom 10.0898746100000007 30.2670191799999984 5.4679435700000001 Na
atom 12.9091328099999991 30.2666150700000003 5.4072664699999997 Cl
atom 10.0893168299999996 33.0825114700000000 8.0711657300000006 Na
atom 12.9080822099999999 33.0789683499999967 8.2704367600000008 Cl
atom 12.9058910699999991 30.2740203200000018 8.0527977699999997 Na
atom 10.0905673700000005 30.2742538500000009 8.2327611199999993 Cl
atom 12.9069643400000000 33.1191488400000011 5.5193832199999999 Na
atom 10.0893891000000000 33.1222104300000026 5.4174370900000000 Cl
atom 10.0891326600000006 35.9344130799999988 5.5513834600000003 Na
atom 12.9076141799999995 35.9431266200000010 5.4880814200000003 Cl
atom 10.0888294500000004 38.7208966099999969 8.1618636999999996 Na
atom 12.9070916400000009 38.7250603299999980 8.3559652799999995 Cl
atom 12.9070493200000005 35.9040371800000031 8.1294384199999996 Na
atom 10.0891617199999999 35.8938902800000008 8.3146461899999995 Cl
atom 12.9090622800000006 38.7482527900000022 5.5961391999999996 Na
atom 10.0888911900000000 38.7418272299999984 5.5137385600000002 Cl
atom 10.0883064900000008 2.0538063700000002 5.6014299000000003 Na
atom 12.9087441399999996 2.0604002800000001 5.5238911300000000 Cl
atom 10.0882386700000009 4.8973340299999997 8.1386109199999996 Na
atom 12.9071482500000005 4.9037446800000000 8.3257539499999993 Cl
atom 12.9080863899999994 2.0742062500000000 8.1692609899999997 Na
atom 10.0885424399999994 2.0693592000000001 8.3608750199999999 Cl
atom 12.9079720200000008 4.8660901499999998 5.5638228099999996 Na
atom 10.0869398100000005 4.8595211699999998 5.4989772200000004 Cl
atom 10.0854122200000003 7.6880785100000004 5.5309888400000000 Na
atom 12.9105960399999997 7.6712228299999996 5.4270740200000001 Cl
atom 10.0727374800000007 10.5153107200000004 8.0769452000000008 Na
atom 12.9240179299999998 10.5076361600000006 8.2417273000000009 Cl
atom 12.9026119999999995 7.7241154400000003 8.0804108600000006 Na
atom 10.0862645200000003 7.7258342799999999 8.2796862000000004 Cl
atom 12.8906350199999995 10.5438466900000005 5.4881586100000002 Na
atom 10.0904460599999997 10.5157059299999993 5.4084416199999996 Cl
atom 15.7065510499999998 13.3811587400000001 5.5354347300000004 Na
atom 18.5403556899999984 13.3807563300000005 5.4335548999999999 Cl
atom 15.6925004500000007 16.1425892799999993 8.1702799299999995 Na
atom 18.5185890499999992 16.1212603600000008 8.3446846699999995 Cl
atom 18.5343744100000016 13.3268740200000000 8.0867808700000001 Na
atom 15.7095654899999992 13.3309862100000007 8.2804788800000004 Cl
atom 18.5216578799999994 16.1800483300000018 5.5774969900000002 Na
atom 15.6818508399999992 16.1982039700000016 5.5281447500000001 Cl
atom 15.6972752999999994 18.9878120800000012 5.6240026800000003 Na
atom 18.5161806099999993 18.9698105099999985 5.5468959399999997 Cl
atom 15.6907803300000008 21.7884626200000007 8.1942035099999995 Na
atom 18.4727250000000005 21.7554954599999988 8.3672006400000001 Cl
atom 18.4862642100000016 18.9222146000000002 8.1906035700000004 Na
atom 15.6909846200000000 18.9559639100000012 8.3862823700000000 Cl
atom 18.4687218500000014 21.7645267099999984 5.5802770700000002 Na
atom 15.7028256600000002 21.7846521899999992 5.5438646299999998 Cl
atom 15.6896080399999995 24.6010426200000012 5.5682434799999996 Na
atom 18.4817913000000011 24.5784845999999995 5.4707992399999998 Cl
atom 15.7130668300000007 27.4661474699999992 8.0902445200000006 Na
atom 18.5091175399999983 27.4715735000000016 8.2752138800000008 Cl
atom 18.4656282199999993 24.6134665599999991 8.1278873600000008 Na
atom 15.7023250500000007 24.6399569499999984 8.3391144500000003 Cl
atom 18.5049647099999994 27.4154405700000012 5.5189072499999998 Na
atom 15.7167015299999999 27.4172241999999997 5.4345760399999996 Cl
atom 15.7191720299999993 30.2724760099999983 5.4669401799999999 Na
atom 18.5145058999999996 30.2766824099999994 5.3926565200000001 Cl
atom 15.7152495400000003 33.0911685800000015 8.0716552400000001 Na
atom 18.4907604899999995 33.1300792600000023 8.2745394000000001 Cl
atom 18.4995990500000005 30.2989116400000000 8.0415124400000000 Na
atom 15.7223825399999999 30.2797499600000002 8.2404321599999992 Cl
atom 18.5417591799999997 33.1187764299999969 5.5157325100000003 Na
atom 15.7198522199999999 33.1254788600000012 5.4135461400000002 Cl
atom 15.7289073300000002 35.9342868999999965 5.5526770599999997 Na
atom 18.5440977400000016 35.9498751100000007 5.4869180399999999 Cl
atom 15.7266414500000007 38.7219794800000017 8.1631131600000000 Na
atom 18.5465586299999998 38.7251804200000009 8.3587407599999999 Cl
atom 18.5332626000000005 35.9193082399999994 8.1311776099999999 Na
atom 15.7167229499999994 35.9035253799999978 8.3167264900000006 Cl