#===============================================================================
# Created using the Atomic Simulation Environment (ASE)

# Tue Dec 23 21:43:02 2025

#=======================================================
lattice_vector 28.1999999999999993 0.0000000000000000 0.0000000000000000 
lattice_vector 0.0000000000000000 39.4799999999999969 0.0000000000000000 
lattice_vector 0.0000000000000000 0.0000000000000000 62.3296083400000001 
atom 7.4900036500000002 14.7790158399999996 -0.2138345500000000 Au
atom 10.3316089800000004 14.8250866499999994 -0.3407143500000000 Au
atom 13.2130076899999995 14.7959716300000004 -0.0537833000000000 Au
atom 16.0125077900000008 14.8416561999999992 -0.0363477400000000 Au
atom 18.7588477800000000 14.8153195699999998 -0.0172030600000000 Au
atom 21.6118710900000011 14.8427378000000001 -0.0892430500000000 Au
atom 24.4085654599999984 14.7839597699999992 -0.0218551000000000 Au
atom 27.1658534299999985 14.8393798700000001 -0.0892846600000000 Au
atom 1.7828894700000000 14.7709382100000006 0.0449561500000000 Au
atom 4.6641168400000002 14.8337523099999995 -0.0934686900000000 Au
atom 8.9035928900000005 17.2918488199999985 -0.1585172600000000 Au
atom 11.7450686799999993 17.2786956300000014 -0.0904976400000000 Au
atom 14.5387686499999997 17.2987761199999994 -0.1252397300000000 Au
atom 17.3941077399999990 17.2850451499999984 0.0206574900000000 Au
atom 20.1723946299999994 17.2956860900000002 0.0169901100000000 Au
atom 22.9861406300000013 17.3045324399999991 0.0165977800000000 Au
atom 25.7851610499999992 17.2981809899999988 0.1209317900000000 Au
atom 0.4095799000000000 17.3081787200000008 0.0935388500000000 Au
atom 3.2271189900000001 17.2523003199999998 0.1233654600000000 Au
atom 6.0501775200000001 17.2629566600000004 -0.1536412600000000 Au
atom 7.4703469299999998 19.7132910000000017 0.0690849400000000 Au
atom 10.3274274699999999 19.7801497499999996 -0.0961471300000000 Au
atom 13.1484063199999994 19.7687551600000013 0.0078334700000000 Au
atom 15.9703575000000004 19.7416185300000002 -0.0910744900000000 Au
atom 18.7989365900000003 19.7437742100000015 -0.0254204200000000 Au
atom 21.5943949500000016 19.7364325200000010 0.0317246700000000 Au
atom 24.4220747200000012 19.7606518800000011 0.0653328500000000 Au
atom 27.2549707999999988 19.7353185499999988 0.1352795300000000 Au
atom 1.8529807500000000 19.7197813300000000 0.1442504700000000 Au
atom 4.6426054600000004 19.7023819300000014 0.0714521800000000 Au
atom 8.9522541800000006 22.2160268400000014 0.0600344300000000 Au
atom 11.7541980099999996 22.2694700300000008 0.0319832900000000 Au
atom 14.5510818200000003 22.1863743100000015 -0.0938527300000000 Au
atom 17.3452185599999993 22.1448944400000016 0.0099150300000000 Au
atom 20.2018156299999987 22.1959871900000003 -0.1438023200000000 Au
atom 23.0011832799999993 22.2542499199999995 -0.0523811200000000 Au
atom 25.8217576099999988 22.2193524700000005 0.0487675600000000 Au
atom 0.4471317500000000 22.2057324800000018 -0.0112156100000000 Au
atom 3.2983210800000000 22.1430768499999999 0.1348814900000000 Au
atom 6.0834438100000003 22.1663204600000014 0.1745353700000000 Au
atom 7.4960708499999997 24.6167717599999989 0.0795855700000000 Au
atom 10.3166499300000005 24.6860447600000015 0.1254228200000000 Au
atom 13.1497442499999995 24.7153073499999998 0.0120472000000000 Au
atom 15.9755679700000002 24.6188145399999989 0.0179993700000000 Au
atom 18.7680973000000009 24.7156669800000017 0.0985455600000000 Au
atom 21.5697651099999987 24.6858744600000009 0.1912959200000000 Au
atom 24.3681201499999993 24.7327037999999995 0.0637429900000000 Au
atom 27.1971648799999990 24.7204295400000014 0.0417873100000000 Au
atom 1.8790172300000001 24.6672723599999983 0.0096156800000000 Au
atom 4.6613161300000003 24.6859437399999990 0.1154590400000000 Au
atom 8.8909635599999994 27.1473411800000015 0.0556735700000000 Au
atom 11.7186700500000001 27.1614352100000005 0.0515477600000000 Au
atom 14.6061821500000004 27.1943660300000012 0.0039180400000000 Au
atom 17.3968770500000005 27.1702700200000002 -0.0111762300000000 Au
atom 20.1955230700000001 27.1434136600000002 0.0704414200000000 Au
atom 22.9936703800000011 27.1773950900000010 0.1434641100000000 Au
atom 25.8487595200000015 27.2031197599999999 0.0164036000000000 Au
atom 0.4981097200000000 27.1402262100000016 0.1092965400000000 Au
atom 3.2521714300000002 27.1540956700000002 -0.0133454400000000 Au
atom 6.0693527400000002 27.1347725699999991 0.0915194700000000 Au
atom 7.4869566000000001 29.6528779799999995 -0.0246140500000000 Au
atom 10.3035153099999999 29.5723545100000003 0.1139892500000000 Au
atom 13.1223379100000006 29.5940933500000014 0.0884388300000000 Au
atom 15.9599963000000002 29.6272930400000014 0.1299267500000000 Au
atom 18.8024368200000005 29.6481938900000017 -0.0401955100000000 Au
atom 21.6399190700000013 29.6313867199999983 0.0157539800000000 Au
atom 24.4479364600000011 29.6272542299999984 -0.0513298800000000 Au
atom 27.2652594999999991 29.6332808499999985 -0.0889221100000000 Au
atom 1.9324247000000001 29.5932947900000016 0.0252786700000000 Au
atom 4.7269673699999997 29.6705082500000010 -0.0386029700000000 Au
atom 8.9164505900000002 32.0736592599999994 -0.0409899900000000 Au
atom 11.6960272900000000 32.0662873500000032 -0.0306136900000000 Au
atom 14.5425566800000006 32.0199312599999999 0.0183469800000000 Au
atom 17.3852525900000003 32.0775403100000034 -0.0752030000000000 Au
atom 20.2059857700000016 32.0777744399999989 -0.0895708500000000 Au
atom 22.9831619300000014 32.0646440800000008 -0.0153427300000000 Au
atom 25.8376944699999989 32.0879870799999978 -0.0127126400000000 Au
atom 0.4655362400000000 32.0903287800000001 -0.0665167200000000 Au
atom 3.3406433899999999 32.0764160299999972 -0.0402852200000000 Au
atom 6.1049675600000004 32.0978931599999981 -0.0484332600000000 Au
atom 7.4989974600000000 34.5793933799999991 -0.0652201000000000 Au
atom 10.3271793299999999 34.5061693999999974 -0.0596445200000000 Au
atom 13.1416975800000007 34.4541101599999990 -0.0305622500000000 Au
atom 15.9904721399999996 34.5135956299999975 -0.0905686800000000 Au
atom 18.8026352099999983 34.5682808399999999 -0.0826221300000000 Au
atom 21.6023709699999991 34.5115058200000036 0.0394607900000000 Au
atom 24.4015292799999983 34.5583586899999986 0.0136617800000000 Au
atom 27.2010093499999996 34.5038922700000015 0.0731693300000000 Au
atom 1.8782295600000001 34.5456090099999997 0.0183980700000000 Au
atom 4.6942758299999996 34.5697443800000030 -0.0422977100000000 Au
atom 8.9051198500000002 37.0352392100000003 0.0097313500000000 Au
atom 11.7501716399999996 37.0138509900000017 0.0651807100000000 Au
atom 14.6005273100000004 36.9783016599999996 -0.0303073700000000 Au
atom 17.3893533200000014 37.0087987100000007 0.0033162200000000 Au
atom 20.2152668300000009 37.0469445600000000 -0.0509053100000000 Au
atom 22.9687515699999985 36.9807822499999972 0.0429271200000000 Au
atom 25.7799943700000007 37.0062646100000023 0.0975994900000000 Au
atom 0.3984995400000000 37.0145705099999986 -0.0586558900000000 Au
atom 3.1948686700000000 37.0013678799999965 0.0362269200000000 Au
atom 6.0563681899999997 37.0814719600000018 -0.0022015800000000 Au
atom 7.5014274199999997 0.0367539400000000 0.1341466700000000 Au
atom 10.2990682800000002 0.0097520500000000 0.1402595800000000 Au
atom 13.1223518899999991 -0.0392262100000000 0.1390006700000000 Au
atom 16.0006179099999990 -0.0029197400000000 0.0505609100000000 Au
atom 18.8146397299999997 0.0523309000000000 0.0627723800000000 Au
atom 21.5819637299999982 0.0609079900000000 0.1266516400000000 Au
atom 24.4486696300000013 0.0450082900000000 0.1119663100000000 Au
atom 27.1935405000000010 0.0317112900000000 0.0421127800000000 Au
atom 1.8304520200000001 -0.0057928600000000 -0.0213660700000000 Au
atom 4.6505684000000000 0.0438066700000000 0.1443993400000000 Au
atom 8.9091178899999992 2.4831515999999998 0.0613629500000000 Au
atom 11.7289597400000005 2.4898416499999998 0.1678415500000000 Au
atom 14.5583192399999994 2.4086431400000001 0.1752621300000000 Au
atom 17.3901900199999986 2.5135100200000000 -0.0861211100000000 Au
atom 20.2049406599999983 2.5039834299999999 0.0394948200000000 Au
atom 23.0040244200000004 2.5091485499999999 0.0168255300000000 Au
atom 25.8929165700000006 2.5063428100000000 0.1686135900000000 Au
atom 0.5083465300000000 2.5174428299999998 -0.0733447300000000 Au
atom 3.3208171700000002 2.5042118300000000 0.0045249500000000 Au
atom 6.1556662800000002 2.4777083700000002 0.0622696700000000 Au
atom 7.4843972000000001 4.9423451199999997 0.0978822800000000 Au
atom 10.2535553900000007 4.9663358200000003 0.0661564100000000 Au
atom 13.1139807000000008 4.9290188900000000 0.0901600000000000 Au
atom 15.9419448799999994 4.9012109900000000 0.0436738400000000 Au
atom 18.7811020199999987 4.9368590000000001 0.0697263600000000 Au
atom 21.6429884600000015 4.9120400100000001 0.1544158200000000 Au
atom 24.4751221200000018 4.9493664400000004 0.0958939400000000 Au
atom 27.2500022800000004 4.9555624800000002 0.1987896000000000 Au
atom 1.8324294999999999 4.9887987999999996 0.0886746000000000 Au
atom 4.7170566999999997 4.9216446999999999 -0.0012378600000000 Au
atom 8.8825379600000005 7.4147703800000002 0.0237706200000000 Au
atom 11.7021146799999993 7.3433828800000001 -0.0124262500000000 Au
atom 14.5643482700000000 7.3625016600000004 0.1240752300000000 Au
atom 17.4036880499999995 7.3721591100000001 0.0658714900000000 Au
atom 20.1985337999999999 7.3619865999999998 -0.0042875600000000 Au
atom 22.9901354900000001 7.3926436700000000 -0.0538023500000000 Au
atom 25.7894882999999986 7.4119598699999996 0.1077702900000000 Au
atom 0.4365915500000000 7.4385617399999999 0.0941603900000000 Au
atom 3.2893120499999999 7.3764482899999999 0.1049637400000000 Au
atom 6.1191410099999999 7.4297402200000002 0.1350451200000000 Au
atom 7.5426980600000002 9.7907851600000004 0.0691613600000000 Au
atom 10.2881188300000002 9.9068165799999992 -0.0627056700000000 Au
atom 13.1479744000000007 9.8460333799999997 -0.0162339400000000 Au
atom 15.9889225699999997 9.8618592300000003 0.1128505300000000 Au
atom 18.7396856900000017 9.8590910699999998 0.0263630400000000 Au
atom 21.5461945200000002 9.8971566200000005 -0.0007678000000000 Au
atom 24.4310841799999992 9.8449232000000002 0.2095592300000000 Au
atom 27.1771340399999985 9.8801388499999998 0.1718298200000000 Au
atom 1.8707318399999999 9.8596307299999992 0.0101964800000000 Au
atom 4.6936869200000002 9.8922106299999992 0.0205021800000000 Au
atom 8.9104205299999997 12.3135433200000008 -0.1925141900000000 Au
atom 11.7815031000000001 12.3097228500000000 -0.1328871100000000 Au
atom 14.6291564199999993 12.3044241999999997 -0.0905928800000000 Au
atom 17.4260527200000013 12.3430422400000008 0.0171396200000000 Au
atom 20.1793293799999987 12.3560632300000002 -0.0361283600000000 Au
atom 22.9614142600000015 12.3161069100000002 -0.0189989300000000 Au
atom 25.7569819399999993 12.3304159700000007 -0.0888491100000000 Au
atom 0.3940263200000000 12.3309616299999991 -0.0585674400000000 Au
atom 3.2685472999999998 12.3505591199999998 -0.0000701100000000 Au
atom 6.1304060299999996 12.3195232499999996 0.0023612600000000 Au
atom 7.5293639199999998 13.1874547300000007 2.5217099300000001 Au
atom 10.3244178200000007 13.2248997300000006 2.3254859799999998 Au
atom 13.1107665299999994 13.1913471999999992 2.5906393900000002 Au
atom 15.9415760599999992 13.1936454699999999 2.4711905700000001 Au
atom 18.7507969199999991 13.2313254699999998 2.6011000399999999 Au
atom 21.5642820099999994 13.2109758399999997 2.4876048700000002 Au
atom 24.3961245399999989 13.2242761800000004 2.5525514199999999 Au
atom 27.2248767799999989 13.1628188999999995 2.4695190000000000 Au
atom 1.7940706600000000 13.1750085600000002 2.7227223800000000 Au
atom 4.6697323900000001 13.1750208400000002 2.5648959800000002 Au
atom 8.8805260500000003 15.6535405999999995 2.4542850700000001 Au
atom 11.6892203299999995 15.6314364900000005 2.5708630100000001 Au
atom 14.4418521399999999 15.5987318800000008 2.6528882299999998 Au
atom 17.3634411899999996 15.6219935299999992 2.6295004899999999 Au
atom 20.1708648100000012 15.6554759000000008 2.5500755900000001 Au
atom 22.9893182200000012 15.6784446499999994 2.5849011100000001 Au
atom 25.8041603700000017 15.7142374999999994 2.5828022300000000 Au
atom 0.3961564900000000 15.6272949200000006 2.5771302199999999 Au
atom 3.2140829499999999 15.5978957600000001 2.6621564200000001 Au
atom 6.0903802699999998 15.6868732600000005 2.4150632299999999 Au
atom 7.5292022500000000 18.0694532000000017 2.6480380499999998 Au
atom 10.3653859300000004 18.0957617100000014 2.3752744500000000 Au
atom 13.1459541299999998 18.0789110000000015 2.6201878299999999 Au
atom 15.9415866099999999 18.0791872200000014 2.4619347199999999 Au
atom 18.7775372199999993 18.0828595300000003 2.6227263500000002 Au
atom 21.6126269600000001 18.1145160199999999 2.6000003600000001 Au
atom 24.3865031999999999 18.1425894800000016 2.7019920599999998 Au
atom 27.2435304500000015 18.1648556100000000 2.7613599299999998 Au
atom 1.9140234700000001 18.0549145200000005 2.7547549099999999 Au
atom 4.7426132900000004 18.1339489399999998 2.5938514399999999 Au
atom 8.9958823900000002 20.5129062600000012 2.6226444899999999 Au
atom 11.7689510599999991 20.5325465700000009 2.7048417800000002 Au
atom 14.5451068800000005 20.5990713099999994 2.5484788100000002 Au
atom 17.3713729900000011 20.5650755099999998 2.6421034500000000 Au
atom 20.1112117899999987 20.5683177199999996 2.5734121700000001 Au
atom 22.9444888499999990 20.6179614499999992 2.6472084200000001 Au
atom 25.8083464800000009 20.5817501500000013 2.6995890299999998 Au
atom 0.4405762500000000 20.6205682900000014 2.7381711900000001 Au
atom 3.2769629999999998 20.5547307799999999 2.7203861200000001 Au
atom 6.1341499199999996 20.5626615900000012 2.7345502300000000 Au
atom 7.5532148200000000 23.0016444000000000 2.6473840499999999 Au
atom 10.3250400700000000 23.0515672100000018 2.7336799100000002 Au
atom 13.1542552100000005 23.0795977100000016 2.6102577000000000 Au
atom 15.9802534999999999 23.0828781399999983 2.5824250000000002 Au
atom 18.8359810699999990 23.0768095799999990 2.6212026599999998 Au
atom 21.6009853400000011 23.0635420499999988 2.6247725000000002 Au
atom 24.4209501399999986 23.0585574700000002 2.6121289299999999 Au
atom 27.2757323900000017 23.0827742899999997 2.5948398099999999 Au
atom 1.8608711400000000 23.0345879599999996 2.6424273800000000 Au
atom 4.7251290499999996 23.0577360300000009 2.7377044200000000 Au
atom 8.9566332800000001 25.5061215399999988 2.7038427100000000 Au
atom 11.7360078300000001 25.5630421900000009 2.7303855900000000 Au
atom 14.5745233499999998 25.5865326000000017 2.5877764499999998 Au
atom 17.3735106399999992 25.5494358400000010 2.7012555699999998 Au
atom 20.1841493099999987 25.6212255199999994 2.7111817899999999 Au
atom 23.0076635799999991 25.5515757999999984 2.7616120400000002 Au
atom 25.8295586399999983 25.6070282599999999 2.5933851600000000 Au
atom 0.4904163900000000 25.5738907900000001 2.6624753399999999 Au
atom 3.3252652199999999 25.5703028900000007 2.6687673500000000 Au
atom 6.1022433100000004 25.5531819300000009 2.7523901600000000 Au
atom 7.5089428299999996 27.9681651299999992 2.6333930500000000 Au
atom 10.3202814800000002 28.0196111300000013 2.6407371899999998 Au
atom 13.1907545899999992 28.0054394400000000 2.6051961200000000 Au
atom 15.9850319899999995 28.0105680300000017 2.7074860400000000 Au
atom 18.7703449099999986 28.0647787499999986 2.5996305700000000 Au
atom 21.6108188299999995 28.0375493599999999 2.7629453300000000 Au
atom 24.4399746200000010 28.0554715299999984 2.6660667299999998 Au
atom 27.2455566900000008 28.0440950700000009 2.6510368600000001 Au
atom 1.8929323300000001 28.0356982799999983 2.6709117700000000 Au
atom 4.6835760600000000 28.0422251399999993 2.5953115300000000 Au
atom 8.8930336400000005 30.4670166400000006 2.6291843099999999 Au
atom 11.7437982299999994 30.4673573600000012 2.6840248600000001 Au
atom 14.6167146700000004 30.4649830600000016 2.6455602499999999 Au
atom 17.3808119400000010 30.5374510000000008 2.6889254299999998 Au
atom 20.1808799400000005 30.4880821900000001 2.6490311599999998 Au
atom 22.9936322299999993 30.4314882199999985 2.6029026399999999 Au
atom 25.8366437900000001 30.5321471299999985 2.5618504600000001 Au
atom 0.4631253500000000 30.4756130799999987 2.4636902300000001 Au
atom 3.2539140799999999 30.5507192399999994 2.6838510200000001 Au
atom 6.0913365500000003 30.4391918500000003 2.6413755399999999 Au
atom 7.5275442300000002 32.9149850800000010 2.5336047800000001 Au
atom 10.3432201399999997 32.9646155200000024 2.6148902199999999 Au
atom 13.1729313900000005 32.8969008199999990 2.5610426199999998 Au
atom 15.9866715399999997 32.9748544999999993 2.6048509300000000 Au
atom 18.7997325400000008 32.9842901600000005 2.4902289899999999 Au
atom 21.6306712599999997 32.9379224300000004 2.6332993899999999 Au
atom 24.4771642500000013 32.8913363899999993 2.6009593099999999 Au
atom 27.2851035899999985 32.9515881100000030 2.6594313399999998 Au
atom 1.8885941700000000 32.9602809200000024 2.5188218000000000 Au
atom 4.6918951800000004 32.9596412499999971 2.6140259499999998 Au
atom 8.9299526700000005 35.4162144100000020 2.5573557500000001 Au
atom 11.7238111800000002 35.3655468600000020 2.5592738200000000 Au
atom 14.5628857499999995 35.3704937700000031 2.5931173599999999 Au
atom 17.3854507900000002 35.4374150800000010 2.5526462500000000 Au
atom 20.1616198500000010 35.4196115599999999 2.5762725500000001 Au
atom 23.0096477099999994 35.4105857500000027 2.6681418699999999 Au
atom 25.8593428299999992 35.4330469900000011 2.7091183000000001 Au
atom 0.4475963700000000 35.4126138299999980 2.4894048999999998 Au
atom 3.2564157300000001 35.4092515800000029 2.6273609599999999 Au
atom 6.1258008600000000 35.3663569300000020 2.5842245500000001 Au
atom 7.5563572399999996 37.8468491900000004 2.6106888499999998 Au
atom 10.3410031100000008 37.8472865900000031 2.6827721200000001 Au
atom 13.1592433999999994 37.8050267099999999 2.5977959099999999 Au
atom 15.9523740000000007 37.8416993499999990 2.6589664200000001 Au
atom 18.7953927599999986 37.9069860899999966 2.6197265700000001 Au
atom 21.5897999200000008 37.8992570699999973 2.5907629499999998 Au
atom 24.3917657199999987 37.9209601499999991 2.6313107800000002 Au
atom 27.2612159600000012 37.8515302100000000 2.6562780899999998 Au
atom 1.8983855300000001 37.8635541200000034 2.5867739799999998 Au
atom 4.7314245699999997 37.8268974900000003 2.6726219599999999 Au
atom 8.8971252500000002 0.8275952800000000 2.7477829800000002 Au
atom 11.7133043000000008 0.8443184500000001 2.7462658200000001 Au
atom 14.5643626800000003 0.8082804300000000 2.7493285400000000 Au
atom 17.3608004300000012 0.8867749400000000 2.7049305700000001 Au
atom 20.1695593200000012 0.9070965300000000 2.7019403500000001 Au
atom 23.0389408899999992 0.9165296900000000 2.6680062699999998 Au
atom 25.8302746799999987 0.8194342300000000 2.8314081099999999 Au
atom 0.4526822200000000 0.8589824500000000 2.6370151800000001 Au
atom 3.2601683100000001 0.8404255700000000 2.6176517000000001 Au
atom 6.0646678700000001 0.8030501799999999 2.7538890999999999 Au
atom 7.5203099000000000 3.2910211999999999 2.6935476000000000 Au
atom 10.3458135000000002 3.3154181399999998 2.6527350099999998 Au
atom 13.1787503800000003 3.3068661300000000 2.7383601500000001 Au
atom 15.9993741400000005 3.2919242000000000 2.6470712100000000 Au
atom 18.8296421699999996 3.3553690399999998 2.6257595899999999 Au
atom 21.6072082200000004 3.3527266899999999 2.6616627799999999 Au
atom 24.4352787999999990 3.3275246100000002 2.7592628399999999 Au
atom 27.2626378600000017 3.2794267499999998 2.6815296399999999 Au
atom 1.8770721800000001 3.3254312900000000 2.6257494499999998 Au
atom 4.7304549199999997 3.3153248600000000 2.6455415200000001 Au
atom 8.9618343300000003 5.7792302199999996 2.6976077599999999 Au
atom 11.8047353400000006 5.7991906899999996 2.6749414300000001 Au
atom 14.5721382199999994 5.8049628000000002 2.7093783100000000 Au
atom 17.4334374399999987 5.8103999000000002 2.6896841299999998 Au
atom 20.2212633799999999 5.7953606600000001 2.7275831300000002 Au
atom 23.0660098200000014 5.8100711199999999 2.7360303400000001 Au
atom 25.8410341599999995 5.7408399399999999 2.7851016099999999 Au
atom 0.5011639900000000 5.7587364000000001 2.8107369499999999 Au
atom 3.3351331300000000 5.7769652200000001 2.6171718700000000 Au
atom 6.1322120000000000 5.7796471000000000 2.7145074999999999 Au
atom 7.5325386500000002 8.2809421099999998 2.8237409400000000 Au
atom 10.3241456300000003 8.2554721600000001 2.5524916200000001 Au
atom 13.1132948000000003 8.3071828799999992 2.5901859400000000 Au
atom 15.9819202100000002 8.2671741700000005 2.6850428399999999 Au
atom 18.8129998600000015 8.2809566799999992 2.5962379100000001 Au
atom 21.6099696200000011 8.2436221700000001 2.5831742700000002 Au
atom 24.5074943000000012 8.2714945899999996 2.8035310899999999 Au
atom 27.3152297900000001 8.2206707699999999 2.7135215700000002 Au
atom 1.9206068100000000 8.2806937699999992 2.6759785300000001 Au
atom 4.7217094099999999 8.2247882600000004 2.7118836599999998 Au
atom 8.9457428500000002 10.7450613100000005 2.5899774600000001 Au
atom 11.7419005900000002 10.7333110099999995 2.5212549499999999 Au
atom 14.5198773100000000 10.7497903000000008 2.6021572200000000 Au
atom 17.3675852699999993 10.7195332400000005 2.7102114099999999 Au
atom 20.2008477999999982 10.7490981399999992 2.6610432600000000 Au
atom 23.0508015800000017 10.7446131900000008 2.6553671799999998 Au
atom 25.8695990800000004 10.7537129700000005 2.6448327400000000 Au
atom 0.4934997800000000 10.6958257099999994 2.6411459800000001 Au
atom 3.3147315200000000 10.7340804500000004 2.6120370799999999 Au
atom 6.1129534999999997 10.7074348399999995 2.5792938900000002 Au
atom 7.6043750599999997 13.1337869400000002 5.9396352200000004 Cl
atom 7.4519052300000004 16.0586041399999999 8.6520899700000005 Cl
atom 7.5201396400000000 13.2721557800000003 8.5210122100000003 Na
atom 7.4385208399999998 16.0835843599999997 6.0493302699999996 Na
atom 7.5862854100000003 18.5980317100000008 5.6995376799999997 Cl
atom 7.4310263200000000 21.7043442800000008 8.5411136499999998 Cl
atom 7.5002623799999997 18.7313604600000012 8.4387273199999999 Na
atom 7.5084718400000003 21.5031573999999992 5.8129135400000003 Na
atom 7.5780769899999996 24.3998987900000017 5.8242371100000003 Cl
atom 7.5208360399999998 27.2692897999999992 8.5469668300000006 Cl
atom 7.5249858100000004 24.4006993399999992 8.4377589700000009 Na
atom 7.5860694000000004 27.1732885899999985 5.8245802800000002 Na
atom 7.5007187799999997 30.1346636600000011 5.8474054799999999 Cl
atom 7.4698479400000002 33.0249797399999991 8.5918176699999993 Cl
atom 7.4374650400000002 30.0908376100000012 8.4465036500000004 Na
atom 7.4135675799999996 32.9350576699999991 5.9304844499999998 Na
atom 7.4228712300000002 35.7193506200000002 5.7820399299999998 Cl
atom 7.4817154300000004 38.4687169700000027 8.6979224599999991 Cl
atom 7.4466144099999996 35.7385050800000030 8.4485678100000001 Na
atom 7.4181850000000003 38.5265824800000019 5.9193716900000002 Na
atom 7.4995866199999996 1.8194741999999999 5.8796730100000003 Cl
atom 7.4398326399999997 4.7004198900000000 8.7136154000000001 Cl
atom 7.5067094100000000 1.9721001700000000 8.5162977800000004 Na
atom 7.4471550600000000 4.6919829200000001 5.8693287400000003 Na
atom 7.3587782099999997 7.5520035099999996 5.7167777099999997 Cl
atom 7.3148268999999999 10.1908826099999992 8.6975596399999997 Cl
atom 7.4100855499999998 7.4291814599999997 8.4393320099999993 Na
atom 7.5104712800000000 10.3171424799999993 5.9756743600000002 Na
atom 10.2755230500000003 12.9181306199999995 5.9651204399999997 Na
atom 13.0525996499999994 13.2043787699999999 5.9454013699999999 Cl
atom 10.2682338000000009 15.9821096800000007 8.2711154800000006 Na
atom 13.2021057400000004 15.9544376799999998 8.7131931100000006 Cl
atom 13.1115919299999995 13.0923242799999997 8.6303327500000009 Na
atom 10.2986479200000005 13.1878749600000003 8.7951623600000008 Cl
atom 13.1806220900000000 16.0130060199999988 5.7647654700000004 Na
atom 10.3199559799999996 15.8326497400000008 5.7213685099999996 Cl
atom 10.1961275499999999 18.8222879799999987 5.9252304100000002 Na
atom 12.8400785200000005 18.6098445900000016 5.5490597399999997 Cl
atom 10.2960897500000002 21.4947121199999991 8.3378480600000007 Na
atom 13.1594766500000002 21.4468684500000002 8.5035593200000008 Cl
atom 13.1633281100000001 18.7491805999999990 8.3759951200000007 Na
atom 10.3318360899999995 18.6943574499999983 8.5099833199999999 Cl
atom 13.1293659799999993 21.4707980700000007 5.6367698700000002 Na
atom 10.2816721399999995 21.5493759000000011 5.7186139899999997 Cl
atom 10.3681935099999993 24.3599331399999990 5.8248376300000002 Na
atom 13.1851379299999998 24.3867617099999983 5.6683610800000004 Cl
atom 10.3316098600000004 27.3528238600000009 8.5707878999999991 Na
atom 13.0157741300000005 27.3785004299999990 8.7405623400000003 Cl
atom 13.1353770599999997 24.3121545200000000 8.2764632099999993 Na
atom 10.3543568599999993 24.4749423099999994 8.5751488400000007 Cl
atom 13.1452103299999994 27.2161856600000007 6.0510421399999998 Na
atom 10.4045941099999997 27.1813165400000010 5.8073024799999997 Cl
atom 10.3531417799999996 30.0111750599999993 5.8387149200000001 Na
atom 13.2328603000000005 30.0291149699999984 5.9093223200000002 Cl
atom 10.3086726100000003 32.9372378799999979 8.3754864599999994 Na
atom 13.1241527100000006 33.0227815900000010 8.6121541900000000 Cl
atom 13.1893290699999994 30.1179252800000015 8.4990861800000008 Na
atom 10.3955375300000004 30.1753360099999988 8.6507637899999992 Cl
atom 13.1833005700000001 32.9905949799999973 5.9312417999999996 Na
atom 10.2867416299999999 33.0184288000000024 5.8101599999999998 Cl
atom 10.3471174200000000 35.8235187800000006 5.8717772000000004 Na
atom 13.1805678900000007 35.7987925400000009 5.7660684399999997 Cl
atom 10.2512983500000008 38.5671572500000011 8.4189971999999997 Na
atom 13.0787690500000000 38.6086695700000035 8.6637213099999997 Cl
atom 13.1832474400000006 35.8623897599999992 8.4672281999999992 Na
atom 10.3057737100000004 35.8129726399999981 8.6099603699999996 Cl
atom 13.1452730100000004 38.6183613299999990 5.8151063199999999 Na
atom 10.3330576999999995 38.5477411999999973 5.6909622799999999 Cl
atom 10.2594260700000000 1.9124505100000000 5.9247723199999998 Na
atom 13.1101886600000004 1.9121718700000001 5.8707178200000003 Cl
atom 10.3081396499999993 4.7464648900000004 8.5213712600000004 Na
atom 13.1038116099999993 4.7866819999999999 8.6683661300000008 Cl
atom 13.0528330700000001 1.9499661300000000 8.4995860499999996 Na
atom 10.2871916100000007 1.8665252000000001 8.6564920399999998 Cl
atom 13.0851631099999999 4.7197722799999999 5.9006600999999996 Na
atom 10.2200173099999994 4.7448992499999996 5.8334731299999998 Cl
atom 10.2779770999999993 7.4349232499999998 5.8913292400000001 Na
atom 12.9993046900000007 7.4586408799999999 5.7370759600000003 Cl
atom 10.2318244699999994 10.2725824299999999 8.4575908000000002 Na
atom 13.2956486300000005 10.2220372400000006 8.5574759000000000 Cl
atom 13.1665924200000006 7.3878805800000000 8.4811077899999994 Na
atom 10.0942257499999997 7.5305228800000004 8.6033441600000007 Cl
atom 13.1830985700000003 10.3336384100000007 5.8878703100000003 Na
atom 10.2682881199999994 10.2578398199999992 5.8130044600000002 Cl
atom 15.8838921499999994 13.0925195900000002 5.7708232500000003 Na
atom 18.8266218400000014 13.1278362099999999 5.6007964000000001 Cl
atom 15.9687356400000002 15.9438416200000006 8.1686478600000001 Na
atom 18.6487199200000013 15.9649892700000002 8.3541850499999999 Cl
atom 18.8543378600000011 13.1680996799999992 8.3004214199999993 Na
atom 16.0790625399999989 13.0207414099999994 8.4441059799999998 Cl
atom 18.8059050300000017 15.9698114800000006 5.6902683600000001 Na
atom 15.8666015100000006 16.0498911100000008 5.5072469000000002 Cl
atom 15.7866186499999994 18.8632299299999993 5.7099181400000001 Na
atom 18.6061032799999992 18.8027704900000003 5.5564619100000003 Cl
atom 15.9021601399999994 21.6200038700000015 8.5109771199999997 Na
atom 18.8722067100000004 21.6332751899999991 8.7376104100000003 Cl
atom 18.7025375599999997 18.7929007400000003 8.2345290700000007 Na
atom 16.0012468400000003 18.9451016500000016 8.5027138999999998 Cl
atom 18.7467267200000016 21.5496752899999997 5.8436416900000001 Na
atom 15.9119574400000001 21.5669005899999995 5.8269510000000002 Cl
atom 15.8912844999999994 24.5070704600000013 5.8097984299999998 Na
atom 18.8447976299999986 24.4237110299999998 5.8639070899999997 Cl
atom 15.9446540199999998 27.2804643899999988 8.7151182299999999 Na
atom 18.8653906099999986 27.3024175999999983 8.7646987200000002 Cl
atom 18.7275082200000007 24.4336562000000015 8.6052700499999997 Na
atom 15.9061936799999994 24.4662206900000001 8.6446747399999992 Cl
atom 18.8110967500000008 27.3202245499999989 6.0804117499999997 Na
atom 15.9850329400000000 27.3079987700000011 5.9852331500000000 Cl
atom 15.9975831100000008 30.0508141799999997 6.0140811200000002 Na
atom 18.7161658899999992 30.0131681199999996 5.9097159300000000 Cl
atom 15.9150514199999993 32.9897228700000014 8.4682916000000006 Na
atom 18.6934558899999992 33.0546798100000032 8.5757542499999992 Cl
atom 18.7534388000000014 30.0267409100000009 8.5384744599999998 Na
atom 15.9529973300000005 30.1944729900000013 8.6788479400000007 Cl
atom 18.6816412199999995 32.8527350199999972 5.9265904699999998 Na
atom 15.9342789600000003 32.9212482000000008 5.8486956899999996 Cl
atom 15.9785460399999995 35.7265042499999979 5.9228506300000001 Na
atom 18.7914306599999996 35.8104355099999978 5.7587499099999997 Cl
atom 15.9479095999999991 38.5420685400000025 8.4514565000000008 Na
atom 18.7641984599999994 38.5689047500000015 8.6705207000000009 Cl
atom 18.7482210400000007 35.7774563299999997 8.4204960000000000 Na
atom 15.8782681700000001 35.7825332199999977 8.7293508899999992 Cl
atom 18.7007605000000012 38.5732713399999980 5.9249194899999997 Na