#===============================================================================
# Created using the Atomic Simulation Environment (ASE)

# Tue Dec 23 22:25:57 2025

#=======================================================
lattice_vector 28.1999999999999993 0.0000000000000000 0.0000000000000000 
lattice_vector 0.0000000000000000 39.4799999999999969 0.0000000000000000 
lattice_vector 0.0000000000000000 0.0000000000000000 62.3296083400000001 
atom 7.4301572199999999 14.7607321599999999 -0.1618928600000000 Au
atom 10.2020822199999994 14.7469649599999997 -0.0381746600000000 Au
atom 13.1393844000000009 14.8497880799999997 -0.0996816600000000 Au
atom 15.8819469800000004 14.8356606600000003 -0.1591965100000000 Au
atom 18.7027080099999985 14.7227165099999997 -0.0993275600000000 Au
atom 21.5702797299999993 14.8262584900000007 -0.1255409800000000 Au
atom 24.4701582399999999 14.7688363599999999 -0.1771732000000000 Au
atom 27.3060956899999994 14.7049433999999994 -0.3045300400000000 Au
atom 1.9158487900000001 14.7469279699999998 0.0257333900000000 Au
atom 4.6062589100000002 14.7470444199999999 -0.1588392300000000 Au
atom 8.9251075699999998 17.2098077200000006 -0.1534091200000000 Au
atom 11.7119296399999993 17.2285083700000001 -0.2274236400000000 Au
atom 14.5689173400000005 17.3058389999999989 -0.5141179400000000 Au
atom 17.4825002699999992 17.2228665300000010 -0.2390919700000000 Au
atom 20.3004478599999985 17.2772370100000003 -0.1566512200000000 Au
atom 23.1172240400000000 17.3172729300000015 -0.0229032200000000 Au
atom 25.8829449800000013 17.3525594199999986 -0.1718090000000000 Au
atom 0.3553108100000000 17.2237637700000015 -0.0308796600000000 Au
atom 3.1990232399999998 17.2836759600000001 0.1236732000000000 Au
atom 5.9896610900000002 17.2716795900000015 0.0341673100000000 Au
atom 7.4941915300000002 19.7002276899999984 -0.0238245800000000 Au
atom 10.2843227499999994 19.6643897299999999 0.1818371200000000 Au
atom 13.1043150399999995 19.7088647299999984 -0.2625843400000000 Au
atom 15.9467042899999996 19.6980914600000006 -0.1780700200000000 Au
atom 18.8145839799999983 19.7845890299999994 -0.0030213000000000 Au
atom 21.5640801099999990 19.8083500999999984 -0.1500498100000000 Au
atom 24.3997990000000016 19.7876418100000002 -0.1566492200000000 Au
atom 27.2689854899999986 19.9263502199999998 -0.0544751800000000 Au
atom 1.8575702900000000 19.7440410200000009 -0.0117788400000000 Au
atom 4.6947979399999999 19.7233620999999992 0.0797012200000000 Au
atom 8.8964263900000002 22.1746204499999990 0.2384356900000000 Au
atom 11.7130706900000003 22.2082265700000008 -0.0020569300000000 Au
atom 14.5484347500000002 22.1657362900000017 -0.1035594400000000 Au
atom 17.4063523800000013 22.2195057899999995 -0.1268390400000000 Au
atom 20.2165588499999984 22.2340840399999990 0.0324986800000000 Au
atom 23.0449022399999990 22.2535641700000006 0.3245756300000000 Au
atom 25.8900881699999985 22.3144378699999990 -0.0220313400000000 Au
atom 0.6556719000000000 22.1396568299999998 -0.0089636300000000 Au
atom 3.3379828900000001 22.2235789699999984 0.0129822700000000 Au
atom 6.0544519100000000 22.1418509800000010 0.1635764500000000 Au
atom 7.5224035699999998 24.5978174199999984 0.1558619900000000 Au
atom 10.3332616799999997 24.6121724600000000 0.1677461400000000 Au
atom 13.0901747499999992 24.7198664800000003 -0.0572347400000000 Au
atom 15.9288150099999992 24.6238179200000005 -0.0256144300000000 Au
atom 18.7665986199999999 24.6449008599999999 -0.0012996400000000 Au
atom 21.6111846900000018 24.6702059399999989 0.0918191700000000 Au
atom 24.4224120800000009 24.6725821799999991 -0.0321092600000000 Au
atom 27.3225181200000016 24.6328120900000016 -0.2293325000000000 Au
atom 1.8445177900000000 24.7486429200000018 0.1974650800000000 Au
atom 4.7574196100000004 24.6878759099999989 0.1729117500000000 Au
atom 8.8958537500000006 27.0508143799999985 0.1292212300000000 Au
atom 11.7931386099999997 27.1995607300000017 -0.0106596800000000 Au
atom 14.5479994799999997 27.1762655700000018 0.0697807000000000 Au
atom 17.2567297900000014 27.0988916999999994 0.1246752200000000 Au
atom 20.1154198199999996 27.1375810199999989 -0.1210948400000000 Au
atom 22.9510662399999994 27.1125313599999984 0.0027030700000000 Au
atom 25.7995260600000016 27.1530440099999986 0.0574829000000000 Au
atom 0.4244661000000000 27.0923290700000017 0.4052340400000000 Au
atom 3.2660190099999999 27.1619859400000010 0.1453631800000000 Au
atom 6.0072574599999999 27.1128826300000014 0.1716578000000000 Au
atom 7.4294861599999997 29.6322769800000003 0.1811603200000000 Au
atom 10.2734113100000002 29.6740890999999998 0.0118072600000000 Au
atom 13.0772501400000003 29.6947321399999993 0.0229426300000000 Au
atom 15.8607482500000003 29.5828845999999999 -0.1658102300000000 Au
atom 18.6654287100000005 29.5358364699999996 0.0627519800000000 Au
atom 21.4596918700000003 29.5504592499999994 -0.0666166300000000 Au
atom 24.3169771499999996 29.5480030999999990 -0.0248450500000000 Au
atom 27.2230757399999987 29.5508566299999984 0.2211356300000000 Au
atom 1.8011038800000001 29.5899777099999994 0.2835738400000000 Au
atom 4.6385782500000001 29.5386135699999990 0.0161650800000000 Au
atom 8.8711887399999991 32.1209297400000011 0.1274807200000000 Au
atom 11.6683825100000007 32.1116852999999978 -0.2523524200000000 Au
atom 14.4969309099999997 32.1808925699999975 -0.1594715300000000 Au
atom 17.3247652700000003 32.0194699099999980 -0.0887168400000000 Au
atom 20.1704326999999992 32.1510578099999975 0.0295682100000000 Au
atom 23.0193856500000003 32.0071799600000020 -0.1594104700000000 Au
atom 25.8340081400000017 32.1564877899999999 -0.1022938300000000 Au
atom 0.5177873200000001 32.1425198299999977 -0.0953640200000000 Au
atom 3.3305986399999998 32.0488180899999975 0.1476224400000000 Au
atom 6.1199354000000001 32.0640233900000027 -0.0873486900000000 Au
atom 7.5151015699999997 34.6530933599999997 -0.1628696200000000 Au
atom 10.3639609099999994 34.5263948500000026 -0.0786243600000000 Au
atom 13.1584085200000001 34.6907313700000017 -0.3166015700000000 Au
atom 15.9500694400000000 34.5566227099999992 0.1174750700000000 Au
atom 18.7777189500000006 34.4962374899999986 -0.1409578600000000 Au
atom 21.6341082399999998 34.5665238599999967 -0.1914143300000000 Au
atom 24.4592277600000010 34.5262806799999993 -0.2582880500000000 Au
atom 27.2479608300000002 34.4194311600000020 0.0168824200000000 Au
atom 1.9363223500000000 34.6189682199999993 -0.0289480200000000 Au
atom 4.7826875600000003 34.5029855100000020 0.0808612500000000 Au
atom 9.0577667399999999 37.0374028399999986 -0.0337939400000000 Au
atom 11.6746118100000000 37.1729608799999980 0.0996055800000000 Au
atom 14.7372994300000002 37.1047296300000014 0.0776894100000000 Au
atom 17.3725485500000012 36.9804765499999988 0.2655474600000000 Au
atom 20.2694186800000011 37.0479744699999998 0.2066656400000000 Au
atom 23.0747484199999988 37.0302873999999989 -0.0276178800000000 Au
atom 25.9765076899999983 36.9979099199999979 -0.2681951400000000 Au
atom 0.3902678900000000 37.1411230100000012 0.1031172300000000 Au
atom 3.3208230400000001 37.0068503399999997 -0.1852905400000000 Au
atom 6.2076715599999996 37.0003276099999994 0.1653125600000000 Au
atom 7.5998632700000002 -0.0016800900000000 0.5078033800000000 Au
atom 10.1811336600000004 0.0421876700000000 0.1437338600000000 Au
atom 13.2670848600000006 0.0695508100000000 0.1500094700000000 Au
atom 16.1116428300000010 0.0372559700000000 0.1522077200000000 Au
atom 18.8786930400000017 0.0341513900000000 0.3062143400000000 Au
atom 21.6468992500000006 -0.0192057800000000 0.0556814300000000 Au
atom 24.5254853600000011 0.0685060300000000 0.0831952300000000 Au
atom 27.3072078599999983 0.0937491200000000 0.3074994800000000 Au
atom 1.7885124999999999 0.0217890800000000 0.0981299300000000 Au
atom 4.5898380599999999 -0.0046129800000000 0.2411552000000000 Au
atom 8.8889864599999999 2.4179656399999998 0.0115107700000000 Au
atom 11.7367207800000006 2.4501168099999999 -0.0458498900000000 Au
atom 14.6081717100000006 2.5413828600000001 0.3197542600000000 Au
atom 17.3541895400000001 2.4868187399999999 0.1815118700000000 Au
atom 20.2349508799999995 2.3891611199999998 -0.1177137600000000 Au
atom 23.0123471500000001 2.4730664500000001 0.0391594100000000 Au
atom 25.8295187800000008 2.4833908700000000 0.3046045200000000 Au
atom 0.5052573400000000 2.6254462200000002 0.1960697600000000 Au
atom 3.3251265900000000 2.4693872200000002 0.2759691300000000 Au
atom 6.1549313300000001 2.5100309099999998 0.3142373300000000 Au
atom 7.6261234399999998 4.9061709200000001 0.0085001700000000 Au
atom 10.3654537999999992 4.9888562900000002 0.2796030900000000 Au
atom 13.1185230300000004 4.9411028999999997 0.2685161800000000 Au
atom 15.9651530800000003 4.9535155000000000 0.1801609400000000 Au
atom 18.8498664200000015 4.8493910400000004 0.1043649700000000 Au
atom 21.6510483200000010 4.9536209700000002 0.1291866800000000 Au
atom 24.4531529499999998 4.9817261000000004 0.0061755800000000 Au
atom 27.2760367899999991 4.8607324700000003 0.2281400900000000 Au
atom 1.8979431400000000 4.8502719699999997 0.2227050500000000 Au
atom 4.7479122499999997 4.9765635399999999 0.2845634700000000 Au
atom 8.9167103000000001 7.4036254799999996 0.1781689200000000 Au
atom 11.7972201699999992 7.4190123000000003 0.0958454200000000 Au
atom 14.6157619099999998 7.3572232800000004 0.2768249100000000 Au
atom 17.4586308800000012 7.4196688100000001 0.1459487400000000 Au
atom 20.1887686799999990 7.4057116299999999 0.0249439100000000 Au
atom 23.0788069399999998 7.4474268300000004 -0.0543038600000000 Au
atom 25.8728562800000006 7.3805908999999996 0.0541403700000000 Au
atom 0.5320539800000000 7.3133305499999999 -0.0385074700000000 Au
atom 3.3273747899999999 7.3512362600000003 0.0774376900000000 Au
atom 6.1751098500000001 7.3619407800000003 -0.0190735300000000 Au
atom 7.6009440100000001 9.8394494300000002 0.1168170300000000 Au
atom 10.4530739199999996 9.8897723600000003 -0.1040989600000000 Au
atom 13.2817432499999999 9.7652398199999997 0.1254805000000000 Au
atom 15.9760776500000006 9.8860447100000002 0.1844405600000000 Au
atom 18.7810137499999996 9.9542679700000001 0.1586431500000000 Au
atom 21.6995892200000000 9.8944442099999996 -0.0272015000000000 Au
atom 24.5800038799999996 9.8177224800000005 -0.1904799700000000 Au
atom 27.2405598799999993 9.7509813199999993 -0.1785970000000000 Au
atom 1.9899678400000000 9.7893562700000007 -0.1185867200000000 Au
atom 4.8055752700000003 9.7979287999999993 -0.2216136900000000 Au
atom 9.0182515500000004 12.3073598600000000 -0.1017878800000000 Au
atom 11.8682392799999992 12.3001779800000008 -0.0797989200000000 Au
atom 14.6070694999999997 12.3286102100000008 0.0089743100000000 Au
atom 17.4000667600000014 12.3902420400000004 0.1591741100000000 Au
atom 20.3149861999999999 12.3309557900000009 -0.0533664800000000 Au
atom 23.1429219999999987 12.3092434700000002 -0.1903033700000000 Au
atom 25.9214559300000005 12.2023553099999997 -0.1316099000000000 Au
atom 0.5596005500000000 12.1097910899999999 -0.2030930600000000 Au
atom 3.3034699600000001 12.2668872800000006 -0.2672585700000000 Au
atom 6.1622093500000004 12.3448665500000008 -0.1254194800000000 Au
atom 7.4664611699999996 13.0536008999999993 2.3840534099999999 Au
atom 10.2682097399999996 13.0634177800000000 2.4434683200000000 Au
atom 13.0877292700000005 13.1233603900000002 2.7480079000000002 Au
atom 15.9780453100000006 13.1500972399999991 2.5506603700000001 Au
atom 18.9003182199999991 13.1582899599999994 2.7309975500000001 Au
atom 21.6599202400000017 13.2284925399999995 2.5954253199999999 Au
atom 24.4682631499999985 13.1804552699999995 2.4326312099999998 Au
atom 27.1991295700000002 13.3895238800000005 2.2611049799999998 Au
atom 1.8667149599999999 13.0568410099999994 2.3929574699999998 Au
atom 4.7099669600000000 13.1425433300000005 2.4520057400000002 Au
atom 8.8613102700000006 15.5927495300000007 2.4570667500000001 Au
atom 11.7497266299999996 15.6348495100000004 2.4401666899999999 Au
atom 14.5767923899999996 15.5472330200000002 2.3382522699999999 Au
atom 17.4289081599999989 15.4402176799999999 2.3573455499999998 Au
atom 20.2169695000000011 15.6551021099999996 2.4369253099999999 Au
atom 23.0435142199999987 15.6234297699999996 2.4937259900000002 Au
atom 25.8135479299999986 15.8114923699999999 2.4183575700000000 Au
atom 0.4123940500000000 15.5204586399999993 2.6629548500000002 Au
atom 3.2218149800000000 15.6095348200000004 2.6379456100000001 Au
atom 6.0970632599999997 15.5925384699999992 2.5463562500000001 Au
atom 7.4852211200000003 18.0603051100000016 2.5220734299999998 Au
atom 10.3168495500000006 18.0477294300000004 2.4382158700000001 Au
atom 13.1160169100000008 18.0117234300000000 2.2894677600000000 Au
atom 16.0424899200000013 18.0338363699999995 2.2010083599999999 Au
atom 18.7017864500000002 18.0282590399999982 2.5230144399999999 Au
atom 21.7120898199999992 18.1032379799999994 2.3925372000000000 Au
atom 24.4648144099999989 18.0607013800000011 2.6552155700000002 Au
atom 27.2483246100000009 18.4520845400000013 2.5345396899999999 Au
atom 1.7974967900000001 18.0028621400000013 2.6011973099999999 Au
atom 4.6567906600000004 18.0515278600000002 2.5886881800000001 Au
atom 8.9895333799999992 20.5164377299999998 2.7102424799999998 Au
atom 11.7499620300000007 20.4403056099999993 2.5798550300000000 Au
atom 14.5540495700000001 20.5245068199999992 2.4867222999999998 Au
atom 17.3813366999999985 20.5255596500000017 2.5731333699999999 Au
atom 20.3285609200000010 20.5427958900000007 2.6268644999999999 Au
atom 23.0471594800000013 20.5150619200000008 2.5847290200000002 Au
atom 25.7731061900000000 20.5720350900000000 2.6192512099999998 Au
atom 0.4037748800000000 20.4682881600000002 2.7277802599999998 Au
atom 3.2269981099999998 20.4852524100000011 2.6964164700000000 Au
atom 6.0504133800000002 20.4981065499999993 2.7112934000000002 Au
atom 7.4898091700000000 22.9337367999999984 2.6607354299999999 Au
atom 10.4822575899999997 22.9681293000000011 2.8636461199999999 Au
atom 13.2090157300000008 22.9705582600000007 2.4878947299999998 Au
atom 15.9802940800000002 23.0348384800000012 2.4216750800000000 Au
atom 18.7781888799999983 22.9434322299999991 2.5392209600000002 Au
atom 21.6087282800000011 23.0680411899999989 2.7854449099999998 Au
atom 24.4637705200000006 23.1097460400000010 2.6477335900000001 Au
atom 27.1932468500000013 23.1590435700000015 2.6719517399999999 Au
atom 1.8307951400000000 23.0292666799999992 2.6802303900000002 Au
atom 4.6745444500000000 22.9541213199999987 2.8014728999999998 Au
atom 8.9836196299999997 25.3962381899999983 2.5675287700000000 Au
atom 11.7349617599999991 25.5275991900000001 2.7037574499999999 Au
atom 14.5486658200000001 25.5419875800000007 2.6501068800000001 Au
atom 17.2916855100000006 25.5064742699999982 2.6882242900000000 Au
atom 20.1870224699999987 25.4749417399999984 2.5222917699999998 Au
atom 23.0294359300000018 25.4825461799999999 2.6984777300000000 Au
atom 25.8363487700000007 25.5372816000000000 2.6236901800000001 Au
atom 0.4002289600000000 25.4241011199999996 2.8331302599999999 Au
atom 3.2131687800000002 25.4988548600000016 2.8745092200000002 Au
atom 6.0857355499999999 25.5087385600000012 2.8663798599999999 Au
atom 7.4888420000000000 27.9125151799999998 2.7755431599999998 Au
atom 10.2723614600000008 27.9464630800000009 2.5764783100000002 Au
atom 13.1069893400000002 28.0174688399999994 2.5133253600000001 Au
atom 15.8711757799999997 27.9871658100000005 2.6903836900000000 Au
atom 18.7255429599999985 27.9633027100000007 2.6183611999999998 Au
atom 21.5399116299999989 27.9382532599999998 2.5364455700000001 Au
atom 24.3228869400000001 27.9624176400000017 2.7120455200000002 Au
atom 27.1604337800000017 27.9162200600000006 2.9439265200000002 Au
atom 1.8295305399999999 27.9535059699999984 2.7951465199999999 Au
atom 4.6423918200000003 27.9889804700000013 2.8439216599999999 Au
atom 8.9132166999999995 30.4523147300000012 2.6301751100000001 Au
atom 11.6599097000000000 30.5075381199999995 2.5911095199999998 Au
atom 14.4700771699999997 30.5045516399999990 2.4456761800000000 Au
atom 17.3263417900000007 30.3919632300000018 2.6230328200000002 Au
atom 20.2139417399999992 30.4239074500000015 2.5405572200000002 Au
atom 22.9130030500000004 30.4265831400000017 2.5082456500000001 Au
atom 25.7995416800000008 30.5253566200000002 2.4311528500000001 Au
atom 0.3598407200000000 30.3987697399999988 2.7010713700000002 Au
atom 3.2005589200000002 30.4398387799999988 2.7287793800000002 Au
atom 6.0158082000000004 30.4450174099999984 2.6586726299999999 Au
atom 7.5694176200000003 32.8632995899999969 2.5124249200000000 Au
atom 10.3326055900000000 32.9098469999999992 2.5709610700000001 Au
atom 13.1430646600000003 32.9584794200000033 2.2312363199999998 Au
atom 15.9729684100000000 32.8750951499999999 2.7198211099999998 Au
atom 18.7251670799999985 32.8630118100000033 2.4756873399999999 Au
atom 21.6222237100000001 32.9587120099999993 2.5341140000000002 Au
atom 24.3755221300000002 32.9246172000000001 2.3598060099999998 Au
atom 27.1481121700000010 32.7949649099999974 2.7325511599999999 Au
atom 1.8747187900000000 32.8930542299999971 2.7033652699999999 Au
atom 4.7377767899999998 32.9178118800000021 2.7908348100000002 Au
atom 9.0754273399999992 35.3802158900000023 2.5514369800000001 Au
atom 11.7893404600000000 35.4189990799999990 2.4956111499999998 Au
atom 14.5672131100000009 35.3343378699999988 2.5895822900000001 Au
atom 17.3885571600000013 35.2949826799999968 2.7445915400000001 Au
atom 20.1246614800000003 35.4194422500000030 2.5108312100000001 Au
atom 22.9323433299999984 35.4112419599999981 2.4955443300000000 Au
atom 25.8155378199999994 35.4033857299999966 2.4418740099999998 Au
atom 0.4153715000000000 35.2435588700000011 2.7562611600000002 Au
atom 3.2491804700000002 35.3552051400000025 2.5647211699999999 Au
atom 6.1895729399999997 35.3330240100000026 2.8267551399999999 Au
atom 7.5385866300000002 37.8507195500000009 3.1856090899999998 Au
atom 10.3645230500000007 37.8558196899999970 2.8217216700000001 Au
atom 13.1310509599999996 37.8836860899999976 2.6785374000000002 Au
atom 16.2037834200000006 37.8443109700000022 2.8562146099999999 Au
atom 18.9672837600000008 37.8724595500000021 2.6422786199999999 Au
atom 21.7688864299999985 37.8766819699999999 2.6723301600000000 Au
atom 24.3213220399999983 37.8002265399999970 2.8435984200000002 Au
atom 27.0322927499999999 37.9740238999999988 2.5393425299999999 Au
atom 1.8405038199999999 37.9488547799999978 2.8403925600000002 Au
atom 4.7502156400000004 37.8070178400000003 2.3153235799999998 Au
atom 8.9852451200000001 0.8598147900000001 2.9837091899999999 Au
atom 11.8685946399999995 0.7828738900000000 2.7798823200000000 Au
atom 14.5398045899999993 0.7418995600000000 3.0825179199999999 Au
atom 17.3837041700000015 0.8477561000000000 2.9825995000000001 Au
atom 20.1040778799999984 0.9739424300000000 2.8249269899999998 Au
atom 23.1127122500000013 0.8541395400000000 2.7635876900000000 Au
atom 25.8220984199999997 0.6147431200000000 2.8948778100000001 Au
atom 0.4159499300000000 0.6408688000000000 2.9192893600000001 Au
atom 3.3517182800000000 0.8421987300000000 2.7597199200000002 Au
atom 6.3167179600000001 0.8539032800000000 2.7914289200000000 Au
atom 7.5293363600000003 3.3185452700000000 2.7216670299999999 Au
atom 10.4538238200000002 3.3229815299999999 2.6494020500000000 Au
atom 13.2272725700000002 3.2569052200000002 2.8352125300000002 Au
atom 16.0707464299999998 3.2593112299999998 2.8223864399999998 Au
atom 18.8071519199999990 3.3781156999999999 2.6939509899999998 Au
atom 21.6370674799999989 3.3277157000000002 2.6662953400000000 Au
atom 24.4628041899999999 3.4131198299999999 2.7197405200000002 Au
atom 27.2161831300000010 3.2730558799999998 3.0178836400000000 Au
atom 1.8701125000000001 3.3524611800000002 2.8499178900000000 Au
atom 4.6798732200000002 3.3097583799999999 2.9596630099999999 Au
atom 8.9767167400000005 5.7616083800000002 2.8472118499999999 Au
atom 11.8493481200000002 5.7791821299999997 2.8464462799999999 Au
atom 14.6846351300000002 5.7163268599999997 2.9641474600000000 Au
atom 17.4351179700000003 5.7786495300000000 2.8043017500000000 Au
atom 20.3029870199999998 5.8064615100000001 2.6578691200000000 Au
atom 23.1389320000000005 5.8050975500000002 2.6946031600000002 Au
atom 25.8146581600000005 5.8279785200000003 2.8965682699999999 Au
atom 0.3907007900000000 5.7402329700000001 2.5886570500000001 Au
atom 3.2620415299999999 5.8172211899999997 2.7701262600000001 Au
atom 6.1414190800000004 5.7502812099999998 2.7018182899999998 Au
atom 7.4992760599999997 8.2520503299999994 2.7785135799999998 Au
atom 10.2758213499999993 8.2462349400000008 2.7378674099999998 Au
atom 13.1417876600000003 8.2040796300000007 2.7950481200000001 Au
atom 16.0095782299999989 8.2030381099999996 2.7220826699999998 Au
atom 18.8124706599999989 8.1887141900000007 2.7469314100000002 Au
atom 21.6283065299999997 8.2355901500000002 2.6007765500000000 Au
atom 24.4536033500000016 8.3424622399999997 2.5025394200000002 Au
atom 27.2579580800000016 8.2932322799999998 2.6671564800000001 Au
atom 1.7944520799999999 8.2919620900000002 2.5714775400000001 Au
atom 4.7800166300000004 8.2788315200000007 2.5252268999999998 Au
atom 8.8614157299999992 10.6946760699999999 2.6252949499999998 Au
atom 11.7207428399999998 10.6867746799999992 2.5446443200000002 Au
atom 14.5540465599999997 10.7021443299999994 2.6473855600000000 Au
atom 17.3301704600000015 10.7288245999999994 2.8377632199999998 Au
atom 20.2402646299999986 10.7224074500000004 2.5739134199999998 Au
atom 23.0420791200000004 10.7695633199999996 2.5071255600000000 Au
atom 25.8571249499999993 10.7610885199999995 2.6320786799999998 Au
atom 0.4848733100000000 10.6132677599999994 2.4291081499999998 Au
atom 3.2353587300000002 10.6789754600000002 2.4015070600000001 Au
atom 6.0613083999999997 10.7408491599999998 2.5020688899999999 Au
atom 7.2825049999999996 13.2052763300000002 5.5913063799999998 Cl
atom 7.3578235100000002 15.9632921400000001 8.3228374499999997 Cl
atom 7.2583486500000003 13.2058644399999991 8.1974357999999992 Na
atom 7.2241228399999997 15.9704123500000001 5.5949071799999999 Na
atom 7.1572264800000003 18.8936291099999991 5.5116456100000004 Cl
atom 7.2952989199999996 21.6055648600000012 8.4972797300000007 Cl
atom 7.1292599100000000 18.7576344000000006 8.1688543199999994 Na
atom 7.3784769199999998 21.5857342299999999 5.7944754700000001 Na
atom 7.1925322700000001 24.3224120699999986 5.7563095999999998 Cl
atom 7.1629847599999996 27.3880175900000005 8.6605377099999998 Cl
atom 7.4000095100000003 24.5468581800000010 8.4964093599999995 Na
atom 7.1002157800000001 27.2329818400000008 5.8695248400000004 Na
atom 7.2546321400000000 30.1184302899999992 5.5970837700000002 Cl
atom 7.3245862900000001 32.9792626799999979 8.4002175000000001 Cl
atom 7.3248091400000002 30.0644877100000016 8.3673415400000000 Na
atom 7.2819166600000003 33.0346623000000008 5.7083502199999998 Na
atom 7.3511679499999998 35.8434668800000011 5.7045611500000000 Cl
atom 7.2334459300000002 38.6439535199999966 8.6271185300000006 Cl
atom 7.4611838300000004 35.7667657800000001 8.5111325600000001 Na
atom 7.3351248900000003 38.7299802699999987 5.9651483299999999 Na
atom 7.3706842799999999 2.0759197899999999 5.7641794600000003 Cl
atom 7.2908817499999996 4.9068371300000004 8.8165483299999998 Cl
atom 7.4473754100000003 2.0533510599999998 8.4848527600000008 Na
atom 7.3300201700000001 4.8116567799999999 5.9162453099999999 Na
atom 7.1396161600000001 7.4988707699999999 5.6749399199999999 Cl
atom 7.1728298199999996 10.4845334900000005 8.3956962399999995 Cl
atom 7.3507086800000003 7.6010109200000002 8.4084032600000000 Na
atom 7.3044383499999999 10.2702948999999997 5.7593620300000001 Na
atom 10.0262414900000003 13.1284276000000002 5.6512633399999999 Na
atom 12.9312515000000001 13.1971974200000002 5.5619782999999998 Cl
atom 9.9881946999999993 16.0882826299999984 8.1134786900000009 Na
atom 12.9437112800000005 16.2733586899999985 8.0440380000000005 Cl
atom 12.8506392100000006 13.4355551700000007 8.4628240899999998 Na
atom 10.1260497800000007 13.2873850800000000 8.3999993699999997 Cl
atom 12.8321872500000005 16.1486623899999984 5.4798004000000002 Na
atom 10.0929236499999995 16.0710741599999984 5.4014680500000001 Cl
atom 9.9553062400000005 18.9399857099999984 5.6120969000000001 Na
atom 12.9216745999999993 19.0363580900000002 5.1135005299999996 Cl
atom 10.0814990600000005 21.6580091400000008 8.3560808000000009 Na
atom 12.9656721200000007 21.7295051400000006 8.3973966099999995 Cl
atom 13.1522875799999994 18.9373386000000004 7.8278941199999998 Na
atom 10.2137381299999994 18.8215825300000006 8.1865372799999996 Cl
atom 12.8476288800000003 21.7837813300000001 5.3874554899999998 Na
atom 10.0993543399999997 21.7465660300000003 5.6486369999999999 Cl
atom 9.9437248799999995 24.5806017799999985 5.6955680400000004 Na
atom 12.8690417000000004 24.5639118699999983 5.4940452000000004 Cl
atom 10.1009452700000004 27.2697279299999984 8.3471524499999994 Na
atom 12.8304450400000007 27.3859289799999992 8.3183968700000008 Cl
atom 13.0595559500000000 24.3829505100000006 8.1934034699999998 Na
atom 10.0387873899999995 24.4355901899999992 8.6157687200000002 Cl
atom 12.9561757400000008 27.5139621400000003 5.6431598899999997 Na
atom 9.9571837500000004 27.3179336600000013 5.6706559800000003 Cl
atom 10.1263834900000003 30.1117067200000008 5.6399867300000004 Na
atom 13.0413245100000008 30.2669913900000012 5.5560187599999997 Cl
atom 10.1098262800000001 32.9937808299999986 8.3025909200000001 Na
atom 13.0303560600000008 32.9018472099999997 8.5042881599999998 Cl
atom 12.9302828299999994 30.1624961399999982 8.1859674899999995 Na
atom 10.1761345300000006 30.1847799799999983 8.3862181400000004 Cl
atom 12.9520833599999996 33.0464352799999972 5.7239321700000003 Na
atom 10.1285198500000000 33.1192982199999975 5.4754675700000002 Cl
atom 10.1273078200000004 35.8792362900000015 5.7423033400000003 Na
atom 12.8174391599999993 35.8520636800000005 5.7363863500000001 Cl
atom 10.0616968799999995 38.5669698700000012 8.6097926299999994 Na
atom 13.2101999400000008 38.6217827899999975 8.5327963499999999 Cl
atom 12.9614320000000003 35.7971201200000024 8.3457127000000000 Na
atom 10.1141327000000008 35.7372231499999984 8.5142811100000007 Cl
atom 12.9704311600000004 38.6253362599999974 5.7982673000000000 Na
atom 9.9476052599999996 38.7163507799999991 5.6439933399999997 Cl
atom 10.2085515699999991 2.0640597700000001 6.0363333600000004 Na
atom 13.0717986300000000 1.9983819199999999 5.7606117899999996 Cl
atom 10.2364080299999998 4.7767063199999997 8.5105541900000006 Na
atom 12.9036724199999995 4.6699694000000003 8.5981839400000002 Cl
atom 12.9690950300000001 1.8775444600000000 8.4413565300000002 Na
atom 10.1348493400000006 1.8788670999999999 8.7114643699999998 Cl
atom 13.0720798899999995 4.6994003800000002 5.8043784499999997 Na
atom 10.1773765100000002 4.7298247499999997 5.9593213499999997 Cl
atom 10.0728367100000007 7.4703416400000000 5.7560955299999996 Na
atom 13.0039943900000008 7.4221472600000000 5.7509146800000002 Cl
atom 10.1877781899999995 10.3229828000000001 8.2983615299999993 Na
atom 12.9052211299999993 10.2885809899999998 8.2917033199999999 Cl
atom 12.9852879199999993 7.4411202400000001 8.4387544999999999 Na
atom 10.1850020400000005 7.5309777599999999 8.4390621699999997 Cl
atom 12.9562118700000006 10.1455873800000003 5.6135845199999999 Na
atom 10.0002187300000003 10.3564812100000001 5.5619880799999999 Cl
atom 15.8074113199999999 13.2054052100000003 5.5878643600000002 Na
atom 18.6578235600000006 13.0899504899999997 5.6361898200000002 Cl
atom 15.7549186900000002 16.0332214899999990 7.9028922200000000 Na
atom 18.6350344800000016 15.9998081899999995 8.2272102700000005 Cl
atom 18.4618568200000013 13.2602069500000006 8.1895684800000002 Na
atom 15.6003069100000005 13.4309912899999997 8.3575989199999992 Cl
atom 18.7384940600000007 15.9280147400000001 5.5467362400000004 Na
atom 15.7353264799999994 15.9774055500000003 5.1438655999999998 Cl
atom 15.9693398599999998 18.8918502400000001 5.2937436399999998 Na
atom 18.8303663800000010 18.8168709199999995 5.3620763499999997 Cl
atom 15.7532176699999997 21.5869020300000010 8.0064890200000001 Na
atom 18.5893589299999995 21.6521578400000010 8.3923638100000009 Cl
atom 18.6607009300000009 18.8160325099999994 8.0820483799999998 Na
atom 15.8416171299999995 18.8226325800000005 7.9931716300000000 Cl
atom 18.6825837399999983 21.7497145799999991 5.4920593000000002 Na
atom 15.8026313599999995 21.7773816400000015 5.4902269600000002 Cl
atom 15.7719585999999996 24.4784506600000000 5.6100231699999998 Na
atom 18.8106590400000009 24.4623722400000005 5.7316778399999997 Cl
atom 15.8227952799999994 27.3648831799999996 8.4089028500000005 Na
atom 18.6630346500000002 27.4319998699999985 8.4259663600000003 Cl
atom 18.4067572800000008 24.5863760300000003 8.2633231800000004 Na
atom 15.7859597899999997 24.5148055700000000 8.2167731499999999 Cl
atom 18.6407304499999995 27.3291438800000002 5.7572621399999999 Na
atom 15.8374095300000004 27.4131882100000013 5.6775625300000003 Cl
atom 15.8302122000000001 30.2440632299999983 5.7680150899999996 Na
atom 18.5950931699999984 30.1953438900000002 5.6956012500000002 Cl
atom 15.7132260499999994 32.9215122800000017 8.3122821899999995 Na
atom 18.6432607899999994 32.9117416400000025 8.5979283100000004 Cl
atom 18.7605750899999997 30.1228971799999989 8.4159635700000006 Na
atom 15.8527302799999994 30.2457737900000012 8.3844742700000001 Cl
atom 18.5491378199999986 32.9929344099999966 5.8648374600000004 Na
atom 15.6658575300000003 33.1165204099999997 5.6274037600000000 Cl
atom 15.8649916999999991 35.9302083099999976 5.8470334800000003 Na
atom 18.5890450200000004 35.7988432100000011 5.8211083099999996 Cl
atom 15.9275526900000006 38.6045451900000032 8.1630190599999999 Na
atom 18.4407352700000011 38.7034380500000026 8.6525172500000007 Cl
atom 18.6821862299999992 35.7667009600000014 8.4150406300000000 Na
atom 15.7604163100000001 35.7661728799999992 8.4829929300000000 Cl
atom 18.4786669199999984 38.6073755299999988 6.0705503500000004 Na