#===============================================================================
# Created using the Atomic Simulation Environment (ASE)

# Tue Dec 23 22:26:32 2025

#=======================================================
lattice_vector 28.1999999999999993 0.0000000000000000 0.0000000000000000 
lattice_vector 0.0000000000000000 39.4799999999999969 0.0000000000000000 
lattice_vector 0.0000000000000000 0.0000000000000000 62.3296083400000001 
atom 7.5343757199999999 14.7920326699999993 0.1242564500000000 Au
atom 10.3200361399999991 14.8332819899999997 -0.0117442400000000 Au
atom 13.1586499700000008 14.8917036899999999 -0.3825846100000000 Au
atom 16.0804508700000000 14.7662064599999994 -0.1461496100000000 Au
atom 18.9379397300000001 14.7834935900000009 -0.1590749300000000 Au
atom 21.6905755999999990 14.7256224899999992 -0.0587184800000000 Au
atom 24.4552642499999990 14.8396835300000003 0.1082281200000000 Au
atom 27.3218143299999987 14.8819208199999995 0.0240379700000000 Au
atom 1.9545311299999999 14.8088025200000004 -0.1077465200000000 Au
atom 4.7105524499999998 14.8023956900000009 -0.1497600300000000 Au
atom 8.8189562800000001 17.3390142099999984 -0.0256545500000000 Au
atom 11.7421370500000002 17.3973159300000013 -0.0863184700000000 Au
atom 14.6051215100000000 17.3811935599999998 -0.2157686900000000 Au
atom 17.3761796299999993 17.1649680800000013 -0.0688036200000000 Au
atom 20.1914256499999993 17.2240303099999998 -0.0745896700000000 Au
atom 23.0484647900000006 17.3372794600000013 0.0612219400000000 Au
atom 25.8306619600000005 17.2299818999999985 0.3178315400000000 Au
atom 0.4844748500000000 17.1275173400000007 0.4070405700000000 Au
atom 3.2672416499999999 17.2773770499999983 0.0643285300000000 Au
atom 6.0610290700000000 17.2565538499999995 0.1131031000000000 Au
atom 7.4875178599999996 19.7932100099999992 0.1143789100000000 Au
atom 10.3226359599999995 19.8571119600000010 -0.0318808900000000 Au
atom 13.0984356300000009 19.8033056599999995 -0.0370621000000000 Au
atom 15.9483904699999997 19.8563900699999998 -0.2122159600000000 Au
atom 18.7072581900000010 19.6822410800000007 -0.0005562500000000 Au
atom 21.5891856900000008 19.7195084700000010 0.0040430200000000 Au
atom 24.5069703600000004 19.7357712599999999 -0.0958719700000000 Au
atom 27.2675096299999993 19.8250527900000009 0.0003467000000000 Au
atom 1.8776809299999999 19.7239849400000011 0.1048295100000000 Au
atom 4.6352950799999997 19.7449367199999983 0.0382398300000000 Au
atom 8.8774659099999997 22.2720914500000013 0.0568393700000000 Au
atom 11.7159286900000001 22.2989404799999988 -0.0845819500000000 Au
atom 14.5151050099999992 22.2638665899999992 -0.1576939100000000 Au
atom 17.3220124099999992 22.1839979400000011 -0.0650973800000000 Au
atom 20.1297042499999996 22.1206499500000007 0.0247324300000000 Au
atom 22.9976216700000009 22.1649847300000005 -0.0721207600000000 Au
atom 25.8055911800000004 22.2832940300000004 -0.1687705100000000 Au
atom 0.3826587000000000 22.3902945699999982 0.1441066400000000 Au
atom 3.2175875700000001 22.2441318400000014 0.0668899400000000 Au
atom 6.0586463500000001 22.2379318200000000 0.1079587900000000 Au
atom 7.4763150700000001 24.7652085799999995 0.1818417000000000 Au
atom 10.2754610399999997 24.7620490300000000 0.1600980200000000 Au
atom 13.0974876200000008 24.7435282500000007 -0.1599058500000000 Au
atom 15.9392190599999992 24.7418703499999992 -0.1772163100000000 Au
atom 18.7648651499999986 24.6645750499999998 0.0173273900000000 Au
atom 21.5750641300000012 24.6872154299999984 -0.0255673300000000 Au
atom 24.3682245600000016 24.6039483399999988 0.0743328400000000 Au
atom 27.1935968999999993 24.5365581500000012 0.2025414300000000 Au
atom 1.7655232999999999 24.7466007499999989 0.1229996100000000 Au
atom 4.6850586500000002 24.7338155800000017 0.0515632200000000 Au
atom 8.8997721300000006 27.2062367199999997 0.1465564700000000 Au
atom 11.7868014900000002 27.1334966100000017 -0.0150321800000000 Au
atom 14.6114413499999998 27.1470192899999994 -0.2013215200000000 Au
atom 17.4465268800000004 27.1344765599999995 -0.0610342700000000 Au
atom 20.1716742700000005 27.1617296400000008 0.1803833700000000 Au
atom 22.9476314899999991 27.2386983100000002 0.1468208900000000 Au
atom 25.8163033900000016 27.1987411500000000 0.1612738200000000 Au
atom 0.3710175800000000 27.3137182699999990 -0.0482249800000000 Au
atom 3.2037523999999999 27.2146356300000001 0.0633301600000000 Au
atom 6.0440054800000000 27.2240252699999985 0.1072533700000000 Au
atom 7.4823395799999997 29.6981873100000016 0.0512046400000000 Au
atom 10.3514186800000001 29.5558838799999997 0.0351254400000000 Au
atom 13.1757094899999991 29.6657233399999996 -0.1766037500000000 Au
atom 15.9780215499999994 29.6171183199999994 -0.0459703900000000 Au
atom 18.7896464600000002 29.5925213199999995 0.0990296700000000 Au
atom 21.5064950500000016 29.6420965999999986 0.0428715500000000 Au
atom 24.4109316800000009 29.5801411300000012 0.0985652700000000 Au
atom 27.2972378199999994 29.7464468999999987 -0.0807070100000000 Au
atom 1.8278767199999999 29.6606466900000001 -0.1394536600000000 Au
atom 4.6910600300000000 29.6604721699999985 -0.2467036100000000 Au
atom 8.9770801500000008 32.0750660699999983 -0.1088138600000000 Au
atom 11.7340778799999992 32.0282068200000012 0.0026101600000000 Au
atom 14.4690955399999996 32.0640322599999976 -0.1510737000000000 Au
atom 17.3678075499999984 32.0345138699999978 -0.0145569700000000 Au
atom 20.1645293999999993 32.0631482399999967 0.0100277100000000 Au
atom 23.0809656799999985 32.0868205900000021 -0.0781666800000000 Au
atom 25.8746271499999985 32.0574153800000019 -0.0066808700000000 Au
atom 0.4734280700000000 32.2000359900000035 -0.0562620400000000 Au
atom 3.2849630200000002 32.1418281799999974 -0.0860783400000000 Au
atom 6.1194957499999996 32.1169512999999966 -0.0475281200000000 Au
atom 7.4681796499999997 34.5439569999999989 0.0760445800000000 Au
atom 10.3464513199999999 34.5199352300000015 0.0613780500000000 Au
atom 13.1655741600000002 34.4731684500000028 -0.0247035100000000 Au
atom 16.0019542799999996 34.5279621399999996 -0.0027817500000000 Au
atom 18.8020463999999983 34.4885921500000023 0.0705019500000000 Au
atom 21.6473344800000014 34.5133628600000009 0.0626642900000000 Au
atom 24.5006301800000017 34.6557354199999992 -0.0965549800000000 Au
atom 27.2741112600000015 34.7974296900000013 -0.0138965600000000 Au
atom 1.8439995600000001 34.5765035299999965 0.0527755100000000 Au
atom 4.6728804200000003 34.6456789599999979 -0.0380347500000000 Au
atom 8.9329004100000002 37.0036539700000020 0.0860628200000000 Au
atom 11.6878363699999994 37.0051827799999984 0.1594130000000000 Au
atom 14.4411903200000005 37.1026270799999978 0.0912004000000000 Au
atom 17.3863029400000002 36.9637187499999982 -0.2721146900000000 Au
atom 20.1108869699999993 37.0045621599999990 -0.2345415600000000 Au
atom 22.9576232900000008 36.9664933299999987 0.1466700300000000 Au
atom 26.0695843799999984 37.0587481499999996 0.0786358500000000 Au
atom 0.4748462700000000 37.0574226299999978 0.1926414300000000 Au
atom 3.1293646900000001 37.0736931200000015 0.1186972800000000 Au
atom 5.9811538100000003 37.0558089199999969 0.0980323800000000 Au
atom 7.4877307499999999 -0.0247230600000000 -0.4726180400000000 Au
atom 10.4537294799999998 0.0050370500000000 0.2575267500000000 Au
atom 13.0723959000000001 0.0511078800000000 0.2776929200000000 Au
atom 15.8488619400000008 0.0150401500000000 0.1143423000000000 Au
atom 18.6107351600000008 -0.0254612500000000 0.0613780600000000 Au
atom 21.5472102899999989 0.0451375200000000 0.1158227700000000 Au
atom 24.2816934899999985 -0.0664747200000000 -0.0370625200000000 Au
atom 27.2699836399999995 -0.1244809700000000 0.1072964200000000 Au
atom 1.7396359900000000 0.0640312100000000 0.1095213100000000 Au
atom 4.6173301999999996 0.0390189300000000 -0.0812507700000000 Au
atom 8.9423247999999997 2.5603489700000002 -0.0019293500000000 Au
atom 11.7490050200000002 2.5103529899999999 0.1658287500000000 Au
atom 14.6268117899999996 2.5101578299999998 0.1329353500000000 Au
atom 17.4426683800000006 2.4036330200000000 0.1648341000000000 Au
atom 20.2256162099999983 2.4558202100000002 0.1620850900000000 Au
atom 23.0829618299999986 2.3969325100000001 0.0260929300000000 Au
atom 25.8376895399999995 2.2878021700000000 0.1119674700000000 Au
atom 0.4758579500000000 2.4746877100000000 0.1116362600000000 Au
atom 3.2594079599999999 2.5123131900000000 0.0040493600000000 Au
atom 6.1690780099999998 2.4784094699999999 0.0133776900000000 Au
atom 7.5746645800000003 4.9621001299999996 -0.0704197600000000 Au
atom 10.3668060299999993 5.0051867100000003 0.2038424500000000 Au
atom 13.2048602400000004 4.9417318500000000 0.0669076400000000 Au
atom 16.0221590300000010 5.0315901900000002 -0.0041456900000000 Au
atom 18.8308973500000008 4.9676613400000003 0.0999193800000000 Au
atom 21.6515140300000013 4.8936086599999999 0.3581214500000000 Au
atom 24.4756217599999992 4.8318898800000003 -0.0247001800000000 Au
atom 27.2869578399999995 5.0549324100000002 0.0946978900000000 Au
atom 1.8818942000000001 4.9709922899999999 0.0702032700000000 Au
atom 4.6734749100000004 4.9698943800000004 -0.0106711500000000 Au
atom 8.8867295800000008 7.4102591999999996 -0.0104426900000000 Au
atom 11.6985914900000001 7.4763785100000000 0.0190677600000000 Au
atom 14.5046002699999992 7.4237482000000004 0.1054976900000000 Au
atom 17.2618416900000007 7.4693548500000002 0.0256479000000000 Au
atom 20.1137052899999986 7.3554468899999996 0.1220067000000000 Au
atom 23.0927488899999993 7.3012417500000000 -0.0083933700000000 Au
atom 25.8480875099999992 7.4213257600000002 0.0039877900000000 Au
atom 0.4691268500000000 7.4603921800000004 0.0821324300000000 Au
atom 3.3003245699999999 7.4082607100000004 0.0452261700000000 Au
atom 6.0804255100000004 7.4033067299999997 0.0030779200000000 Au
atom 7.5375303200000001 9.8633630799999992 0.2180279600000000 Au
atom 10.3618384199999998 9.7765774499999996 0.0097375500000000 Au
atom 13.1726505199999995 9.8637301599999994 -0.2417135900000000 Au
atom 16.0072090699999983 9.9083206399999995 0.2277882200000000 Au
atom 18.7658927300000009 9.8635937499999997 0.0963132200000000 Au
atom 21.6579843700000012 9.8122620699999992 0.0676877100000000 Au
atom 24.4996955999999990 9.8097769800000005 -0.0372505600000000 Au
atom 27.3389750599999992 9.8236640000000008 -0.3462831800000000 Au
atom 1.8767682800000001 9.8799870799999994 -0.0047111200000000 Au
atom 4.6773529900000002 9.8616063900000004 0.1241333500000000 Au
atom 8.9361902200000003 12.2546784599999992 0.0965631700000000 Au
atom 11.6482878500000009 12.3879524399999994 -0.2373282400000000 Au
atom 14.5869576999999992 12.3814154199999997 -0.1199935600000000 Au
atom 17.3619593799999983 12.3769852399999998 -0.0270037200000000 Au
atom 20.1878678499999999 12.2713333900000006 0.0686350900000000 Au
atom 23.0291556799999988 12.2923499799999991 0.1126310500000000 Au
atom 25.8484527300000018 12.4514257900000000 -0.0012384100000000 Au
atom 0.4800581200000000 12.2386576999999992 -0.0690831600000000 Au
atom 3.3431186300000002 12.3503585800000000 -0.0930790100000000 Au
atom 6.1124857700000002 12.2672163199999993 -0.0343398500000000 Au
atom 7.5085015400000001 13.1824826599999998 2.6024720499999998 Au
atom 10.3368504600000009 13.2455884499999996 2.4899042699999998 Au
atom 13.1324283000000008 13.2910404599999996 2.1713313699999999 Au
atom 15.9584924099999999 13.2489024499999992 2.4679353599999998 Au
atom 18.8076355399999997 13.1871023500000000 2.5655495300000002 Au
atom 21.5785455900000009 13.2687679200000002 2.5117414600000001 Au
atom 24.4736500399999990 13.2128892800000006 2.7342976000000001 Au
atom 27.2306677599999993 12.9762934699999999 2.5210840200000000 Au
atom 1.8814493500000000 13.1053451200000008 2.6276397000000000 Au
atom 4.6590728700000001 13.1768423800000001 2.5574188599999998 Au
atom 8.9146216700000007 15.6756163799999992 2.6223800200000000 Au
atom 11.7557571200000002 15.7106813299999999 2.4272466300000000 Au
atom 14.5548122099999997 15.7434034700000005 2.2085214899999999 Au
atom 17.4488182599999995 15.6541222900000001 2.5872345200000000 Au
atom 20.2077583599999997 15.6410374099999991 2.4825618800000000 Au
atom 23.0206353499999992 15.7443622199999993 2.6178889700000001 Au
atom 25.9085749599999993 15.6579680000000003 2.7005096800000001 Au
atom 0.4936333900000000 15.5593898900000003 2.7272580999999998 Au
atom 3.2982167800000002 15.6457665200000005 2.6050126100000002 Au
atom 6.0886776700000000 15.6820573299999992 2.7129769600000002 Au
atom 7.5752003500000002 18.0763124399999988 2.6366498200000001 Au
atom 10.3949217699999998 18.0567548799999997 2.6051231200000000 Au
atom 13.1850530599999995 18.2646142500000011 2.5062321100000000 Au
atom 15.9980482800000008 18.2140886000000002 2.3489072800000002 Au
atom 18.7735422400000012 18.0587694700000014 2.6331584900000000 Au
atom 21.5298258599999990 18.2192100100000012 2.6248142600000000 Au
atom 24.3764094399999998 18.1153881199999987 2.6267559800000000 Au
atom 27.2664423199999995 18.3146422400000013 2.7808551900000000 Au
atom 1.9128618700000000 18.0665081100000009 2.7697176400000001 Au
atom 4.7249933400000002 18.1336815999999992 2.7513191699999999 Au
atom 8.9339889699999997 20.6022412599999996 2.6734098300000002 Au
atom 11.6432651000000007 20.6431248200000006 2.4535236500000002 Au
atom 14.5325406000000008 20.6868132299999985 2.4993727500000000 Au
atom 17.2903243400000015 20.6325845799999996 2.4835514999999999 Au
atom 20.1612193099999999 20.6074778000000016 2.5882518600000002 Au
atom 22.9623951400000017 20.6439506299999991 2.6222684200000002 Au
atom 25.8045896500000005 20.5237449100000013 2.5360955900000000 Au
atom 0.4793699100000000 20.7131951100000009 2.7199800999999999 Au
atom 3.3039489899999999 20.5734016599999983 2.6521635600000000 Au
atom 6.1455122600000003 20.5592603099999991 2.7085442300000002 Au
atom 7.4613225900000000 23.0391066100000010 2.6602708499999999 Au
atom 10.3020348899999998 23.1982093800000015 2.6575257300000001 Au
atom 13.1249791299999998 23.0929171699999998 2.4060202700000000 Au
atom 15.9202613399999997 23.0313356200000001 2.4342751300000001 Au
atom 18.6863064200000011 23.0240686500000002 2.4934752400000000 Au
atom 21.5972350300000002 23.1905939699999983 2.5132685100000001 Au
atom 24.4622288099999992 23.0204322200000000 2.5846058699999999 Au
atom 27.2500248700000007 23.1727969800000011 2.6854276600000002 Au
atom 1.8216703800000000 23.1041927600000001 2.7330470800000000 Au
atom 4.6356251799999999 23.0422417000000017 2.6525645600000001 Au
atom 8.8665328399999996 25.5553974799999999 2.7357696800000002 Au
atom 11.7505132900000007 25.5734896200000001 2.5910575499999999 Au
atom 14.4955271400000001 25.5091773300000000 2.4941891900000002 Au
atom 17.2725477400000003 25.5172403699999997 2.5779245999999998 Au
atom 20.1233743899999986 25.4809909099999992 2.7547112000000000 Au
atom 22.9974832700000000 25.5841482800000009 2.7149479400000001 Au
atom 25.7906542600000002 25.5927380599999985 2.8265556900000002 Au
atom 0.3777117300000000 25.5995168000000000 2.6569577500000001 Au
atom 3.2607623200000000 25.5871439900000013 2.6211212599999998 Au
atom 6.0402435499999996 25.5028163399999990 2.7627891099999999 Au
atom 7.4923249700000003 28.0688134699999985 2.6685121999999999 Au
atom 10.3296732400000000 28.0235707299999994 2.5998232699999999 Au
atom 13.1968050600000009 27.9741468799999993 2.5117681400000000 Au
atom 15.9061377000000004 27.9735884500000012 2.4898226600000002 Au
atom 18.6997225299999990 27.9423585599999988 2.7957882500000002 Au
atom 21.5571638199999995 28.0036841999999986 2.7447352899999999 Au
atom 24.3548250000000017 28.0019813299999996 2.8189163100000001 Au
atom 27.1370291700000017 28.1409525900000013 2.7134445500000002 Au
atom 1.8778175100000001 28.0742703499999990 2.6026261800000001 Au
atom 4.6503058800000003 28.0792135199999997 2.6350174200000001 Au
atom 8.9748599700000007 30.5183033700000017 2.5007238300000001 Au
atom 11.8088882999999996 30.3916772699999989 2.6474290400000000 Au
atom 14.5599220299999992 30.3978963600000007 2.5239435200000000 Au
atom 17.3986446699999995 30.3683847299999989 2.5814427800000002 Au
atom 20.2358304999999987 30.4792787400000016 2.6093090700000001 Au
atom 22.9725329900000013 30.5055449799999998 2.6258644400000000 Au
atom 25.8052707000000012 30.4643808299999996 2.6390770500000000 Au
atom 0.4263269500000000 30.4883942300000008 2.6389415999999999 Au
atom 3.2812432100000000 30.4885802599999991 2.4656871900000001 Au
atom 6.1305663299999997 30.4478750500000004 2.5172834200000000 Au
atom 7.5298479299999999 32.9486950399999969 2.6052374899999999 Au
atom 10.3068890700000004 32.9331384500000013 2.7251362800000001 Au
atom 13.1755981799999997 32.8817155300000010 2.4654835899999998 Au
atom 15.9398755800000007 32.8866652999999971 2.6155963799999999 Au
atom 18.7451751199999990 32.9683680400000014 2.7098477500000002 Au
atom 21.5733719999999991 32.9757699999999971 2.5500580899999998 Au
atom 24.4550669099999993 32.9613915300000002 2.4730788399999999 Au
atom 27.2351105999999987 33.0356160799999969 2.6895832199999998 Au
atom 1.8949585000000000 32.9393621800000034 2.4935448700000000 Au
atom 4.6968462100000004 32.9626074399999993 2.5210115100000001 Au
atom 8.9192500100000007 35.4829744700000020 2.6750748600000001 Au
atom 11.7300471099999992 35.3809468199999984 2.6163877200000001 Au
atom 14.5899779100000000 35.3430178999999995 2.5851785000000000 Au
atom 17.4353426899999988 35.4218823100000009 2.4695756800000002 Au
atom 20.2711766900000008 35.4473683399999970 2.5214564099999999 Au
atom 23.0665843799999983 35.4305520699999974 2.7674391200000001 Au
atom 25.8643417000000007 35.3300887899999978 2.6020147200000001 Au
atom 0.4396619200000000 35.3490850499999993 2.6160604699999999 Au
atom 3.2801208900000001 35.3755443499999984 2.7273945700000000 Au
atom 6.1100762299999998 35.4086558699999969 2.6713721200000000 Au
atom 7.4552918300000002 37.8981896800000015 2.6924512900000002 Au
atom 10.2967237500000000 37.8808664700000008 2.7293690900000001 Au
atom 13.2508569099999995 37.8038477799999981 2.5111487600000002 Au
atom 15.9951093100000001 37.8659893000000025 2.4607702599999999 Au
atom 18.9111144300000014 37.9126283599999994 2.6165434500000000 Au
atom 21.6914862500000005 37.8610247000000015 2.7201324900000001 Au
atom 24.5103316299999996 37.8595198699999997 2.2478425899999999 Au
atom 27.2751830999999996 38.0124417299999990 2.7993126699999999 Au
atom 2.2151121100000002 37.8445362399999965 2.7856324600000000 Au
atom 4.6678774900000004 37.8090634300000019 2.7463951600000001 Au
atom 9.1686778899999997 0.8417815300000000 2.4776050100000000 Au
atom 11.7230483000000003 0.7852859300000000 2.8672634700000001 Au
atom 14.4281560599999992 0.8847592200000000 2.7858957100000001 Au
atom 17.3442029700000013 0.8818580800000000 2.9586402399999998 Au
atom 20.0492767200000017 0.9013893200000000 2.8595543299999999 Au
atom 23.1356466400000009 0.8694125700000001 2.6646495699999999 Au
atom 25.7741802799999995 0.8477441400000000 2.8366359399999999 Au
atom 0.3658961200000000 0.8640294200000000 2.7716967000000001 Au
atom 3.2133884799999999 0.8611010900000000 2.6785841900000000 Au
atom 6.1558528399999997 0.8159788300000000 2.7343027499999999 Au
atom 7.5547013400000003 3.3049296099999999 2.6304689899999998 Au
atom 10.4244315200000006 3.3300136700000000 2.7221987099999998 Au
atom 13.2081123100000006 3.3460435199999998 2.7556148999999999 Au
atom 15.9836539399999999 3.3510746100000000 2.6900370499999999 Au
atom 18.8068250500000005 3.3171291200000002 2.7263191700000000 Au
atom 21.6509461799999983 3.4013908000000002 2.7994577399999998 Au
atom 24.3659530699999998 3.3249164800000002 2.6038385900000001 Au
atom 27.2128648499999990 3.4144057200000000 2.5806109799999999 Au
atom 1.8326532799999999 3.3029450300000001 2.7087870100000000 Au
atom 4.7003878600000002 3.2402280499999998 2.5597562599999999 Au
atom 8.9483026100000007 5.7540775899999996 2.8880212500000000 Au
atom 11.8149109499999998 5.8475329299999999 2.6996312499999999 Au
atom 14.6007988900000001 5.8017283199999996 2.7181512699999999 Au
atom 17.3388750099999989 5.7800469999999997 2.6950001200000000 Au
atom 20.1681539399999998 5.8144102300000000 2.8797485200000001 Au
atom 23.0167678500000008 5.8637629400000000 2.8122359499999998 Au
atom 25.8437568000000013 5.7151397099999999 2.5905729399999999 Au
atom 0.5106230500000000 5.8160181099999999 2.6569649399999999 Au
atom 3.2786625300000001 5.7407000999999998 2.7540259100000002 Au
atom 6.0806083199999996 5.6657583699999998 2.5790787200000000 Au
atom 7.5342536300000003 8.2012945399999992 2.6855818400000002 Au
atom 10.3358523200000008 8.2798401800000008 2.5976439600000001 Au
atom 13.1927826899999996 8.2955827899999992 2.6631160000000000 Au
atom 16.0286358000000000 8.2331067699999991 2.7557987300000000 Au
atom 18.7780956500000009 8.2730116900000006 2.7161333499999998 Au
atom 21.5813918099999995 8.3294809000000001 2.7088854699999998 Au
atom 24.4404001099999988 8.3030444200000009 2.6683174900000002 Au
atom 27.2824068900000007 8.0740548499999996 2.7310001000000002 Au
atom 1.8730292200000001 8.3113766099999999 2.6668180100000001 Au
atom 4.6574716199999999 8.1828114700000008 2.6701446899999999 Au
atom 8.9625209100000003 10.7563441900000001 2.8267394000000001 Au
atom 11.7524563999999998 10.7535094400000002 2.3642447600000001 Au
atom 14.5317197700000005 10.7936690500000001 2.6239115499999999 Au
atom 17.4194922199999986 10.7634562999999996 2.7698641600000000 Au
atom 20.2530798999999995 10.7878115599999997 2.7126829300000002 Au
atom 23.0815138900000001 10.7312156099999996 2.6946421900000002 Au
atom 25.8815849399999998 10.6599720599999994 2.3591283000000001 Au
atom 0.4783519000000000 10.7675585500000004 2.4813641899999999 Au
atom 3.2660033700000000 10.6884485199999997 2.5664295600000000 Au
atom 6.0915909499999996 10.6810099600000008 2.7362947000000002 Au
atom 7.3499891599999998 13.2185215899999999 5.7648197500000000 Cl
atom 7.4905597000000004 16.0875347099999999 8.5544675899999998 Cl
atom 7.4624969400000003 13.3008645800000007 8.3682733900000006 Na
atom 7.6310597299999996 16.0080327699999998 5.7092502600000001 Na
atom 7.6309470099999999 18.8853737799999983 5.9416405399999999 Cl
atom 7.4731074399999997 21.6344283600000011 8.8922679599999999 Cl
atom 7.3439102500000004 18.7583893300000000 8.5974689299999998 Na
atom 7.5532538899999997 21.6166443199999989 6.0088442799999999 Na
atom 7.5476036100000004 24.3610253499999985 5.8291225799999999 Cl
atom 7.6580429499999996 27.1808982899999982 8.5040980699999995 Cl
atom 7.5811745400000001 24.4807287199999983 8.5585593400000004 Na
atom 7.5784214399999996 27.1549561500000003 5.7217678599999999 Na
atom 7.6892988700000000 30.0154992500000013 5.7661535300000004 Cl
atom 7.6010765200000003 32.7497985299999996 8.5606789100000000 Cl
atom 7.4974515500000001 30.0038501099999984 8.4503695600000004 Na
atom 7.6928093999999998 32.7435356299999967 5.8499429400000000 Na
atom 7.6078896100000000 35.6634286600000010 5.6180402999999997 Cl
atom 7.7453159300000003 38.4632873899999979 8.5918540599999993 Cl
atom 7.6293209900000001 35.6023401200000009 8.3286638499999999 Na
atom 7.5188662400000004 38.5456103799999994 5.7972457999999998 Na
atom 7.5543686900000004 1.8861015200000000 5.8498547099999998 Cl
atom 7.5012845400000003 4.7635027000000001 8.6692362900000006 Cl
atom 7.4959554700000002 1.9522685500000001 8.3081349200000005 Na
atom 7.4966561199999999 4.8051937499999999 5.8717094599999999 Na
atom 7.4359123699999996 7.5619295700000002 6.0270850500000002 Cl
atom 7.4483911699999998 10.3528002800000003 8.6978203500000006 Cl
atom 7.4173278600000003 7.5281443299999999 8.5661804000000004 Na
atom 7.6070082499999998 10.4028968899999992 5.8303572900000002 Na
atom 10.2927098600000004 13.2470607000000005 5.5641518200000002 Na
atom 13.1400886099999994 12.9888556800000003 5.7778618799999997 Cl
atom 10.2594161499999998 16.0544288199999983 8.4002098600000004 Na
atom 13.0821694900000001 16.0145243099999988 8.7317860199999995 Cl
atom 12.9106375199999999 13.2478934400000004 8.5590442600000003 Na
atom 10.1941973600000004 13.4816136600000007 8.2785505799999992 Cl
atom 13.2393274800000000 15.7656697300000008 5.6743083499999996 Na
atom 10.5532350000000008 16.0274598399999988 5.7782527999999997 Cl
atom 10.3163962199999997 18.7882345499999985 6.0459649899999999 Na
atom 13.0874235999999993 18.8820354399999992 5.7612694500000003 Cl
atom 10.3596000299999993 21.6165282599999991 8.4879730500000008 Na
atom 13.1670161700000001 21.3686782099999988 8.7184061400000008 Cl
atom 13.1441785400000004 18.7329462800000002 8.3352183400000008 Na
atom 10.3176109799999995 18.5807774200000004 8.6702529699999999 Cl
atom 13.1440638300000003 21.6071501099999992 5.8471229600000001 Na
atom 10.3840338899999995 21.5573008299999991 5.8922183700000001 Cl
atom 10.4002064000000001 24.4212664500000010 5.9888352500000002 Na
atom 13.0739583100000001 24.4201596999999992 5.8514260599999997 Cl
atom 10.4810477800000008 27.2410870900000006 8.5762704099999993 Na
atom 13.1127195899999993 27.2627607999999988 8.7759706600000005 Cl
atom 13.2444746200000001 24.2909107800000008 8.3012669599999995 Na
atom 10.3854609100000008 24.3580302099999990 8.6998873200000002 Cl
atom 13.2630369600000009 27.0433868100000012 6.0933852599999998 Na
atom 10.3680560100000001 27.1576650300000004 5.8045866000000004 Cl
atom 10.3875033400000003 30.0042931700000004 5.9355665499999999 Na
atom 13.1717946500000007 29.9526191399999995 5.8604899000000001 Cl
atom 10.4290743100000007 32.8156172099999992 8.4060094400000001 Na
atom 13.2373285599999999 32.8689870199999987 8.6698833999999998 Cl
atom 13.1697887599999994 30.0394783799999985 8.5726206400000002 Na
atom 10.3680292699999992 30.0688320400000002 8.7558397400000008 Cl
atom 13.0553701100000001 32.8118475200000006 5.9376018100000003 Na
atom 10.4733481499999996 32.8398415099999994 5.8349878300000002 Cl
atom 10.4542306699999994 35.7119879700000027 5.7964206699999998 Na
atom 13.2143497300000003 35.6630685399999976 5.7701592899999996 Cl
atom 10.4277261600000006 38.5804915399999970 8.6624080400000008 Na
atom 13.1471821200000001 38.5580020800000014 8.6097350400000003 Cl
atom 13.2041296999999993 35.7466676000000021 8.3816420199999992 Na
atom 10.5145411499999994 35.6300787899999989 8.5232670099999996 Cl
atom 13.2732893500000007 38.5092565899999997 5.8768029700000000 Na
atom 10.5082305799999993 38.6653816700000021 5.6719716699999996 Cl
atom 10.5569240700000009 1.9127659800000001 5.8791998500000000 Na
atom 13.1890564399999999 1.8504088299999999 5.8069113400000001 Cl
atom 10.3494149400000008 4.6377011100000001 8.3796585300000004 Na
atom 13.1609005700000008 4.5833958700000004 8.6268597800000002 Cl
atom 13.1794064300000002 1.7695294800000001 8.1915125399999997 Na
atom 10.2975298100000003 1.8826219900000001 8.6283588400000006 Cl
atom 13.1612672100000001 4.7496239899999999 5.7428776399999997 Na
atom 10.1937689999999996 4.6438869699999996 5.7396456599999999 Cl
atom 10.3513660299999994 7.6198258699999997 5.9285135599999998 Na
atom 13.2165308899999996 7.5592996799999996 5.9554430199999997 Cl
atom 10.3918286900000005 10.5571696100000008 8.4177182599999991 Na
atom 13.1224226500000007 10.2586276900000009 8.6515407799999995 Cl
atom 12.9645315399999994 7.5949350700000000 8.5136291400000008 Na
atom 10.3218232099999998 7.4718837799999998 8.7343350599999994 Cl
atom 13.2158249600000008 10.3936862500000000 5.6965857099999999 Na
atom 10.2663858399999999 10.3483010899999996 5.6622190200000002 Cl
atom 15.7838779400000000 13.0061017900000007 5.6382767899999999 Na
atom 18.8852740899999993 13.1578263100000008 6.0134942200000001 Cl
atom 15.9811766199999994 15.8746260400000008 8.4582981400000001 Na
atom 18.7301445099999988 15.8807073600000006 8.6228809399999999 Cl
atom 18.6410745800000015 13.0435232699999997 8.5822952800000003 Na
atom 15.7493983499999999 13.0806444400000004 8.4206182700000003 Cl
atom 18.7503372900000009 15.9266128800000004 5.9941418799999999 Na
atom 15.9077607000000008 15.8266509499999994 5.7581228199999996 Cl
atom 15.9456074799999996 18.6738926800000016 5.9147819400000001 Na
atom 18.6715455299999995 18.7836290499999983 5.8439822100000001 Cl
atom 15.9233659299999992 21.3556238699999987 8.4271144400000004 Na
atom 18.7993821700000012 21.5989449499999999 8.6459973899999998 Cl
atom 18.7970654800000005 18.7876835500000006 8.4726681100000008 Na
atom 15.9069817699999998 18.6294417599999989 8.5871140599999993 Cl
atom 18.7772107300000002 21.6522637600000003 5.7785954500000001 Na
atom 15.9722700500000006 21.7043482899999987 5.9352394400000001 Cl
atom 16.0696862500000002 24.5035714300000009 5.9146226799999999 Na
atom 18.7016018200000005 24.3499020199999983 5.8599019999999999 Cl
atom 16.0949519499999987 27.3092356999999986 8.7041688500000003 Na
atom 18.8612339899999988 27.1108405899999987 8.7732547800000003 Cl
atom 18.7576375900000016 24.3505378000000015 8.5177656200000005 Na
atom 15.9002351300000004 24.3901337699999985 8.7084233100000006 Cl
atom 18.6885076400000010 27.1084043299999990 5.9395201899999996 Na
atom 16.0288801200000002 27.1110193799999983 6.0159989200000004 Cl
atom 15.9219366900000008 29.8913805100000012 5.9704810600000000 Na
atom 18.7760624900000010 30.1092522900000006 5.7196478099999997 Cl
atom 16.0945040100000014 32.9518051299999968 8.4095607500000007 Na
atom 18.6840011799999992 32.9397551200000009 8.6464627800000002 Cl
atom 18.7487621900000008 30.0817331699999997 8.3543487200000008 Na
atom 15.9273699600000000 30.0388963800000006 8.7468139199999992 Cl
atom 18.8084787400000017 32.8859508299999987 5.8610906399999996 Na
atom 15.8955952699999994 32.8667828299999982 5.8556722099999998 Cl
atom 15.9576422000000004 35.7170208100000011 5.7056659800000000 Na
atom 18.5822177000000011 35.7773441499999976 5.6979512100000003 Cl
atom 15.9763552200000003 38.5864263100000002 8.0456901100000007 Na
atom 18.6713140600000003 38.5488953600000031 8.4800657600000005 Cl
atom 18.6047399899999988 35.8071087300000030 8.4139064700000006 Na
atom 15.8739498000000001 35.8681638400000011 8.5904107799999991 Cl
atom 18.7028777599999998 38.6256032100000013 5.6407086700000004 Na