#===============================================================================
# Created using the Atomic Simulation Environment (ASE)

# Tue Dec 23 21:42:47 2025

#=======================================================
lattice_vector 28.1999999999999993 0.0000000000000000 0.0000000000000000 
lattice_vector 0.0000000000000000 39.4799999999999969 0.0000000000000000 
lattice_vector 0.0000000000000000 0.0000000000000000 62.3296083400000001 
atom 7.5075098000000002 14.8073270499999996 0.0404562800000000 Au
atom 10.3428837799999993 14.8326169599999993 -0.0194120000000000 Au
atom 13.1374265599999998 14.8283763799999999 0.0292927600000000 Au
atom 15.9598644299999997 14.8212931599999997 -0.0075777700000000 Au
atom 18.7864959599999999 14.8175788599999994 0.0650872200000000 Au
atom 21.6068467899999987 14.8318849499999992 -0.0011760500000000 Au
atom 24.4247162499999995 14.8181636200000000 0.0495626000000000 Au
atom 27.2449011699999986 14.8158169399999995 -0.0003130100000000 Au
atom 1.8738831000000000 14.7966148299999993 0.0573037300000000 Au
atom 4.6835396899999999 14.8383957899999999 -0.0219371700000000 Au
atom 8.9055316799999993 17.2826218599999990 0.0259609300000000 Au
atom 11.7416359999999997 17.2928623700000017 0.0309008300000000 Au
atom 14.5576154199999994 17.3029769400000006 0.0185487400000000 Au
atom 17.3698885800000014 17.2804984099999999 0.0306312800000000 Au
atom 20.1939231600000006 17.2919668299999998 0.0399477600000000 Au
atom 23.0210360899999991 17.2751985300000008 0.0363879000000000 Au
atom 25.8297270200000000 17.2980103300000003 0.0435112600000000 Au
atom 0.4470865300000000 17.2913104000000004 0.0480555700000000 Au
atom 3.2464955899999999 17.2877954699999989 0.0336642300000000 Au
atom 6.0905332200000002 17.2810703900000000 0.0274820600000000 Au
atom 7.4916909199999999 19.7442634000000012 0.1168424500000000 Au
atom 10.3152424000000007 19.7595736200000012 0.0529444900000000 Au
atom 13.1482701800000008 19.7569535499999986 0.1024406800000000 Au
atom 15.9656949299999997 19.7768451499999998 0.0460090000000000 Au
atom 18.7747403199999994 19.7538258700000000 0.1006255300000000 Au
atom 21.6036984399999987 19.7629489999999990 0.0601113600000000 Au
atom 24.4144900400000004 19.7620546600000004 0.0971878100000000 Au
atom 27.2582529300000012 19.7615656500000014 0.0630558400000000 Au
atom 1.8680632600000000 19.7451465500000012 0.1130461800000000 Au
atom 4.6934307899999999 19.7581159799999995 0.0718854200000000 Au
atom 8.9106704800000003 22.2209875900000000 0.0905140000000000 Au
atom 11.7442870300000006 22.2246007900000002 0.1042851700000000 Au
atom 14.5574637199999994 22.2241189500000011 0.0820851700000000 Au
atom 17.3761840099999993 22.2325334300000002 0.0821333200000000 Au
atom 20.1986576000000007 22.2225632900000001 0.0768018300000000 Au
atom 23.0225607699999983 22.2194739100000014 0.0904378800000000 Au
atom 25.8332700099999997 22.2276520899999994 0.0963961300000000 Au
atom 0.4604332100000000 22.2249963000000008 0.0824410900000000 Au
atom 3.2799819000000001 22.2305618000000003 0.0961832100000000 Au
atom 6.1026367300000004 22.2264295199999999 0.0927606500000000 Au
atom 7.5186950000000001 24.6838681999999991 0.0915130300000000 Au
atom 10.3268847899999994 24.6990561500000005 0.0913893500000000 Au
atom 13.1505358099999992 24.6978838299999985 0.0991010600000000 Au
atom 15.9586578499999998 24.7017075300000002 0.0987757200000000 Au
atom 18.8023772099999995 24.6961896299999992 0.0867198000000000 Au
atom 21.6113274299999993 24.6749474500000012 0.1030944600000000 Au
atom 24.4225504800000017 24.6760517600000000 0.0921584400000000 Au
atom 27.2423257200000002 24.6946727499999987 0.1178279700000000 Au
atom 1.8570820800000001 24.6992822200000006 0.0889416400000000 Au
atom 4.6799766500000004 24.6853651899999988 0.1051548400000000 Au
atom 8.9056687900000000 27.1485420399999988 0.0702962700000000 Au
atom 11.7340040499999994 27.1636818399999989 0.0684684800000000 Au
atom 14.5626800700000008 27.1596225800000006 0.0725647800000000 Au
atom 17.3833640199999984 27.1495572600000017 0.0722990200000000 Au
atom 20.1921109500000000 27.1553540499999997 0.0632873800000000 Au
atom 23.0131445799999987 27.1463339999999995 0.0754878800000000 Au
atom 25.8413494300000011 27.1505811199999982 0.0718004400000000 Au
atom 0.4665222300000000 27.1543024799999984 0.0683815000000000 Au
atom 3.2666896900000002 27.1543125299999986 0.0648346000000000 Au
atom 6.0870564399999996 27.1585570899999986 0.0466429300000000 Au
atom 7.4996228900000004 29.6240762900000014 0.0233999600000000 Au
atom 10.3307574500000001 29.6138444199999995 0.0812051100000000 Au
atom 13.1398299900000008 29.6265940800000003 0.0122398300000000 Au
atom 15.9568065299999997 29.6091332999999999 0.0565029600000000 Au
atom 18.7866572100000013 29.6203477399999997 0.0222295800000000 Au
atom 21.6026774300000000 29.6079677299999986 0.0589105800000000 Au
atom 24.4251819400000016 29.6296988699999986 0.0131095400000000 Au
atom 27.2505139900000017 29.6285583000000017 0.0747858300000000 Au
atom 1.8691868300000001 29.6264559799999994 0.0119033400000000 Au
atom 4.6834875199999999 29.6017661600000004 0.0557958600000000 Au
atom 8.9197940199999994 32.0834729099999976 0.0150637800000000 Au
atom 11.7282799299999994 32.0783828100000008 0.0003453000000000 Au
atom 14.5586907399999994 32.0921211799999995 0.0069531400000000 Au
atom 17.3748170299999991 32.0850364300000024 0.0194194400000000 Au
atom 20.1930367100000012 32.0856142599999998 0.0067770100000000 Au
atom 23.0005677800000008 32.0998645900000028 0.0007736100000000 Au
atom 25.8384007500000017 32.0899076600000015 0.0141062900000000 Au
atom 0.4624790300000000 32.1010800800000027 0.0229935300000000 Au
atom 3.2782017899999998 32.0813288200000031 0.0149410800000000 Au
atom 6.0788771199999996 32.0906084499999977 0.0124231100000000 Au
atom 7.5077463900000003 34.5640401300000022 -0.0174723300000000 Au
atom 10.3052391599999993 34.5656546700000007 0.0614827800000000 Au
atom 13.1443590799999992 34.5637432799999971 -0.0004954500000000 Au
atom 15.9644249899999995 34.5538895800000034 0.0561567900000000 Au
atom 18.7798186099999995 34.5545144199999967 -0.0125988000000000 Au
atom 21.6063874100000000 34.5574052699999967 0.0482594600000000 Au
atom 24.4249843499999990 34.5710982599999994 -0.0255993900000000 Au
atom 27.2502846299999995 34.5586889200000016 0.0415707100000000 Au
atom 1.8775770500000000 34.5745609800000011 -0.0204065100000000 Au
atom 4.6932344199999996 34.5630391799999970 0.0508474700000000 Au
atom 8.9168002299999998 37.0258469199999993 0.0201881100000000 Au
atom 11.7178568300000006 37.0095244500000007 0.0216421700000000 Au
atom 14.5653148300000002 37.0243174499999981 0.0511128700000000 Au
atom 17.3810643300000010 37.0167278400000015 0.0323154200000000 Au
atom 20.2025179199999982 37.0296287999999976 0.0332181400000000 Au
atom 23.0190882999999999 37.0250163799999967 0.0441534100000000 Au
atom 25.8351240799999999 37.0192747199999985 0.0540330700000000 Au
atom 0.4462836800000000 37.0320621099999983 0.0491433000000000 Au
atom 3.2786685499999999 37.0235576899999970 0.0345002000000000 Au
atom 6.0935870899999998 37.0239377899999980 0.0355996500000000 Au
atom 7.5171311799999998 0.0293240200000000 0.0660236800000000 Au
atom 10.3344988699999991 0.0232519500000000 0.1235683700000000 Au
atom 13.1354928900000001 0.0119379900000000 0.0552846100000000 Au
atom 15.9700841899999997 0.0163871000000000 0.1029749300000000 Au
atom 18.7941122400000005 0.0184346600000000 0.0700922300000000 Au
atom 21.6075406600000015 0.0122230000000000 0.1047441200000000 Au
atom 24.4355146199999993 0.0299081000000000 0.0710093700000000 Au
atom 27.2471325700000016 0.0220537100000000 0.1220655900000000 Au
atom 1.8745462200000000 0.0318442500000000 0.0512012500000000 Au
atom 4.6752531399999997 0.0188746300000000 0.1099811200000000 Au
atom 8.9216294299999994 2.4873514700000001 0.0921094500000000 Au
atom 11.7341561700000003 2.4865256800000002 0.0771025600000000 Au
atom 14.5551454000000007 2.4765098100000000 0.0745473000000000 Au
atom 17.3797446600000001 2.4836779700000000 0.1037223400000000 Au
atom 20.1920338699999995 2.4937138200000000 0.0809109900000000 Au
atom 23.0220096500000011 2.4847833800000001 0.0790320600000000 Au
atom 25.8378270999999984 2.4866291199999999 0.0890720900000000 Au
atom 0.4614167600000000 2.4797253900000000 0.0876812900000000 Au
atom 3.2747284799999998 2.4793309899999998 0.0839572400000000 Au
atom 6.0867183999999996 2.4733284900000001 0.0838694000000000 Au
atom 7.5139710600000003 4.9462829599999996 0.0984804600000000 Au
atom 10.3432338599999998 4.9508592100000000 0.1046694800000000 Au
atom 13.1319847700000008 4.9406681299999997 0.1078549900000000 Au
atom 15.9657885999999998 4.9499542800000000 0.0940644600000000 Au
atom 18.7790225600000014 4.9501578799999999 0.1032201300000000 Au
atom 21.6193244600000014 4.9550525900000002 0.1028112200000000 Au
atom 24.4191924000000000 4.9364070099999999 0.0986948200000000 Au
atom 27.2413501300000007 4.9548670200000000 0.0879697700000000 Au
atom 1.8631828300000000 4.9489635300000003 0.1075487800000000 Au
atom 4.6929803600000000 4.9372066600000002 0.1018899000000000 Au
atom 8.9082397899999997 7.4061327800000001 0.0468606300000000 Au
atom 11.7392009500000007 7.4141920600000004 0.0606393300000000 Au
atom 14.5512562899999995 7.4185345399999996 0.0672877800000000 Au
atom 17.3800664500000011 7.4290519300000000 0.0764358200000000 Au
atom 20.1795586399999998 7.4183657900000002 0.0586240500000000 Au
atom 23.0111093300000000 7.4191103099999998 0.0604342100000000 Au
atom 25.8332393600000003 7.4050657700000002 0.0721001100000000 Au
atom 0.4641962200000000 7.4098888599999997 0.0579290900000000 Au
atom 3.2726934800000000 7.4165367000000000 0.0693876100000000 Au
atom 6.1038981799999998 7.4057465300000000 0.0633856500000000 Au
atom 7.5064077400000002 9.8889042899999993 0.0682517200000000 Au
atom 10.3343716000000008 9.8813682499999995 0.0054129500000000 Au
atom 13.1609871399999996 9.8699140399999994 0.0547989700000000 Au
atom 15.9715629600000000 9.8920608199999993 0.0266211700000000 Au
atom 18.7821430900000017 9.8865183400000003 0.0756816900000000 Au
atom 21.5971890600000016 9.8800245199999992 0.0231239600000000 Au
atom 24.4208248200000000 9.8764420600000005 0.0560162700000000 Au
atom 27.2349809600000015 9.8866956399999992 -0.0201433300000000 Au
atom 1.8531151800000001 9.8783044199999992 0.0583152700000000 Au
atom 4.7076331199999997 9.8848935600000001 0.0074702600000000 Au
atom 8.9143859299999999 12.3565500700000008 -0.0001166000000000 Au
atom 11.7314582000000005 12.3443874099999995 0.0054435500000000 Au
atom 14.5562733699999995 12.3515012899999999 0.0039884100000000 Au
atom 17.3884827599999987 12.3466861300000001 0.0166197700000000 Au
atom 20.1962684999999986 12.3415192699999992 0.0061112100000000 Au
atom 23.0089985299999995 12.3465897299999998 0.0082742500000000 Au
atom 25.8424832600000016 12.3528987200000007 0.0197274300000000 Au
atom 0.4783023100000000 12.3436927300000008 -0.0153639500000000 Au
atom 3.2717681700000001 12.3502735799999996 0.0066055800000000 Au
atom 6.0995599800000004 12.3518653799999996 0.0135858500000000 Au
atom 7.5199857200000002 13.1847352799999999 2.6495163399999999 Au
atom 10.3305923100000001 13.1820506300000009 2.5468743699999998 Au
atom 13.1533748100000007 13.2009305500000007 2.6539702300000001 Au
atom 15.9612281100000004 13.1784266199999998 2.5774119400000002 Au
atom 18.7858579500000005 13.1727554300000005 2.6804725999999999 Au
atom 21.6052236399999984 13.1842509200000002 2.5606157100000000 Au
atom 24.4120641200000001 13.1927187700000008 2.6634881500000001 Au
atom 27.2459449900000017 13.1830593199999999 2.5606063400000001 Au
atom 1.8547085600000000 13.1765504700000005 2.6700612900000000 Au
atom 4.6784969299999997 13.1836918799999996 2.5677818399999999 Au
atom 8.9252969899999997 15.6544277199999993 2.6327113199999999 Au
atom 11.7599496600000002 15.6350819800000007 2.6432458300000001 Au
atom 14.5470315100000001 15.6487604499999993 2.6353720200000001 Au
atom 17.3571478500000005 15.6264203599999991 2.6289125200000001 Au
atom 20.1873725200000003 15.6360346200000002 2.6502667899999999 Au
atom 23.0071655499999999 15.6380723899999996 2.6395753800000001 Au
atom 25.8500336200000014 15.6465665699999992 2.6322701300000002 Au
atom 0.4629071200000000 15.6427877100000003 2.6417652700000001 Au
atom 3.2741735500000000 15.6474970399999993 2.6345092700000001 Au
atom 6.0965658100000004 15.6370442399999998 2.6511201899999999 Au
atom 7.5049146000000002 18.1004103699999987 2.6977232299999998 Au
atom 10.3283837100000007 18.1065346500000004 2.6021923000000000 Au
atom 13.1584596600000001 18.1204643200000000 2.6911002399999999 Au
atom 15.9507483499999996 18.1158869699999983 2.5865865499999998 Au
atom 18.7739539300000011 18.0943334699999987 2.6886509599999999 Au
atom 21.6117549999999987 18.1204508799999999 2.5967235000000000 Au
atom 24.4310364299999989 18.0986792500000000 2.6922530199999999 Au
atom 27.2511388600000011 18.1350940099999995 2.6047725000000002 Au
atom 1.8795642200000000 18.0902157499999987 2.7050061500000000 Au
atom 4.7039936200000003 18.1048101300000006 2.6111838100000000 Au
atom 8.9057983400000005 20.5744727699999999 2.7129091900000000 Au
atom 11.7339713000000003 20.5638441699999994 2.7262889299999999 Au
atom 14.5504146199999997 20.5810292600000011 2.6963632300000002 Au
atom 17.3892487600000010 20.5731833699999989 2.7103330799999998 Au
atom 20.1918181300000015 20.5731127899999997 2.7067200699999998 Au
atom 23.0016939899999997 20.5826023300000003 2.7189037699999998 Au
atom 25.8217865899999985 20.5760218700000017 2.7105526200000001 Au
atom 0.4427586200000000 20.5742248399999994 2.7206011999999999 Au
atom 3.2736027900000000 20.5737340999999994 2.7214533099999998 Au
atom 6.0855938900000002 20.5699309300000017 2.7249117900000002 Au
atom 7.4974927999999998 23.0402174200000012 2.6954004600000001 Au
atom 10.3274198800000008 23.0621048100000010 2.6889120000000002 Au
atom 13.1510660900000005 23.0426177500000016 2.6859914800000002 Au
atom 15.9754893599999992 23.0630603900000004 2.6845238600000001 Au
atom 18.7946104500000004 23.0519362699999988 2.6943298499999999 Au
atom 21.6050974199999999 23.0530552700000015 2.6984061700000002 Au
atom 24.4274687600000000 23.0397456399999996 2.6946661600000001 Au
atom 27.2370335399999988 23.0523064399999988 2.6773146099999998 Au
atom 1.8545216300000000 23.0464179199999997 2.6845866699999998 Au
atom 4.6813242400000004 23.0662014400000004 2.7031716900000000 Au
atom 8.9081468200000007 25.5294362799999988 2.7117258799999999 Au
atom 11.7352405599999994 25.5369522099999990 2.7145200300000001 Au
atom 14.5617592499999997 25.5380813599999996 2.7026346999999999 Au
atom 17.3815555999999987 25.5287803900000014 2.7183422799999999 Au
atom 20.2033403699999994 25.5368429799999994 2.7318281999999998 Au
atom 23.0046368399999999 25.5258470600000003 2.7199979500000002 Au
atom 25.8339004599999988 25.5323564800000007 2.7293270900000000 Au
atom 0.4536016800000000 25.5301802400000000 2.7258754199999999 Au
atom 3.2691770899999999 25.5339463600000016 2.7254341800000002 Au
atom 6.0974795799999999 25.5242390199999996 2.7170160900000000 Au
atom 7.5018059299999997 27.9983038700000009 2.6188358400000000 Au
atom 10.3279325300000000 28.0063732600000002 2.6950570400000000 Au
atom 13.1387305100000003 27.9961098600000007 2.6066021799999999 Au
atom 15.9693114900000008 28.0021835999999986 2.7063871700000002 Au
atom 18.7879081100000001 28.0005814599999994 2.6135464200000000 Au
atom 21.6068805399999988 28.0062877599999993 2.6915220299999998 Au
atom 24.4266916599999995 27.9978671500000011 2.6357009599999999 Au
atom 27.2520910399999998 28.0108408799999999 2.6901539099999998 Au
atom 1.8522707300000001 27.9955297899999991 2.6065601300000001 Au
atom 4.6917669799999997 27.9937056800000015 2.7102366600000001 Au
atom 8.9097978399999995 30.4785975799999989 2.6539880899999999 Au
atom 11.7302239000000004 30.4690364500000008 2.6468814100000002 Au
atom 14.5558410499999997 30.4605368699999985 2.6438855900000000 Au
atom 17.3674113500000011 30.4573175200000001 2.6415259500000001 Au
atom 20.1740840100000014 30.4759471099999999 2.6559201099999998 Au
atom 23.0102374000000012 30.4505414999999999 2.6463323999999999 Au
atom 25.8409836000000013 30.4630843899999988 2.6400847299999999 Au
atom 0.4455657900000000 30.4806336900000012 2.6298444999999999 Au
atom 3.2721720400000001 30.4620930399999992 2.6301612200000002 Au
atom 6.0902585399999998 30.4680576400000014 2.6304540599999999 Au
atom 7.5026123399999998 32.9274184599999984 2.5741195399999999 Au
atom 10.3162621699999999 32.9281415800000019 2.6649153999999999 Au
atom 13.1437330100000000 32.9231905099999977 2.5647183600000001 Au
atom 15.9720082100000003 32.9145006899999970 2.6717483500000001 Au
atom 18.7990685900000010 32.9299243199999978 2.5677360700000000 Au
atom 21.6129193899999983 32.9211721499999967 2.6725763599999999 Au
atom 24.4166824700000014 32.9323036199999990 2.5701117999999998 Au
atom 27.2341559800000006 32.9272790699999973 2.6683175700000001 Au
atom 1.8728750900000000 32.9402518300000011 2.5623370500000000 Au
atom 4.6799369100000003 32.9071030899999997 2.6659959600000001 Au
atom 8.9061869500000004 35.3772234400000016 2.6441857999999998 Au
atom 11.7325047300000005 35.3890683300000006 2.6422028000000002 Au
atom 14.5381345399999997 35.3736062400000009 2.6557916900000000 Au
atom 17.3608129799999986 35.3782786499999986 2.6370711500000001 Au
atom 20.1771380299999983 35.3843198000000001 2.6570136999999998 Au
atom 22.9991018300000007 35.4019322500000015 2.6342674300000000 Au
atom 25.8231070199999984 35.3862445999999977 2.6372631400000000 Au
atom 0.4612925200000000 35.3705045800000022 2.6467703199999999 Au
atom 3.2867049599999998 35.3841873000000007 2.6379788500000001 Au
atom 6.0911362799999997 35.3836082400000009 2.6570936700000001 Au
atom 7.5023729000000001 37.8541879400000028 2.6114917599999998 Au
atom 10.3193009500000006 37.8394990999999976 2.6944408399999999 Au
atom 13.1362986900000003 37.8709295000000026 2.5988271200000002 Au
atom 15.9467880599999994 37.8368743999999992 2.6941561100000002 Au
atom 18.7723317600000001 37.8513530900000035 2.6361167100000000 Au
atom 21.6111729399999994 37.8414266799999979 2.7092512499999999 Au
atom 24.4375625999999997 37.8527000500000028 2.6082677699999999 Au
atom 27.2484519899999995 37.8375647499999985 2.7092422400000000 Au
atom 1.8618160100000001 37.8513255200000032 2.6237066900000001 Au
atom 4.6756767799999999 37.8303424400000026 2.7073293700000001 Au
atom 8.9141842499999999 0.8534508200000001 2.7272845000000001 Au
atom 11.7338946199999992 0.8446286700000000 2.7078724200000002 Au
atom 14.5514183399999997 0.8293173300000000 2.7184356500000000 Au
atom 17.3921048099999993 0.8309874300000000 2.7199330599999998 Au
atom 20.2135225399999996 0.8212025800000000 2.7162467000000001 Au
atom 23.0135589500000002 0.8431810800000000 2.7185199999999998 Au
atom 25.8265167099999999 0.8295357799999999 2.7304311499999998 Au
atom 0.4413594000000000 0.8208331200000000 2.7177004700000000 Au
atom 3.2710625599999998 0.8428446300000000 2.7393779000000000 Au
atom 6.0897848300000001 0.8265804800000000 2.7180547300000000 Au
atom 7.5237588500000001 3.3277605700000001 2.6891933699999999 Au
atom 10.3298344499999999 3.3138699400000000 2.6971490000000000 Au
atom 13.1423109000000000 3.3345215499999998 2.6884488499999999 Au
atom 15.9645880299999998 3.3086028299999999 2.6825165100000001 Au
atom 18.7917407599999997 3.3241268100000001 2.6951599800000001 Au
atom 21.6063612200000001 3.2958564500000000 2.6855325300000001 Au
atom 24.4173639899999984 3.3319424799999999 2.6889335800000000 Au
atom 27.2467907300000007 3.2926864000000000 2.6848828899999999 Au
atom 1.8659723500000001 3.3194667700000000 2.6903290499999999 Au
atom 4.6851204099999997 3.3068137800000001 2.6924995599999999 Au
atom 8.9216998099999998 5.7937759399999997 2.7196188700000001 Au
atom 11.7323047900000006 5.7786447000000001 2.7354143899999999 Au
atom 14.5469955800000008 5.7878476499999998 2.7391342399999998 Au
atom 17.3813349700000011 5.7945255400000004 2.7184615800000000 Au
atom 20.1955436100000014 5.7839853600000000 2.7052447100000001 Au
atom 23.0289684900000005 5.8013781399999997 2.7247698800000002 Au
atom 25.8286791300000012 5.7869004799999999 2.7082556599999998 Au
atom 0.4527188400000000 5.7965103600000001 2.7387164799999999 Au
atom 3.2764093999999999 5.7911190899999996 2.7151896000000000 Au
atom 6.1025452400000004 5.7912214600000000 2.6960709100000000 Au
atom 7.5054999499999999 8.2600304399999995 2.7008017400000002 Au
atom 10.3213828200000002 8.2509275300000002 2.6249220300000000 Au
atom 13.1460094200000004 8.2633351699999995 2.6959689700000000 Au
atom 15.9856099900000004 8.2504455100000005 2.6235323899999998 Au
atom 18.7787461399999991 8.2553068599999992 2.7097749499999999 Au
atom 21.6098365100000009 8.2695806100000002 2.6090795199999999 Au
atom 24.4312057399999993 8.2589177199999995 2.7083087099999998 Au
atom 27.2442803299999987 8.2473360699999994 2.6179446600000000 Au
atom 1.8657640099999999 8.2654128199999999 2.6953757399999998 Au
atom 4.6792241900000002 8.2706453700000004 2.5988422999999998 Au
atom 8.9045272799999999 10.7321276700000006 2.6296596100000000 Au
atom 11.7284612199999998 10.7081140500000007 2.6368440999999998 Au
atom 14.5507640499999997 10.7353926600000005 2.6387858000000000 Au
atom 17.3659233399999984 10.7320072700000004 2.6361553099999999 Au
atom 20.2088326800000004 10.7172729300000000 2.6396948899999999 Au
atom 23.0152307600000015 10.7186391000000008 2.6437214899999999 Au
atom 25.8284843899999998 10.7227806200000000 2.6386369500000000 Au
atom 0.4756768800000000 10.7254248499999996 2.6306612500000002 Au
atom 3.2750299400000000 10.7174472400000003 2.6484020699999999 Au
atom 6.0973182899999996 10.7319382000000001 2.6355060400000001 Au
atom 7.4990706700000000 13.1923222599999992 5.7188042000000001 Cl
atom 7.4929693999999998 16.0047446899999990 8.5347119199999995 Cl
atom 7.4810580299999998 13.1664398800000004 8.3435917199999992 Na
atom 7.4558800300000003 15.9688190900000002 5.7757848400000000 Na
atom 7.4922335300000000 18.8274903199999990 5.7271988199999999 Cl
atom 7.5063024800000004 21.5976219699999987 8.5908583200000006 Cl
atom 7.4932338100000004 18.8022397999999988 8.3597816199999997 Na
atom 7.5078943300000001 21.6344073700000017 5.8249218999999997 Na
atom 7.5127217399999999 24.4253658700000003 5.7750546399999996 Cl
atom 7.4834270900000002 27.2795995299999987 8.6014959500000003 Cl
atom 7.5270455399999996 24.4649068999999990 8.4139295300000008 Na
atom 7.4907750300000000 27.2516993999999997 5.8016944900000000 Na
atom 7.4874586499999998 30.0746213100000013 5.7264459399999996 Cl
atom 7.4855568799999999 32.9385456600000026 8.5513426599999995 Cl
atom 7.4761405500000002 30.0840750200000002 8.3830448299999993 Na
atom 7.4835049400000004 32.8884643800000021 5.7998821899999999 Na
atom 7.4960120400000001 35.7445740300000026 5.7339353800000001 Cl
atom 7.4614729100000003 38.5535144700000032 8.5895951099999994 Cl
atom 7.4904185700000001 35.7076796099999996 8.3724890300000006 Na
atom 7.4843595199999999 38.5657918599999974 5.8278293100000003 Na
atom 7.4839604700000004 1.8975465499999999 5.7862709700000003 Cl
atom 7.4688460100000000 4.7024934299999996 8.6190063400000003 Cl
atom 7.4900417800000003 1.8955410399999999 8.4096603600000002 Na
atom 7.4771247100000000 4.7163603399999996 5.8384502400000002 Na
atom 7.5183667600000001 7.5217213200000002 5.7244336200000001 Cl
atom 7.4951464300000001 10.3728301500000004 8.5635197900000009 Cl
atom 7.4830048299999996 7.5472173099999997 8.3801328399999999 Na
atom 7.5326300899999996 10.3619269099999993 5.7789502800000001 Na
atom 10.2887977100000008 13.1761669999999995 5.7839505400000002 Na
atom 13.1443718000000001 13.1537413000000001 5.6987651599999998 Cl
atom 10.3286941999999993 15.9922894299999996 8.3326935700000000 Na
atom 13.1360387700000008 15.9775048399999999 8.5476490500000004 Cl
atom 13.1341290100000005 13.1801905999999995 8.3615098600000000 Na
atom 10.3103180900000009 13.1743367899999999 8.5708256299999999 Cl
atom 13.1568200900000001 15.9991579599999998 5.7908022800000003 Na
atom 10.3326189199999998 15.9797228400000009 5.7229409999999996 Cl
atom 10.3078492799999992 18.8450691100000007 5.8200694500000001 Na
atom 13.1311369300000003 18.8131750400000008 5.7216774199999998 Cl
atom 10.3296078199999997 21.6426291000000006 8.3789862700000004 Na
atom 13.1437735900000003 21.5953708700000000 8.5847657599999998 Cl
atom 13.1132474400000003 18.7964153899999999 8.3341616799999994 Na
atom 10.3178512799999993 18.7869294099999991 8.5884218699999995 Cl
atom 13.1262819999999998 21.6160427599999991 5.7821368599999996 Na
atom 10.3231497999999995 21.6187646099999995 5.7508916000000001 Cl
atom 10.3212832999999993 24.4644339500000001 5.8074600800000002 Na
atom 13.1253189399999997 24.4288955899999998 5.7425432499999998 Cl
atom 10.2897987999999998 27.2731362399999995 8.3597446400000006 Na
atom 13.1321280300000005 27.2440017800000014 8.5793973099999992 Cl
atom 13.1470799599999992 24.4677615099999990 8.3918072600000002 Na
atom 10.3198021700000009 24.4455092299999990 8.6041947099999998 Cl
atom 13.1692749300000003 27.2382246899999991 5.7951165900000001 Na
atom 10.3133737799999992 27.2490044900000008 5.7399921400000000 Cl
atom 10.3284314699999999 30.0367935599999996 5.8116716400000001 Na
atom 13.1415351000000005 30.0549771999999997 5.7443871199999998 Cl
atom 10.3246019199999992 32.8742055399999984 8.3383242600000003 Na
atom 13.1262406400000007 32.9007694700000002 8.6021612899999997 Cl
atom 13.1668675900000007 30.0722536399999996 8.3922874200000006 Na
atom 10.3048604899999994 30.0853687200000017 8.5856774999999992 Cl
atom 13.1499667700000007 32.8934721700000026 5.8156417200000003 Na
atom 10.3274826599999994 32.8866603999999967 5.7060476299999996 Cl
atom 10.3257486899999993 35.7612494500000011 5.8120749299999996 Na
atom 13.1510468599999992 35.7344641500000009 5.7223490600000000 Cl
atom 10.2834810200000000 38.5715906799999999 8.3744788799999998 Na
atom 13.1689962900000008 38.5087776100000028 8.5852440399999992 Cl
atom 13.1352019299999991 35.7119826899999993 8.3845242700000000 Na
atom 10.3275524399999998 35.7202797099999998 8.5295289400000005 Cl
atom 13.1594943999999998 38.5695469200000005 5.7993387500000004 Na
atom 10.3227794999999993 38.5436541700000035 5.7270088899999996 Cl
atom 10.2750773800000008 1.8831939799999999 5.8051999399999996 Na
atom 13.1212421199999998 1.8907384800000000 5.7755833900000004 Cl
atom 10.2980854799999992 4.7147524799999996 8.4121187000000006 Na
atom 13.1236917700000006 4.7227920699999997 8.5908241499999995 Cl
atom 13.1232325999999997 1.9051486300000000 8.3833791200000007 Na
atom 10.3280602300000002 1.8701989900000000 8.5746855899999996 Cl
atom 13.1421040500000004 4.7110322499999997 5.8112250599999999 Na
atom 10.3201595299999997 4.7486659900000001 5.7910563399999999 Cl
atom 10.3292388000000006 7.4906108800000002 5.8164376600000001 Na
atom 13.1338418800000003 7.5158767800000001 5.7764283799999996 Cl
atom 10.3050105599999995 10.3632350899999999 8.3866264299999997 Na
atom 13.1815728700000001 10.3707223200000005 8.5626071199999991 Cl
atom 13.1616782800000003 7.5444551999999998 8.3991374099999998 Na
atom 10.2918296399999996 7.5644862799999997 8.6051052000000006 Cl
atom 13.1527919600000001 10.3442442000000003 5.8061440299999996 Na
atom 10.3106394500000000 10.3294802800000003 5.7142769800000002 Cl
atom 15.9384289399999997 13.1369649600000002 5.8047888299999997 Na
atom 18.7788596900000009 13.1646521799999991 5.6995502000000000 Cl
atom 15.9656033999999991 15.9976687399999999 8.3656346599999996 Na
atom 18.7786846999999995 16.0078198399999998 8.5838720700000000 Cl
atom 18.8149954999999984 13.1761806400000001 8.4035585099999999 Na
atom 15.9569411599999995 13.1442602799999992 8.5466719500000004 Cl
atom 18.8000787500000008 15.9814043199999993 5.7767015099999997 Na
atom 15.9573703299999998 16.0136237900000005 5.7383728200000004 Cl
atom 15.9757866100000001 18.8450135199999984 5.8020725000000004 Na
atom 18.8009349800000010 18.8050491800000010 5.7205618500000002 Cl
atom 15.9740533599999992 21.6286523600000002 8.3982598300000006 Na
atom 18.7846294600000014 21.6034693100000013 8.5846362200000002 Cl
atom 18.8093829799999988 18.8187032499999987 8.3299638799999993 Na
atom 15.9787377999999993 18.8054210300000015 8.5838042100000003 Cl
atom 18.7744484800000002 21.6264340200000014 5.8067768500000003 Na
atom 15.9445700699999993 21.6354353900000014 5.7739834800000001 Cl
atom 15.9582463299999997 24.4392812200000016 5.7934139499999997 Na
atom 18.7934486499999984 24.4560526699999983 5.7635232600000004 Cl
atom 15.9611617900000002 27.2586211399999989 8.3803266999999995 Na
atom 18.7512570499999995 27.2416216899999988 8.6170435899999998 Cl
atom 18.7744182100000003 24.4314199499999987 8.3780611399999998 Na
atom 15.9725449299999998 24.4152641000000017 8.5983338800000002 Cl
atom 18.7790141999999989 27.2491265300000016 5.8074165999999998 Na
atom 15.9482595600000003 27.2319373700000007 5.7063460600000004 Cl
atom 15.9391548699999994 30.0526298199999999 5.8087240500000004 Na
atom 18.7522097000000016 30.0500826299999986 5.7318728200000004 Cl
atom 15.9431985399999991 32.8803961099999995 8.3389961699999997 Na
atom 18.7770064900000015 32.9059841799999973 8.5424569100000003 Cl
atom 18.7627142300000003 30.0937838999999983 8.3978422199999994 Na
atom 15.9246736200000001 30.0706361099999988 8.5762249199999996 Cl
atom 18.7974081499999990 32.8788478000000026 5.8095130399999997 Na
atom 15.9826307799999991 32.8720161800000028 5.7370467999999999 Cl
atom 15.9477330199999994 35.7229695500000020 5.7817657000000002 Na
atom 18.7811887900000016 35.7539396800000020 5.7261983299999999 Cl
atom 15.9629796699999993 38.5340934700000020 8.3964499400000001 Na
atom 18.7437142899999998 38.5504117500000021 8.5843570800000002 Cl
atom 18.7546727599999983 35.7091338800000031 8.3648181400000006 Na
atom 15.9536118499999997 35.7156829700000031 8.5694309700000009 Cl
atom 18.7816222599999989 38.5741130600000020 5.8178410600000001 Na
atom 15.9559367200000004 38.5587101599999968 5.7464921499999999 Cl