#===============================================================================
# Created using the Atomic Simulation Environment (ASE)

# Tue Dec 23 21:42:37 2025

#=======================================================
lattice_vector 28.1999999999999993 0.0000000000000000 0.0000000000000000 
lattice_vector 0.0000000000000000 39.4799999999999969 0.0000000000000000 
lattice_vector 0.0000000000000000 0.0000000000000000 62.3296083400000001 
atom 7.5135152900000000 14.8607341799999997 -0.0944514200000000 Au
atom 10.2741952899999998 14.8328807900000008 0.0055081600000000 Au
atom 13.2061427600000005 14.8419376799999991 0.1160470600000000 Au
atom 16.0219369100000009 14.8710880700000008 -0.2998234000000000 Au
atom 18.8735758800000006 14.9540144000000002 -0.2126979000000000 Au
atom 21.6305526499999985 14.7587735200000001 -0.2907734500000000 Au
atom 24.4642255099999986 14.8409176899999995 -0.2910454000000000 Au
atom 27.3461794400000002 14.7841261900000003 -0.1763363100000000 Au
atom 1.9048955000000001 14.8126071800000005 0.0167187500000000 Au
atom 4.6964636500000001 14.7862752799999999 -0.1833227200000000 Au
atom 8.9184665699999996 17.2967278299999982 0.0258267800000000 Au
atom 11.7867777999999994 17.3158605700000017 -0.2691958200000000 Au
atom 14.6269392000000007 17.3130774900000013 -0.1463009900000000 Au
atom 17.4362361099999994 17.3938714099999991 -0.4064769300000000 Au
atom 20.2329759200000012 17.3823732500000006 -0.2309748600000000 Au
atom 22.9466194299999984 17.2389677100000007 -0.1237616300000000 Au
atom 25.7965981299999996 17.2810825100000010 -0.0499575500000000 Au
atom 0.4709766400000000 17.2409173799999991 -0.0246934100000000 Au
atom 3.3539615500000002 17.2754216599999992 0.1182482100000000 Au
atom 6.0741773400000003 17.2104850499999991 -0.1405837500000000 Au
atom 7.4248722899999997 19.7200184400000005 0.1347193600000000 Au
atom 10.3026432600000000 19.6983766100000004 0.0331317200000000 Au
atom 13.2043708599999992 19.8616637000000011 -0.3666188900000000 Au
atom 16.0058615700000004 19.9049278799999989 -0.0514011200000000 Au
atom 18.8231498500000001 19.8286386300000004 0.0374498100000000 Au
atom 21.7003916799999992 19.7285580100000004 -0.0804346800000000 Au
atom 24.4752326499999988 19.6881256100000002 0.1263184800000000 Au
atom 27.2991199400000006 19.7796873300000016 0.1201305600000000 Au
atom 1.8912466699999999 19.7149056700000003 0.3025246400000000 Au
atom 4.7325278500000003 19.7412208800000002 0.0777472700000000 Au
atom 8.9836073600000006 22.2900756999999992 0.0980080900000000 Au
atom 11.7575592499999999 22.1396559099999983 0.0927016700000000 Au
atom 14.5623454900000002 22.3563589699999987 -0.1536915000000000 Au
atom 17.4354656100000014 22.2584114399999997 -0.0285968200000000 Au
atom 20.2961083699999989 22.2026625200000005 0.2065415400000000 Au
atom 23.2012768099999995 22.2169291700000002 0.1606093400000000 Au
atom 25.9119235600000017 22.2325632700000000 0.2830025000000000 Au
atom 0.5040567700000000 22.1884460499999996 0.1351167900000000 Au
atom 3.3083504300000000 22.1513513899999985 0.0429439700000000 Au
atom 6.0958695499999997 22.1967750899999992 0.0071595500000000 Au
atom 7.4715980300000000 24.7239180800000007 0.1309298300000000 Au
atom 10.3182246000000006 24.7430939499999987 -0.0015111600000000 Au
atom 13.0793439800000009 24.7268013300000007 0.0089791400000000 Au
atom 15.9103882999999993 24.7547172300000007 -0.0617487000000000 Au
atom 18.8232696799999992 24.7041046299999998 0.3161769100000000 Au
atom 21.6675593199999987 24.6440623099999989 0.1575885800000000 Au
atom 24.5087644900000008 24.6923457400000004 0.1495904500000000 Au
atom 27.3027353099999992 24.7018704699999994 0.3002414400000000 Au
atom 1.8661693500000001 24.6342680799999982 0.0277233800000000 Au
atom 4.7589458400000000 24.7129428799999999 0.1169493700000000 Au
atom 8.7848872799999995 27.1234637499999991 -0.1197352500000000 Au
atom 11.7090445600000006 27.1824803800000012 -0.1872391400000000 Au
atom 14.5357704800000000 27.2333962400000011 0.0275213100000000 Au
atom 17.3670170400000003 27.1652493100000001 0.1173934600000000 Au
atom 20.1765235599999997 27.1079436899999990 -0.0076219100000000 Au
atom 23.0073445599999999 27.1092939599999987 0.1445058700000000 Au
atom 25.8464339400000007 27.1828125400000005 0.0235292200000000 Au
atom 0.3957058000000000 27.1809848100000018 -0.0466598100000000 Au
atom 3.2419495600000001 27.0608025800000007 -0.0561091900000000 Au
atom 6.0272054300000004 27.2103665300000017 0.0659203400000000 Au
atom 7.4228761299999997 29.6388087899999988 -0.0056925400000000 Au
atom 10.2514957899999999 29.6431036100000007 -0.2437597000000000 Au
atom 13.1106215000000006 29.6737457400000011 -0.1146909300000000 Au
atom 15.9128208200000003 29.7355653900000014 -0.1195685600000000 Au
atom 18.7819135499999987 29.6776318000000003 -0.1102618200000000 Au
atom 21.6865044699999991 29.5741198400000016 -0.0578761700000000 Au
atom 24.4424494999999986 29.5403822100000006 0.0667458200000000 Au
atom 27.2158395999999989 29.6008660299999988 0.0553001300000000 Au
atom 1.8192743499999999 29.6062042800000000 -0.1560307700000000 Au
atom 4.6247496999999997 29.6214397799999993 -0.1615217300000000 Au
atom 8.9483780199999998 32.0672761000000008 0.1250378500000000 Au
atom 11.7124596600000004 32.1415505000000010 -0.2799878900000000 Au
atom 14.4774109000000006 32.1485610599999987 -0.1332236200000000 Au
atom 17.3922606900000005 32.2101063100000005 -0.2500404200000000 Au
atom 20.2245550799999982 32.0307722499999983 -0.1000293100000000 Au
atom 22.9848920399999983 32.1025751199999974 0.1916713800000000 Au
atom 25.8618080100000007 32.0708131600000002 0.1683565300000000 Au
atom 0.4906818500000000 32.0925557799999979 0.0105881800000000 Au
atom 3.2929922899999999 32.1152526799999976 -0.2807569900000000 Au
atom 6.1688696199999997 32.0880883299999979 -0.2228332900000000 Au
atom 7.4541341599999997 34.5740551000000025 0.0801154700000000 Au
atom 10.3729166100000008 34.5616387199999977 -0.0549167800000000 Au
atom 13.1490447199999991 34.6259188800000004 -0.1556062300000000 Au
atom 16.0088177899999984 34.5731503700000005 -0.0027124400000000 Au
atom 18.8365795100000000 34.6240685900000003 -0.0805084300000000 Au
atom 21.6344231899999997 34.5754381300000020 0.0813860500000000 Au
atom 24.3846646100000015 34.6154282600000016 0.1469082300000000 Au
atom 27.1887278700000010 34.5644969599999996 -0.1013761100000000 Au
atom 1.8843219700000000 34.5908553299999966 0.1015698700000000 Au
atom 4.6596780999999998 34.6295675799999998 -0.0398025800000000 Au
atom 8.9187959200000009 36.9951283500000017 -0.0442040000000000 Au
atom 11.7895494700000008 37.0774220099999994 -0.0844712800000000 Au
atom 14.5908271000000003 37.0374584899999988 -0.0257755100000000 Au
atom 17.3866531699999989 37.0257843400000013 0.1023026900000000 Au
atom 20.1671201599999996 37.0112392899999989 -0.0167972200000000 Au
atom 23.0595617799999992 37.0124534799999978 0.0097162400000000 Au
atom 25.8968215999999991 36.9918993499999971 -0.0076098500000000 Au
atom 0.5345503400000000 37.0228958000000006 0.0029550900000000 Au
atom 3.3152126200000001 37.0400343900000024 0.0595167500000000 Au
atom 6.1091611099999996 37.0183766000000034 0.0497743600000000 Au
atom 7.5535025300000003 0.0395670300000000 0.2977711800000000 Au
atom 10.3522979799999995 -0.0407907000000000 0.2164934200000000 Au
atom 13.1405936499999996 0.0016474800000000 0.0763528100000000 Au
atom 15.9378437500000008 0.0362471400000000 0.0815608000000000 Au
atom 18.8105597899999992 -0.0543450300000000 -0.0402000700000000 Au
atom 21.5896357600000002 -0.0163322200000000 0.3010110100000000 Au
atom 24.3337493100000017 -0.0306032000000000 0.0093682300000000 Au
atom 27.2351095100000009 0.0340539100000000 -0.0236926000000000 Au
atom 1.7988507000000000 0.0412691100000000 0.0893180400000000 Au
atom 4.6893778299999997 0.0022035300000000 0.2665145100000000 Au
atom 8.9338591399999991 2.4694857899999998 0.2686572400000000 Au
atom 11.6732061399999996 2.5228421200000000 -0.0639206500000000 Au
atom 14.5124203299999994 2.4235048199999998 0.1048869000000000 Au
atom 17.3580976199999988 2.3996027500000001 0.0616952800000000 Au
atom 20.1019376100000002 2.4212874900000001 0.2985527500000000 Au
atom 23.0000644299999983 2.4682084199999998 0.1939889100000000 Au
atom 25.9010388200000001 2.4373065100000000 -0.1692527200000000 Au
atom 0.5066447800000000 2.5869377700000000 0.0779648200000000 Au
atom 3.2292524600000001 2.5302520400000001 0.0603246600000000 Au
atom 6.1063997299999997 2.4490494200000001 -0.0059456700000000 Au
atom 7.5539618700000002 4.9459358299999998 0.0765148400000000 Au
atom 10.4131547999999992 5.0139862500000003 0.0524479500000000 Au
atom 13.2124246900000006 4.9658862900000003 0.1580486800000000 Au
atom 15.9239111900000001 4.9007233499999998 0.2849841800000000 Au
atom 18.7984881699999988 4.9645450300000000 0.0936595500000000 Au
atom 21.5947263900000017 4.8935319499999999 0.1828373400000000 Au
atom 24.4337487499999995 4.9234255899999999 0.0908119700000000 Au
atom 27.2142208299999986 4.9457471899999996 0.1632667300000000 Au
atom 1.9116027400000000 4.9663009400000000 0.0726671500000000 Au
atom 4.7154901200000001 5.0116340800000003 0.2513153200000000 Au
atom 9.0059011800000004 7.4024504300000000 -0.0689577300000000 Au
atom 11.7232309099999998 7.4481218000000000 -0.0077241200000000 Au
atom 14.5593748099999996 7.3971690700000003 0.0788305900000000 Au
atom 17.4088417000000000 7.4589052499999999 0.3553334100000000 Au
atom 20.2018149800000018 7.4974659900000002 0.2565547900000000 Au
atom 23.0051923100000018 7.4340985899999996 0.2293925500000000 Au
atom 25.8285142400000005 7.4227378699999997 -0.1362166100000000 Au
atom 0.4045782700000000 7.3962122800000003 0.1982043900000000 Au
atom 3.3372451600000002 7.4257513700000004 -0.1029822400000000 Au
atom 6.1874133699999998 7.4723849500000004 0.1074635300000000 Au
atom 7.6038357000000003 9.8556026400000007 0.2151737500000000 Au
atom 10.4804169399999996 9.8564725099999997 -0.1755419500000000 Au
atom 13.2271433199999997 9.7928609699999996 0.1072734800000000 Au
atom 15.9944684600000002 9.9161943400000006 -0.0238227100000000 Au
atom 18.7757433599999999 9.8772121599999991 -0.0460557000000000 Au
atom 21.6469813000000002 9.9114628200000006 0.1068636100000000 Au
atom 24.4762444200000004 9.9514961999999993 -0.0169882100000000 Au
atom 27.2716840599999983 9.8818861600000005 -0.2114021300000000 Au
atom 1.8941667799999999 9.8319414900000002 -0.2531905400000000 Au
atom 4.7568985899999996 9.9153282199999992 0.0957524300000000 Au
atom 8.9500926199999995 12.2583029999999997 -0.0345288100000000 Au
atom 11.8510071600000000 12.3649411199999992 0.1513636300000000 Au
atom 14.6163673000000003 12.3739045599999997 -0.0583563900000000 Au
atom 17.3774331500000017 12.4147195900000007 -0.0790028000000000 Au
atom 20.1185136100000008 12.2597108000000006 -0.1602577400000000 Au
atom 22.9793588399999997 12.3899245499999999 -0.1383447400000000 Au
atom 25.8846964899999996 12.4058008599999994 -0.2970823300000000 Au
atom 0.5306852700000000 12.3413261599999995 -0.3369944700000000 Au
atom 3.2711434399999999 12.3335369099999994 -0.0947565000000000 Au
atom 6.1056408900000001 12.3206715500000001 -0.1411226700000000 Au
atom 7.4357407799999997 13.2909242400000007 2.5627374800000000 Au
atom 10.3984409200000005 13.2107944199999991 2.5041117399999999 Au
atom 13.2352464399999992 13.3098014700000000 2.6626079300000001 Au
atom 15.9850506899999996 13.3983179099999994 2.3831388599999999 Au
atom 18.8065181400000014 13.3352231299999993 2.4027157200000002 Au
atom 21.6207887800000016 13.2591666299999993 2.3497963999999998 Au
atom 24.4659237199999993 13.1963628199999992 2.3208123399999998 Au
atom 27.2416881900000014 13.1862907800000002 2.3365588300000000 Au
atom 1.8417787000000001 13.1870694099999994 2.5736642199999999 Au
atom 4.6543805000000003 13.1516731999999994 2.4103299300000001 Au
atom 8.8322691599999992 15.7038034199999998 2.6761786800000000 Au
atom 11.7833279500000003 15.6860196199999997 2.4471408399999999 Au
atom 14.6383123000000008 15.7994926600000003 2.5140067500000001 Au
atom 17.4516088899999993 15.7313003299999998 2.3240906699999999 Au
atom 20.3068789299999999 15.7221948299999994 2.5192389999999998 Au
atom 23.1531599700000008 15.6848607100000006 2.3288212000000001 Au
atom 25.9095903800000009 15.5863981599999999 2.4087824300000000 Au
atom 0.5242324300000000 15.5951942900000002 2.5957813800000000 Au
atom 3.2314148999999999 15.6008704399999996 2.8084523699999999 Au
atom 5.9542360900000002 15.7087005000000008 2.4531346500000000 Au
atom 7.5231510799999999 18.1340401799999995 2.7313360800000002 Au
atom 10.2916405900000001 18.0525889699999986 2.6712282900000002 Au
atom 13.1468465200000004 18.2532082299999985 2.2854431700000002 Au
atom 16.0109968800000004 18.1203278800000014 2.3304017400000001 Au
atom 18.8202706299999996 18.1147567000000009 2.5047064799999998 Au
atom 21.6167704000000001 18.0990976699999990 2.5206265999999999 Au
atom 24.4176269800000014 18.1502248299999991 2.5834091400000001 Au
atom 27.3430090499999991 18.0585322200000000 2.5155395700000001 Au
atom 1.9686864399999999 18.0660569899999999 2.7548240900000001 Au
atom 4.7364504700000003 18.1695087300000004 2.5849108799999998 Au
atom 9.0011428900000006 20.5693642300000015 2.6594087700000002 Au
atom 11.7744085700000003 20.5658683300000007 2.6711500799999999 Au
atom 14.5808376099999997 20.6311764300000000 2.6013683799999998 Au
atom 17.3256320200000005 20.5538964100000001 2.5984180499999998 Au
atom 20.2509186099999994 20.5827083199999983 2.7124435899999999 Au
atom 23.0892956500000004 20.5906153100000004 2.7241244800000000 Au
atom 25.8764454499999985 20.5053638700000000 2.8674271999999998 Au
atom 0.4293606600000000 20.5534980400000009 2.8376201499999998 Au
atom 3.3192374600000001 20.5147659199999985 2.8156537699999999 Au
atom 6.1679513799999999 20.5671356900000006 2.7074974900000002 Au
atom 7.6016625900000001 23.0619028499999992 2.7191646100000000 Au
atom 10.4195408199999999 23.0738641400000013 2.7071890100000000 Au
atom 13.2384540099999999 23.0701997100000007 2.6049544500000001 Au
atom 16.0994394099999987 23.1013056900000002 2.5571238300000001 Au
atom 18.8203283799999994 23.0356130499999985 2.6564363200000001 Au
atom 21.6130699799999988 23.1013746200000014 2.7463196800000000 Au
atom 24.4868082999999999 23.0763118700000014 2.9241009199999999 Au
atom 27.3092822300000009 23.0336403999999995 2.9034628200000001 Au
atom 1.8594210900000001 23.0618927199999995 2.5765802700000000 Au
atom 4.6811971799999998 23.0058840400000015 2.6875897599999998 Au
atom 8.9901558799999997 25.5755145599999985 2.6310030900000001 Au
atom 11.8028085899999997 25.5537462600000005 2.4938014300000000 Au
atom 14.5455308199999997 25.6907672299999987 2.6020395800000000 Au
atom 17.3373039599999998 25.6110080499999988 2.7955703999999999 Au
atom 20.1738032700000005 25.5599710999999985 2.7909004400000001 Au
atom 23.0769572300000014 25.5180773000000016 2.7913086100000002 Au
atom 25.9038638699999986 25.5339209099999991 2.8976843900000002 Au
atom 0.4877518800000000 25.6248053200000001 2.7533919700000000 Au
atom 3.2817298300000002 25.5532017799999984 2.6811909799999998 Au
atom 6.0494662200000002 25.4919659000000003 2.8644108899999998 Au
atom 7.5498442800000003 27.9805937200000017 2.5094312400000001 Au
atom 10.2565914199999995 28.0453896600000014 2.3387735599999999 Au
atom 13.0276412199999996 28.0203342999999983 2.6380816000000000 Au
atom 15.9222350200000005 28.1194838099999984 2.7176601699999998 Au
atom 18.8376074399999993 28.1092304099999986 2.5400918500000000 Au
atom 21.5898192199999990 28.0039265399999984 2.6859490199999998 Au
atom 24.4863914099999995 27.9748395700000003 2.6224006399999999 Au
atom 27.2448299100000000 28.0827310200000007 2.7010414200000001 Au
atom 1.8057484699999999 28.0946782500000012 2.5702619900000001 Au
atom 4.5901193600000001 28.0830965100000007 2.5486855500000001 Au
atom 8.9771905200000006 30.5251643100000010 2.6945380200000000 Au
atom 11.6946759799999995 30.5141705300000012 2.3374092599999998 Au
atom 14.5799069100000001 30.5054693899999982 2.6240427199999998 Au
atom 17.4354025899999989 30.5487993799999984 2.5655004699999999 Au
atom 20.2676685200000009 30.5095380600000006 2.5791080499999999 Au
atom 23.0510964700000009 30.4335676699999986 2.5951401100000000 Au
atom 25.8907065900000006 30.5427259100000015 2.7069912899999999 Au
atom 0.4078822700000000 30.5744256499999985 2.6147586999999999 Au
atom 3.1767753299999999 30.5033321899999983 2.5607203300000001 Au
atom 6.0587261699999999 30.4513817099999997 2.4657203299999999 Au
atom 7.5256420100000003 32.9044653799999978 2.6213553300000001 Au
atom 10.2921746200000008 33.0486418699999973 2.6693942000000002 Au
atom 12.9828691299999992 32.9300374899999966 2.3475972199999999 Au
atom 15.8614182800000005 32.9460340799999969 2.5937042199999998 Au
atom 18.7974119100000010 32.9290588699999986 2.3407528900000001 Au
atom 21.6396515399999991 32.9547642400000029 2.7144961200000002 Au
atom 24.5234785700000018 33.0639844299999979 2.6642393200000001 Au
atom 27.2573892399999984 33.0553242000000012 2.5153761299999999 Au
atom 1.8976770199999999 32.9388222899999974 2.5151371000000000 Au
atom 4.6891622999999996 32.9032792699999987 2.2550406100000000 Au
atom 8.8078991000000002 35.4287306200000032 2.5123406899999998 Au
atom 11.7393517999999997 35.4863162899999978 2.4771583700000002 Au
atom 14.4680443000000007 35.3590562500000019 2.5028257900000002 Au
atom 17.3542842200000003 35.4116564999999994 2.5244094399999999 Au
atom 20.1499451600000015 35.3726207200000005 2.6551605199999999 Au
atom 23.0593664899999986 35.4976931599999972 2.6813713799999999 Au
atom 25.8951555700000000 35.5390899900000008 2.6672219899999998 Au
atom 0.4890213400000000 35.4708884200000014 2.7355154900000000 Au
atom 3.2878514299999999 35.3412564699999976 2.6406138200000000 Au
atom 6.0191356999999996 35.3895961899999989 2.7568259099999999 Au
atom 7.4946826800000004 37.8631437299999973 2.6589175599999999 Au
atom 10.2885458300000003 37.8508166399999979 2.7148913200000000 Au
atom 13.1433445599999992 37.9266490500000018 2.5520774600000000 Au
atom 15.9232337899999994 37.8711598000000009 2.6854961799999999 Au
atom 18.7516159599999988 37.9067114699999976 2.6986795799999999 Au
atom 21.5740091900000017 37.7913480500000034 2.7298848100000002 Au
atom 24.4208482800000013 38.0160161700000003 2.6032437100000001 Au
atom 27.2845973599999994 37.9462098300000008 2.6146374200000002 Au
atom 1.9305257000000000 37.8925714499999984 2.6800404400000000 Au
atom 4.7068809199999997 37.8137666499999980 2.7142005199999999 Au
atom 9.0258233899999993 0.9204574400000000 2.8817306100000000 Au
atom 11.7653570199999997 0.9296969500000000 2.7315339600000001 Au
atom 14.5391219899999999 0.8988974800000000 2.7716904800000002 Au
atom 17.4001014100000013 0.8886584400000000 2.6365391800000002 Au
atom 20.1458848900000014 0.8558873200000000 2.8925284300000000 Au
atom 23.0324099199999992 0.8817472200000001 2.8447691300000000 Au
atom 25.8078245099999997 0.9863671100000000 2.5082570000000000 Au
atom 0.4660968400000000 0.9032991900000000 2.7237981400000000 Au
atom 3.3633607400000001 0.9290207600000000 2.7255897899999999 Au
atom 6.1484652000000004 0.8561120500000000 2.7994524799999998 Au
atom 7.4716594299999999 3.3123684299999998 2.6107222499999998 Au
atom 10.3390835699999997 3.4269429100000002 2.7269925200000000 Au
atom 13.1334745599999998 3.3610701199999999 2.6250678199999999 Au
atom 16.0066307399999985 3.3453900700000001 2.8311748099999998 Au
atom 18.7700488900000018 3.3585845999999999 2.8243857800000001 Au
atom 21.5716459500000006 3.3873836399999999 2.7581985200000001 Au
atom 24.3391114100000010 3.3385638599999998 2.5971200400000001 Au
atom 27.2015059500000014 3.3529855899999998 2.6468593399999998 Au
atom 1.8406111400000000 3.3941936799999999 2.6391149899999999 Au
atom 4.7223931200000004 3.3366252400000000 2.6657518800000002 Au
atom 8.9307594399999992 5.8673666999999998 2.7302802200000000 Au
atom 11.6749267299999993 5.8783863199999997 2.6272760399999999 Au
atom 14.6012777000000007 5.8640035700000004 2.8211710399999999 Au
atom 17.3781870199999986 5.8120791799999996 2.7997837699999999 Au
atom 20.1855774399999994 5.9100105400000000 2.7084000200000000 Au
atom 22.9871146000000017 5.9152643400000002 2.7113474300000000 Au
atom 25.7720693899999986 5.9004119599999996 2.5825969600000001 Au
atom 0.4887877900000000 5.8316991800000002 2.8055240700000001 Au
atom 3.3146285500000001 5.9248020800000001 2.7602365299999998 Au
atom 6.1709086299999996 5.8401605400000003 2.7639360399999999 Au
atom 7.5436613200000000 8.3816222800000002 2.7730112700000000 Au
atom 10.2818378399999997 8.3638057099999994 2.4420747600000001 Au
atom 13.1854015499999999 8.2987288699999997 2.7581212499999999 Au
atom 15.9830778200000001 8.2633376399999996 2.7122952300000001 Au
atom 18.7690188999999990 8.3138039199999998 2.9110384100000002 Au
atom 21.5579538399999997 8.4013798400000006 2.8046690900000000 Au
atom 24.4053830199999986 8.3924935600000001 2.6331935000000000 Au
atom 27.1853555500000006 8.3169663499999995 2.5810763300000001 Au
atom 1.8498623700000001 8.3740034399999992 2.6165050100000000 Au
atom 4.7151140800000002 8.3055363000000000 2.6379899000000000 Au
atom 9.0203422399999997 10.8812062399999991 2.6449275700000001 Au
atom 11.8320351600000002 10.7515606899999998 2.7005039599999998 Au
atom 14.5874140899999993 10.8177389999999995 2.5750007400000001 Au
atom 17.3480527000000002 10.8476085799999993 2.5376799499999998 Au
atom 20.1336879000000017 10.8517047299999998 2.5810095400000002 Au
atom 23.0438002100000006 10.8285373099999997 2.6225532500000002 Au
atom 25.7710845500000012 10.8005569599999998 2.4334453900000002 Au
atom 0.4120427700000000 10.8107459200000005 2.3075518399999999 Au
atom 3.2311570900000000 10.8113008599999993 2.5852624199999998 Au
atom 6.1771235200000003 10.8001722200000003 2.6880202099999999 Au
atom 7.3777172599999998 12.8349298500000000 5.6933046500000000 Cl
atom 7.4185032499999997 15.7388737800000005 8.5510809999999999 Cl
atom 7.3463893300000001 12.9971514399999997 8.3450978199999994 Na
atom 7.3762588700000000 15.8513587400000002 5.7828328000000004 Na
atom 7.2547536199999998 18.6097744700000014 5.7488681599999998 Cl
atom 7.5268489100000000 21.3885273299999987 8.5468658200000007 Cl
atom 7.4771059500000003 18.6518991000000014 8.4971262299999992 Na
atom 7.3596514800000001 21.4595272000000001 5.9483004199999998 Na
atom 7.3877285500000003 24.1777897999999993 5.8205443099999998 Cl
atom 7.3134465500000001 27.1433356799999999 8.3647967199999993 Cl
atom 7.3193237299999998 24.3625566199999994 8.3492416600000006 Na
atom 7.2509915300000003 27.1441191300000000 5.6272230700000003 Na
atom 7.3481173100000001 29.8994672199999982 5.6912471800000004 Cl
atom 7.5421366499999998 32.7565337500000027 8.6026973899999994 Cl
atom 7.2812730300000004 29.8557391299999999 8.3008818400000006 Na
atom 7.3722831500000003 32.7717616799999973 5.9532865900000003 Na
atom 7.3764843800000000 35.6123169500000003 5.8391769499999997 Cl
atom 7.4263241799999999 38.3857813300000004 8.7054039299999992 Cl
atom 7.3899934099999998 35.5550539400000005 8.4713324300000004 Na
atom 7.4205181700000002 38.3803192900000028 5.9869175500000003 Na
atom 7.4156278100000002 1.7447926000000000 5.7939828899999997 Cl
atom 7.6435934200000002 4.4850825199999997 8.7047718799999991 Cl
atom 7.5290707799999996 1.6671369199999999 8.4850033600000003 Na
atom 7.5449469999999996 4.5993417299999999 5.9797627100000001 Na
atom 7.5258466200000003 7.2996703800000002 5.8843619199999999 Cl
atom 7.5177652600000000 10.0300867700000005 8.6640165400000004 Cl
atom 7.6145670499999998 7.2628397400000004 8.5719333300000002 Na
atom 7.4850615700000001 10.1056345699999994 5.8728417200000003 Na
atom 10.2777246800000004 12.7691145800000001 5.7333217500000000 Na
atom 13.0561353899999997 12.9024730499999993 6.0623839799999999 Cl
atom 10.1924534199999997 15.7395870799999997 8.2640560300000008 Na
atom 13.1170369099999995 15.7900702600000002 8.4204016300000006 Cl
atom 13.1797725299999993 13.0143736800000003 8.7446813500000005 Na
atom 10.1883645699999992 12.9203905599999995 8.6185805799999997 Cl
atom 13.1261088299999997 15.7111763799999995 5.8092375000000001 Na
atom 10.2330211700000007 15.6729214500000005 5.6601330200000000 Cl
atom 10.2022921899999996 18.5774656399999998 5.7773911099999999 Na
atom 13.0676830600000002 18.5396938700000007 5.6758281400000001 Cl
atom 10.2541411000000000 21.3055150799999993 8.3126103400000009 Na
atom 13.0626726099999999 21.3932672799999999 8.4549104699999997 Cl
atom 13.0951992599999993 18.5350408500000015 8.2005834600000007 Na
atom 10.2899245100000005 18.6335555900000003 8.7356898199999993 Cl
atom 13.1062676899999992 21.5075325699999986 5.7322495299999998 Na
atom 10.3077145699999999 21.5433176800000012 5.6820346700000002 Cl
atom 10.2649154100000004 24.3042753100000013 5.8285741199999999 Na
atom 12.9302190299999999 24.3064986000000012 5.5621221099999998 Cl
atom 10.1293410900000005 27.1608814400000007 8.1388358800000002 Na
atom 12.8993362299999994 27.3005619300000006 8.4658637300000006 Cl
atom 12.8937637200000008 24.3580009699999991 8.1295988399999999 Na
atom 10.0932149700000000 24.4078443000000007 8.5819037500000004 Cl
atom 13.0537632699999993 27.0599823800000010 5.5804663200000002 Na
atom 10.2109346199999997 27.0572185599999990 5.5477127299999998 Cl
atom 10.2789674600000005 29.8459607300000016 5.7152304300000001 Na
atom 13.0657414400000000 30.0498472999999997 5.7376505499999997 Cl
atom 10.2544718199999991 32.7055576099999996 8.4084281000000001 Na
atom 13.0053753400000005 32.7893581299999965 8.6516690100000009 Cl
atom 13.0147941300000003 30.1455266900000005 8.2945518800000002 Na
atom 10.1666548199999998 29.9426463900000002 8.4360321299999992 Cl
atom 13.0167846500000000 32.7246188900000021 5.7880796400000003 Na
atom 10.2486717899999995 32.8082736300000022 5.6952838600000000 Cl
atom 10.1366337099999999 35.6174617100000006 5.8114203000000000 Na
atom 13.1691674400000007 35.4460939900000014 5.6397688900000000 Cl
atom 10.3238593800000000 38.3012027199999991 8.3529633800000003 Na
atom 13.1841507999999994 38.2167403699999966 8.5114988500000006 Cl
atom 12.9911745399999994 35.4179716599999992 8.3413214500000006 Na
atom 10.3369311699999997 35.6081817000000029 8.5916425000000007 Cl
atom 13.0911868600000005 38.3293345399999978 5.7318954700000004 Na
atom 10.2514523900000007 38.2784602300000003 5.7185958599999998 Cl
atom 10.3396598599999994 1.7014960900000000 5.8013372800000003 Na
atom 13.3065338499999992 1.5398403500000000 5.6423816499999999 Cl
atom 10.3719650199999993 4.2672354199999996 8.6701075500000009 Na
atom 13.2191755799999999 4.5528089899999999 8.7530029400000000 Cl
atom 13.1754508300000008 1.6491033100000001 8.2818806499999997 Na
atom 10.4454179400000005 1.5388065099999999 8.6406305499999991 Cl
atom 13.2157165499999998 4.4978236500000000 5.9239366799999997 Na
atom 10.4752914100000005 4.4478521799999999 6.0318672400000004 Cl
atom 10.3258716400000008 7.2146075700000001 6.0152286400000001 Na
atom 13.2226944399999997 7.3378829699999999 5.7575369099999998 Cl
atom 10.2867357500000001 10.3006721500000005 8.2877754899999996 Na
atom 13.1857878500000005 10.0628845499999997 8.5290016099999999 Cl
atom 13.1451551599999998 7.3307102600000000 8.3813180700000007 Na
atom 10.3342999700000000 7.4323212500000002 8.7911950900000004 Cl
atom 13.1413480800000002 10.1594966099999997 5.8605509800000002 Na
atom 10.3279285000000005 9.9556792299999994 5.7361458900000004 Cl
atom 15.9958779100000008 12.8856946899999993 5.7634307099999997 Na
atom 19.0131764899999993 12.9089794100000006 5.4516901700000000 Cl
atom 15.9177951600000007 15.7010008600000006 8.3139430799999996 Na
atom 18.8200817600000008 15.8679444200000006 8.4417445200000003 Cl
atom 18.8714887100000013 13.0495611000000000 8.1703448499999993 Na
atom 16.0361168200000002 13.0678870299999996 8.5145374100000009 Cl
atom 18.8651977600000009 15.8399125800000000 5.4785978699999998 Na
atom 16.1979003199999987 15.6136884699999996 5.6467352699999998 Cl
atom 15.9969765000000006 18.6235496500000011 5.6233102800000001 Na
atom 19.0957520900000013 18.6696783999999987 5.6708109999999996 Cl
atom 15.7448803099999992 21.4434617299999992 8.2463521800000006 Na
atom 18.6121747999999982 21.6125108700000013 8.6083311699999996 Cl
atom 18.5983537100000014 18.6323943099999987 8.3800239399999992 Na
atom 15.9162877100000006 18.7462652600000013 8.4406166700000007 Cl
atom 18.7826347799999986 21.5580718500000010 5.9301521599999996 Na
atom 16.0334700699999999 21.4334142300000003 5.5597380300000001 Cl
atom 15.8448191000000005 24.2830772000000010 5.7212417300000000 Na
atom 18.6133157599999990 24.3766667300000002 6.1257819700000002 Cl
atom 15.6404080699999994 27.1785579800000008 8.5140764699999991 Na
atom 18.6424783900000008 27.3430307299999988 8.6109104500000004 Cl
atom 18.5384092400000000 24.5713242600000008 8.7086903400000004 Na
atom 15.5502912700000007 24.3548173800000001 8.4533114000000005 Cl
atom 18.7037161900000015 27.1703583299999991 5.9788013700000002 Na
atom 15.7612948799999995 27.0706983100000009 5.7541183000000000 Cl
atom 15.7546718000000006 29.8689570000000018 5.6652841299999999 Na
atom 18.5648808099999982 29.9689018400000009 5.6544409800000004 Cl
atom 15.9899816200000000 32.6624774799999997 8.2103771099999996 Na
atom 18.7890837399999988 32.8161312499999980 8.5111945000000002 Cl
atom 18.7262416400000014 29.9485529200000009 8.3767542499999994 Na
atom 15.7792521400000005 30.1670204200000001 8.4704201000000001 Cl
atom 18.6504985800000007 32.9174710599999969 5.7420700000000000 Na
atom 15.8368074199999995 32.6507450100000014 5.5835575999999998 Cl
atom 15.9629071200000006 35.4684344799999991 5.7701351900000004 Na
atom 18.6637480300000007 35.6822488700000022 5.8000225900000002 Cl
atom 15.8201006100000008 38.2078768200000027 8.3236562299999992 Na
atom 18.6888938300000014 38.3132081199999988 8.7459563800000009 Cl
atom 18.6787686400000013 35.6127594599999995 8.4413781199999995 Na
atom 15.7768754999999992 35.3626936699999987 8.4822524599999998 Cl
atom 18.7325220899999998 38.3442983899999987 5.9968228999999997 Na