#===============================================================================
# Created using the Atomic Simulation Environment (ASE)

# Tue Dec 23 21:42:23 2025

#=======================================================
lattice_vector 28.1999999999999993 0.0000000000000000 0.0000000000000000 
lattice_vector 0.0000000000000000 39.4799999999999969 0.0000000000000000 
lattice_vector 0.0000000000000000 0.0000000000000000 62.3296083400000001 
atom 7.5641472500000004 14.7526949399999996 0.0150779000000000 Au
atom 10.3489570299999993 15.0451690500000002 -0.2174128900000000 Au
atom 13.0884648600000002 14.9391298799999994 -0.0631177600000000 Au
atom 15.8963715699999995 14.9242146499999997 0.0002896200000000 Au
atom 18.6823138399999991 14.8264135699999997 0.2536732300000000 Au
atom 21.5318538000000004 14.7872889700000005 0.1971927500000000 Au
atom 24.3552613099999995 14.6789211799999997 0.0841464500000000 Au
atom 27.2219164300000003 14.9447624900000005 0.1377178500000000 Au
atom 1.8096758100000001 14.7863354600000001 -0.0841999500000000 Au
atom 4.5655455099999998 14.8258620299999997 -0.1006133100000000 Au
atom 8.7960182400000004 17.3843035700000001 0.1282683100000000 Au
atom 11.7449772299999999 17.6084939399999989 0.0115286300000000 Au
atom 14.4985032900000004 17.4011448199999990 -0.0596202900000000 Au
atom 17.3065993800000015 17.2243081199999999 0.0045666200000000 Au
atom 20.1469038299999994 17.3280574999999999 0.0691348700000000 Au
atom 22.9141378200000005 17.0956025300000007 0.0005202000000000 Au
atom 25.7033744300000002 17.3029942299999995 0.0593767300000000 Au
atom 0.4506361700000000 17.2505304399999986 0.1269813100000000 Au
atom 3.2623975399999998 17.3756930800000013 -0.3242836200000000 Au
atom 5.9167968799999997 17.1987067499999995 0.1481533200000000 Au
atom 7.3507031700000001 19.7734481200000012 0.4109432100000000 Au
atom 10.2438042399999993 19.9027835899999985 0.0121392500000000 Au
atom 13.1603699600000006 19.9365930200000001 -0.2064573100000000 Au
atom 15.9323933199999992 19.8022705799999983 -0.1479979300000000 Au
atom 18.6370907400000014 19.6415764999999993 0.3214778300000000 Au
atom 21.4459504400000007 19.7298164900000010 -0.1653489300000000 Au
atom 24.2982475099999995 19.5820253700000002 0.0478761800000000 Au
atom 27.0990470600000002 19.7317984399999986 0.0095710100000000 Au
atom 1.7859977100000000 19.7876139100000010 0.2483178500000000 Au
atom 4.5994203400000000 19.8281415299999999 -0.1843693200000000 Au
atom 8.8452223300000004 22.2754806300000006 0.2741676200000000 Au
atom 11.7250170899999997 22.2716384100000013 0.0876410800000000 Au
atom 14.5187585000000006 22.2761633900000007 -0.1725710700000000 Au
atom 17.2854300400000014 22.2196768099999993 -0.2952725000000000 Au
atom 20.0684354300000010 22.2442950800000006 0.0077294700000000 Au
atom 22.8749215300000017 22.0205804799999996 0.1983096000000000 Au
atom 25.6577792600000016 22.2487116100000009 -0.1656458700000000 Au
atom 0.4157373000000000 22.1446698799999986 0.3226118100000000 Au
atom 3.2207505599999999 22.3240390399999988 0.0593865600000000 Au
atom 6.1548617200000004 22.2984037800000010 0.1542481500000000 Au
atom 7.5077602800000003 24.7521540599999987 0.1857302600000000 Au
atom 10.3915552000000009 24.7070509399999985 0.4145437500000000 Au
atom 13.2493327399999998 24.7562136899999992 0.0785433700000000 Au
atom 16.0039887400000005 24.7297024800000003 0.0764723000000000 Au
atom 18.7631521899999996 24.7077215999999993 -0.1151274500000000 Au
atom 21.4379150500000009 24.6934541799999998 0.2118475300000000 Au
atom 24.2999688899999988 24.7152727399999996 0.0097932500000000 Au
atom 27.1040865099999984 24.6659852000000015 -0.0805766900000000 Au
atom 1.7696121100000000 24.5875438499999994 0.0260235900000000 Au
atom 4.7085483100000003 24.7024522200000014 0.3028628900000000 Au
atom 8.9679475800000006 27.0945514699999990 0.1993859400000000 Au
atom 11.8071848300000006 27.1624800099999995 0.0955258200000000 Au
atom 14.4982146200000006 27.2690436699999985 -0.0554817500000000 Au
atom 17.4888354200000009 27.1857821500000014 -0.1068224100000000 Au
atom 20.2963820099999985 27.2048784700000006 -0.0301464600000000 Au
atom 22.9806009200000005 27.2767494900000003 0.2219741000000000 Au
atom 25.8143736500000003 27.1010636500000004 0.0487586000000000 Au
atom 0.4056710700000000 27.1547111799999996 -0.1461416400000000 Au
atom 3.2519690600000000 26.9976666700000010 0.0011138200000000 Au
atom 6.1613031100000004 27.1327229599999988 0.1838743900000000 Au
atom 7.6038464799999996 29.4858605800000007 -0.1892268800000000 Au
atom 10.3664879899999995 29.6167820199999987 -0.0089982900000000 Au
atom 13.0600335800000007 29.7735361400000009 0.1809890500000000 Au
atom 16.0113554299999983 29.6343171000000005 0.0034811400000000 Au
atom 18.9381508700000012 29.6383933599999985 -0.2051414300000000 Au
atom 21.6812237900000007 29.7318603500000016 -0.3723679200000000 Au
atom 24.4945512699999988 29.7556452900000004 -0.2437620700000000 Au
atom 27.2867432799999996 29.6713492499999987 -0.0758041900000000 Au
atom 1.8635040800000000 29.5358836300000007 -0.2526469300000000 Au
atom 4.6207175300000003 29.4672186399999987 -0.2550315700000000 Au
atom 8.8883766899999994 31.9564544800000014 0.1173935000000000 Au
atom 11.6932469099999992 32.2473116999999974 0.2205114700000000 Au
atom 14.5835119599999992 32.1963949800000009 -0.1085072900000000 Au
atom 17.4731366199999982 32.0698158399999969 -0.0330365600000000 Au
atom 20.1488448600000005 32.1268128199999978 -0.2137516300000000 Au
atom 22.9792434499999985 32.1370051199999978 -0.2513905400000000 Au
atom 25.8579968099999995 32.0800957499999981 -0.0642330700000000 Au
atom 0.4645305200000000 32.1197685200000009 -0.2555196300000000 Au
atom 3.2388002400000002 31.9522475800000016 -0.1209995800000000 Au
atom 6.0121940199999999 31.9284979299999989 -0.3233813200000000 Au
atom 7.4476319699999998 34.5062578400000035 -0.0693959900000000 Au
atom 10.2675162300000000 34.5785792000000001 0.3098773200000000 Au
atom 13.0704616900000001 34.7016853299999966 0.2465191100000000 Au
atom 15.9323049599999997 34.6605153900000005 0.0715524700000000 Au
atom 18.8404778099999994 34.5852190800000017 0.1194919700000000 Au
atom 21.5459681900000000 34.5809919100000016 -0.0608071000000000 Au
atom 24.4111551300000009 34.6854992800000019 -0.2227922000000000 Au
atom 27.1097064400000001 34.5675210899999996 0.1010514200000000 Au
atom 1.7547320500000001 34.5539515800000032 -0.0531760300000000 Au
atom 4.5608496000000001 34.5194989000000021 -0.1733098600000000 Au
atom 8.8068420399999994 36.9759359700000019 0.1753611800000000 Au
atom 11.6438077100000008 37.0139751700000019 -0.0074581700000000 Au
atom 14.5359830900000002 37.0995572499999966 -0.1013347500000000 Au
atom 17.3423729900000012 37.1036623600000013 -0.0255606300000000 Au
atom 20.3083693399999987 36.9956318999999993 0.0523423600000000 Au
atom 22.9392265500000008 37.1368668200000016 0.1321361100000000 Au
atom 25.7119701599999999 37.1589033699999973 0.2351117200000000 Au
atom 0.4051212300000000 37.0971470699999983 -0.1067328800000000 Au
atom 3.2562783400000002 37.0720276799999979 -0.1085858600000000 Au
atom 6.0300065800000002 37.1050737699999971 -0.0833340000000000 Au
atom 7.4382674099999999 0.0001843500000000 -0.2277543600000000 Au
atom 10.3597228200000000 -0.1636825100000000 0.1204380700000000 Au
atom 13.2213460600000001 -0.0150971700000000 -0.1949567800000000 Au
atom 15.9478591000000005 0.0570556000000000 0.0644398500000000 Au
atom 18.8202126099999987 -0.0141732700000000 -0.1263046200000000 Au
atom 21.4682341500000007 0.0235980900000000 0.4062800900000000 Au
atom 24.4043785100000008 0.1071761600000000 0.1995339600000000 Au
atom 27.1659006599999984 0.1860932700000000 0.0355518900000000 Au
atom 1.7940358500000000 0.0330261000000000 -0.0536021400000000 Au
atom 4.6413637899999998 0.1064777600000000 -0.0764015900000000 Au
atom 8.8443291100000003 2.3672514800000002 -0.0182698800000000 Au
atom 11.7605081400000007 2.4564250699999999 0.0044375900000000 Au
atom 14.5721578100000002 2.4733525699999999 0.0537417200000000 Au
atom 17.3053158700000012 2.5196804300000002 -0.1162323400000000 Au
atom 20.1233033299999988 2.5399651599999999 -0.0544195600000000 Au
atom 22.8998588800000000 2.4672514099999998 0.3294134400000000 Au
atom 25.7594210200000013 2.6222746799999999 0.3302459200000000 Au
atom 0.3955968000000000 2.6152528400000001 0.0661156100000000 Au
atom 3.2291209400000001 2.5044307400000001 0.0223043400000000 Au
atom 6.0340798500000004 2.5602914299999999 -0.2361455100000000 Au
atom 7.4666657000000001 4.9261284900000000 -0.0454122100000000 Au
atom 10.3167378599999999 4.9133992900000001 -0.0049979300000000 Au
atom 13.0606241500000007 5.0386457900000003 0.1271285600000000 Au
atom 15.8040658599999997 4.9362954200000004 0.0953173200000000 Au
atom 18.6697236699999998 5.0007176400000004 -0.4831501500000000 Au
atom 21.3868873400000012 4.9637303099999999 0.5183872100000000 Au
atom 24.3755554600000011 5.0037447300000002 0.2374917300000000 Au
atom 27.2840659899999984 4.9119105999999997 -0.1179015300000000 Au
atom 1.8811581900000001 5.0063495199999997 0.0504694200000000 Au
atom 4.5798968000000002 5.1348491799999998 0.0538726200000000 Au
atom 8.8843976300000005 7.3446084100000002 0.0226511500000000 Au
atom 11.7028841900000007 7.4736201199999996 -0.0375062500000000 Au
atom 14.5114001399999992 7.5348053100000003 0.2087320300000000 Au
atom 17.2177372099999992 7.4729973300000001 0.0342648300000000 Au
atom 19.9004660999999992 7.4478608399999997 0.6643718500000000 Au
atom 22.8159888100000003 7.3594806699999999 0.3283404300000000 Au
atom 25.6602356699999987 7.4044022299999996 0.1309934700000000 Au
atom 0.3716169900000000 7.4290926199999996 0.2368633500000000 Au
atom 3.1241583700000000 7.5521507899999998 0.3242193000000000 Au
atom 6.0366266299999998 7.4730612000000001 -0.1498851100000000 Au
atom 7.3836713600000001 9.8800564400000006 0.2445442400000000 Au
atom 10.2956013500000001 9.9675451699999993 0.1505778500000000 Au
atom 13.0339869799999999 10.0064786300000002 0.1733012100000000 Au
atom 15.8663113199999994 9.9867515800000000 -0.2333073000000000 Au
atom 18.6625547800000007 9.8477955300000009 -0.0114528900000000 Au
atom 21.5195149800000003 9.9448010700000005 -0.0340154800000000 Au
atom 24.2927056300000004 9.8544677099999998 0.1719362200000000 Au
atom 27.1876904699999997 9.7769448499999996 0.2553123400000000 Au
atom 1.7820962800000000 9.9552449900000006 0.0071133800000000 Au
atom 4.6262671299999996 10.0233682399999999 0.0447883700000000 Au
atom 8.8624353300000003 12.4055818900000006 -0.1603058200000000 Au
atom 11.6503732899999992 12.4239659899999992 0.0570504100000000 Au
atom 14.4895905299999992 12.5304167000000000 0.0379525000000000 Au
atom 17.3419218700000002 12.4435403499999993 0.0381634500000000 Au
atom 20.0521831800000001 12.3713360800000007 0.0508781300000000 Au
atom 22.9511623500000006 12.3366214799999998 0.3125714200000000 Au
atom 25.7598548899999997 12.2462029599999997 0.1659707700000000 Au
atom 0.4084414200000000 12.3881042899999994 0.2969743700000000 Au
atom 3.2409459100000002 12.2983836300000000 0.0226583000000000 Au
atom 6.0324139299999997 12.4008179799999994 0.0374221900000000 Au
atom 7.4951458400000002 13.1871619899999999 2.6614617900000002 Au
atom 10.1594575700000007 13.1779869299999994 2.4469697699999999 Au
atom 13.0204180800000007 13.2846738900000005 2.4892737800000000 Au
atom 15.8223115900000000 13.2101715899999999 2.7254083300000000 Au
atom 18.7048171500000002 13.1863701700000000 2.6910533800000001 Au
atom 21.5262248700000001 13.2360650300000007 2.8357310899999999 Au
atom 24.3827960799999985 13.2509750999999998 2.8146233100000000 Au
atom 27.1352375499999994 13.2525278100000001 2.5834448100000000 Au
atom 1.8801728099999999 13.1655441100000008 2.5857802300000001 Au
atom 4.6255440600000002 13.2131600700000007 2.5236133199999999 Au
atom 8.8299999200000006 15.5875136399999992 2.6048168999999999 Au
atom 11.7137186599999996 15.6698804299999992 2.3262509499999999 Au
atom 14.5128054899999999 15.7324764199999994 2.6099018400000000 Au
atom 17.3803016700000015 15.6335182800000005 2.5550915299999999 Au
atom 20.1446250999999990 15.6334491399999997 2.8402421000000002 Au
atom 23.0637617699999993 15.7745324900000004 2.6399710000000001 Au
atom 25.8208265499999996 15.7143945200000008 2.8275268599999999 Au
atom 0.4450026400000000 15.6549759999999996 2.8243738700000001 Au
atom 3.1929868699999999 15.7631020599999996 2.3490917499999999 Au
atom 6.0043066600000001 15.7511107100000007 2.7654021000000002 Au
atom 7.5358637000000002 18.0688186399999999 2.9887055100000000 Au
atom 10.2389781699999993 18.2162955000000011 2.5755779699999999 Au
atom 13.0130719999999993 18.0920452099999984 2.6627080400000001 Au
atom 15.9035802400000001 18.2189530300000015 2.7470029399999998 Au
atom 18.6387813899999983 17.9997642199999994 2.9589579200000000 Au
atom 21.4864195900000006 18.1746523800000013 2.4606134900000001 Au
atom 24.4103069700000006 18.2181765400000018 2.9372263300000001 Au
atom 27.3370871099999988 18.2086556199999983 2.5813448600000002 Au
atom 1.9487603400000000 18.1732590700000003 2.8770979300000001 Au
atom 4.6434355600000004 18.3126936499999999 2.2080128000000001 Au
atom 8.8284087099999997 20.5310488500000012 2.8444516300000000 Au
atom 11.7318011200000001 20.5517536499999984 2.5265642599999998 Au
atom 14.5050880699999993 20.6005287300000006 2.4292629600000000 Au
atom 17.2740964000000012 20.7703845800000018 2.8167463700000002 Au
atom 20.0557033400000009 20.6155746399999984 2.6391419699999998 Au
atom 22.8785773600000013 20.5932381299999996 2.7907936400000000 Au
atom 25.6588136599999999 20.6904612099999987 2.5802945300000002 Au
atom 0.4218394700000000 20.6101588400000004 2.8262902200000002 Au
atom 3.1309075800000001 20.6847849500000009 2.5728823599999999 Au
atom 5.9814737100000004 20.6412196100000003 2.7715280299999998 Au
atom 7.3973055099999998 22.9870392300000006 2.7580969899999999 Au
atom 10.2858338400000004 23.0750038099999983 2.9426257499999999 Au
atom 13.0276151700000007 23.1497354000000009 2.5447440000000001 Au
atom 15.8721993000000001 23.1058580000000013 2.4164661999999999 Au
atom 18.7976185300000012 23.1526030600000006 2.5471346200000000 Au
atom 21.5481878000000009 23.0831085400000013 2.7280417300000002 Au
atom 24.3144852200000017 23.1546198200000006 2.3542792000000001 Au
atom 27.1101905099999989 23.1929273699999996 2.5889611299999999 Au
atom 1.6935013900000000 23.1566859299999983 2.7713287200000001 Au
atom 4.6129407100000002 23.0224211600000004 2.7363806500000001 Au
atom 8.8435221899999998 25.6019847600000006 2.8837576500000002 Au
atom 11.7070916700000005 25.5782873700000017 2.7662050200000001 Au
atom 14.6004689400000007 25.5501234199999985 2.7433091900000002 Au
atom 17.3462681399999994 25.6460527899999988 2.6706358500000000 Au
atom 20.1958225200000001 25.6670959900000000 2.7666840100000001 Au
atom 22.8878168299999984 25.6688339200000009 2.7055487999999999 Au
atom 25.7283117799999985 25.5385983900000006 2.7028468600000002 Au
atom 0.3054539400000000 25.6222873100000008 2.4734311600000001 Au
atom 3.0614049500000000 25.5139163800000013 2.7532992799999998 Au
atom 5.9404177200000001 25.5051449900000016 2.8336907899999999 Au
atom 7.3089889100000001 28.0167435400000002 2.7915153500000001 Au
atom 10.2586026300000004 28.1549127500000012 2.8738139700000001 Au
atom 13.2016740600000002 27.9789101000000002 2.6513629200000000 Au
atom 16.0534958199999984 28.0360314099999997 2.4625507400000002 Au
atom 18.8616491500000016 28.0345441499999986 2.6205548200000002 Au
atom 21.6582224500000002 28.1992453800000007 2.6456756100000001 Au
atom 24.4425767399999998 28.1170824999999986 2.8005566800000001 Au
atom 27.2105310600000010 28.1121912999999992 2.5727557000000001 Au
atom 1.7777358100000000 28.0094245800000010 2.4950301000000001 Au
atom 4.5035528600000001 27.9119576599999988 2.5889539899999998 Au
atom 8.8805611399999993 30.5111681899999994 2.6976368599999998 Au
atom 11.7541328099999998 30.4605415800000010 2.7130766500000001 Au
atom 14.4708684000000005 30.4931601999999984 2.7705337999999999 Au
atom 17.3410750600000014 30.4897040600000011 2.5586588600000000 Au
atom 20.1404631499999986 30.5154147999999985 2.2363449499999999 Au
atom 23.0125253100000009 30.6993785599999995 2.5861983300000002 Au
atom 25.8205254300000000 30.4818890700000011 2.4219423000000000 Au
atom 0.4549942100000000 30.5541320600000006 2.3484040500000001 Au
atom 3.3324594699999999 30.4534850699999993 2.5344714499999998 Au
atom 6.1048912399999997 30.4294072000000000 2.1620153300000000 Au
atom 7.3748563200000001 33.0088475200000033 2.3885855999999999 Au
atom 10.1787076600000006 33.0441619599999967 2.7528069400000001 Au
atom 13.1453303199999993 32.9270854700000015 2.5736062300000002 Au
atom 16.0238167599999990 33.0311652299999992 2.4108940900000002 Au
atom 18.7663463800000017 32.9676669300000000 2.5443014100000001 Au
atom 21.5314605099999987 33.0182654199999988 2.4424938100000002 Au
atom 24.5134511800000006 32.9969314399999973 2.3553162099999998 Au
atom 27.1369473499999998 32.8147799799999973 2.5197792699999999 Au
atom 1.7746286800000000 32.8692998599999981 2.5407326000000001 Au
atom 4.5244491800000004 32.9382520400000018 2.4052462900000000 Au
atom 8.8754047400000005 35.4564373300000000 2.9402658800000001 Au
atom 11.7001882399999992 35.3371083999999982 2.8625166000000002 Au
atom 14.6440672200000002 35.3758969100000016 2.7145656599999999 Au
atom 17.5772982199999994 35.5179325599999984 2.5428773599999999 Au
atom 20.3298284000000002 35.4565756000000007 2.6027225299999999 Au
atom 23.0412996700000008 35.4964804900000033 2.3998335700000002 Au
atom 25.8662268900000001 35.3625309500000000 2.6549660099999999 Au
atom 0.4679917100000000 35.3202002299999975 2.6273961899999998 Au
atom 3.1935730800000002 35.3998221499999985 2.4214723800000000 Au
atom 5.9797510500000000 35.4196986700000025 2.4517249799999998 Au
atom 7.4750586900000000 38.0220618399999992 2.5765476600000001 Au
atom 10.2868159200000004 37.7752266099999972 2.8908429299999998 Au
atom 13.1973363500000005 37.8468336700000023 2.5297077099999998 Au
atom 15.9254874900000001 37.9203311699999972 2.6391278200000001 Au
atom 18.9038601700000015 38.0859915999999998 2.4492412699999999 Au
atom 21.6539944400000017 37.9588381900000016 3.0411575800000001 Au
atom 24.4477302799999983 37.8743124200000025 2.7535496600000000 Au
atom 27.3591069500000010 37.8105750900000004 2.6441506499999998 Au
atom 1.8807840400000000 37.9034749599999969 2.4300622000000001 Au
atom 4.6341247900000004 37.8705098699999994 2.3971616700000000 Au
atom 8.9187261299999996 0.8057050100000001 2.6381635499999998 Au
atom 11.7573886000000005 0.8255286700000000 2.6289045899999999 Au
atom 14.5514386699999996 1.0108932799999999 2.6359491300000002 Au
atom 17.3831610900000015 0.9491923300000000 2.6986805199999999 Au
atom 20.0875167200000000 1.0595931199999999 2.7096245400000001 Au
atom 22.9875230500000001 0.9579819200000000 2.8759831999999999 Au
atom 25.8650962799999995 0.8428927000000001 2.8699357900000000 Au
atom 0.4582876000000000 0.9026900800000000 2.5477524800000002 Au
atom 3.2835348799999999 0.9608597900000000 2.8625245300000000 Au
atom 6.0953091900000000 0.9144549300000000 2.3445150500000000 Au
atom 7.3611140400000004 3.3166236900000001 2.4543764700000001 Au
atom 10.2799367400000001 3.3633047999999999 2.5710818700000000 Au
atom 13.0930235800000005 3.3058619199999999 2.5985073999999999 Au
atom 16.1031329700000008 3.3682197800000000 2.6484948300000002 Au
atom 18.9158955800000008 3.6409419900000000 2.2103777500000001 Au
atom 21.5986473500000002 3.4408172600000002 3.0709539499999998 Au
atom 24.4083824999999983 3.4143185100000002 2.8166311400000001 Au
atom 27.2026848900000005 3.3780881699999998 2.7251692599999999 Au
atom 1.8951276900000000 3.3215825899999998 2.7841334999999998 Au
atom 4.6171759899999998 3.4250663399999999 2.5333142600000000 Au
atom 8.8606949600000000 5.7948250000000003 2.7914042200000000 Au
atom 11.7109744500000001 5.8541298299999998 2.5409003700000001 Au
atom 14.5535231799999991 5.8133719299999997 2.7937851899999999 Au
atom 17.3667735000000008 5.9300848999999998 2.3629274100000002 Au
atom 20.1340550200000017 5.8778017100000000 3.0657078200000001 Au
atom 22.9701416899999984 5.7888793600000001 2.9109844400000000 Au
atom 25.8032846700000000 5.8674272099999998 2.6359609200000000 Au
atom 0.3673331700000000 5.8419714899999997 2.5984903699999999 Au
atom 3.1683047800000002 5.8481098400000002 2.7473918799999999 Au
atom 6.1636982700000003 5.8500468799999998 2.6342973000000001 Au
atom 7.5407935100000003 8.3119539000000007 2.6999532700000000 Au
atom 10.2874237199999996 8.1874639800000004 2.5464741800000001 Au
atom 13.0462594099999993 8.3645462800000008 2.7431926700000000 Au
atom 15.8465824200000007 8.3237077999999993 2.7087929599999998 Au
atom 18.6050171999999989 8.3604276599999992 3.1571292899999999 Au
atom 21.5098873300000015 8.3239912799999995 2.9433262899999999 Au
atom 24.3794516500000000 8.3204427200000008 2.7459092699999998 Au
atom 27.1346840799999995 8.3670173999999999 2.7721670899999999 Au
atom 1.8191432300000001 8.2954012699999993 2.9509483099999998 Au
atom 4.6875073399999998 8.2817459600000003 2.5978905299999999 Au
atom 8.8542606300000006 10.7563732900000009 2.5607030100000001 Au
atom 11.6250719399999998 10.9435943099999999 2.8436686600000001 Au
atom 14.4367544799999994 10.7732740499999995 2.7640370999999999 Au
atom 17.2922712899999986 10.7736654000000005 2.5213435899999999 Au
atom 20.1479444299999990 10.6903871200000005 2.5351122099999999 Au
atom 22.9531360000000006 10.7212456399999994 2.8989512500000001 Au
atom 25.6574323399999997 10.8485642599999998 2.7453733400000000 Au
atom 0.4096231900000000 10.7677919099999997 2.6952295199999998 Au
atom 3.2658947800000000 10.6337387799999998 2.6339803700000002 Au
atom 6.1473792100000004 10.8191050299999993 2.8143877200000000 Au
atom 7.7074886800000000 13.2894865400000004 5.6710608300000001 Cl
atom 8.0544439899999993 16.1207568999999999 8.5876293900000000 Cl
atom 7.7420483100000004 13.2019359099999996 8.2208001300000006 Na
atom 7.8448140899999999 16.1721272800000015 5.8732306100000002 Na
atom 7.7248200499999999 18.9871503200000014 5.6530599900000000 Cl
atom 7.8471374300000001 21.6958865600000017 8.6324757699999992 Cl
atom 8.0077841400000001 19.0507641300000010 8.2493726400000007 Na
atom 7.8789703299999996 21.9065801200000010 5.9048784200000002 Na
atom 7.6811933100000003 24.6765100699999991 5.9013705500000002 Cl
atom 7.8358469800000004 27.2441480700000014 8.7061331499999994 Cl
atom 7.8186220300000002 24.5779050599999991 8.4968983599999994 Na
atom 7.9024244599999998 27.1883528000000005 5.9978103599999999 Na
atom 7.9163708200000000 30.0131855200000004 5.6545765200000000 Cl
atom 7.8387414700000004 32.8117590199999967 8.6693203200000006 Cl
atom 7.7936216099999998 29.8247760500000005 8.4548843100000006 Na
atom 7.9691191500000000 32.6630185599999976 5.8962802900000000 Na
atom 8.0226697199999997 35.5474108599999994 5.5591624599999996 Cl
atom 7.8482687400000000 38.5660163200000028 8.4422416499999997 Cl
atom 7.7647591499999997 35.6122851200000028 8.1769350200000002 Na
atom 8.0110312799999992 38.6163151599999992 5.8733538899999997 Na
atom 7.7974865400000004 2.1381275799999999 5.8754605199999999 Cl
atom 7.8245645399999999 4.8630268000000001 8.8680500000000002 Cl
atom 7.8198911300000002 2.0728443099999998 8.5573235600000004 Na
atom 7.8024839200000002 4.8181581199999997 6.0571882600000002 Na
atom 8.0518691600000007 7.2963926900000002 5.8890832199999998 Cl
atom 7.7792274499999996 10.5844569100000001 8.3174467399999994 Cl
atom 7.9609742600000004 7.6516479500000001 8.7872480100000008 Na
atom 7.8858953100000004 10.4543929700000007 5.8232358900000003 Na
atom 10.7215784099999993 13.0812829799999992 5.6743661699999999 Na
atom 13.5399244499999991 13.2850742700000009 5.7735954999999999 Cl
atom 10.7721330000000002 16.1357674700000011 8.1750926600000007 Na
atom 13.7122851899999993 16.1362853599999987 8.6186542399999997 Cl
atom 13.3486183799999996 13.3182266499999997 8.3810394800000001 Na
atom 10.6845579799999992 13.2333368199999999 8.5664198200000001 Cl
atom 13.5294526400000006 16.1774347399999989 5.7004550900000002 Na
atom 10.7933965000000001 16.0885448300000000 5.5217461999999999 Cl
atom 10.4171294200000002 19.0134681599999986 5.5779532900000000 Na
atom 13.5726465500000000 18.9414851900000016 5.6145212400000002 Cl
atom 10.7676567100000007 21.6667905699999999 8.3579697900000003 Na
atom 13.5353861000000002 21.6227982099999991 8.5066835300000001 Cl
atom 13.4492128799999993 18.9484240799999988 8.2827828700000001 Na
atom 10.7136342800000008 18.8425479399999993 8.4297104600000008 Cl
atom 13.5090465999999996 21.6298061699999984 5.7819911199999998 Na
atom 10.6251086400000005 21.6395783100000010 5.7175036700000001 Cl
atom 10.5669204400000005 24.5127032800000002 5.6231851900000001 Na
atom 13.4449712899999998 24.4677598200000013 5.7899440300000000 Cl
atom 10.7949469499999999 27.2986564600000001 8.4321749100000005 Na
atom 13.6000540799999996 27.3716393199999999 8.7420424499999996 Cl
atom 13.4940152700000002 24.3259692200000011 8.4116137900000005 Na
atom 10.6717275500000000 24.3744712899999989 8.5954846600000003 Cl
atom 13.4284912300000006 27.1432828199999996 5.9733248100000003 Na
atom 10.5966142899999998 27.1622607599999988 5.8135517800000001 Cl
atom 10.5987322400000004 30.0216358700000008 6.0060703200000001 Na
atom 13.5314993999999995 29.9377501200000005 5.7238235000000000 Cl
atom 10.6686163399999998 32.6932279700000024 8.4207532199999999 Na
atom 13.2946147600000000 32.9163379399999982 8.5380013199999993 Cl
atom 13.5368692999999993 30.1526777400000014 8.3669698500000003 Na
atom 10.6934001100000007 30.1167597600000008 8.6810079299999998 Cl
atom 13.5791529799999999 32.7672706099999971 5.8850365000000000 Na
atom 10.7310286500000007 32.7554748599999996 5.7231531999999996 Cl
atom 10.7473078399999995 35.6572421700000035 5.7052686599999998 Na
atom 13.4693141199999999 35.9027390700000026 5.6756179500000004 Cl
atom 10.6606410500000006 38.3880320900000029 8.2605132099999992 Na
atom 13.6559558499999998 38.5555020899999974 8.4628367799999999 Cl
atom 13.4374105200000002 35.7266895200000008 8.1658524499999992 Na
atom 10.6702828600000004 35.5370807500000012 8.4008081600000004 Cl
atom 13.6363089199999994 38.5482455200000018 5.7472732000000004 Na
atom 10.7003193299999992 38.4995389500000016 5.5966642000000002 Cl
atom 10.7061839100000000 1.9015642100000001 5.6737770500000000 Na
atom 13.5252912999999992 1.8013072400000001 5.5542749999999996 Cl
atom 10.7677594899999995 4.7150022299999996 8.4939740700000002 Na
atom 13.7047453000000008 4.6840658700000004 8.5014849399999992 Cl
atom 13.6478365600000000 1.8662313699999999 8.3658364699999996 Na
atom 10.9013454799999998 1.6872555100000000 8.3492655300000003 Cl
atom 13.4674767099999997 4.7215002999999998 5.6847655599999998 Na
atom 10.5942389099999996 4.6000814999999999 5.6457568399999998 Cl
atom 10.8714421899999998 7.5125768099999997 5.9456507399999996 Na
atom 13.6003863999999997 7.4531741499999997 5.8120019999999997 Cl
atom 10.5489830100000006 10.5282499699999992 8.4886269199999997 Na
atom 13.3423369699999999 10.3397946199999993 8.5060270599999992 Cl
atom 13.5285217499999995 7.3711142399999998 8.4416658099999999 Na
atom 10.9763179300000004 7.2236865200000002 8.6900494599999991 Cl
atom 13.3838050899999992 10.4385867500000007 5.8890545699999999 Na
atom 10.7064179100000008 10.4320290399999998 5.8216240499999996 Cl
atom 16.1418930200000013 13.2348040999999998 5.9932990999999998 Na
atom 19.0548895199999997 13.2289667099999999 5.9183812900000001 Cl
atom 16.2864152900000008 16.0119024500000009 8.3566482200000003 Na
atom 19.0257524700000005 16.0451365999999993 8.8090161699999996 Cl
atom 19.1377041800000001 13.1995719499999993 8.7161878099999992 Na
atom 16.1725482099999986 13.1239216800000005 8.7057314300000002 Cl
atom 19.2239681299999994 15.9816060800000006 6.0571342899999996 Na
atom 16.4064622600000014 16.2568828900000000 5.6113460200000000 Cl
atom 16.3314578200000007 18.9154450599999997 5.9342306899999997 Na
atom 19.1382203799999999 18.7565242900000015 5.7928396900000001 Cl
atom 16.3905921700000015 21.8171681299999989 8.3550189100000001 Na
atom 19.0804517999999987 21.7326957299999997 8.3988729400000004 Cl
atom 19.0438018900000010 18.9048960699999995 8.5169229699999995 Na
atom 16.2245211000000005 19.0556142199999989 8.6519761699999993 Cl
atom 19.1614684299999993 21.6283031399999999 5.6945680599999999 Na
atom 16.3456539899999989 21.6268176700000012 5.6221300599999999 Cl
atom 16.3323218799999985 24.5310085099999995 5.7000562800000001 Na
atom 19.1091216400000015 24.4221017700000012 5.6500467099999998 Cl
atom 16.4490980299999983 27.5036068600000014 8.1499163100000001 Na
atom 19.0491871400000008 27.4279847500000002 8.4450099800000000 Cl
atom 19.1865844500000016 24.5904053800000000 8.3504025100000003 Na
atom 16.2369129299999990 24.5302017499999998 8.4995772899999995 Cl
atom 19.2251677699999988 27.1827389000000004 5.8020170300000000 Na
atom 16.2127745599999997 27.2667512599999995 5.6725980299999996 Cl
atom 16.3496569200000010 30.3013967199999996 5.6341711500000002 Na
atom 19.2563769200000010 30.3376315299999995 5.5714198599999998 Cl
atom 16.3841881799999989 32.8578758000000022 8.2396121499999992 Na
atom 19.1222971000000008 32.8945625300000017 8.4403821299999997 Cl
atom 19.2533611600000008 30.1741412000000011 8.2913153499999996 Na
atom 16.2338508799999985 30.2517125500000006 8.4502289000000008 Cl
atom 19.2610346499999991 33.0573368100000025 5.7993161400000002 Na
atom 16.2541776599999999 32.9079898700000015 5.3991236200000001 Cl
atom 16.3341333099999986 35.6837127599999988 5.7767774300000001 Na
atom 19.2213866099999997 35.7302943500000012 5.9274551799999999 Cl
atom 16.4501628999999987 38.3979928099999981 8.4432811599999997 Na
atom 19.0787692600000014 38.4013534600000028 8.7537359099999996 Cl
atom 19.1236218499999993 35.6044649399999997 8.4118958100000008 Na
atom 16.2896843400000009 35.6229434600000019 8.4862041900000005 Cl
atom 19.1298015899999996 38.5098013699999981 5.9059212900000002 Na