#===============================================================================
# Created using the Atomic Simulation Environment (ASE)

# Tue Dec 23 21:41:59 2025

#=======================================================
lattice_vector 28.1999999999999993 0.0000000000000000 0.0000000000000000 
lattice_vector 0.0000000000000000 39.4799999999999969 0.0000000000000000 
lattice_vector 0.0000000000000000 0.0000000000000000 62.3296083400000001 
atom 7.4548712400000001 14.8750717800000007 -0.2652135600000000 Au
atom 10.3839032600000003 14.8730023100000004 -0.1928952800000000 Au
atom 13.2025966300000004 14.8225180299999995 0.0960654200000000 Au
atom 16.0166464700000013 14.7740098999999994 0.0590268000000000 Au
atom 18.9055558499999989 14.7800854499999996 -0.1291176000000000 Au
atom 21.6431475000000013 14.7993629400000000 -0.1959051800000000 Au
atom 24.4114945399999996 14.8233202899999998 -0.3281320500000000 Au
atom 27.2655208900000012 14.7887499299999998 -0.1027482000000000 Au
atom 1.9085377500000000 14.7727850000000007 -0.1176186800000000 Au
atom 4.6621270600000004 14.8538660599999996 -0.3224755400000000 Au
atom 8.9819467300000007 17.3422885200000003 -0.3057340500000000 Au
atom 11.7811383900000006 17.3000301100000016 -0.0188352900000000 Au
atom 14.6459706599999997 17.2274493900000003 -0.0334574200000000 Au
atom 17.4936121399999998 17.3036309899999985 0.1141924900000000 Au
atom 20.2154404800000016 17.3389613800000006 -0.2384648500000000 Au
atom 22.9946758699999982 17.2861544199999990 -0.1313894900000000 Au
atom 25.8102823199999989 17.2180851100000005 -0.0389229000000000 Au
atom 0.4802319000000000 17.2993319899999989 -0.1157393500000000 Au
atom 3.2924347799999998 17.3114496399999993 -0.1582872700000000 Au
atom 6.0800831799999999 17.3835658299999984 -0.3073214100000000 Au
atom 7.5702033499999999 19.8372002999999992 -0.0869412700000000 Au
atom 10.3298197399999996 19.7912161600000012 -0.0525557000000000 Au
atom 13.2396742100000004 19.7162684199999987 -0.0859457800000000 Au
atom 16.0140008099999989 19.7196448500000017 -0.0362411000000000 Au
atom 18.8155755700000000 19.8255344200000003 0.0244964500000000 Au
atom 21.6355584800000003 19.8852719799999988 -0.1270668300000000 Au
atom 24.4097573399999987 19.8082032699999999 -0.0189162300000000 Au
atom 27.2474201499999999 19.8212920600000011 -0.0252030700000000 Au
atom 1.8162173100000001 19.7659437300000000 -0.1745069900000000 Au
atom 4.7469495000000004 19.8337048100000004 -0.1573933600000000 Au
atom 8.9092927199999998 22.3228897000000011 0.0262533200000000 Au
atom 11.7521861899999998 22.1582647100000010 0.2020328000000000 Au
atom 14.6277374299999998 22.3209858799999985 -0.0775550000000000 Au
atom 17.4469806100000007 22.2647890699999991 -0.0380876600000000 Au
atom 20.1964136299999986 22.3632955200000012 -0.0418172800000000 Au
atom 23.0682182699999991 22.3084702600000000 -0.0260792200000000 Au
atom 25.9215999000000004 22.2582945099999989 -0.0489333400000000 Au
atom 0.5840878800000000 22.2086518599999998 0.1452748400000000 Au
atom 3.3144778600000002 22.2432429200000001 0.1726797600000000 Au
atom 6.1247600999999996 22.2779543599999990 0.0826778900000000 Au
atom 7.5238644700000004 24.7297969600000016 0.2008341400000000 Au
atom 10.3570618799999998 24.6637494000000004 0.2505521700000000 Au
atom 13.0450971500000001 24.7211539599999988 -0.1082860200000000 Au
atom 15.9847540899999991 24.7761771999999993 -0.0186413600000000 Au
atom 18.7496982800000005 24.8152100699999991 0.0924107300000000 Au
atom 21.5458667599999991 24.8363431000000006 -0.1527919200000000 Au
atom 24.4547940200000014 24.6962231099999983 -0.0329548400000000 Au
atom 27.3340613599999998 24.7007537399999997 -0.1402099900000000 Au
atom 1.9340656100000000 24.6628982100000016 0.0999378000000000 Au
atom 4.7012588400000004 24.7217596499999992 0.2499501700000000 Au
atom 8.9600811900000004 27.1228200699999995 0.2387001200000000 Au
atom 11.6796956400000003 27.1820030099999990 0.2126952500000000 Au
atom 14.4730210600000007 27.2036204300000009 -0.0980739500000000 Au
atom 17.3682273100000018 27.2382048200000000 -0.0070539400000000 Au
atom 20.2009937599999994 27.2766070899999988 -0.0344190000000000 Au
atom 23.0606188100000011 27.2017404200000001 -0.1478331400000000 Au
atom 25.8180921599999991 27.1396224900000007 0.0277390200000000 Au
atom 0.4485745300000000 27.1758596499999996 -0.0557877100000000 Au
atom 3.2343213000000000 27.1662846800000004 -0.0132719700000000 Au
atom 6.1686022300000003 27.1696084700000000 0.1266960900000000 Au
atom 7.4874670099999996 29.5772271800000013 0.0333954000000000 Au
atom 10.3349361799999997 29.6552418200000005 0.0427078100000000 Au
atom 13.1374220099999999 29.7372073700000001 0.0681085000000000 Au
atom 15.9795801100000006 29.6580555799999992 -0.2724811300000000 Au
atom 18.7973761500000016 29.7396815799999992 -0.1216874900000000 Au
atom 21.5995318000000012 29.7278253100000001 -0.0718817200000000 Au
atom 24.4091970499999995 29.6029329300000015 -0.0303906700000000 Au
atom 27.2228982799999990 29.7095788100000000 0.0285639600000000 Au
atom 1.8172046100000001 29.7403780600000012 -0.0282486200000000 Au
atom 4.6644699300000001 29.6070804599999988 -0.0603059700000000 Au
atom 8.8747797700000000 32.0522669899999997 -0.0013752500000000 Au
atom 11.6201658200000004 32.1392926700000032 -0.1968251500000000 Au
atom 14.4717081600000004 32.1517995999999968 -0.2324667000000000 Au
atom 17.2503127499999991 32.1650034199999979 -0.1039210100000000 Au
atom 20.1025410099999995 32.2184330899999978 -0.3175467300000000 Au
atom 22.9489898699999983 32.1823989800000021 -0.1762604300000000 Au
atom 25.8424635500000015 32.1916474100000016 -0.0973048500000000 Au
atom 0.4638607200000000 32.1858925599999992 -0.1208296300000000 Au
atom 3.2805119100000000 32.0807369899999983 -0.1683068100000000 Au
atom 6.0226357600000000 32.1283460599999984 -0.0135601600000000 Au
atom 7.5005569799999998 34.6642762899999965 -0.1001833000000000 Au
atom 10.3079327599999999 34.5994201299999986 -0.1422442300000000 Au
atom 13.0398015800000007 34.6393235299999986 -0.2794802300000000 Au
atom 15.8490592699999997 34.6170408099999989 -0.1322612500000000 Au
atom 18.6732679700000013 34.7091703299999992 -0.1907855800000000 Au
atom 21.5650925200000003 34.6522433100000029 -0.4337615500000000 Au
atom 24.3396993600000009 34.6829633299999998 -0.2782064800000000 Au
atom 27.1725549000000015 34.6663183699999990 -0.1229618500000000 Au
atom 1.8440202800000001 34.6343402500000010 -0.2111946200000000 Au
atom 4.6715843100000001 34.5605561799999990 0.0810135900000000 Au
atom 8.9034741000000004 37.1109004300000009 0.0115715600000000 Au
atom 11.6582748499999997 37.1103532099999995 -0.0550934000000000 Au
atom 14.4968630800000007 37.0972140499999981 0.1670243400000000 Au
atom 17.2212085899999998 37.1386098500000017 -0.0514313300000000 Au
atom 20.0737485999999983 37.1626568100000014 -0.1430768700000000 Au
atom 22.8741669200000004 37.1579062300000018 -0.0325446200000000 Au
atom 25.6828974300000006 37.1030972000000006 0.0064497000000000 Au
atom 0.4248280400000000 37.1133342700000028 0.0603335700000000 Au
atom 3.2585369499999999 37.0402625799999967 0.0732261500000000 Au
atom 6.0385983000000003 37.0657433599999990 0.2413195700000000 Au
atom 7.4788063500000002 0.0676490600000000 0.1359804300000000 Au
atom 10.3301846899999994 0.0158784900000000 0.2634130700000000 Au
atom 13.1121769300000004 0.1014797800000000 0.2656082000000000 Au
atom 15.9027679099999997 0.1011362500000000 0.2255060700000000 Au
atom 18.6276096600000010 0.0939848800000000 -0.0323158400000000 Au
atom 21.4690050100000001 0.0886030300000000 -0.1481307500000000 Au
atom 24.4232542200000005 0.1094378800000000 0.0415050200000000 Au
atom 27.2973139099999997 0.0270256700000000 0.1773689300000000 Au
atom 1.8679294099999999 0.1014401000000000 0.1517769500000000 Au
atom 4.6216051499999997 -0.0245466400000000 0.4084905800000000 Au
atom 8.8831088099999995 2.4799271300000001 0.0998344200000000 Au
atom 11.6226296700000002 2.5307303499999998 0.2030502400000000 Au
atom 14.4817032799999996 2.5810591100000000 0.3306534400000000 Au
atom 17.4000773600000009 2.5270563300000002 0.3811824000000000 Au
atom 20.2253122500000018 2.4920364199999998 0.2800480600000000 Au
atom 23.0045962499999987 2.4252650000000000 0.1025140500000000 Au
atom 25.8772525299999998 2.5248035099999999 -0.0288423700000000 Au
atom 0.4766189900000000 2.5561520199999999 0.0647035500000000 Au
atom 3.2720053299999998 2.4492623099999999 0.2320938800000000 Au
atom 6.0527333700000003 2.4662790999999999 0.2476231100000000 Au
atom 7.5093163299999999 4.9680343100000002 0.1800010000000000 Au
atom 10.2880450299999993 5.0144096500000002 0.1865971900000000 Au
atom 13.0592818200000007 4.9693889499999999 0.2294258400000000 Au
atom 15.9631338100000004 4.9676284500000003 0.2733939400000000 Au
atom 18.7947642100000003 4.9851795799999996 0.4279009100000000 Au
atom 21.6271466100000005 4.8863637200000003 0.3145601200000000 Au
atom 24.3727853299999992 4.9417937800000002 0.1156884300000000 Au
atom 27.3470169299999988 4.9438449499999999 0.0832449700000000 Au
atom 2.0043074999999999 4.9930108100000004 0.1118753600000000 Au
atom 4.7872503799999997 4.9429429100000002 0.1495119500000000 Au
atom 9.0045058900000008 7.4997876200000002 0.1307482200000000 Au
atom 11.8406333600000000 7.4817866700000000 0.0152008600000000 Au
atom 14.5745389999999997 7.4128718600000001 0.3527937700000000 Au
atom 17.3321032700000011 7.3952824100000001 0.4047195100000000 Au
atom 20.1311744899999994 7.4002934299999996 0.2172383000000000 Au
atom 22.9957266699999998 7.2753521699999997 0.1954566900000000 Au
atom 25.8136380199999991 7.3380939700000001 0.0767173300000000 Au
atom 0.5677909799999999 7.4293652600000000 0.2155030600000000 Au
atom 3.3705904200000001 7.5455256200000003 0.3123167000000000 Au
atom 6.2259075499999996 7.5469619000000003 0.2427426400000000 Au
atom 7.5520761500000004 10.0325956000000005 0.1910933100000000 Au
atom 10.3907910300000008 9.9560327199999996 0.1161003200000000 Au
atom 13.1846952799999997 9.9169982300000008 0.1716935700000000 Au
atom 15.9066723799999998 9.9316023799999993 0.1781972600000000 Au
atom 18.7917166900000012 9.8230006000000003 0.1006712200000000 Au
atom 21.6420166899999984 9.8341682499999994 0.0795545100000000 Au
atom 24.4160799799999992 9.8388425000000002 0.0245884000000000 Au
atom 27.1985646000000010 9.8154779899999998 -0.1329107800000000 Au
atom 1.8815848600000000 9.9362924400000008 0.0852378400000000 Au
atom 4.7548553199999999 9.9497677699999993 -0.0205621300000000 Au
atom 8.9354529300000003 12.5081474700000008 -0.2201250800000000 Au
atom 11.7867999000000001 12.4173364399999997 0.0186597500000000 Au
atom 14.6208602800000005 12.3427563399999993 -0.1681080400000000 Au
atom 17.4487496899999996 12.3026316599999994 -0.0531767700000000 Au
atom 20.1852146800000014 12.2685199199999992 -0.0741799100000000 Au
atom 22.9964041399999992 12.3366284700000008 -0.2765749200000000 Au
atom 25.9142605999999986 12.3094350699999993 -0.2830320900000000 Au
atom 0.5297401900000001 12.3136309399999995 -0.1377329900000000 Au
atom 3.3523794200000001 12.4019483699999995 -0.2622693800000000 Au
atom 6.1440316700000004 12.3812836300000004 -0.0984208000000000 Au
atom 7.5855388599999998 13.2690772100000007 2.4885506099999999 Au
atom 10.3223974599999995 13.2723678599999992 2.4342764400000001 Au
atom 13.1839303999999995 13.2379988900000001 2.6360729200000002 Au
atom 16.0231126800000006 13.1744944200000003 2.4101528299999999 Au
atom 18.8700717599999983 13.2469328599999994 2.5485968300000001 Au
atom 21.7108052200000010 13.1974979200000000 2.4985695600000000 Au
atom 24.4581376199999987 13.1718504999999997 2.2426376399999999 Au
atom 27.2970546399999989 13.1256526299999994 2.3071980000000001 Au
atom 1.9215132100000001 13.2784137100000006 2.5487521100000001 Au
atom 4.8054441900000002 13.2220695900000003 2.3227503100000000 Au
atom 8.9453184100000005 15.7224840599999993 2.3566926300000000 Au
atom 11.8048770699999999 15.6478729399999992 2.5972116199999999 Au
atom 14.6359350700000004 15.6658097999999999 2.6560647899999998 Au
atom 17.4906483000000001 15.6493538200000000 2.5662958100000002 Au
atom 20.3816071699999988 15.7015425900000007 2.2887880300000001 Au
atom 23.0564908300000013 15.6105659100000000 2.5127454000000000 Au
atom 25.8544979999999995 15.5385782999999993 2.4111850600000002 Au
atom 0.5027402300000000 15.7020914999999999 2.4688644200000001 Au
atom 3.3644294499999998 15.7380153000000007 2.4660453000000002 Au
atom 6.1245466300000002 15.6111010199999996 2.4119668800000000 Au
atom 7.5399881899999999 18.1163904400000000 2.3047181499999998 Au
atom 10.3541267700000006 18.1851735099999985 2.5330456200000002 Au
atom 13.1990213199999999 18.1141286500000014 2.4629581599999999 Au
atom 16.0048944999999989 18.1203274999999984 2.5890724000000001 Au
atom 18.8758670399999993 18.1321600499999995 2.5548826700000000 Au
atom 21.6690018100000010 18.1648174199999985 2.4600495599999999 Au
atom 24.4682563399999999 18.1210876200000008 2.5203384199999999 Au
atom 27.2846162099999994 18.0369637099999984 2.5021286599999999 Au
atom 1.9186520800000000 18.0437201300000005 2.5550915000000001 Au
atom 4.7804009299999999 18.0875880900000006 2.3512984399999999 Au
atom 8.9564116699999996 20.5809608500000003 2.5910049499999999 Au
atom 11.8333946700000006 20.5611893999999999 2.6003678200000002 Au
atom 14.5986811000000003 20.5683116699999999 2.6598271599999999 Au
atom 17.4386661300000014 20.5112066199999994 2.6191506000000002 Au
atom 20.3210519800000000 20.6502521899999998 2.5219522599999999 Au
atom 23.0823124700000015 20.6579907200000008 2.7028196900000001 Au
atom 25.7935920500000009 20.6363793700000002 2.6247914899999998 Au
atom 0.4724718200000000 20.5814364800000007 2.6099467000000001 Au
atom 3.2681899400000001 20.4852254599999988 2.4970328099999999 Au
atom 6.1279604100000000 20.5168399500000014 2.6319931300000001 Au
atom 7.5093843199999997 23.0399898500000013 2.8134995400000000 Au
atom 10.3656600099999991 23.0777476700000008 2.7621197600000000 Au
atom 13.3161222600000002 23.0770290200000012 2.6224034100000000 Au
atom 16.0540910299999986 22.9942275800000004 2.5267145000000002 Au
atom 18.8254558500000009 23.0995031600000011 2.5706518599999999 Au
atom 21.6394547700000004 23.1777419900000012 2.5594942000000001 Au
atom 24.4858775400000006 23.0958015100000011 2.7173678400000001 Au
atom 27.1966559200000013 23.0578822199999998 2.6964942100000000 Au
atom 1.9619918300000001 23.0452063799999998 2.7252318099999999 Au
atom 4.7777959699999997 22.9780274499999990 2.6641637000000000 Au
atom 8.8621543999999997 25.5763829800000018 2.7962241699999999 Au
atom 11.7891902099999992 25.5579328299999986 2.7605929699999998 Au
atom 14.5273099099999996 25.5766364099999990 2.5016778199999998 Au
atom 17.3125292199999983 25.6098937100000015 2.7398113899999998 Au
atom 20.1861788799999999 25.5725405499999994 2.5956267400000002 Au
atom 23.0121009699999988 25.6329915499999998 2.4959964100000001 Au
atom 25.8888953899999983 25.5338758000000006 2.5657744800000000 Au
atom 0.4722014800000000 25.4887278600000009 2.5870378500000002 Au
atom 3.2881999300000002 25.5268747699999992 2.8079933300000000 Au
atom 6.0959196200000001 25.5600658600000017 2.7890160800000001 Au
atom 7.4943415499999997 27.9656193399999999 2.8106829400000000 Au
atom 10.4387187699999995 28.0537669399999992 2.9705909600000000 Au
atom 13.1858811700000000 27.9917799800000004 2.5980087500000000 Au
atom 15.9351660499999994 28.1211474099999990 2.4395794799999999 Au
atom 18.8301086099999999 28.1023949600000016 2.5326078999999999 Au
atom 21.5685168300000001 28.1434506700000000 2.5078264199999998 Au
atom 24.4386564700000015 28.0020650899999985 2.5440145300000001 Au
atom 27.2712303300000016 28.0539793000000017 2.5239741599999999 Au
atom 1.8822130900000000 27.9265801300000014 2.5261044600000000 Au
atom 4.7171195900000003 28.0259062199999995 2.5810890500000001 Au
atom 9.0232284699999994 30.4233584599999993 2.5936079699999999 Au
atom 11.7588852199999998 30.5416862699999996 2.5610372699999999 Au
atom 14.5814312299999997 30.5526196799999994 2.6084270699999998 Au
atom 17.3886082199999983 30.5465020799999998 2.5369800599999999 Au
atom 20.2349187300000004 30.6681593799999987 2.3975052099999998 Au
atom 23.0755599199999999 30.5499271800000010 2.5035320900000002 Au
atom 25.8247791100000015 30.5392930400000004 2.5131169999999998 Au
atom 0.4067444500000000 30.4679171699999998 2.5694318100000002 Au
atom 3.2134401900000000 30.4159443699999983 2.5275435800000001 Au
atom 6.1309239399999997 30.5004801500000013 2.6737769000000000 Au
atom 7.5312151299999996 32.8863271999999967 2.6680674799999999 Au
atom 10.3572864599999992 32.9489053100000007 2.4684964900000002 Au
atom 13.1857292699999995 33.0074749799999978 2.4404878999999999 Au
atom 16.0034881599999999 32.9811208100000002 2.4611051399999999 Au
atom 18.7674985099999994 33.0233062499999974 2.3723102200000001 Au
atom 21.6368555100000002 33.0463746000000000 2.3058141299999999 Au
atom 24.4190558899999992 33.0483759600000013 2.4348362400000001 Au
atom 27.2334588599999989 32.9694651800000003 2.4970361900000002 Au
atom 1.8624341900000001 32.9231403400000033 2.4613724900000000 Au
atom 4.6225349199999997 32.8786389600000035 2.5712699799999998 Au
atom 8.9902973599999996 35.4836780600000026 2.4602086299999999 Au
atom 11.8006085400000007 35.4382816899999966 2.4566539100000000 Au
atom 14.5906416100000005 35.4206414300000034 2.5309267100000001 Au
atom 17.3347898299999983 35.4542096899999990 2.4580073800000002 Au
atom 20.2192419699999988 35.4821033600000035 2.3282847699999998 Au
atom 22.9819713800000009 35.4548340099999990 2.4363289099999998 Au
atom 25.8026469499999997 35.5183346600000007 2.4510782199999999 Au
atom 0.4098903000000000 35.4811780300000024 2.5027690800000002 Au
atom 3.2479271900000000 35.3426797899999983 2.6764259600000000 Au
atom 6.1286390099999997 35.2916153999999977 2.7013309200000002 Au
atom 7.4519558899999998 37.7407545200000030 2.6837164699999998 Au
atom 10.3512616899999994 37.8087940799999984 2.8324162600000000 Au
atom 13.1992114600000008 37.8887918699999986 2.7489876199999999 Au
atom 16.0169029499999986 37.8964515500000019 2.7642080299999998 Au
atom 18.6857766400000003 37.9099547100000009 2.5608062000000000 Au
atom 21.5013422399999996 37.8690384499999979 2.6285230600000000 Au
atom 24.3621249999999989 37.9026415299999968 2.6203699500000002 Au
atom 27.1611765200000015 37.9237449600000005 2.7460610600000002 Au
atom 1.8424904499999999 37.8232936899999999 2.6802174800000000 Au
atom 4.5937980300000003 37.7787855899999983 2.9216934100000000 Au
atom 8.8509322400000006 0.7772221700000000 2.7522293699999998 Au
atom 11.6846802699999994 0.8854498600000000 2.8394328999999998 Au
atom 14.5592934899999999 0.9639332000000000 2.7651232700000001 Au
atom 17.3944074399999984 0.8613266600000000 2.7972140599999999 Au
atom 20.1866692299999997 0.8390409400000000 2.6158382100000002 Au
atom 22.9638287699999992 0.8543831000000000 2.6232359700000001 Au
atom 25.8076706300000005 0.8799200700000001 2.6894856499999999 Au
atom 0.4542584500000000 0.8204190000000000 2.7685940900000001 Au
atom 3.2778945300000002 0.8460136500000000 3.0260470200000000 Au
atom 6.0397841999999997 0.7757800900000000 2.9541114400000001 Au
atom 7.4733844999999999 3.3404170099999999 2.7819092599999999 Au
atom 10.2815662900000007 3.3876648800000000 2.8506483199999999 Au
atom 13.1036659600000007 3.4067403600000001 2.7670478100000002 Au
atom 15.9732762400000006 3.3763633300000002 2.8788978200000002 Au
atom 18.8335802900000004 3.3693790500000000 3.0147041200000002 Au
atom 21.5932387000000006 3.2726417500000000 2.9332410000000002 Au
atom 24.4254701499999989 3.3342860900000000 2.6259502299999999 Au
atom 27.2335633799999997 3.3861910200000001 2.7778000600000001 Au
atom 1.8114918400000000 3.3626298399999999 2.7201296699999999 Au
atom 4.6625569599999999 3.3327674599999999 2.7176609300000001 Au
atom 8.8496685500000005 5.8388405399999996 2.7981373700000001 Au
atom 11.6891848599999992 5.8793285099999997 2.6718679399999998 Au
atom 14.5394128400000007 5.8722125800000002 3.0042018499999998 Au
atom 17.3852168300000010 5.8844137600000002 3.0254285400000001 Au
atom 20.1804409000000007 5.9039367299999999 2.9773337299999998 Au
atom 23.0041247899999988 5.7527514499999999 2.7813797000000000 Au
atom 25.7796082999999996 5.8374317400000004 2.6372906000000000 Au
atom 0.3956455900000000 5.8855748500000002 2.9765416999999998 Au
atom 3.2182218499999999 5.8251882300000002 2.7116562000000002 Au
atom 6.0575607700000003 5.8877070399999996 2.6954292000000000 Au
atom 7.5162918400000001 8.3425615299999993 2.8937315199999998 Au
atom 10.3357476899999998 8.2869359700000000 2.6432728399999998 Au
atom 13.2187851799999994 8.3586351600000004 2.7839973599999999 Au
atom 16.0121577600000009 8.3454101099999995 2.8684415900000002 Au
atom 18.7412984899999984 8.3105212399999999 2.7732619600000001 Au
atom 21.5980739600000007 8.3203791999999996 2.7538484900000002 Au
atom 24.4457503799999998 8.2914751599999992 2.6535485200000002 Au
atom 27.1765990399999993 8.2869496100000006 2.5906817700000002 Au
atom 1.8551423600000001 8.3866975700000008 2.9341602199999999 Au
atom 4.6625518399999999 8.3514698500000009 2.8538450000000002 Au
atom 8.9674604400000000 10.7956644100000005 2.7725268900000000 Au
atom 11.7616063099999995 10.8153915099999995 2.7709200200000002 Au
atom 14.5420968500000001 10.8323628599999999 2.7489975800000002 Au
atom 17.3806214200000007 10.8258343099999994 2.8562700500000000 Au
atom 20.2037830599999992 10.7728940299999998 2.6732955199999999 Au
atom 23.0398376099999993 10.7366728600000005 2.6407612500000002 Au
atom 25.8325162100000014 10.7258697499999993 2.4910804999999998 Au
atom 0.4311721100000000 10.7234005400000001 2.4808877200000001 Au
atom 3.3158363799999999 10.8065027899999997 2.6104927800000000 Au
atom 6.1639999300000001 10.7574667099999992 2.6650433800000002 Au
atom 7.4399829600000000 12.7614731500000005 5.5762432500000001 Cl
atom 7.4766144900000002 15.8157189000000002 8.2879702799999997 Cl
atom 7.5588116599999999 12.9493190100000000 8.3415070999999994 Na
atom 7.5181953100000003 15.6020075100000000 5.5951768000000000 Na
atom 7.4500527099999996 18.6281070399999997 5.6309234300000002 Cl
atom 7.4336412300000001 21.3463743800000003 8.5555283899999992 Cl
atom 7.3890250100000001 18.5219540299999998 8.3491036300000001 Na
atom 7.4717777099999996 21.4287983400000002 5.9541896699999999 Na
atom 7.5485923300000000 24.2331815400000004 5.8495571999999996 Cl
atom 7.5455874800000000 27.1894037900000001 8.5752774499999997 Cl
atom 7.4555254199999998 24.1491593999999985 8.5318424499999992 Na
atom 7.6103905699999999 27.1247287899999989 5.8495689500000001 Na
atom 7.3746395199999997 29.8734800500000013 5.7672202099999996 Cl
atom 7.6642173800000002 32.7875672099999989 8.5585045799999993 Cl
atom 7.4004933399999997 29.8604863499999986 8.4649330299999992 Na
atom 7.5716135500000004 32.6623039400000010 5.9500285200000000 Na
atom 7.4494711499999999 35.4184201200000004 5.8144636900000002 Cl
atom 7.5522728199999998 38.3871379400000023 8.6731036699999997 Cl
atom 7.4996489300000002 35.5770991199999997 8.4842257300000004 Na
atom 7.6136600000000003 38.4144840900000020 5.9111024299999997 Na
atom 7.7879651599999997 1.8606113300000000 5.9024198099999996 Cl
atom 7.6231464000000004 4.5509331599999996 8.7671550600000003 Cl
atom 7.7258683200000000 1.6517491900000001 8.5436817299999994 Na
atom 7.6929341999999998 4.4742024999999996 6.0629809899999998 Na
atom 7.6013493900000002 7.1915661399999999 5.9708730699999997 Cl
atom 7.4098009500000002 10.2706368200000000 8.7518334800000002 Cl
atom 7.3847431700000001 7.3886195900000002 8.5839975499999994 Na
atom 7.5706129300000002 10.1174457300000000 5.9311602900000002 Na
atom 10.3132830500000008 12.8506201099999995 5.6563590599999998 Na
atom 13.1508665899999997 12.7125544700000006 5.6972670599999997 Cl
atom 10.2531671600000003 15.6682804299999994 8.1709379700000007 Na
atom 13.0479952499999996 15.8732487199999994 8.2736216200000001 Cl
atom 12.9621632800000004 13.0099871900000004 8.4019233100000008 Na
atom 10.2340298900000004 13.0437687699999998 8.3453997900000001 Cl
atom 13.2038514399999993 15.6996460399999993 5.7020336100000000 Na
atom 10.4039550799999994 15.6641181199999995 5.7531040100000004 Cl
atom 10.2100491699999996 18.7549907199999986 5.7032344400000001 Na
atom 13.1391220400000002 18.5962216399999996 5.5334173000000000 Cl
atom 10.3252762499999999 21.4922961100000016 8.3541916500000006 Na
atom 13.0839416199999992 21.3541953500000012 8.4602394099999998 Cl
atom 12.9676558300000000 18.4261587300000009 8.1158767199999993 Na
atom 10.1398282000000002 18.5201833100000002 8.3382319999999996 Cl
atom 13.1004275099999994 21.5070456099999987 5.7814983700000004 Na
atom 10.2249197400000007 21.4819467000000017 5.7506392200000001 Cl
atom 10.1990440400000004 24.3570227999999993 5.8620101000000000 Na
atom 12.9805872999999998 24.2124069700000000 5.7455805199999999 Cl
atom 10.2966518199999992 27.1227057500000015 8.5797800700000000 Na
atom 13.0687279299999997 27.0536559899999993 8.6683743300000007 Cl
atom 12.9234323900000003 24.3440769500000016 8.4781806399999997 Na
atom 10.2374413499999992 24.3061767000000017 8.7806450900000002 Cl
atom 13.0676691599999995 27.0186199100000017 5.7848688700000004 Na
atom 10.3875869400000003 27.2605641399999996 5.9117761499999997 Cl
atom 10.2444569600000008 29.9593455300000002 5.6944816300000003 Na
atom 13.2367938100000000 29.8861634599999988 5.5368456600000000 Cl
atom 10.3696204999999999 32.6830945000000028 8.2365080699999993 Na
atom 13.1316815800000004 32.6114713999999992 8.3778184800000002 Cl
atom 13.2017329399999994 29.9389658999999995 8.1992224900000004 Na
atom 10.2447678199999999 29.9900711300000005 8.3290412499999995 Cl
atom 13.1970549399999992 32.6418454000000011 5.6823430200000002 Na
atom 10.2013681500000004 32.8078085499999972 5.4528308399999998 Cl
atom 10.2291550099999995 35.4175011299999980 5.7609861499999999 Na
atom 13.1097761500000001 35.4232355099999978 5.7017998900000002 Cl
atom 10.4097073699999996 38.3365971500000029 8.4227254100000000 Na
atom 12.9940949799999999 38.2675207500000027 8.6065890899999999 Cl
atom 13.1584057100000003 35.4294395800000004 8.3089497100000003 Na
atom 10.3325248799999994 35.4626782100000000 8.4547955800000008 Cl
atom 13.1180079599999999 38.4088407200000006 5.9370885199999996 Na
atom 10.3592131599999995 38.3874091300000018 5.7635924599999999 Cl
atom 10.4920115299999992 1.7535536700000001 6.0157141599999999 Na
atom 13.2688357600000000 1.7780282599999999 5.9472585999999996 Cl
atom 10.4457695200000007 4.6433843799999996 8.5475284299999998 Na
atom 13.2812922899999997 4.6397690599999999 8.7918561200000003 Cl
atom 13.1922014799999996 1.6365037600000001 8.5841605800000007 Na
atom 10.4941894799999993 1.7047857600000000 8.7176829700000003 Cl
atom 13.0897416599999996 4.4693484200000002 5.9987869299999996 Na
atom 10.4265077799999997 4.4937492399999996 5.8508760200000003 Cl
atom 10.3326170600000005 7.2994852799999999 5.9282265199999999 Na
atom 13.0193185499999995 7.2477493500000003 6.0582104499999998 Cl
atom 10.3754907900000006 10.0051384900000002 8.5023687999999993 Na
atom 13.1360707399999992 10.1670306900000007 8.8310280900000002 Cl
atom 13.2213531000000000 7.2939640900000002 8.5959036199999996 Na
atom 10.2001613199999994 7.4271343900000000 8.7181198799999997 Cl
atom 13.1743083599999995 10.0546241900000002 6.0030241799999997 Na
atom 10.2332558400000000 10.0359736999999996 5.6295993600000003 Cl
atom 15.9480956999999997 13.0137849899999996 5.7511803900000000 Na
atom 18.7849142200000010 12.7776949900000005 5.5560064699999998 Cl
atom 15.9400937799999998 15.9065781400000006 8.1767092300000002 Na
atom 18.8349014299999986 15.8634315800000003 8.2742370899999997 Cl
atom 18.8281438200000011 13.0267958099999994 8.2003608600000000 Na
atom 16.0813225899999992 13.0700921200000000 8.3598307300000005 Cl
atom 19.0207257500000004 15.6667724600000007 5.6001986300000004 Na
atom 15.8490101699999997 15.9333175199999992 5.4066667800000001 Cl
atom 16.0310936999999996 18.6021037900000010 5.5860926199999996 Na
atom 18.9266873500000017 18.6577003400000017 5.5653963400000004 Cl
atom 15.9516194000000002 21.4898126800000000 8.3311652800000005 Na
atom 18.7980092600000006 21.5990027399999995 8.5812149200000007 Cl
atom 18.8707303999999993 18.6486579299999988 8.1911956600000000 Na
atom 15.9200058700000007 18.6776356800000016 8.5224870500000005 Cl
atom 18.9166001199999982 21.5407725399999990 5.8803619300000003 Na
atom 15.9367099600000000 21.4256514399999993 5.6711369400000002 Cl
atom 15.9449339400000003 24.2103484500000015 5.8764289900000000 Na
atom 18.7015089500000009 24.2503062699999994 5.6345057599999997 Cl
atom 15.9228212100000004 27.0590745999999989 8.2769669199999996 Na
atom 18.8124119699999994 27.1776625299999992 8.4517752099999992 Cl
atom 18.7309248199999985 24.2524238899999993 8.2442151399999997 Na
atom 15.7463189999999997 24.2338986799999994 8.5328703400000006 Cl
atom 18.9019592100000011 27.0327846399999991 5.8684253300000000 Na
atom 15.9590145999999997 27.1536325299999994 5.7445907399999996 Cl
atom 15.9326993399999992 29.9458637100000011 5.4798745699999998 Na
atom 18.9122590200000005 29.9530496600000014 5.5489053799999999 Cl
atom 15.9354438599999995 32.7254980399999980 8.3214173700000007 Na
atom 18.8482693599999998 32.5423234599999986 8.5463336099999996 Cl
atom 18.7360256099999987 29.9956268699999988 8.2216582999999996 Na
atom 15.9418160100000001 29.9301274500000005 8.2736052900000008 Cl
atom 18.8559246000000016 32.8000767799999977 5.6665084400000003 Na
atom 16.0513694099999995 32.7895562300000023 5.6587981200000002 Cl
atom 15.9554825000000005 35.6797570299999975 5.7357518599999997 Na
atom 18.6615316100000008 35.5729973500000014 5.5931508000000001 Cl
atom 16.0146328900000015 38.2996578999999997 8.3906653000000002 Na
atom 18.8724262899999999 38.4077215200000026 8.4514206800000000 Cl
atom 18.8348373600000016 35.4770876600000022 8.2908074500000009 Na
atom 15.9196539200000000 35.5006224799999970 8.4908669299999993 Cl
atom 18.9095834899999993 38.3617665499999987 5.5812341500000002 Na