#===============================================================================
# Created using the Atomic Simulation Environment (ASE)

# Sat Nov  1 21:48:31 2025

#=======================================================
lattice_vector 28.1999999999999993 0.0000000000000000 0.0000000000000000 
lattice_vector 0.0000000000000000 39.4799999999999969 0.0000000000000000 
lattice_vector 0.0000000000000000 0.0000000000000000 62.3296083400000001 
atom 7.5660178900000004 14.6335278599999992 -0.0298764600000000 Au
atom 10.3933602399999998 14.8113201599999993 -0.1590261300000000 Au
atom 13.0748452400000001 14.7835815999999998 0.0957877900000000 Au
atom 16.0172652199999987 14.8694543100000001 0.0000499900000000 Au
atom 18.7805789200000000 14.7162278299999993 0.0191232500000000 Au
atom 21.5533315499999993 14.7047637499999997 0.0242463900000000 Au
atom 24.4187671600000016 14.8049366700000000 0.2198233600000000 Au
atom 27.1911180899999998 14.8529328700000001 -0.0643746100000000 Au
atom 1.9520841099999999 14.8163472100000000 0.1583375100000000 Au
atom 4.6109104199999997 14.8794223199999998 -0.1058142400000000 Au
atom 8.8459280699999994 17.1707335900000011 0.1396362400000000 Au
atom 11.6964261300000008 17.3516547599999988 0.1359371100000000 Au
atom 14.4613265500000008 17.2863676499999990 0.1075415100000000 Au
atom 17.4100612900000016 17.2579972099999992 0.1358307700000000 Au
atom 20.2152897899999999 17.2667299400000012 -0.0115892400000000 Au
atom 23.0357127900000016 17.3741303400000007 0.0873531200000000 Au
atom 26.0201738999999996 17.3856040599999986 0.1042269400000000 Au
atom 0.4823087600000000 17.2576557599999987 -0.1126847800000000 Au
atom 3.4576226299999999 17.3418064399999992 0.0705603200000000 Au
atom 6.0881698200000001 17.2808015499999996 0.0426761000000000 Au
atom 7.5951418899999998 19.6543625300000002 0.0453287800000000 Au
atom 10.2318837600000005 19.9318366000000005 0.1009975800000000 Au
atom 13.1496365399999995 19.8631962199999990 0.0731354900000000 Au
atom 15.8950661199999992 19.9514020700000003 0.1369363400000000 Au
atom 18.8411784000000004 19.8166250800000014 -0.0172849900000000 Au
atom 21.6666837399999999 19.7317833600000014 -0.0196822100000000 Au
atom 24.5058718499999983 19.7293397699999993 0.2162317600000000 Au
atom 27.2607205400000012 19.9433061299999999 0.0405215900000000 Au
atom 1.9448654400000001 19.9229032599999982 0.0843043000000000 Au
atom 4.7584441300000000 19.8207463100000005 0.0249645800000000 Au
atom 8.8750334700000000 22.2380641300000015 0.0354793500000000 Au
atom 11.6439029600000001 22.2585824300000006 0.2032488600000000 Au
atom 14.4947295599999997 22.1438571099999990 0.2622918400000000 Au
atom 17.1880772399999984 22.0849475599999998 0.0843015100000000 Au
atom 20.2239574299999987 22.2915123199999989 0.1547562000000000 Au
atom 23.1602418499999985 22.1377911300000001 -0.0080986900000000 Au
atom 25.6965651400000006 22.2041792399999984 0.1059251700000000 Au
atom 0.5562398400000000 22.0475102199999995 0.1476502200000000 Au
atom 3.2565147900000002 22.3141047400000012 0.1424069900000000 Au
atom 5.9598286800000002 22.2396103300000014 0.1451182100000000 Au
atom 7.5415607199999997 24.7288934500000011 0.0447993800000000 Au
atom 10.3468704500000008 24.6597006199999988 -0.0946001400000000 Au
atom 13.2588860799999999 24.7974796600000005 0.1366089700000000 Au
atom 15.9747227299999999 24.6051019500000017 0.0946701700000000 Au
atom 18.6749109799999999 24.6929390499999997 0.2404803200000000 Au
atom 21.6393120100000012 24.9090210799999987 0.2062604100000000 Au
atom 24.5548103200000014 24.6594324500000006 -0.1184535700000000 Au
atom 27.1665567099999983 24.6712730899999997 -0.1943020400000000 Au
atom 1.8550239799999999 24.7956416600000011 0.0232379900000000 Au
atom 4.6710042600000001 24.7478593499999988 0.1295910500000000 Au
atom 9.0028606799999995 27.1497462100000000 0.0939626100000000 Au
atom 11.7155422700000003 27.3669945599999984 -0.0727966400000000 Au
atom 14.5051093600000005 27.1455603799999992 -0.0551797900000000 Au
atom 17.3301051900000012 26.9925543400000016 0.1226081800000000 Au
atom 20.1699951000000013 27.3303670099999998 -0.0063116900000000 Au
atom 23.0829338499999999 27.0395036500000003 0.2006307000000000 Au
atom 25.8781748600000014 27.1210965600000016 0.2010479700000000 Au
atom 0.3978314000000000 27.1235349600000006 -0.0215458100000000 Au
atom 3.2022253500000000 27.2659859900000008 0.1390235500000000 Au
atom 6.0996474200000002 27.3174712299999989 0.2426134300000000 Au
atom 7.4248702700000004 29.5769879799999984 0.0223386000000000 Au
atom 10.3886996899999993 29.5590499999999992 0.3143247900000000 Au
atom 13.1197015399999994 29.5468158999999986 -0.1656492800000000 Au
atom 16.0233727399999992 29.5518499000000006 -0.0396552600000000 Au
atom 18.7703700200000014 29.6180690700000007 0.0764708600000000 Au
atom 21.4423645100000009 29.5560560199999998 -0.0346840200000000 Au
atom 24.4133077400000005 29.4522218100000011 -0.0163714700000000 Au
atom 27.2116524999999996 29.6728845999999997 -0.1088609100000000 Au
atom 1.9237554200000000 29.7319424900000016 -0.1315422900000000 Au
atom 4.7280290300000001 29.4961207499999993 0.1293553500000000 Au
atom 8.9570253500000003 32.0511103999999989 -0.0773155700000000 Au
atom 11.5488485799999996 32.1373896699999975 0.1040524200000000 Au
atom 14.5123312999999996 31.9993022200000006 0.0479017500000000 Au
atom 17.3962210299999995 32.1070139600000033 -0.0965933600000000 Au
atom 20.0913890899999998 32.1557356599999977 -0.1071478100000000 Au
atom 22.9370055999999991 32.0072484499999987 -0.0575118200000000 Au
atom 25.7084505199999995 32.0652800399999975 -0.1254315900000000 Au
atom 0.5408437200000000 32.0946672000000035 0.0343363400000000 Au
atom 3.3260125899999999 32.0808979500000007 -0.0760443400000000 Au
atom 6.0021997300000001 32.0758665899999968 -0.1121505400000000 Au
atom 7.4966033599999999 34.6206965299999965 -0.0955265500000000 Au
atom 10.3127771199999998 34.6547371799999979 0.0312252300000000 Au
atom 12.9493705699999992 34.5121321600000002 -0.0826035900000000 Au
atom 15.8788799500000000 34.4708468999999980 -0.0575972300000000 Au
atom 18.6051587100000013 34.5762757999999977 0.0154318700000000 Au
atom 21.5676449099999985 34.6219747700000013 0.1711040000000000 Au
atom 24.4561591500000013 34.3940770600000008 -0.1021519200000000 Au
atom 27.1532243300000005 34.5360727999999995 -0.0302188300000000 Au
atom 2.0251293200000000 34.5194722100000035 -0.2088422600000000 Au
atom 4.6910425299999998 34.5372140300000012 -0.0292816300000000 Au
atom 8.8886084200000006 37.1910665699999967 -0.0851320900000000 Au
atom 11.8872106500000001 36.9718791100000033 0.1772154400000000 Au
atom 14.4817741099999999 37.0235689900000011 0.1004173200000000 Au
atom 17.3900974099999992 36.8827202000000014 -0.0954300700000000 Au
atom 20.2575353599999985 36.9324068100000034 0.2036111900000000 Au
atom 22.9245297100000016 36.9906249900000006 -0.2175698500000000 Au
atom 25.9345083900000013 36.9980681999999987 0.3451343100000000 Au
atom 0.3762006000000000 37.0915629799999991 0.1418512300000000 Au
atom 3.3000414800000000 37.1820284900000004 0.1884740100000000 Au
atom 5.9926064500000003 36.9750550099999984 0.1254585800000000 Au
atom 7.3161383000000004 -0.1240127800000000 -0.0098279800000000 Au
atom 10.2182896200000002 0.0446282300000000 0.0341257700000000 Au
atom 13.2972547900000002 -0.0083069100000000 0.0469519600000000 Au
atom 15.7275616700000000 0.0562880600000000 0.0982581900000000 Au
atom 18.5908834600000006 0.0176615300000000 0.0845540600000000 Au
atom 21.5910628600000010 0.2681191400000000 -0.0240173500000000 Au
atom 24.4635150599999989 -0.1080078600000000 0.0442798800000000 Au
atom 27.1236855400000003 -0.1451133800000000 -0.0314383900000000 Au
atom 1.8726541600000000 -0.1006026300000000 0.1225971400000000 Au
atom 4.5432077800000004 0.1430832800000000 0.1422119400000000 Au
atom 8.9366983500000003 2.5128665400000001 0.0031257200000000 Au
atom 11.7587645700000003 2.3951154200000002 0.0725812600000000 Au
atom 14.5325838800000007 2.3262253600000000 -0.0992011500000000 Au
atom 17.4040409599999997 2.5327806100000001 0.1216835500000000 Au
atom 20.1635224499999985 2.3356522700000002 0.1952274100000000 Au
atom 23.0393622299999983 2.5166414900000000 0.2303721200000000 Au
atom 25.9548466699999985 2.4855081299999999 0.2058273200000000 Au
atom 0.6106888000000000 2.4733515200000000 0.2201861100000000 Au
atom 3.4456737700000000 2.5161297999999999 0.0367090100000000 Au
atom 6.0539500200000003 2.4528851800000000 0.1519456100000000 Au
atom 7.7085876000000004 4.9728811400000001 0.2343859900000000 Au
atom 10.3753968899999993 4.9227043300000002 0.0919055900000000 Au
atom 13.1498973699999997 5.0312940800000003 0.1188531900000000 Au
atom 16.1147186500000004 4.9914313600000000 0.0336054400000000 Au
atom 18.7279621899999995 5.0823782299999998 0.0743574500000000 Au
atom 21.7389198300000004 5.0849458800000003 0.2027492700000000 Au
atom 24.3951552599999992 5.0027576299999996 0.0377286000000000 Au
atom 27.3869402199999996 5.0664226299999999 0.0230229600000000 Au
atom 1.7842439699999999 5.1843357699999997 0.1313818800000000 Au
atom 4.6847909500000000 4.8662302899999998 0.2136338500000000 Au
atom 8.8421181000000004 7.5841989900000000 0.0094183400000000 Au
atom 11.7153365600000008 7.3522350699999999 0.0499802100000000 Au
atom 14.5001521100000001 7.3143339799999998 -0.0199674400000000 Au
atom 17.3191406599999986 7.4566780599999998 -0.0787460000000000 Au
atom 20.1500681999999998 7.4205515999999996 -0.0543917500000000 Au
atom 23.1738396199999990 7.3750002500000003 0.1088506500000000 Au
atom 25.8636289300000008 7.4641394400000003 0.0727896700000000 Au
atom 0.2557960500000000 7.3737992600000002 0.0361867100000000 Au
atom 3.2333391300000001 7.5082266700000000 0.1043730500000000 Au
atom 6.0465009299999997 7.3490206400000000 -0.0865700800000000 Au
atom 7.3323784500000002 9.6399985099999999 0.1096040000000000 Au
atom 10.3367359299999997 9.9387451400000000 -0.0136198300000000 Au
atom 13.2899490100000008 10.0142959099999995 -0.1049002700000000 Au
atom 15.7763386600000004 9.7860516999999998 0.1472778400000000 Au
atom 18.7553699599999995 9.9200189299999995 0.0276601000000000 Au
atom 21.6813573800000015 9.8727268600000002 -0.0298149100000000 Au
atom 24.3241953200000012 9.7793383299999999 0.1463670100000000 Au
atom 27.1649402699999989 9.7960882999999992 0.2915482000000000 Au
atom 1.8351007399999999 9.7261610899999997 -0.1673208600000000 Au
atom 4.7376793499999996 9.9513270699999996 0.0905426600000000 Au
atom 8.9527017200000003 12.2025224100000003 -0.0797271300000000 Au
atom 11.7642200599999995 12.4061224400000008 -0.0069612700000000 Au
atom 14.5076025000000008 12.3149960299999996 -0.0603574600000000 Au
atom 17.3645590100000007 12.5023779499999996 -0.0335987800000000 Au
atom 20.2537347300000015 12.4004367599999998 0.0903065800000000 Au
atom 22.9639195799999989 12.2705009799999996 -0.1751137700000000 Au
atom 25.7449801700000016 12.4657606699999999 0.0242128300000000 Au
atom 0.4641334000000000 12.4585424499999995 -0.1329088400000000 Au
atom 3.3167071899999998 12.4241115400000002 -0.0799412700000000 Au
atom 6.0378565599999998 12.3044020100000004 -0.0630694500000000 Au
atom 7.3960798399999996 13.1085932700000001 2.6487432700000002 Au
atom 10.3100925199999995 13.3204565600000002 2.5525869600000002 Au
atom 13.0183677699999993 13.2337582499999993 2.8086334700000002 Au
atom 15.9324649300000001 13.3252597799999997 2.5875251000000001 Au
atom 18.8110369000000013 13.0627918500000000 2.6915341000000002 Au
atom 21.5741926799999995 13.1419925600000003 2.5909082600000000 Au
atom 24.4084001400000012 13.1230151399999997 2.7557600299999998 Au
atom 27.3320971499999992 13.2287302199999992 2.6105105700000002 Au
atom 1.8806366800000001 13.0623906800000000 2.5373449300000002 Au
atom 4.4563293799999997 13.0351860399999993 2.5121466300000002 Au
atom 8.8763838100000001 15.7293261900000001 2.7696454400000001 Au
atom 11.7763407000000004 15.6775578800000002 2.6674753199999999 Au
atom 14.5905828500000005 15.8806178300000003 2.6650938800000001 Au
atom 17.3504160600000006 15.4458055499999993 2.5520434900000000 Au
atom 20.1653033800000010 15.7893230800000008 2.6013990599999999 Au
atom 23.1165708099999989 15.8061369400000000 2.6140693499999998 Au
atom 25.9357700099999988 15.5893322300000001 2.6603973700000001 Au
atom 0.3125459900000000 15.7712279399999993 2.6671241800000001 Au
atom 3.3467234499999998 15.7763879599999992 2.6318286099999999 Au
atom 6.0729659099999997 15.5563413900000000 2.4732731999999999 Au
atom 7.5852923299999997 18.0369786099999985 2.6665178300000001 Au
atom 10.3300879299999995 18.0197192800000003 2.6079819899999999 Au
atom 12.9485334699999992 17.9564212099999985 2.7207740899999999 Au
atom 15.9677174199999996 18.2262977799999994 2.6676082900000000 Au
atom 18.7801606999999997 18.0898315600000004 2.6683778000000000 Au
atom 21.6956842200000004 18.1159609000000010 2.6351401999999999 Au
atom 24.5708505799999983 18.0581551800000000 2.8002140400000002 Au
atom 27.3321288500000001 18.0821439499999990 2.6385057399999998 Au
atom 1.7012486200000001 18.1668101499999999 2.6215925499999999 Au
atom 4.5937340500000001 17.9781415899999999 2.7695747700000002 Au
atom 8.9368744600000003 20.6590166599999989 2.5412395200000000 Au
atom 11.7780283899999993 20.4732598800000005 2.7077832700000002 Au
atom 14.6490932899999997 20.5591169200000010 2.6810122600000001 Au
atom 17.2213902300000008 20.5538743400000001 2.6450770600000002 Au
atom 20.2920738400000005 20.7163837999999991 2.9420276699999999 Au
atom 22.9076714599999995 20.4996788000000016 2.6348221299999999 Au
atom 25.8823392900000009 20.4509003999999983 2.8557011200000000 Au
atom 0.5502513999999999 20.6476343500000006 2.9212178899999999 Au
atom 3.3698753500000000 20.6841435300000001 2.7935394900000001 Au
atom 6.1782434600000000 20.5230874400000012 2.7627614199999999 Au
atom 7.5068069499999996 22.9968397700000011 2.6608845699999999 Au
atom 10.3254845599999996 23.1860548299999998 2.5638323900000000 Au
atom 13.1670129300000003 23.0913020200000005 2.7205476300000000 Au
atom 15.9669659300000006 22.9727821399999996 2.7863110199999999 Au
atom 18.8523500999999989 22.8765617500000005 2.6897686200000002 Au
atom 21.6013966400000008 23.0604669800000011 2.6587114800000000 Au
atom 24.3217434399999988 23.0654595899999997 2.6251550300000002 Au
atom 27.4076589400000010 23.0438363200000005 2.6766326500000002 Au
atom 1.9971000299999999 22.9588724599999985 2.5082300300000000 Au
atom 4.6566857600000002 23.1470625500000011 2.7603069599999999 Au
atom 8.8981074400000004 25.5119690500000011 2.4873280200000001 Au
atom 11.8116926699999993 25.5756986499999996 2.7634739000000001 Au
atom 14.7530280400000002 25.5712736999999990 2.7708566900000000 Au
atom 17.3671484499999984 25.5437635800000002 2.7320431100000002 Au
atom 20.2069644000000004 25.4138562199999996 2.6342953200000001 Au
atom 22.8042289400000016 25.5099336900000004 2.7067538099999999 Au
atom 25.8372304100000001 25.4352312699999992 2.6852978099999998 Au
atom 0.5945199500000000 25.5798005699999997 2.6753278500000000 Au
atom 3.2252654199999999 25.4455731500000013 2.6957107200000001 Au
atom 6.0712517699999999 25.5980692599999990 2.7867277100000001 Au
atom 7.3975009099999998 27.8780410100000005 2.6459363300000001 Au
atom 10.3016728600000000 27.9729856999999988 2.6646427400000001 Au
atom 13.1540903999999994 28.0861118400000009 2.7308971600000000 Au
atom 15.7806283100000009 28.1236802600000004 2.6673931600000000 Au
atom 18.6921906699999987 28.0002424099999985 2.5586647899999999 Au
atom 21.5851784299999991 28.0837319000000001 2.6476139100000000 Au
atom 24.2339522599999988 27.8945642700000001 2.6811990699999999 Au
atom 27.1540729600000006 27.7066891800000015 2.6584036300000000 Au
atom 1.7326794400000001 28.0125064600000009 2.6846950100000000 Au
atom 4.7062715700000002 28.1212482799999997 2.6502908399999998 Au
atom 8.8695073299999994 30.2546580399999989 2.6509334800000000 Au
atom 11.8690927500000001 30.2984439600000002 2.6436657700000001 Au
atom 14.5023341600000002 30.3006898900000010 2.6409993799999998 Au
atom 17.5932847800000012 30.5238928499999993 2.6972861799999999 Au
atom 20.2992209400000014 30.3958497500000000 2.8117792800000001 Au
atom 23.1125268599999991 30.6703384399999983 2.7696361399999998 Au
atom 25.9097430799999984 30.2360957900000002 2.7842731199999999 Au
atom 0.3990876400000000 30.6203869200000014 2.7302898799999999 Au
atom 3.3555869399999998 30.5596505200000017 2.6718636099999999 Au
atom 5.9644571400000004 30.4075839700000010 2.5491289099999999 Au
atom 7.5653591499999999 32.8604621499999965 2.5607319799999999 Au
atom 10.3167657599999991 32.6626475799999980 2.5998508500000002 Au
atom 12.9036622699999999 32.9741544099999970 2.7153503099999998 Au
atom 16.0465858700000013 32.7949202799999995 2.6588480500000000 Au
atom 18.9371444900000014 32.9674901200000008 2.5000978100000002 Au
atom 21.4211074199999985 32.8592402199999967 2.7401178900000001 Au
atom 24.5486280500000014 32.9346159400000005 2.8756429699999999 Au
atom 27.3769732800000014 32.7945595899999987 2.5585045000000002 Au
atom 1.9732475000000000 32.8201953200000034 2.6099002300000000 Au
atom 4.5280582799999998 33.0152656100000002 2.6613438100000000 Au
atom 8.9980063900000005 35.3119318999999976 2.7573685100000001 Au
atom 11.6634629200000006 35.3752066400000018 2.7701641299999999 Au
atom 14.7477410399999993 35.3487390499999989 2.6067286300000001 Au
atom 17.2106594500000014 35.3513830400000018 2.5649291000000001 Au
atom 20.1759014599999986 35.3968277900000032 2.6166419500000000 Au
atom 23.0775377199999987 35.1963599600000023 2.5688078999999999 Au
atom 25.7591436999999992 35.4023511999999982 2.5089749399999999 Au
atom 0.4760436600000000 35.3739692700000035 2.5875568599999998 Au
atom 3.2199116700000001 35.4394875500000026 2.7540386300000002 Au
atom 6.1413432700000001 35.4980261299999995 2.5885735200000002 Au
atom 7.5490089600000001 37.9465377900000007 2.6135857400000000 Au
atom 10.2658130900000000 37.9372621999999993 2.5357112100000001 Au
atom 13.1549409300000004 37.8642889199999999 2.8264836899999999 Au
atom 15.8024920800000004 37.8884605000000008 2.7232553600000000 Au
atom 18.8636569600000001 37.9867265500000002 2.7050855500000002 Au
atom 21.4651050400000010 37.9113873499999983 2.8334343600000000 Au
atom 24.5496268099999995 37.9198372000000035 2.5787711799999999 Au
atom 27.2724127600000017 37.8900086399999978 2.6625536400000001 Au
atom 2.0066645300000001 37.8182619500000001 2.4930470100000002 Au
atom 4.5982950100000002 37.8709552799999969 2.7764557299999999 Au
atom 8.8732529899999992 1.0562715199999999 2.8103773400000001 Au
atom 11.7587320999999996 0.9421987100000000 2.6731416100000001 Au
atom 14.5420788099999996 0.7279626000000000 2.6065002800000001 Au
atom 17.1838383999999991 0.8288469400000000 2.7951471799999998 Au
atom 20.3017361399999992 0.6755935500000000 2.7309201000000001 Au
atom 22.9781791999999996 0.7010386900000000 2.6266006599999998 Au
atom 25.8732807300000012 0.7134515200000000 2.7126462800000000 Au
atom 0.3443306300000000 0.8800152300000000 2.6246127399999999 Au
atom 3.1651069000000001 0.8604261200000000 2.6022005500000001 Au
atom 6.0815977400000003 0.7566486200000000 2.6953164900000002 Au
atom 7.4664637799999998 3.3309826400000002 2.6832591699999999 Au
atom 10.3666921199999997 3.2427714999999999 2.8976722600000002 Au
atom 13.1973430399999998 3.0185551700000000 2.8302452100000002 Au
atom 16.2478160299999992 3.2325863300000002 2.8683618100000001 Au
atom 18.9694406300000011 3.2102751399999998 2.7708221599999998 Au
atom 21.5360050600000008 3.2898556900000000 2.6891948800000001 Au
atom 24.4763506900000003 3.3435253800000000 2.8469431200000002 Au
atom 27.2225908600000004 3.3399670900000000 2.6394442699999998 Au
atom 1.6981901699999999 3.3245416400000001 2.7549718699999999 Au
atom 4.7493864500000003 3.3600095200000002 2.6583799400000001 Au
atom 8.8353796700000000 5.7097187399999996 2.5751894800000001 Au
atom 11.6347958299999998 5.8817875199999996 2.7205351000000002 Au
atom 14.7923878799999997 5.8779358600000000 2.7176962699999998 Au
atom 17.3359843799999993 5.7627477599999999 2.7580453299999999 Au
atom 19.9827291900000006 5.6251372100000001 2.8120085600000002 Au
atom 23.2377186800000004 5.7196031200000004 2.5981112799999999 Au
atom 25.8917977800000010 5.8097104300000000 2.6218878700000001 Au
atom 0.4606553300000000 5.9082263800000003 2.8505313999999999 Au
atom 3.2805778800000001 5.6992425999999998 2.7405949700000001 Au
atom 6.0722578000000000 5.7857659100000003 2.7220891800000002 Au
atom 7.6447096300000004 8.4584156299999993 2.5762285999999999 Au
atom 10.3653778499999998 8.2080014499999994 2.7156623199999999 Au
atom 13.1779187899999997 8.2116202699999992 2.8115098600000001 Au
atom 16.0625158100000007 8.3466138399999998 2.4781058900000001 Au
atom 18.7895278099999992 8.3237487899999998 2.7763689700000000 Au
atom 21.7191160100000005 8.1475739399999991 2.7060567199999999 Au
atom 24.6177947999999986 8.2495231800000006 2.5599243299999999 Au
atom 27.2704983399999996 8.4190519399999992 2.5657324199999998 Au
atom 1.9790824300000001 8.2654321700000004 2.5741740599999998 Au
atom 4.7724730900000001 8.4086572000000004 2.5125056400000001 Au
atom 8.8948868799999996 10.7967340200000006 2.5999612999999999 Au
atom 11.8080521800000007 10.8013973599999993 2.6441288100000002 Au
atom 14.5455860300000008 10.7151885799999995 2.7598124799999999 Au
atom 17.2369820199999992 10.8320729100000008 2.6668401099999999 Au
atom 20.1561162299999985 10.5892651499999992 2.6533945000000001 Au
atom 23.1894503100000016 10.7218164300000005 2.6556948700000000 Au
atom 25.9578135299999992 10.6605072599999993 2.6393699599999998 Au
atom 0.4025583200000000 10.6626670099999998 2.7796407099999998 Au
atom 3.2314757200000002 10.7600156499999997 2.5658044300000000 Au
atom 5.9844668600000004 10.8566049099999997 2.5354250700000001 Au
atom 7.4534466799999999 13.1481799000000006 5.7005033799999998 Cl
atom 7.4851431699999997 15.9298948100000004 8.4074803700000000 Cl
atom 7.5389983000000003 13.0284017199999997 8.2410232600000004 Na
atom 7.5261904399999997 15.9385207999999992 5.8379912200000001 Na
atom 7.2883436699999997 18.8827895599999991 5.7147233999999996 Cl
atom 7.6056430500000003 21.6753870100000015 8.5712949900000002 Cl
atom 7.4263844700000003 18.7011738100000002 8.3700409899999997 Na
atom 7.3387447600000000 21.5947531099999992 5.7352102299999999 Na
atom 7.5694306999999998 24.3399749400000012 5.7381743800000002 Cl
atom 7.5467741600000000 27.2510112699999993 8.5044544900000005 Cl
atom 7.4714905900000002 24.3432327999999991 8.4577555499999999 Na
atom 7.6140635799999998 27.2855807400000003 5.8108336200000004 Na
atom 7.6291262499999997 30.0056280700000002 5.6482539899999997 Cl
atom 7.4635551199999997 32.9061709300000018 8.4030331300000007 Cl
atom 7.4692223499999999 30.0719255700000012 8.4144751899999992 Na
atom 7.3296749800000001 32.8287728500000000 5.7805552499999999 Na
atom 7.6062810900000004 35.7796142899999978 5.6779978800000004 Cl
atom 7.5286263099999999 38.5488821699999988 8.6264771600000003 Cl
atom 7.3516041599999999 35.7124531899999980 8.1162959099999998 Na
atom 7.4244428600000001 38.5066858100000005 5.7511975800000004 Na
atom 7.4468524800000004 1.7449991499999999 5.5541473000000003 Cl
atom 7.5664575200000002 4.6716907799999996 8.6029961200000002 Cl
atom 7.3712540999999998 1.8448180500000000 8.3417801800000007 Na
atom 7.5707153900000002 4.7851009299999996 5.7158108299999997 Na
atom 7.4026606099999999 7.5509925200000003 5.7313936400000003 Cl
atom 7.3378487400000001 10.5575676499999993 8.5365001899999999 Cl
atom 7.6204362699999999 7.5743475499999997 8.4730887599999996 Na
atom 7.4573285499999997 10.4318705999999999 5.8214178900000002 Na
atom 10.2351251500000000 13.2049583599999991 5.8893925300000003 Na
atom 13.1806171899999995 13.2375105000000008 5.7267720000000004 Cl
atom 10.4675663700000001 15.9645860800000001 8.3959675899999997 Na
atom 13.2233293500000002 15.8889449799999998 8.6913657700000009 Cl
atom 13.2420542700000006 13.1298045699999992 8.4539915299999997 Na
atom 10.2278758599999993 13.1534469299999994 8.5189450499999992 Cl
atom 13.1767435200000005 16.1439405399999991 5.6209592700000002 Na
atom 10.2072024999999993 15.8695392300000009 5.7669860799999997 Cl
atom 10.3863914600000005 18.8770915899999991 5.7304620399999999 Na
atom 13.1639207599999999 18.7537371800000017 5.7553940700000004 Cl
atom 10.0849154799999994 21.5465280800000016 8.3849453300000008 Na
atom 13.2648788100000008 21.5977713099999988 8.5866155099999997 Cl
atom 13.2212925000000006 18.7451791800000009 8.4548431399999995 Na
atom 10.2656994299999997 18.7703600900000005 8.5924996900000004 Cl
atom 13.1003612700000005 21.7383928200000014 5.9591746900000002 Na
atom 10.3132261900000000 21.7925377599999983 5.7926035400000000 Cl
atom 10.3796229400000009 24.4372128400000008 5.9650165099999999 Na
atom 13.2315887700000001 24.4731754099999996 5.8535611400000001 Cl
atom 10.3898383499999998 27.1903380100000014 8.4076530100000006 Na
atom 13.1481231199999993 27.1369061500000015 8.6449194499999997 Cl
atom 13.3349902900000004 24.5284310800000007 8.5937459000000000 Na
atom 10.0803114100000002 24.5249570500000011 8.4820758499999993 Cl
atom 13.0044469300000003 27.1242992700000016 5.8862774099999999 Na
atom 10.1265585999999992 27.2374579799999985 5.6477130200000003 Cl
atom 10.1590719699999994 29.9326614400000004 5.9050072299999998 Na
atom 13.2434274100000007 29.8715232099999994 5.7543800100000002 Cl
atom 10.2378667900000000 32.9259766500000026 8.4643422499999996 Na
atom 13.1251360399999992 32.9092866900000018 8.6138796400000004 Cl
atom 13.0765699699999995 30.0846631600000016 8.3187955099999993 Na
atom 10.4563856800000003 30.0829528599999989 8.7544090299999997 Cl
atom 13.2366504000000003 32.7519067599999971 5.8769399800000004 Na
atom 10.3549690000000005 32.8055396199999976 5.6989095799999996 Cl
atom 10.2799195399999999 35.5682027000000005 5.9333234099999999 Na
atom 13.4567983400000006 35.7903112999999991 5.8323603600000000 Cl
atom 10.4115186000000008 38.7716090400000013 8.2609638200000006 Na
atom 13.1430752099999992 38.6047416500000011 8.5021437800000008 Cl
atom 13.1497700200000001 35.8342641799999981 8.1855643400000009 Na
atom 10.3373345400000005 35.7882949400000001 8.5877429599999999 Cl
atom 13.2317940600000004 38.5665429499999988 5.7529954500000002 Na
atom 10.3802241899999999 38.4400992500000029 5.7377072000000000 Cl
atom 10.2280054899999993 1.9945358700000000 5.9105580399999997 Na
atom 13.2746160100000008 1.7415598200000000 5.7094643500000002 Cl
atom 10.2463241400000005 4.5682246400000004 8.3506616099999995 Na
atom 13.1861608700000001 4.7334712699999999 8.5117932900000000 Cl
atom 12.9101971700000000 1.8800605600000000 8.5049182600000002 Na
atom 10.3674531499999993 2.0046566100000001 8.5284218099999993 Cl
atom 13.1112024399999996 4.7970873999999997 5.8660919099999997 Na
atom 10.2342957699999992 4.7471622199999999 5.8952343899999997 Cl
atom 10.2787305799999995 7.2677961299999998 5.8088464699999998 Na
atom 13.1143286299999993 7.5867031799999998 5.5238866499999997 Cl
atom 10.0938444100000009 10.3371341399999999 8.2731441199999995 Na
atom 13.1923183000000002 10.3629607900000007 8.5191716300000007 Cl
atom 13.0534846000000009 7.4129401499999998 8.3411878200000000 Na
atom 10.3708685500000009 7.3995097599999999 8.5818416400000004 Cl
atom 13.2248977199999995 10.2781021399999997 5.7780502100000000 Na
atom 10.4056783199999998 10.4700894600000005 5.7578566999999996 Cl
atom 16.0359055200000000 13.2727208599999997 5.7728777100000004 Na
atom 18.9882755000000003 13.0907240100000006 5.8853781800000000 Cl
atom 15.9319349799999994 16.0228794699999995 8.2924477799999998 Na
atom 18.7320544899999994 16.0539607400000008 8.6366099500000004 Cl
atom 18.5937201499999993 13.0559119700000004 8.4012090700000002 Na
atom 15.9847547100000007 13.1133268100000002 8.7156958400000004 Cl
atom 18.6843559100000007 16.1555101599999986 5.8543215599999998 Na
atom 15.8228673600000000 16.0073386800000002 5.8119810500000000 Cl
atom 15.9680245999999997 18.8031809299999999 5.7164119800000002 Na
atom 18.9242968699999992 18.5667388200000012 5.5908761100000000 Cl
atom 16.1388737499999984 21.4322120500000004 8.4977208799999993 Na
atom 18.8198348499999994 21.5781726399999982 8.7373714499999995 Cl
atom 18.7227414299999992 18.8408682399999989 8.3693609599999998 Na
atom 16.0482168099999996 18.8329756900000014 8.5313291400000004 Cl
atom 18.8267173200000002 21.7005900499999989 5.6048931499999997 Na
atom 16.0193588899999995 21.6186762200000011 5.8186463699999997 Cl
atom 16.0354380499999998 24.3904201000000000 5.7768138400000000 Na
atom 18.6500382199999990 24.4826379299999992 6.0110489800000000 Cl
atom 15.8359990800000006 27.4778753100000017 8.5839098200000006 Na
atom 18.7990955200000016 27.2183392899999994 8.6395371799999996 Cl
atom 18.9048192999999998 24.5466242500000007 8.3912601999999996 Na
atom 15.8832812099999998 24.3158703500000009 8.5713230700000000 Cl
atom 18.7326997599999991 27.1124045699999989 5.7854970699999999 Na
atom 15.8227486499999994 27.2903712799999987 5.7571124400000002 Cl
atom 15.8229677199999994 30.1779329099999991 5.8323178599999999 Na
atom 19.0469305999999996 30.0510363299999987 5.6684135099999997 Cl
atom 16.0307110699999988 32.9567079999999990 8.2947142700000001 Na
atom 18.7927112700000016 32.9536345799999992 8.3761008599999993 Cl
atom 18.7530186999999984 30.1984315999999993 8.4763656699999999 Na
atom 16.1179719699999993 30.0550974400000008 8.4829801899999993 Cl
atom 18.8787695000000006 32.9294538600000024 5.8543780500000002 Na
atom 15.9559567100000006 32.9218755599999966 5.6742377199999998 Cl
atom 15.7823252600000004 35.7539093700000024 5.8004885100000001 Na
atom 18.8830897299999982 35.6895358499999986 5.7790040800000000 Cl
atom 15.8549997999999999 38.5337490300000027 8.2613676999999992 Na
atom 18.7644984000000008 38.5535207100000008 8.6003566300000003 Cl
atom 18.7940804999999997 35.9564015099999992 8.6377639800000008 Na
atom 15.8416873400000000 35.4454269900000014 8.7390934199999997 Cl
atom 18.7946765000000013 38.4850192800000031 5.8337267800000001 Na