#===============================================================================
# Created using the Atomic Simulation Environment (ASE)

# Tue Dec 23 22:26:40 2025

#=======================================================
lattice_vector 28.1999999999999993 0.0000000000000000 0.0000000000000000 
lattice_vector 0.0000000000000000 39.4799999999999969 0.0000000000000000 
lattice_vector 0.0000000000000000 0.0000000000000000 62.3296083400000001 
atom 7.5206039899999997 14.6742447299999998 0.3568635300000000 Au
atom 10.2097222399999996 14.7436347600000008 -0.1842213400000000 Au
atom 13.1250815500000009 14.8916232500000003 -0.0105392400000000 Au
atom 16.0006588699999988 14.7628825399999997 -0.1196283300000000 Au
atom 18.5973218699999983 14.6212026700000006 -0.0766234500000000 Au
atom 21.6462880499999990 14.7623214800000007 -0.3875525900000000 Au
atom 24.2466032499999997 14.7387993999999996 -0.2746197700000000 Au
atom 27.1345073899999996 14.5538936099999994 -0.0861724000000000 Au
atom 2.0260581499999999 14.6288249799999992 -0.3083960700000000 Au
atom 4.5871552400000004 14.6908312399999996 0.1536329900000000 Au
atom 8.9071717400000008 17.1623919600000008 0.1810251500000000 Au
atom 11.5648407599999992 17.1562154000000007 -0.2466117500000000 Au
atom 14.6774307799999999 17.1269103300000012 -0.1392892600000000 Au
atom 17.3340638100000000 17.1475129099999997 -0.0654435400000000 Au
atom 20.0258066499999998 17.2395462100000003 -0.0775507000000000 Au
atom 23.0796790799999982 17.2318199099999987 -0.1021555600000000 Au
atom 25.8688441199999986 17.2607587799999997 0.0168516300000000 Au
atom 0.4943814400000000 16.8952181099999983 -0.4766791400000000 Au
atom 3.3057488899999998 17.1822822200000012 0.3678070700000000 Au
atom 5.7611261100000002 17.0625214300000003 0.0890835200000000 Au
atom 7.4566676999999997 19.6165817000000011 0.2743933500000000 Au
atom 10.2255163400000004 19.8252644199999999 0.3093187500000000 Au
atom 13.2558468000000005 19.6761174200000006 0.0151590100000000 Au
atom 15.8192926200000006 19.6578063599999986 0.4720396200000000 Au
atom 18.6963591800000017 19.5753967399999986 -0.1402137100000000 Au
atom 21.7033453600000001 19.6802417900000002 -0.2941260900000000 Au
atom 24.3577443799999998 19.6519619500000005 -0.0395542300000000 Au
atom 27.3212167900000011 19.6909541300000015 0.0898626800000000 Au
atom 1.8237170400000000 19.6844572800000002 0.2760664900000000 Au
atom 4.4801667800000002 19.6465953199999994 0.3262793800000000 Au
atom 8.6818093899999997 22.2018198399999989 0.1267902500000000 Au
atom 11.8950363299999999 22.0182457300000003 0.1849795800000000 Au
atom 14.5058505199999992 21.9576639200000017 0.0075374500000000 Au
atom 17.3391801699999988 22.1705393700000002 -0.0495148400000000 Au
atom 20.2257616200000001 22.1498518400000002 0.0782305500000000 Au
atom 23.0292951700000010 22.0754953699999987 -0.0825749100000000 Au
atom 25.7266226399999987 22.1120515200000014 0.1532038000000000 Au
atom 0.5686475800000000 22.0578347000000008 0.3195242300000000 Au
atom 3.2989189799999998 22.0995459300000014 0.1004909300000000 Au
atom 6.1837968200000004 22.1755213900000001 0.3941845600000000 Au
atom 7.5047334100000000 24.5556747000000009 0.0518723700000000 Au
atom 10.3171139400000005 24.5545258699999991 0.1764563600000000 Au
atom 12.9837125600000007 24.6391612299999991 0.2344521300000000 Au
atom 16.0969653400000006 24.7411258200000006 0.0691448100000000 Au
atom 18.9201642499999991 24.7323609399999995 0.3164783900000000 Au
atom 21.6413854299999997 24.6350802999999985 -0.1848261000000000 Au
atom 24.5435251799999996 24.4913897600000006 -0.3653952000000000 Au
atom 27.3807715000000016 24.6209895000000003 0.2016516700000000 Au
atom 2.0836867200000002 24.3959342600000006 -0.0085464600000000 Au
atom 4.6877517900000001 24.6355368100000014 0.2357678700000000 Au
atom 8.7645366300000003 27.3659981499999994 -0.0530538700000000 Au
atom 11.8799170800000002 27.2823237600000006 0.1857358100000000 Au
atom 14.8048220300000004 26.9129288899999999 0.0197736800000000 Au
atom 17.4672324799999998 27.1109288600000014 0.0844251000000000 Au
atom 20.2354627100000002 27.1656723999999983 0.0260267100000000 Au
atom 23.1947796599999982 26.9500818299999985 -0.4958532600000000 Au
atom 25.8545820800000001 26.8711399799999988 -0.0729766500000000 Au
atom 0.6501120300000000 27.1321833999999988 -0.1426198500000000 Au
atom 3.3831538000000001 26.8728927999999989 -0.1261003600000000 Au
atom 6.0251248500000001 27.1143731499999987 0.3753901300000000 Au
atom 7.4701318800000003 29.5270587300000003 -0.2231683100000000 Au
atom 10.5252842999999991 29.6659546799999987 0.1036651400000000 Au
atom 13.2053861000000001 29.5951465999999996 0.0588790700000000 Au
atom 15.9769269800000000 29.4651467300000007 -0.3698716800000000 Au
atom 18.7266356300000005 29.5018510999999997 -0.5147187100000000 Au
atom 21.7833261600000014 29.6115746999999985 -0.2649937700000000 Au
atom 24.4461862100000005 29.4153805000000013 -0.3432968700000000 Au
atom 27.4689081199999983 29.5416356600000007 -0.2491330500000000 Au
atom 1.9553966899999999 29.5222306600000017 0.0555917000000000 Au
atom 4.5027713499999997 29.4196447799999987 0.1893675400000000 Au
atom 8.8237449100000003 32.0342645400000023 -0.3407081000000000 Au
atom 11.8043321199999998 31.9661167599999985 0.0259847100000000 Au
atom 14.5771433500000001 31.9413659500000016 -0.1286615600000000 Au
atom 17.5232747800000013 32.0688342400000010 -0.0191547900000000 Au
atom 20.2090266599999993 31.8625268300000002 -0.4672395500000000 Au
atom 23.0626026499999988 32.0361508100000023 -0.0254922800000000 Au
atom 26.0228153599999992 32.0299923999999976 -0.0317128800000000 Au
atom 0.4762705600000000 32.0713713299999981 0.2408859500000000 Au
atom 3.3824662999999999 32.0009336600000012 -0.1943083500000000 Au
atom 6.0546015700000000 32.1515556700000005 -0.1736378300000000 Au
atom 7.7973693900000001 34.5128190499999974 0.0281324300000000 Au
atom 10.6284333600000007 34.3864204400000020 0.2149779900000000 Au
atom 13.2535474000000004 34.6146479800000009 0.1700758600000000 Au
atom 16.0110324800000008 34.4016626599999995 -0.2976033100000000 Au
atom 18.7610423500000003 34.4875351299999977 -0.2201113100000000 Au
atom 21.7471048899999992 34.4484181500000020 -0.2858183500000000 Au
atom 24.3263837900000013 34.4226055500000001 -0.1898825900000000 Au
atom 27.4362979500000002 34.5564206100000035 0.3074801600000000 Au
atom 1.9044608400000000 34.5186611700000014 0.1831425600000000 Au
atom 4.6425239600000001 34.5821743200000000 -0.1707182500000000 Au
atom 8.9838748000000006 37.1749673300000012 -0.0022748500000000 Au
atom 11.9226504000000002 36.8941028899999992 0.2966083700000000 Au
atom 14.6272877999999995 36.7245494699999995 0.0595435900000000 Au
atom 17.5558431500000012 37.1258248199999983 -0.4067807500000000 Au
atom 20.2582310099999994 37.1062812999999991 -0.1776179200000000 Au
atom 23.0476919699999989 36.8221957000000018 0.0040892400000000 Au
atom 25.6596760300000000 36.8266170699999975 0.1177229900000000 Au
atom 0.4907727400000000 37.1941470900000013 0.1045989200000000 Au
atom 3.3829682600000002 37.0017674600000035 0.2154709200000000 Au
atom 6.0992167600000000 36.9736429100000024 0.0225669500000000 Au
atom 7.5720912100000000 -0.0197638500000000 0.0834884200000000 Au
atom 10.5487941999999997 -0.0920195600000000 0.3424714100000000 Au
atom 13.2092924699999994 -0.1693710900000000 0.1446867700000000 Au
atom 15.9966219699999996 0.0296322200000000 0.1630609200000000 Au
atom 18.7886918899999991 -0.0219210700000000 -0.1686028400000000 Au
atom 21.5319895999999993 -0.0494649300000000 -0.0295544000000000 Au
atom 24.4299067000000001 -0.0010859900000000 0.0824714300000000 Au
atom 27.0621657000000013 -0.0146410100000000 0.0965154000000000 Au
atom 1.9786166400000000 -0.1307955900000000 0.2221909400000000 Au
atom 5.0057679300000002 0.0454874300000000 0.3055134900000000 Au
atom 9.0098600199999996 2.5227579599999999 0.5973600400000000 Au
atom 11.9034547899999996 2.4496992400000002 0.2198162000000000 Au
atom 14.6621294599999992 2.3615318699999999 -0.0160340800000000 Au
atom 17.3973613699999987 2.2897180100000001 0.2438648800000000 Au
atom 20.3065856300000007 2.6613909800000002 -0.0803406600000000 Au
atom 23.0821264799999994 2.3716957200000000 0.1853349800000000 Au
atom 25.7288944499999985 2.5191820800000002 0.1972422900000000 Au
atom 0.6422039100000000 2.3793602500000000 0.1427783200000000 Au
atom 3.2746466700000001 2.4503962600000002 0.2120614700000000 Au
atom 6.2757130400000003 2.4606449300000000 0.2429265300000000 Au
atom 7.5987922000000001 4.9163290899999996 0.4979604800000000 Au
atom 10.2374934500000005 4.9146012199999998 0.4489143900000000 Au
atom 13.2785757400000008 4.8226518599999997 0.4402051400000000 Au
atom 15.9489085900000003 4.9621464599999996 0.1861425900000000 Au
atom 18.7605229199999997 4.9424455800000002 0.0184744900000000 Au
atom 21.8627696600000014 4.8817513600000000 0.2653078000000000 Au
atom 24.7261381600000014 4.9899667000000001 0.2092942600000000 Au
atom 27.3796251700000006 4.8632109600000000 0.2277992500000000 Au
atom 2.1835344299999999 4.7401914999999999 0.2089953200000000 Au
atom 4.4270197600000003 4.9612062600000000 0.3477396100000000 Au
atom 9.1417808399999991 7.3811093100000003 0.1168660200000000 Au
atom 11.7360304699999993 7.2983396000000003 0.2672587700000000 Au
atom 14.3424669500000004 7.3833143300000001 -0.0532879000000000 Au
atom 17.4175657999999984 7.4231301700000003 -0.0056929000000000 Au
atom 20.4699889400000004 7.3873238499999996 -0.2434848500000000 Au
atom 23.1777358800000002 7.4268261799999999 0.2531557800000000 Au
atom 25.8691299999999984 7.1882089499999999 -0.1515047100000000 Au
atom 0.5677621000000000 7.2876312299999997 -0.1463911200000000 Au
atom 3.2926286100000000 7.2347261600000001 0.1431365600000000 Au
atom 6.0128962300000000 7.3804901599999999 -0.1887891700000000 Au
atom 7.5630061800000004 9.7632079100000002 -0.2383628800000000 Au
atom 10.2734386799999999 9.9024635300000003 0.0018446300000000 Au
atom 12.9028011800000009 9.8697558500000007 0.1031346400000000 Au
atom 15.9952406699999994 9.7820063800000003 -0.0626873600000000 Au
atom 18.8412844600000007 9.8826525000000007 -0.3593796400000000 Au
atom 21.5066413499999989 9.7717864599999995 -0.0084687600000000 Au
atom 24.5230569900000006 9.6943834500000001 -0.1553530500000000 Au
atom 27.0127338899999998 9.7414316500000009 0.0384747400000000 Au
atom 1.8214750600000000 9.7660276600000007 0.2633307600000000 Au
atom 4.7646632799999997 10.1293590200000008 0.2874695000000000 Au
atom 8.8054106799999996 12.2498878700000002 0.2999014100000000 Au
atom 11.9059518099999995 12.2192342899999993 -0.2272753300000000 Au
atom 14.4717692499999995 12.2207591499999992 -0.4013624200000000 Au
atom 17.5389389099999988 12.3346873400000003 -0.3434394300000000 Au
atom 20.3025274399999986 12.1918520400000006 -0.3558385100000000 Au
atom 23.0189165600000010 12.5260144699999998 -0.2967826700000000 Au
atom 25.9243206400000012 12.0397363199999994 -0.0416702900000000 Au
atom 0.4378774900000000 12.2266028700000007 0.0249465800000000 Au
atom 3.1600904900000000 12.2813686999999998 -0.0607288700000000 Au
atom 5.8447818299999996 12.4788599399999995 -0.0596738200000000 Au
atom 7.5299649999999998 13.0065309399999993 2.9661017799999998 Au
atom 10.3128337699999992 13.1269175300000001 2.4855458399999999 Au
atom 13.2436813499999992 13.2588442499999992 2.4118413400000001 Au
atom 16.0701183999999984 12.9675746200000006 2.1974260499999998 Au
atom 18.8076818500000016 12.9633418000000002 2.4046240600000002 Au
atom 21.4937076599999983 13.1509388499999993 2.3056487600000000 Au
atom 24.4392761199999988 13.1535112499999993 2.6142083000000000 Au
atom 27.3141652599999993 13.2544220100000008 2.6422281700000001 Au
atom 1.7272444700000000 13.1567578199999993 2.4885238099999998 Au
atom 4.6864069199999996 13.0568193400000006 2.7442024699999998 Au
atom 9.0720779900000004 15.4788748799999993 2.6314892500000000 Au
atom 11.9486021299999994 15.6047115400000003 2.4447382599999998 Au
atom 14.5394403099999998 15.5487198200000005 2.5464851099999999 Au
atom 17.5157449999999990 15.6110358199999997 2.5852702800000000 Au
atom 20.3521803100000014 15.4060658200000002 2.5516435500000001 Au
atom 23.0926942500000010 15.6425633699999995 2.4840761300000000 Au
atom 25.8340531999999996 15.5311436799999996 2.6404301700000001 Au
atom 0.5276189300000000 15.7129306900000003 2.1650980400000002 Au
atom 3.3984194900000002 15.7170042300000006 2.8864012600000000 Au
atom 5.9781495199999997 15.8582354500000005 2.6832438600000001 Au
atom 7.4353261699999997 17.9678700900000017 2.7174546099999999 Au
atom 10.3798163700000003 17.9066245299999984 2.8819790900000002 Au
atom 13.0795002100000008 18.0311269900000006 2.2953454000000000 Au
atom 15.9198652200000001 17.9675811400000001 2.7368410900000000 Au
atom 18.8138610600000007 17.9962865699999988 2.5134838899999998 Au
atom 21.6479348099999989 17.8924387200000012 2.3831059699999999 Au
atom 24.3755002800000007 17.9026893399999985 2.5086799900000001 Au
atom 27.0714312300000017 18.0321709800000001 2.6313144799999999 Au
atom 1.8270710999999999 18.0404250300000015 2.7367305300000000 Au
atom 4.7870837699999997 18.0651186899999985 2.8153874999999999 Au
atom 8.8414951199999994 20.4501841800000008 2.8940358700000002 Au
atom 11.9102416899999994 20.5963670199999989 2.8097610300000002 Au
atom 14.5769183600000005 20.5877661200000013 2.8029897699999999 Au
atom 17.0775584100000017 20.6312751200000015 2.5330120800000002 Au
atom 20.1751464899999995 20.4790037399999996 2.6771396400000000 Au
atom 22.9141811900000008 20.5923183200000004 2.7548316200000000 Au
atom 25.7796649799999997 20.4831040400000006 2.9727759800000002 Au
atom 0.5028141400000000 20.3437010700000016 3.0287025999999999 Au
atom 3.4330366300000001 20.7192539300000007 2.7873578900000000 Au
atom 6.0018092699999999 20.5586762000000007 2.8129914500000002 Au
atom 7.5833089500000002 23.1691117599999998 2.6268718299999998 Au
atom 10.5308861999999994 22.9586171899999982 2.5291413999999999 Au
atom 13.3087599399999998 22.8978867400000006 2.8633065400000000 Au
atom 16.0554209599999993 23.1829546899999990 2.4015294699999998 Au
atom 18.8618621600000012 22.8655876999999990 2.3804883600000002 Au
atom 21.8928157799999994 23.1579966299999995 2.5898107000000001 Au
atom 24.4170486699999998 22.9826595800000000 2.5981852600000002 Au
atom 27.2154041800000002 22.9817712999999983 2.6954908000000000 Au
atom 1.9086327300000001 23.0307394099999989 2.6948646200000002 Au
atom 4.8939945500000004 23.0532944099999995 3.0498443300000000 Au
atom 8.9502379199999993 25.5368848100000001 2.5785261300000002 Au
atom 11.8185448799999993 25.5956244099999992 2.7217123800000000 Au
atom 14.6944128900000006 25.4074438799999989 2.8779677800000001 Au
atom 17.4155758300000016 25.4717461299999997 2.8203717099999999 Au
atom 20.3009681499999992 25.4757839600000011 2.4619878700000002 Au
atom 23.0795348099999984 25.5486547000000002 2.1451103599999999 Au
atom 25.9203074700000009 25.3633294999999990 2.3776405500000002 Au
atom 0.4927429800000000 25.5790828899999987 2.5642021000000002 Au
atom 3.3922012000000001 25.4407566299999992 2.7802417600000000 Au
atom 6.1733565800000001 25.5480026600000016 3.0560255100000000 Au
atom 7.5627663199999997 27.7976685400000001 2.7641421300000002 Au
atom 10.3809086700000002 27.9523277499999985 2.4755717700000002 Au
atom 13.1404493099999993 28.0166602900000008 2.8486054599999999 Au
atom 16.0185519399999983 27.8748501200000014 2.3714224100000001 Au
atom 18.9588245499999992 27.8924285999999988 2.4826322400000000 Au
atom 21.6114246100000003 27.9896346200000004 2.6237712100000001 Au
atom 24.4646285900000002 27.9713439900000012 2.3866334700000000 Au
atom 27.2534730299999985 27.9039302900000017 2.4827126900000001 Au
atom 2.1326358399999998 28.2005119899999990 2.4341367500000000 Au
atom 4.7980883199999997 27.7585400699999987 2.5243329200000000 Au
atom 8.8682355000000008 30.4884965799999996 2.6919019400000002 Au
atom 11.5656737599999992 30.5077803600000017 2.8900974000000001 Au
atom 14.5229253499999995 30.5189695999999984 2.5298209500000000 Au
atom 17.4996447999999987 30.1203806900000011 2.0750166000000001 Au
atom 20.2013997399999994 30.5490761400000004 2.0117177200000000 Au
atom 23.0331439300000014 30.3836867200000000 2.3270792100000000 Au
atom 25.9585654400000010 30.5690311299999991 2.2931338800000001 Au
atom 0.4865128900000000 30.3295904400000005 2.5989812099999998 Au
atom 3.4061339300000002 30.4957620700000014 2.7332479500000000 Au
atom 6.1921604400000003 30.3093683600000006 2.3073633099999999 Au
atom 7.6007270499999997 32.9635645400000001 2.3243940200000002 Au
atom 10.5766212199999998 32.7364051300000014 2.7035076199999999 Au
atom 13.2327387600000002 32.8492990900000024 2.5534138999999998 Au
atom 16.1037963899999994 32.8677160800000010 2.5532984700000001 Au
atom 18.9534452000000009 33.0981085299999975 2.2924733800000001 Au
atom 21.7512593099999982 32.6701112000000009 2.2455311700000000 Au
atom 24.6604962699999994 32.7659082200000000 2.5296946999999999 Au
atom 27.3119152099999987 32.9235344699999999 2.7353147999999998 Au
atom 2.0766256900000002 32.9487055100000035 2.9004203000000000 Au
atom 4.9510292900000001 32.9305803600000004 2.4027431099999998 Au
atom 9.2676007699999996 35.1982747200000006 2.7019233300000001 Au
atom 11.8261334300000005 35.2246876700000016 3.3106553800000000 Au
atom 14.6269822999999999 35.3207483799999977 2.7408486299999999 Au
atom 17.5068750400000006 35.3162735399999974 2.4684933500000001 Au
atom 20.1737175399999984 35.5850801300000015 2.4697037900000001 Au
atom 22.9466180199999989 35.2420671300000024 2.4974966200000002 Au
atom 25.8596741899999998 35.2734497300000029 2.5892419900000001 Au
atom 0.4827648200000000 35.3802925999999971 2.9153897799999999 Au
atom 3.1816800399999998 35.2710101500000022 2.4111605699999998 Au
atom 6.1102803100000003 35.1920595799999987 2.5715203700000000 Au
atom 7.6312979700000003 38.0651453700000033 2.6829470600000001 Au
atom 10.2679394300000002 37.8488891399999972 3.1791829100000002 Au
atom 13.3175506099999996 37.7851916899999978 2.8366828800000001 Au
atom 16.1750238899999985 37.7906306100000009 2.6422898799999999 Au
atom 18.7772257499999995 37.7004423400000022 2.6455965300000002 Au
atom 21.4937065800000013 37.8187888799999996 2.3930572400000001 Au
atom 24.3826282399999990 37.6712417099999968 2.7418260499999998 Au
atom 27.2172549699999990 37.7376925800000009 2.7948334099999999 Au
atom 1.9371235400000000 38.0020227600000027 2.8897194700000002 Au
atom 4.9276127599999997 37.7926405099999982 3.0528702700000001 Au
atom 9.0847533100000000 0.6269979000000000 2.8036438700000001 Au
atom 11.8560818599999998 0.8007277200000000 2.7198656099999998 Au
atom 14.6025954999999996 0.7248901500000000 2.6553699300000000 Au
atom 17.4447686500000003 0.8002345300000000 2.8411567700000000 Au
atom 20.1732570799999991 0.8530344500000000 2.2254862700000002 Au
atom 22.9261058200000001 0.9515597400000000 2.9680271800000000 Au
atom 25.8633099199999990 0.6465898400000000 2.7713284499999999 Au
atom 0.3857128800000000 0.6730711600000000 2.8338906300000000 Au
atom 3.3532601400000002 0.8325105300000000 3.0252999300000001 Au
atom 6.2499176900000002 0.6926230400000000 2.9636818800000002 Au
atom 7.7428692999999997 3.1287060200000001 2.9167707799999998 Au
atom 10.3206686300000001 3.1107884399999999 3.0335933700000002 Au
atom 13.3844345800000006 3.3472526500000002 2.9010664500000001 Au
atom 16.1121442700000017 3.2733297000000001 2.6080526200000000 Au
atom 18.8275776999999991 3.2433068500000002 2.7836927000000000 Au
atom 21.7105328899999996 3.3105116099999998 2.7567881299999999 Au
atom 24.6219902300000015 3.4884053000000002 2.7871109600000001 Au
atom 27.3780103299999986 3.4078419700000002 2.6132018100000001 Au
atom 1.8445437099999999 3.1480385100000001 3.0487989000000000 Au
atom 4.6357424099999998 3.2872455399999998 2.9176319999999998 Au
atom 8.8072983600000008 6.0404421499999996 2.9091993500000002 Au
atom 11.6509028299999997 5.9448617500000003 2.8772675400000001 Au
atom 14.6692103100000004 5.9406856699999997 2.8382103600000002 Au
atom 17.5558128899999986 5.6540083200000000 2.6509204400000002 Au
atom 20.1012797200000009 5.7484554200000000 2.5957352999999999 Au
atom 23.1710741300000009 5.8022098599999996 2.7786742000000002 Au
atom 25.8994604899999992 5.8290974599999998 2.7415240100000000 Au
atom 0.6519752900000000 5.6651329900000000 2.6771834100000000 Au
atom 3.4140706399999998 5.8248881299999997 3.0885402300000000 Au
atom 6.1266715600000001 5.8492793699999996 2.8420609400000001 Au
atom 7.5069829600000002 8.2107509600000004 2.5323661899999999 Au
atom 10.2161777300000001 8.1885868100000003 2.5807510400000000 Au
atom 13.3244101300000004 8.5121617900000004 2.8926489200000001 Au
atom 16.0987727999999990 8.2647354400000008 2.4109783100000000 Au
atom 18.7281659199999986 8.2605136500000000 2.2253237499999998 Au
atom 21.8362774900000005 8.3239542400000008 2.4620511500000002 Au
atom 24.6056349700000005 8.1503928999999999 2.6148266699999998 Au
atom 27.2392030799999993 8.2638013699999995 2.6010258899999998 Au
atom 2.0345415500000001 8.2043003100000007 2.8830037100000001 Au
atom 4.8412882100000001 8.3211189099999991 2.5027052099999998 Au
atom 9.1762908900000006 10.6886107500000005 2.6018696200000000 Au
atom 11.6493224899999994 10.7041646499999992 2.4524992399999999 Au
atom 14.5633162699999996 10.5896136199999997 2.5191383699999998 Au
atom 17.5407358199999983 10.5828165100000007 2.2728873699999999 Au
atom 20.1383305499999992 10.6395730600000000 2.2626514400000000 Au
atom 23.1827696799999998 10.6495405699999992 2.4661288600000000 Au
atom 25.9406164200000013 10.6099938799999993 2.5278434200000000 Au
atom 0.3904717100000000 10.8458712199999994 2.5663739900000002 Au
atom 3.4661559600000000 10.7403637100000005 2.6646856799999998 Au
atom 6.3076331600000000 10.7863575300000001 2.7135801800000001 Au
atom 6.8216036999999998 13.4476724099999991 5.7138931199999998 Cl
atom 7.0925282899999997 16.4082001800000015 8.1402746799999992 Cl
atom 6.8819981700000001 13.1233526499999993 8.4462232900000007 Na
atom 6.7724812099999996 16.2482575099999984 5.6339399999999999 Na
atom 6.7847962199999996 19.1296415599999996 5.6104915200000001 Cl
atom 6.7976990500000003 21.8422058200000002 8.6554035099999993 Cl
atom 6.8641034899999998 19.1818045099999992 8.3146431399999994 Na
atom 6.8298812800000004 21.7064001600000012 5.8499665099999998 Na
atom 6.9257319600000002 24.6229850100000007 5.7427281399999996 Cl
atom 6.9671111999999997 27.4420282399999991 8.7410812999999994 Cl
atom 7.1081930499999997 24.8517702900000010 8.2833566199999993 Na
atom 7.0803440300000000 27.2606920700000011 5.7340894799999997 Na
atom 7.1935427199999999 30.2412938199999992 5.6299388900000000 Cl
atom 7.0711579899999997 32.9192729000000028 8.5237099500000006 Cl
atom 6.9160716100000004 30.0044113900000013 8.6837359799999998 Na
atom 7.1115025599999999 33.1345869700000009 5.7418098100000003 Na
atom 7.0970945299999997 35.9663104999999987 5.8146881300000004 Cl
atom 7.0793887399999997 38.8082522699999970 8.7556005599999995 Cl
atom 7.2574261000000000 35.9393363900000011 8.5300541499999998 Na
atom 7.0418516799999997 38.9517135700000026 5.6922156700000004 Na
atom 7.1010305699999998 2.0359856299999999 5.9291935599999999 Cl
atom 7.1646568000000004 5.0597001700000002 8.8490134900000008 Cl
atom 7.1459358699999997 2.0867636699999998 8.5874741199999995 Na
atom 7.1730047299999997 4.8634764800000001 6.0019729499999999 Na
atom 7.2100068000000004 7.4132112299999999 5.7913196800000000 Cl
atom 7.0880672400000000 10.8339509399999994 8.6077869400000004 Cl
atom 7.1053572799999998 7.9083050500000001 8.2093056999999998 Na
atom 7.1504805700000000 10.5878908799999998 5.8258093799999999 Na
atom 9.7044495000000008 13.4824357599999995 5.5323831099999996 Na
atom 12.6412370400000000 13.5900205500000002 5.4425062200000003 Cl
atom 10.0372018000000001 16.1957143300000013 8.2080528400000006 Na
atom 12.9321316999999993 16.1038612000000008 8.1007023500000006 Cl
atom 12.7199655600000003 13.4400854699999996 8.1985172700000000 Na
atom 10.0890950499999992 13.3364909600000008 8.6285752299999992 Cl
atom 12.6183445699999996 16.3810295600000018 5.4765835300000001 Na
atom 9.9261520500000007 16.2702121599999998 5.3505137800000000 Cl
atom 9.7555964500000005 19.1689812199999992 5.6495843099999998 Na
atom 12.6071321500000000 19.1273543900000007 5.6622684999999997 Cl
atom 9.8962834100000006 22.2354835199999989 8.3167376599999994 Na
atom 12.7102165899999999 21.9985980099999985 8.6867006199999999 Cl
atom 12.6950699799999995 19.1194105999999984 8.2885709100000007 Na
atom 9.4881616399999995 19.1285136400000013 8.3157422699999994 Cl
atom 12.6772094499999994 21.8024623499999990 5.6799461999999998 Na
atom 9.9449318499999997 22.1063341199999996 5.5703262300000000 Cl
atom 9.9091647100000007 24.7362118899999999 5.8812713099999998 Na
atom 12.5728655299999996 25.1277627700000004 5.5654848000000001 Cl
atom 9.8802489700000002 27.7075878700000011 8.5639121700000000 Na
atom 12.4895904299999998 27.5463284500000007 8.6954345199999992 Cl
atom 12.4647832399999992 24.8990685200000001 8.6171632099999993 Na
atom 9.7639799499999995 24.5932511799999993 8.8351147399999999 Cl
atom 12.8681464299999995 27.5620924400000007 6.0679954199999999 Na
atom 9.6864191999999996 27.5490787200000007 5.8584102099999997 Cl
atom 9.9121854000000003 30.3338523600000016 5.7427971400000004 Na
atom 12.5106903799999998 30.5257603000000017 5.8558263899999998 Cl
atom 9.7318901400000009 33.1561206499999983 8.4759961300000004 Na
atom 12.7528079800000000 32.9336526199999966 8.6990818700000005 Cl
atom 12.7020576799999994 30.1954873399999997 8.3287088199999992 Na
atom 9.8299178200000004 30.3184947899999990 8.3422421199999999 Cl
atom 12.3501283799999992 33.4317490000000035 6.1495248100000000 Na
atom 9.8194503999999991 33.2642542700000021 5.8633477100000002 Cl
atom 9.6395880799999993 36.1395686099999978 5.7579673600000003 Na
atom 12.6260723200000005 35.8379452300000025 5.7324779699999997 Cl
atom 10.0819682799999999 38.8632282599999996 8.5055882399999998 Na
atom 12.8683131700000004 38.9893756399999987 8.4431820900000005 Cl
atom 12.4581814800000004 35.7890962900000034 8.5195682700000006 Na
atom 9.8850631999999994 35.8689359500000009 8.3196833199999993 Cl
atom 12.4941881000000006 38.5894390599999966 5.5165919600000004 Na
atom 10.1253719699999998 38.8930553399999965 5.6178923899999997 Cl
atom 9.7685440999999997 2.2154148999999999 5.9519823299999999 Na
atom 12.7987570300000009 2.1086476099999998 5.9249269000000000 Cl
atom 9.8858202599999991 5.0692871899999998 8.4743763899999998 Na
atom 12.7864848000000002 5.1260422800000001 8.6924167200000007 Cl
atom 12.6368512600000003 2.2457623999999998 8.3533274399999993 Na
atom 9.8328073800000002 2.2188506800000001 8.7415403299999994 Cl
atom 12.5477053499999993 4.8078493299999998 5.9105340100000001 Na
atom 9.8753310899999995 5.0709458300000003 5.8496852099999996 Cl
atom 9.7136955399999998 7.6862995800000000 5.7632239800000002 Na
atom 12.5053634099999993 7.4492803299999997 5.4063222700000004 Cl
atom 10.0376511599999994 10.7464564399999993 8.4669346500000007 Na
atom 12.8988547100000002 10.6646801100000008 8.1468779500000004 Cl
atom 12.7490583900000001 7.7134968500000003 8.1602814400000003 Na
atom 9.7582581200000007 7.9700803799999997 8.5143680499999999 Cl
atom 12.7866064700000006 10.4056042699999995 5.6208311699999998 Na
atom 9.7998046900000002 10.4839311800000008 5.8997984700000003 Cl
atom 15.4915462900000005 13.3949865199999998 5.3820734600000000 Na
atom 18.3899635900000007 13.2589397899999994 5.3244423899999997 Cl
atom 15.4223667399999993 16.1570161699999986 8.1146770099999994 Na
atom 18.1843873800000004 15.8436809400000005 8.4563285399999994 Cl
atom 18.5302601299999985 13.2352157300000002 8.4414253499999994 Na
atom 15.5767625600000006 13.5832690199999995 8.3486259399999998 Cl
atom 18.5327181400000001 16.2446428000000012 5.4353718400000002 Na
atom 15.4781969900000007 16.0418532099999993 5.1198581799999996 Cl
atom 15.5900897700000005 18.9751519399999999 5.8552521100000003 Na
atom 18.2738079700000000 18.9546294599999996 5.8138875499999996 Cl
atom 15.4474096299999992 21.9189499099999985 8.5067368600000002 Na
atom 18.3912691899999992 21.7896377100000009 8.5443496400000001 Cl
atom 18.2595345400000006 18.7335550200000007 8.2198269600000007 Na
atom 15.4655447000000006 19.0988624199999997 8.4567675999999992 Cl
atom 18.4124842099999988 21.8907928699999985 5.9670773600000002 Na
atom 15.4384381699999995 21.9184283600000001 5.8954063500000000 Cl
atom 15.3514000300000006 24.7954621700000004 6.2170005799999997 Na
atom 18.3924166999999983 24.8094479800000016 6.0889854200000002 Cl
atom 15.7174131300000006 27.6065819899999987 8.7172706000000009 Na
atom 18.4036684299999997 27.5405705699999999 8.7731229800000001 Cl
atom 18.2787714200000018 24.7706870799999983 8.7977586500000005 Na
atom 15.3309817800000001 24.8066806900000003 8.7376196099999994 Cl
atom 18.1196461699999993 27.4901346000000011 5.7484386299999999 Na
atom 15.3969331199999999 27.4727046100000010 5.7026004900000000 Cl
atom 15.4776468900000008 30.5022993100000015 5.7419541900000004 Na
atom 18.1906880800000010 30.3329551299999984 5.7042453799999997 Cl
atom 15.6033480800000000 33.1838142399999967 8.2082157000000002 Na
atom 18.5899756600000003 33.0968980999999971 8.3838603900000006 Cl
atom 18.2591863799999992 30.4734415699999985 8.4464351700000009 Na
atom 15.7825342099999997 30.3630640199999995 8.6694013800000000 Cl
atom 18.3877189799999989 32.9949482700000019 5.4968529999999998 Na
atom 15.5887320400000000 33.0842178600000025 5.5798862700000003 Cl
atom 15.5212582300000008 36.1384205800000018 5.8564187399999996 Na
atom 18.1642277099999987 36.0019286300000019 5.4387635500000000 Cl
atom 15.8640094900000008 38.9280234599999986 8.1640326099999996 Na
atom 18.0119568100000009 38.6874529500000008 8.4454470100000005 Cl
atom 18.4818270499999997 35.8438408600000002 8.2976835999999992 Na
atom 15.6310755599999993 35.7962514900000031 8.4599835599999995 Cl
atom 18.1732194500000013 38.9686842200000001 5.7921888800000003 Na