#===============================================================================
# Created using the Atomic Simulation Environment (ASE)

# Tue Dec 23 22:26:52 2025

#=======================================================
lattice_vector 28.1999999999999993 0.0000000000000000 0.0000000000000000 
lattice_vector 0.0000000000000000 39.4799999999999969 0.0000000000000000 
lattice_vector 0.0000000000000000 0.0000000000000000 62.3296083400000001 
atom 7.5067314900000000 14.7922855799999997 -0.2012295800000000 Au
atom 10.4334994400000003 14.8406495500000002 0.0807519800000000 Au
atom 13.1918360400000001 14.6448479700000007 -0.3101780100000000 Au
atom 16.0675941400000006 14.6967195600000000 -0.2204184000000000 Au
atom 18.8516406299999986 14.8301782200000005 -0.3969750400000000 Au
atom 21.5304915699999988 14.8205377400000007 -0.2043272100000000 Au
atom 24.4255783199999996 14.8336951399999997 -0.2928565700000000 Au
atom 27.1950064100000013 14.7860698100000008 -0.6359534400000000 Au
atom 1.8107694000000001 14.7749106700000006 -0.3517601000000000 Au
atom 4.6987265899999997 14.8110031400000004 -0.2761519300000000 Au
atom 9.1267861700000008 17.2837059000000011 0.1148790400000000 Au
atom 11.9699882100000004 17.2863170400000001 -0.0420406800000000 Au
atom 14.6157172600000003 17.2091252799999985 -0.4583544000000000 Au
atom 17.4491639499999991 17.2126627799999987 -0.3214927500000000 Au
atom 20.1992664600000005 17.4482235400000008 -0.1933329500000000 Au
atom 23.0422006000000010 17.3812582199999994 0.1201125600000000 Au
atom 25.8271403600000014 17.2518954999999998 -0.0940542700000000 Au
atom 0.4932448600000000 17.3691960399999985 -0.3240738000000000 Au
atom 3.4635269300000000 17.2002759400000009 -0.1919526900000000 Au
atom 6.1668451800000001 17.3709714899999987 -0.2105513300000000 Au
atom 7.7303980000000001 19.7929408100000011 0.0382928400000000 Au
atom 10.4730883400000003 19.8402195600000013 -0.1209588000000000 Au
atom 13.3590287300000004 19.7284137199999989 -0.0096615500000000 Au
atom 16.1570864199999988 19.7586731499999999 -0.4901875600000000 Au
atom 18.8855832899999996 19.9195199100000018 -0.1320972700000000 Au
atom 21.6877791500000008 19.8704117800000013 0.0660708200000000 Au
atom 24.6103952399999990 19.7955862099999997 0.1969582800000000 Au
atom 27.3167693599999986 19.9369038299999985 -0.2885724500000000 Au
atom 2.0727377800000002 19.8587846299999988 -0.3719479500000000 Au
atom 4.8528218799999996 19.7719639700000016 0.0837328300000000 Au
atom 8.9655673399999998 22.1870539099999995 0.1179796100000000 Au
atom 11.8292567799999997 22.2353635999999995 0.0085363000000000 Au
atom 14.6017095599999998 22.2579336499999982 0.1658083300000000 Au
atom 17.3487286599999990 22.3924594399999997 0.0030929400000000 Au
atom 20.3093942900000002 22.3293273799999987 0.2248458700000000 Au
atom 23.0868806199999987 22.3245539099999988 0.0335268800000000 Au
atom 25.9792342800000000 22.2565706900000002 -0.0705269500000000 Au
atom 0.5509706400000000 22.3096831599999987 -0.3207458900000000 Au
atom 3.3144151300000000 22.3371924600000007 0.0269325600000000 Au
atom 6.1203500999999996 22.2649414800000010 0.0272267000000000 Au
atom 7.4298808200000002 24.6905190300000008 0.2718941700000000 Au
atom 10.2536014099999999 24.6775206000000011 -0.0229670100000000 Au
atom 12.9741230900000009 24.7425329599999984 0.2299661200000000 Au
atom 15.8511714000000001 24.6917670499999993 0.0039791400000000 Au
atom 18.7115384700000007 24.7685447799999992 0.2455855000000000 Au
atom 21.6399588899999991 24.6636266000000006 0.0052801600000000 Au
atom 24.5116727200000000 24.8200763299999991 -0.1043756700000000 Au
atom 27.2548145999999996 24.8854898300000009 0.0285111700000000 Au
atom 1.7763858600000000 24.6250608299999989 0.2036549300000000 Au
atom 4.7165927099999996 24.7361120999999997 -0.0441227500000000 Au
atom 8.8074139700000007 27.1504066900000005 0.0340127500000000 Au
atom 11.6421877400000007 27.1729633499999998 -0.0850990500000000 Au
atom 14.4357140699999995 27.2564417799999994 0.1043918600000000 Au
atom 17.3299141100000007 27.2130078299999987 -0.0036912200000000 Au
atom 20.1749945599999982 27.0881321300000018 -0.1483517300000000 Au
atom 23.0741153099999998 27.1201585899999991 -0.1704206200000000 Au
atom 25.9347931000000003 27.2761386200000011 -0.2507350200000000 Au
atom 0.3965823200000000 27.1087494199999988 -0.0581611500000000 Au
atom 3.2130420200000001 27.2110433500000006 0.0486386000000000 Au
atom 5.9545408100000001 27.2536709899999998 0.0575179000000000 Au
atom 7.4472927200000001 29.7285066200000010 0.0182998200000000 Au
atom 10.1552380899999992 29.6150319199999998 0.3623924300000000 Au
atom 13.0644745100000002 29.6651755699999988 0.0267949200000000 Au
atom 15.9311054799999994 29.6114480899999997 0.3059749600000000 Au
atom 18.6964511100000017 29.5688705300000017 -0.2413395600000000 Au
atom 21.5288245300000014 29.6962185199999986 -0.3325087400000000 Au
atom 24.4978142299999995 29.5820609800000014 -0.4639192800000000 Au
atom 27.3427836999999982 29.8400090899999988 -0.1659226000000000 Au
atom 1.8882087100000000 29.7109441300000015 0.1596875800000000 Au
atom 4.6547150200000003 29.7746668499999991 0.0399474400000000 Au
atom 8.9703528800000001 32.0925589400000035 0.0727888000000000 Au
atom 11.6737461400000004 32.1814859200000001 -0.0636759000000000 Au
atom 14.5078429700000004 32.1265021000000033 0.1171787600000000 Au
atom 17.3161265399999991 32.0362154800000027 0.1550425500000000 Au
atom 20.1982130200000007 32.1374857300000016 -0.1107466300000000 Au
atom 23.0882848299999992 32.1025229899999971 -0.3878179300000000 Au
atom 25.8220208199999988 32.1035433899999987 -0.2915662200000000 Au
atom 0.4348958300000000 32.1808767799999984 0.3601263500000000 Au
atom 3.2843727999999999 32.1759800000000027 0.1422758900000000 Au
atom 6.1128840999999996 32.2328611900000013 -0.1803242000000000 Au
atom 7.5059820700000000 34.6181592800000004 -0.1582111500000000 Au
atom 10.3586249200000005 34.6262454599999998 0.1366570700000000 Au
atom 13.0483752800000001 34.7109031700000017 0.3141235200000000 Au
atom 15.9616043399999992 34.4252378500000020 0.3778172800000000 Au
atom 18.7787590900000012 34.5037054599999991 0.1246322800000000 Au
atom 21.5956866199999986 34.4946111200000018 0.0917929100000000 Au
atom 24.3256849700000011 34.5685051600000008 0.0405184600000000 Au
atom 27.3296175499999983 34.7454543099999995 -0.1847052400000000 Au
atom 1.8435252400000000 34.5688833399999993 -0.0652107100000000 Au
atom 4.7107050399999997 34.5686801900000020 0.0414208100000000 Au
atom 8.8557301200000005 36.9594833499999993 0.4454060800000000 Au
atom 11.8369071600000009 37.1238495500000028 0.3414382100000000 Au
atom 14.6244565899999994 37.0320252100000005 0.0803231800000000 Au
atom 17.6160315499999989 36.9987854100000035 -0.0132698900000000 Au
atom 20.1949746899999987 36.9761847600000024 0.2425839300000000 Au
atom 22.9482352700000014 37.0162440399999966 0.2473949600000000 Au
atom 25.7923759200000013 36.9099405600000026 -0.0199915400000000 Au
atom 0.4832758800000000 36.8275852700000002 0.3804666700000000 Au
atom 3.4219684199999998 36.9619815000000003 0.2534975300000000 Au
atom 6.1416379799999996 37.1284957599999998 -0.1619549800000000 Au
atom 7.6603804400000000 -0.0072046700000000 0.5230556200000001 Au
atom 10.2442194499999992 0.1233595100000000 0.2929122700000000 Au
atom 13.2392139300000000 0.0184953500000000 0.1115777400000000 Au
atom 15.7531187300000006 0.0623505300000000 0.3266283200000000 Au
atom 18.8305849599999995 0.0817892600000000 0.1217732200000000 Au
atom 21.5859423300000017 -0.0515019000000000 0.1768228800000000 Au
atom 24.4027255399999987 0.0258585700000000 0.1351684300000000 Au
atom 27.3159372400000002 0.1468114800000000 0.2215817600000000 Au
atom 1.8487362100000000 0.0041601200000000 0.4554908300000000 Au
atom 4.6988123300000000 -0.0424110900000000 0.2260680400000000 Au
atom 8.9055832200000005 2.4509780900000000 0.3353739000000000 Au
atom 11.6317606799999993 2.5635691700000001 0.3640966900000000 Au
atom 14.5609925100000002 2.5106682600000001 0.1222085600000000 Au
atom 17.4598228400000011 2.4797802400000002 0.3860898200000000 Au
atom 20.3191328700000007 2.4689042899999998 0.2398619600000000 Au
atom 23.0718651799999996 2.3914905800000001 0.0047956700000000 Au
atom 25.8834036099999985 2.5257856300000001 0.0558532700000000 Au
atom 0.4908128300000000 2.4530382700000000 0.3683156200000000 Au
atom 3.2808386800000000 2.4847616399999999 0.0679172200000000 Au
atom 6.0314776300000004 2.3420661200000001 0.4210370300000000 Au
atom 7.5476981700000003 4.8948299700000000 0.2508098500000000 Au
atom 10.3900266000000006 5.0796535799999996 0.5104313400000000 Au
atom 13.0736423700000000 4.9439791000000000 0.4711288400000000 Au
atom 15.9208377300000006 4.9200337599999999 0.3885882000000000 Au
atom 18.7732161300000016 4.9312584299999997 0.2050854800000000 Au
atom 21.6465922400000004 4.8862142700000000 0.0752091200000000 Au
atom 24.4892197899999999 4.9948387299999997 0.1453916900000000 Au
atom 27.2151185099999999 4.9503331499999996 0.1239649100000000 Au
atom 1.8276354600000000 4.8066424300000001 0.2083337600000000 Au
atom 4.7612686200000001 4.9243679000000000 0.4283512200000000 Au
atom 8.8295902900000005 7.3996543800000003 0.3593304600000000 Au
atom 11.8011325199999995 7.3368467300000004 0.3997338800000000 Au
atom 14.5529926900000000 7.2911344700000003 0.2454933300000000 Au
atom 17.3245429900000012 7.3911823999999999 0.2581169400000000 Au
atom 20.0813724799999989 7.4439146300000001 -0.0029076800000000 Au
atom 22.9625631000000006 7.4673539499999997 -0.1424783600000000 Au
atom 25.9640280399999988 7.4652052800000002 -0.1579045400000000 Au
atom 0.6221745400000001 7.2754687599999999 0.1296659500000000 Au
atom 3.3778242500000002 7.4053288500000001 0.1098344000000000 Au
atom 6.1940477700000001 7.4549241300000002 0.2189566000000000 Au
atom 7.5474275899999999 9.9164324199999996 0.2118003000000000 Au
atom 10.3989884299999993 9.7168430800000003 0.0905134000000000 Au
atom 13.2966496799999998 9.6555442700000000 0.1383130600000000 Au
atom 15.9744853800000008 9.8704804199999998 -0.1008836000000000 Au
atom 18.7426073799999990 9.8797352600000004 0.0418760400000000 Au
atom 21.5692124999999990 9.9448635400000001 -0.1166720600000000 Au
atom 24.3909107399999989 9.8586382100000005 -0.2608975800000000 Au
atom 27.1710219799999990 9.7895840599999993 -0.5734771000000000 Au
atom 1.7557294500000000 9.7838366200000007 -0.4674482000000000 Au
atom 4.7715576999999998 9.8250741399999999 -0.1744693500000000 Au
atom 8.9523768500000003 12.3529485300000008 -0.0309833700000000 Au
atom 11.7811810000000001 12.1603420900000003 0.1930011900000000 Au
atom 14.6119709100000001 12.2145865400000009 -0.0506027900000000 Au
atom 17.3679244799999992 12.3974199699999996 -0.2229052600000000 Au
atom 20.1242615600000008 12.3579792299999998 -0.2584834300000000 Au
atom 22.8781053400000012 12.2125774099999997 -0.4066443500000000 Au
atom 25.8436856599999984 12.3493955900000003 -0.7569160100000000 Au
atom 0.5644088600000000 12.3268724100000000 -0.7604550100000000 Au
atom 3.3409417399999999 12.3502784400000003 -0.5272029100000000 Au
atom 6.1129428099999998 12.3414785899999995 -0.1441954100000000 Au
atom 7.5011922599999998 13.1598039799999995 2.5243569099999998 Au
atom 10.2816516799999995 13.1886430499999996 2.6604199099999999 Au
atom 13.1886135899999992 13.3291571199999996 2.6462736699999998 Au
atom 16.0635776999999997 13.1671338599999999 2.4933718200000001 Au
atom 18.8241730400000016 13.2365372299999997 2.2667919900000002 Au
atom 21.6005815100000014 13.0675137600000006 2.1839670400000002 Au
atom 24.3769108400000007 13.1262932400000008 2.0658359599999998 Au
atom 27.1773033700000006 13.2089435500000008 1.7032257600000000 Au
atom 1.8767448000000000 13.2745487900000008 2.1613953900000000 Au
atom 4.5857068900000000 13.1663226899999994 2.3172600100000000 Au
atom 8.9138240700000004 15.6755096999999992 2.5860315400000000 Au
atom 11.7597625600000004 15.7163586599999991 2.4194018300000000 Au
atom 14.6323747300000004 15.6873687200000003 2.0352868000000002 Au
atom 17.4210745100000004 15.6444981700000003 2.2461393599999999 Au
atom 20.2659374899999989 15.6447065399999996 2.3851949700000001 Au
atom 22.9824202000000000 15.5845439399999997 2.5120887600000001 Au
atom 25.7333647200000009 15.5120496600000006 2.3028351499999999 Au
atom 0.3983742600000000 15.6825712799999994 2.1456211100000000 Au
atom 3.3046611800000001 15.5746038999999996 2.3572928700000002 Au
atom 6.1467164099999998 15.6177488899999997 2.3364462900000000 Au
atom 7.4965031900000003 18.1210127099999987 2.6371747700000001 Au
atom 10.4227615199999999 18.1411942300000000 2.5749842300000001 Au
atom 13.2852776000000006 18.1234955900000010 2.6379842600000001 Au
atom 16.1279128400000005 18.2087663299999996 2.0050198400000001 Au
atom 18.8039763200000003 18.1669538499999987 2.5476200900000001 Au
atom 21.5740695500000008 18.0569622500000015 2.6727716400000001 Au
atom 24.4405624800000005 18.0568444499999998 2.7495223499999999 Au
atom 27.2744135099999987 18.1307282600000015 2.2609326699999999 Au
atom 1.9685799399999999 18.1037302199999992 2.2477993199999999 Au
atom 4.8076813200000004 18.0545529800000004 2.4719545900000002 Au
atom 8.9520292399999999 20.4903208700000015 2.7180995299999999 Au
atom 11.8148746100000004 20.6308962700000009 2.6804326299999999 Au
atom 14.6324302900000003 20.5816615499999997 2.4498348999999999 Au
atom 17.4174714799999997 20.7245245199999992 2.2907798800000001 Au
atom 20.2151441900000002 20.6235180699999994 2.6288200000000002 Au
atom 22.9769017499999997 20.5288154899999995 2.6138008500000001 Au
atom 25.8671126300000012 20.6155108499999997 2.5716875699999999 Au
atom 0.5115286900000000 20.6574982899999995 2.2055176400000001 Au
atom 3.2878948499999998 20.5931592399999985 2.6526187800000001 Au
atom 6.1083760399999996 20.6494352499999998 2.5821974000000001 Au
atom 7.5000293400000002 22.9958001799999998 2.8738191300000002 Au
atom 10.3580141300000008 23.0144419999999990 2.4271935600000001 Au
atom 13.1213795399999995 23.0113842599999998 2.6227985899999999 Au
atom 16.0593113500000015 23.1188574699999982 2.6322520300000001 Au
atom 18.7939925800000012 23.1088996199999990 2.7625426700000002 Au
atom 21.6435841899999986 23.0314335700000008 2.6775863700000002 Au
atom 24.4247029799999993 23.0442307600000014 2.6989800599999998 Au
atom 27.3398265800000004 23.0984486000000011 2.4554250299999998 Au
atom 1.9005410300000001 23.1162122900000000 2.7022693400000000 Au
atom 4.6351592300000002 23.1241829000000010 2.5352167300000001 Au
atom 8.8530424599999993 25.5211649700000009 2.6845956100000001 Au
atom 11.6937885999999995 25.5398383799999991 2.6855467300000000 Au
atom 14.5590804299999999 25.3959592600000015 2.6518855100000001 Au
atom 17.2942360999999991 25.6574177600000013 2.6237464699999999 Au
atom 20.1980289000000006 25.5149614400000004 2.6368435699999999 Au
atom 23.0909598900000006 25.5191318500000008 2.7119783300000000 Au
atom 25.7946787099999995 25.6571915600000011 2.6160910500000001 Au
atom 0.4133612600000000 25.5341925200000013 2.5770918699999998 Au
atom 3.2360424800000001 25.6503501000000007 2.5545303700000002 Au
atom 6.0034631799999998 25.5433783100000014 2.8571127700000001 Au
atom 7.4741217000000004 28.1541380299999986 2.5511480500000001 Au
atom 10.3010616099999996 27.9316292900000001 2.8567240599999999 Au
atom 13.1637632799999995 27.9214516099999983 2.5672588500000000 Au
atom 15.9072990900000004 28.0516394099999999 2.7896745799999998 Au
atom 18.7218661200000014 28.0408648099999986 2.3592771799999999 Au
atom 21.5799856800000001 27.9357635900000005 2.3570487299999998 Au
atom 24.4138688500000001 27.9867295600000006 2.2735115200000000 Au
atom 27.1927201300000014 28.0099191900000015 2.4288716899999998 Au
atom 1.7956744200000001 28.0056726299999994 2.5848270100000001 Au
atom 4.5919934400000004 28.0388478899999996 2.5817822200000000 Au
atom 8.8518170800000000 30.6551959600000004 2.8458475999999999 Au
atom 11.7819400699999992 30.5324543800000008 2.5933827599999999 Au
atom 14.5411210999999998 30.4563226900000004 2.6456870800000001 Au
atom 17.4343157099999999 30.4488130300000002 2.7239584300000002 Au
atom 20.2972822400000013 30.3302225800000009 2.3882820699999998 Au
atom 23.0180468299999994 30.2995135799999993 2.1350038200000001 Au
atom 25.7964644400000012 30.4921321799999987 2.2445815699999998 Au
atom 0.4086264600000000 30.5090431500000001 2.8937882400000001 Au
atom 3.1690897400000000 30.5247461899999983 2.8219793399999999 Au
atom 5.9796044100000003 30.4332697699999990 2.4788671600000001 Au
atom 7.4364547300000003 32.9898991700000010 2.5453941900000001 Au
atom 10.3995100100000002 32.8977948400000031 2.6723296799999998 Au
atom 13.1880390700000003 32.9615568299999993 2.6661538600000001 Au
atom 15.9669712900000000 32.8920213800000028 3.0610393199999999 Au
atom 18.8851943099999993 33.0042882500000019 2.4925215000000001 Au
atom 21.7091814399999983 32.7261802800000012 2.4606990000000000 Au
atom 24.4601592100000005 32.8756361399999975 2.4836279499999998 Au
atom 27.2152145300000008 32.8822018199999988 2.4869906300000002 Au
atom 1.8706020600000000 32.9122927000000018 2.5728303299999999 Au
atom 4.7602701900000000 32.9520203800000004 2.8307748799999999 Au
atom 8.9746762300000000 35.3378006900000017 2.7050996100000000 Au
atom 11.7930855700000006 35.3758286899999987 2.8718118100000001 Au
atom 14.5918512099999997 35.3715820199999982 2.9345751000000000 Au
atom 17.4785497499999991 35.3987017700000024 2.7667118799999999 Au
atom 20.2845427299999983 35.3297341500000002 2.8633432999999999 Au
atom 23.1387037400000004 35.3800874699999994 2.6915796699999999 Au
atom 25.9438724900000004 35.3658943699999995 2.7679145100000002 Au
atom 0.6417337200000000 35.3038383499999995 2.7909700000000002 Au
atom 3.4461720900000001 35.3263685900000013 2.8285766799999998 Au
atom 6.2052721300000000 35.4986255499999999 2.4362858400000000 Au
atom 7.6150289999999998 37.9048404099999985 3.1728389500000000 Au
atom 10.6955812800000007 37.8656661099999994 2.7913239000000001 Au
atom 13.1791684000000000 37.8369940700000029 2.8035869700000000 Au
atom 16.0517608600000017 37.7237377599999988 2.8375057199999998 Au
atom 18.7054185900000007 37.8603609199999980 2.8233856700000000 Au
atom 21.7656402799999995 37.8876428900000022 2.9972382400000002 Au
atom 24.8998283399999991 37.8306490299999965 2.9538223600000002 Au
atom 27.4098670099999993 37.9449343100000007 2.7873996100000000 Au
atom 2.1096386200000001 37.7781886100000008 2.9917801900000001 Au
atom 4.7869383200000000 37.8555220599999984 2.9050653600000000 Au
atom 9.2370480700000002 0.7615783900000000 2.8343627400000000 Au
atom 11.9588083100000002 0.7171738100000000 3.0226058199999999 Au
atom 14.6580825600000004 0.8181756500000000 2.9332472900000002 Au
atom 17.5476767699999989 0.8648896500000000 2.8947869300000000 Au
atom 20.3915803900000014 0.8083905900000000 2.8895861500000000 Au
atom 23.2189141100000001 0.8578364800000000 2.6779139900000000 Au
atom 25.9037033500000007 0.7801937700000000 2.8918414399999999 Au
atom 0.3055335500000000 0.6553149600000000 2.9806638900000002 Au
atom 3.3961646299999999 0.9679137500000000 2.7401832800000001 Au
atom 6.0366329800000003 0.8437690799999999 3.0544378499999998 Au
atom 7.5986951899999999 3.3013694800000000 2.9469450300000002 Au
atom 10.3609730300000003 3.2042279400000000 2.9721969700000002 Au
atom 13.2102212899999998 3.2107517600000000 2.8373352100000000 Au
atom 16.0630400199999990 3.2910826700000002 2.9676602500000002 Au
atom 18.9660937800000013 3.2718977400000000 2.9848293699999999 Au
atom 21.7882439800000007 3.3573366800000000 2.8300678200000000 Au
atom 24.5628081000000016 3.3913918500000002 2.6584467400000000 Au
atom 27.2803809900000012 3.3336445900000000 2.9744926700000001 Au
atom 1.9472450800000001 3.4413809999999998 2.8381949299999998 Au
atom 4.8442245399999999 3.4353764500000001 3.0909120300000001 Au
atom 8.9652216599999992 5.8304984600000003 3.0162273200000000 Au
atom 11.7841668399999993 5.7859315499999999 3.1498208999999999 Au
atom 14.6524388499999993 5.7422172199999997 2.9457943300000000 Au
atom 17.4833478599999985 5.6973147600000003 2.8620838800000001 Au
atom 20.2920598500000011 5.8067051200000002 2.6772184200000000 Au
atom 23.1483785699999984 5.8020727499999998 2.5411391399999999 Au
atom 26.0039292499999988 6.0406430899999997 2.7858060700000000 Au
atom 0.4500064800000000 6.1649952900000002 2.8265564599999999 Au
atom 3.2889574100000001 5.9145711099999998 2.9198010499999998 Au
atom 6.0998056800000002 5.9135628100000002 2.8904294699999999 Au
atom 7.4847256800000004 8.2946401099999996 2.9993112499999999 Au
atom 10.4231177400000004 8.2864921200000001 2.7647932900000001 Au
atom 13.3077561200000005 8.1980939900000003 2.9970107800000001 Au
atom 16.0614863099999994 8.2708319600000006 2.7327647100000001 Au
atom 18.8850449000000005 8.3042239999999996 2.7905426900000001 Au
atom 21.6429426300000003 8.2465398400000005 2.4181078000000000 Au
atom 24.4102477200000010 8.2910170700000005 2.3288901900000001 Au
atom 27.2103564099999993 8.4039088399999997 2.4577227300000000 Au
atom 1.8332666900000001 8.5265281599999998 2.4391877800000001 Au
atom 4.5646462000000003 8.3366565399999999 2.6524644700000000 Au
atom 8.9298177800000005 10.7582107100000002 2.6624801300000001 Au
atom 11.8911417700000008 10.7060255499999997 2.6314459000000001 Au
atom 14.6234385000000007 10.7439236699999991 2.6349010399999999 Au
atom 17.5010049599999995 10.6444255000000005 2.3672968000000001 Au
atom 20.2944188099999998 10.7418758400000005 2.4835931300000000 Au
atom 23.0383506699999998 10.7339277000000006 2.4471944500000000 Au
atom 25.8802559499999987 10.7593006100000004 2.2320397900000000 Au
atom 0.3605685900000000 10.9525328500000008 1.9304689200000000 Au
atom 3.1959242899999998 10.7540882100000008 2.1809082599999998 Au
atom 6.0791274000000000 10.8106316099999997 2.5682694399999999 Au
atom 7.0854905900000000 12.8498345100000009 5.7484596100000003 Cl
atom 7.1511911200000000 16.0784802700000000 8.2083021800000004 Cl
atom 7.2237813199999996 13.1846194299999997 8.2964555699999991 Na
atom 7.0665402200000003 15.9693249099999992 5.4632614600000000 Na
atom 7.1286753899999997 19.1154023100000003 5.5825356399999997 Cl
atom 7.2387629400000000 21.5868878100000003 8.3372112099999995 Cl
atom 7.1496986199999997 18.8159069400000014 8.0614763299999996 Na
atom 7.1670079700000002 21.8750512000000015 5.5974398100000000 Na
atom 7.1781119999999996 24.5921754600000000 5.7405001300000000 Cl
atom 7.0974680000000001 27.2587655099999999 8.6366326400000002 Cl
atom 7.2965089000000001 24.2165059099999986 8.4282149600000000 Na
atom 7.0107016199999999 27.2592027299999984 5.9591238200000003 Na
atom 7.1044108300000000 29.9588796100000003 5.6635119200000004 Cl
atom 7.0859420200000001 32.8181244100000029 8.9155362300000007 Cl
atom 7.1283480399999997 30.1302267999999991 8.5186052100000005 Na
atom 7.0681246399999997 32.8844144600000021 6.0805122899999997 Na
atom 7.2324057699999997 35.6633396300000030 5.9798444200000000 Cl
atom 7.0850243199999996 38.4204902099999970 8.8447209000000004 Cl
atom 7.1174015099999997 35.6217098199999995 8.6911139700000000 Na
atom 6.9112690600000004 38.4489649499999970 6.3414719200000000 Na
atom 7.4591767200000003 1.6272808200000000 5.9611719699999997 Cl
atom 7.3728957199999998 4.4929063200000003 8.7470279499999997 Cl
atom 7.1646337899999999 1.7497497500000001 9.0069199100000006 Na
atom 7.3236518999999998 4.5266018700000004 5.9063579500000003 Na
atom 7.2343995400000001 7.5134143499999997 6.0116357999999996 Cl
atom 7.3089757600000000 10.2007489299999996 8.7348821999999995 Cl
atom 7.3031228600000002 7.4790960200000001 8.6375887200000001 Na
atom 7.1991426299999999 10.1500471599999997 6.0652625499999999 Na
atom 9.9196976100000001 12.8501007099999995 5.7804510999999996 Na
atom 12.7056558000000006 12.9021528199999995 5.8127522599999999 Cl
atom 10.0701265299999996 15.9903749099999999 8.2061568499999993 Na
atom 12.8584368100000006 15.9248466499999992 8.3716052100000002 Cl
atom 12.7516545400000005 13.1707992699999998 8.5402750699999999 Na
atom 10.0561888899999996 13.0384971800000002 8.5543607099999992 Cl
atom 12.9023453200000002 15.6416272900000006 5.6886196699999996 Na
atom 10.0312715800000003 15.9493205400000004 5.6608305200000002 Cl
atom 10.0214918300000004 18.6183947799999991 5.5403646200000001 Na
atom 13.0226267100000008 18.7271402100000017 5.4995885600000003 Cl
atom 10.0942935200000008 21.3996171900000007 8.1745619800000000 Na
atom 12.8160092799999994 21.5557607100000013 8.3453721699999992 Cl
atom 13.0121973000000004 18.6094192300000003 8.1391588000000006 Na
atom 10.1172451500000005 18.6316954999999993 8.4268672999999996 Cl
atom 12.9924787300000002 21.6084076200000013 5.5986343400000003 Na
atom 9.9722791100000006 21.8022271399999994 5.6033606400000000 Cl
atom 10.0140543399999995 24.3316118599999989 5.9279991599999997 Na
atom 12.9808646999999997 24.4209996099999991 5.8194438799999997 Cl
atom 9.8252278200000003 27.1227743600000011 8.4703394200000002 Na
atom 12.7524448300000000 27.2062842899999993 8.7338126000000003 Cl
atom 12.9139803400000002 24.4761078199999993 8.3429734599999996 Na
atom 10.1961256000000002 24.3108606300000005 8.6244625599999996 Cl
atom 12.7283310499999995 27.0853147000000014 6.0221347400000003 Na
atom 9.7942349300000000 27.1639854800000009 5.7258997400000000 Cl
atom 10.0201014300000004 30.0626862999999993 6.0865258999999998 Na
atom 12.8493140199999996 29.8630195200000017 5.8711986999999999 Cl
atom 9.9633433999999994 32.9063023300000026 8.5074295699999993 Na
atom 12.9520470099999994 32.7005014900000006 8.9722145599999994 Cl
atom 12.9319514099999999 29.8767200700000011 8.7197764400000004 Na
atom 9.9467815700000006 30.1276607100000007 8.7710703100000007 Cl
atom 12.7338155400000002 32.8450574800000012 6.0246202400000000 Na
atom 10.0035676400000000 32.9134015200000007 5.9106559000000001 Cl
atom 9.9671939300000005 35.7606673200000031 6.1625825100000000 Na
atom 12.8015587199999992 35.7272811400000023 5.9748778900000001 Cl
atom 10.2240095699999998 38.6575279400000014 8.7229841199999996 Na
atom 12.7923961700000000 38.4731293299999990 8.7326166000000001 Cl
atom 12.8136453199999991 35.6135002199999988 8.5843467800000006 Na
atom 10.0897397600000005 35.6140202099999996 8.8616050600000005 Cl
atom 12.8743037999999999 38.3292027299999987 6.0495609300000002 Na
atom 10.0354470899999999 38.3882099499999967 6.1046821099999997 Cl
atom 10.2795979299999996 1.8234528000000001 6.0615784599999998 Na
atom 12.8945490399999994 1.6822373200000000 5.9109848100000004 Cl
atom 10.1770288000000004 4.5106822800000002 8.7343524299999995 Na
atom 12.8938397200000008 4.7164485799999998 8.7980319799999993 Cl
atom 13.0077154600000000 1.7064818700000000 8.6513578300000002 Na
atom 10.1657529199999992 1.8633692399999999 8.9637352999999997 Cl
atom 12.8817739099999997 4.7039119700000001 6.1389744100000003 Na
atom 10.1592681900000006 4.6233007900000000 5.9122998899999999 Cl
atom 10.0689198599999994 7.4236740399999999 6.1308060600000003 Na
atom 12.8776034399999997 7.4890101700000002 5.8748598300000001 Cl
atom 10.0542336599999995 10.1919883200000001 8.4777257400000003 Na
atom 12.9107340300000004 10.3463236300000005 8.6386758300000004 Cl
atom 12.8679146899999992 7.3989132199999998 8.5700702599999996 Na
atom 10.0577501900000001 7.2746147399999996 8.8252865099999998 Cl
atom 12.8166987700000004 10.1844486799999991 5.8029795499999999 Na
atom 10.1476688999999993 10.0635678700000000 5.8465558800000004 Cl
atom 15.7852214699999998 12.7186862600000001 5.6585203399999999 Na
atom 18.7692693599999991 12.7902452300000000 5.3114895400000002 Cl
atom 15.7009271399999992 15.6479413300000001 7.9869150600000003 Na
atom 18.3933338199999987 15.6119160699999995 8.2098499199999999 Cl
atom 18.5910273900000007 12.8431843099999998 7.9937282500000002 Na
atom 15.7752259499999994 12.9725079799999996 8.2960613700000003 Cl
atom 18.5910555100000003 15.7133584499999994 5.2904962500000003 Na
atom 15.7108825900000006 15.6437117800000003 5.4114543900000003 Cl
atom 15.7169834900000005 18.7162457899999986 5.6910954199999999 Na
atom 18.5310844699999997 18.7181249299999983 5.4928121200000000 Cl
atom 15.8572790999999995 21.5831205900000000 8.4331034999999996 Na
atom 18.6762805199999988 21.3920678500000001 8.4257752700000008 Cl
atom 18.6648077699999995 18.5725257500000005 8.1469170200000001 Na
atom 15.8658491900000005 18.4491123399999992 8.3382122499999998 Cl
atom 18.6216586900000003 21.7149749400000012 5.6099993399999999 Na
atom 15.7300841600000005 21.6100403900000018 5.8005800900000004 Cl
atom 15.8397904399999998 24.4626124099999984 5.8798564899999999 Na
atom 18.6126050300000010 24.5807791400000006 5.7016418299999998 Cl
atom 15.7731670499999996 27.0713080200000000 8.7090350799999996 Na
atom 18.4562005800000009 27.2907065600000003 8.6728419799999994 Cl
atom 18.5771553599999990 24.3821147399999987 8.2664471200000005 Na
atom 15.8009572899999995 24.1985482000000012 8.7054097400000003 Cl
atom 18.4721368499999983 27.4333212999999994 5.8671580099999998 Na
atom 15.8163833199999999 27.0992891900000004 5.9236530700000003 Cl
atom 15.7615610200000003 29.9496921699999987 6.0025044400000001 Na
atom 18.4274652199999984 30.1501520899999989 5.7716727299999997 Cl
atom 15.5732062599999992 32.8134628899999967 8.6343868900000000 Na
atom 18.4195579599999988 32.7415395800000013 8.8444231000000002 Cl
atom 18.4342177300000003 30.0249552100000017 8.5242322300000009 Na
atom 15.6698133599999991 29.8452059799999994 8.6608087999999999 Cl
atom 18.6334158300000006 32.7891203900000008 5.9108344800000001 Na
atom 15.6560047900000008 32.6654779200000007 6.1006157900000000 Cl
atom 15.6452780800000006 35.6840239699999984 6.0835681399999997 Na
atom 18.4849240500000001 35.4615287399999985 5.9205434099999996 Cl
atom 15.6655050500000002 38.2981776399999987 8.6181405800000004 Na
atom 18.3690381800000004 38.2324213400000019 8.9440809800000007 Cl
atom 18.4817577899999996 35.5803948699999992 8.6948773399999997 Na
atom 15.5541881300000000 35.6226350900000028 8.7947795200000005 Cl
atom 18.4604237200000014 38.3792497000000026 6.2754482300000003 Na