#===============================================================================
# Created using the Atomic Simulation Environment (ASE)

# Tue Dec 23 21:42:17 2025

#=======================================================
lattice_vector 28.1999999999999993 0.0000000000000000 0.0000000000000000 
lattice_vector 0.0000000000000000 39.4799999999999969 0.0000000000000000 
lattice_vector 0.0000000000000000 0.0000000000000000 62.3296083400000001 
atom 7.5444465599999999 14.7524952400000000 0.0624411700000000 Au
atom 10.3074094699999996 14.8041762200000004 -0.0021283600000000 Au
atom 13.1071158600000004 14.8304432300000002 -0.0902323600000000 Au
atom 15.9498254399999997 14.8358111499999996 -0.0623019300000000 Au
atom 18.7778989900000006 14.7791832599999999 -0.0319392900000000 Au
atom 21.5652144899999989 14.8582489899999999 -0.0803273300000000 Au
atom 24.4077488299999992 14.8084765399999991 -0.0265470700000000 Au
atom 27.2181477600000008 14.8697459700000003 -0.1030644900000000 Au
atom 1.8532396700000000 14.8043562299999998 0.0009407100000000 Au
atom 4.6923780099999997 14.8077577999999992 -0.0347625200000000 Au
atom 8.8126429300000009 17.2577565700000015 -0.0729644200000000 Au
atom 11.6666168700000004 17.2554434000000008 -0.0938980800000000 Au
atom 14.4949824100000004 17.2850113000000007 -0.1399575400000000 Au
atom 17.3435195700000016 17.2820322699999984 -0.0143183900000000 Au
atom 20.1930580299999995 17.2915346599999999 0.0718476100000000 Au
atom 23.0147437199999985 17.2617456800000006 -0.0303023200000000 Au
atom 25.8095549200000001 17.2936768299999990 -0.0610977200000000 Au
atom 0.4356158700000000 17.3012730999999995 0.0045508800000000 Au
atom 3.2522705099999998 17.3081514900000002 -0.0654300100000000 Au
atom 6.0515067299999998 17.2912798199999997 0.0576754500000000 Au
atom 7.5043222500000004 19.7350217599999986 0.2131160600000000 Au
atom 10.3056181900000006 19.8147805900000016 -0.0823810600000000 Au
atom 13.0935746000000002 19.7400575200000006 -0.0023452400000000 Au
atom 15.9270026999999992 19.7572475499999989 -0.0568708700000000 Au
atom 18.7490033300000007 19.7410499399999999 0.0429299300000000 Au
atom 21.6186086999999993 19.7185575300000018 0.0271908100000000 Au
atom 24.4051027800000000 19.7620797099999983 0.1745516000000000 Au
atom 27.2631092300000013 19.7573056399999984 -0.0572786500000000 Au
atom 1.8553624900000001 19.7481505800000008 0.2059244200000000 Au
atom 4.6986301599999996 19.7623439500000018 0.0646506700000000 Au
atom 8.9050366299999997 22.2149203100000001 0.1059449800000000 Au
atom 11.7102227299999999 22.2575442599999995 -0.0104651300000000 Au
atom 14.5589279099999995 22.2268717299999992 -0.0452315000000000 Au
atom 17.3674428300000017 22.2197458599999997 -0.0303730900000000 Au
atom 20.1723008700000008 22.2158470000000001 -0.0225021300000000 Au
atom 23.0247647499999992 22.1630117599999998 0.0062610200000000 Au
atom 25.8255458100000013 22.1409808000000012 0.0250948600000000 Au
atom 0.4751569600000000 22.2169101900000001 0.0308815000000000 Au
atom 3.2584999200000002 22.1615660000000005 0.2725771200000000 Au
atom 6.1032682100000004 22.1846188099999999 0.1341932500000000 Au
atom 7.4775170199999996 24.6829454000000013 0.0988321800000000 Au
atom 10.2907693200000008 24.7012526500000007 0.0733262800000000 Au
atom 13.1343204500000006 24.7162571000000000 -0.0282710400000000 Au
atom 15.9669634299999998 24.6525200399999989 -0.1484250600000000 Au
atom 18.7332603599999992 24.6770185300000016 -0.0339267000000000 Au
atom 21.6373268500000009 24.6433499900000008 -0.1059665900000000 Au
atom 24.4318348599999986 24.6281106899999997 0.0559401400000000 Au
atom 27.2310279000000008 24.6214526900000017 0.0777585700000000 Au
atom 1.8614206600000001 24.6322717199999985 0.0631215500000000 Au
atom 4.6573548300000001 24.6318455299999997 0.0813530700000000 Au
atom 8.8801144700000005 27.1506971300000011 0.1322120400000000 Au
atom 11.7052854699999997 27.1656866199999989 0.0192838200000000 Au
atom 14.5556053199999997 27.1972604599999990 -0.1113627100000000 Au
atom 17.3571851099999996 27.1769606900000014 -0.1320945100000000 Au
atom 20.1835674599999990 27.1239212599999995 -0.0441289200000000 Au
atom 22.9861782900000016 27.1274765299999991 0.1700267100000000 Au
atom 25.8079934299999998 27.0762916500000017 0.1387778900000000 Au
atom 0.4374557800000000 27.1375386399999989 0.1484529800000000 Au
atom 3.2190428199999999 27.1482557600000014 0.0812951800000000 Au
atom 6.0091265700000003 27.1159938899999986 0.0840163800000000 Au
atom 7.4873727600000004 29.6027717199999998 0.0325075700000000 Au
atom 10.2862728000000008 29.6396521100000001 -0.0115854300000000 Au
atom 13.1283721399999997 29.6721212399999992 -0.1043697300000000 Au
atom 15.9620632899999997 29.6212943399999986 0.0264721500000000 Au
atom 18.7558899100000005 29.6539676499999985 0.0415605500000000 Au
atom 21.5722608800000017 29.5654624099999985 0.0108315700000000 Au
atom 24.4516062599999984 29.5624472699999998 0.0167698000000000 Au
atom 27.2291757399999987 29.5846246999999991 0.0520542500000000 Au
atom 1.8260192900000001 29.6366817599999983 -0.0608119800000000 Au
atom 4.6945786800000002 29.5630299299999990 0.0187093000000000 Au
atom 8.9452892700000000 32.0918877200000026 0.0515835600000000 Au
atom 11.7274566700000005 32.1307158700000031 0.0697078300000000 Au
atom 14.5900230200000003 32.1249232099999986 -0.0742688000000000 Au
atom 17.3800605200000007 32.1157809500000013 -0.0219577700000000 Au
atom 20.1750339799999985 32.0603019200000006 0.0909042400000000 Au
atom 22.9900585200000016 32.0209392100000017 -0.1125035900000000 Au
atom 25.8387425600000000 32.0358565399999975 0.0701405100000000 Au
atom 0.4360032100000000 32.1043192400000024 -0.0501021800000000 Au
atom 3.3234498900000000 32.0502240000000000 -0.0423532800000000 Au
atom 6.1216258999999997 32.1019749599999997 -0.0566999400000000 Au
atom 7.4666369599999998 34.5840598799999981 0.0732334700000000 Au
atom 10.2715841500000007 34.6125940700000001 0.0468765600000000 Au
atom 13.1464706699999994 34.6030586500000013 0.0127698100000000 Au
atom 15.9947897900000005 34.5715548299999966 -0.0487945800000000 Au
atom 18.7949920500000012 34.5536224100000027 -0.0260416200000000 Au
atom 21.6153365199999996 34.5767633700000019 -0.0051187900000000 Au
atom 24.4335886500000008 34.5197316900000004 -0.0351281200000000 Au
atom 27.2409864900000009 34.5315679099999997 -0.0893069400000000 Au
atom 1.8292188800000000 34.5849291999999977 -0.0089753900000000 Au
atom 4.6249001600000001 34.5401805899999985 0.0641446800000000 Au
atom 8.9147931299999996 37.0460674400000016 0.0606452200000000 Au
atom 11.7957375599999992 37.0501493000000011 -0.1659268400000000 Au
atom 14.6221287800000006 37.0925304900000015 -0.0255214200000000 Au
atom 17.4147119500000009 37.0676622000000009 0.0823887100000000 Au
atom 20.1729388000000007 37.0596771100000026 0.1003347100000000 Au
atom 23.0474845100000003 37.0244418799999977 -0.1257562800000000 Au
atom 25.8082472199999984 37.0264422300000007 -0.0135959500000000 Au
atom 0.4089044200000000 37.0558265100000028 -0.0252242100000000 Au
atom 3.2457722800000002 37.0127395199999967 0.0347137000000000 Au
atom 6.0893252699999998 37.0256286799999970 0.0954699500000000 Au
atom 7.5220179399999996 -0.0112953600000000 0.0442245300000000 Au
atom 10.3287338999999996 0.0479368300000000 0.0729959300000000 Au
atom 13.1582659500000005 0.0284673300000000 0.0396208300000000 Au
atom 16.0199056599999992 -0.0130206200000000 0.1948358500000000 Au
atom 18.8444771099999997 0.0490084300000000 0.0870535600000000 Au
atom 21.6308849000000016 0.0307988400000000 0.0506692800000000 Au
atom 24.4413685299999983 0.0366058600000000 0.0598856100000000 Au
atom 27.2588601200000014 0.0910719600000000 0.0577610600000000 Au
atom 1.8366598700000001 0.0176983600000000 0.0678120100000000 Au
atom 4.6500377600000000 0.0571875900000000 0.0138426200000000 Au
atom 8.9375820800000003 2.4762727700000000 -0.0088205800000000 Au
atom 11.7325623599999993 2.4766032500000001 0.0648823400000000 Au
atom 14.5832572299999992 2.5232588300000001 0.0311402900000000 Au
atom 17.4356160100000004 2.4830071800000000 0.0891054100000000 Au
atom 20.2490517799999985 2.5410195999999998 -0.0021049700000000 Au
atom 23.0271154299999985 2.5023884100000000 -0.0154572500000000 Au
atom 25.8327843000000001 2.4851212399999998 0.0880955300000000 Au
atom 0.4668689900000000 2.5140206300000001 0.0800892900000000 Au
atom 3.2946080599999998 2.5271595499999999 0.1382070000000000 Au
atom 6.1139656499999999 2.5022413100000001 0.0427868200000000 Au
atom 7.5047027599999998 5.0124100800000004 0.0594135800000000 Au
atom 10.2941760700000007 4.9125331900000004 0.1218758100000000 Au
atom 13.1221528500000009 4.9353399099999997 0.1411358000000000 Au
atom 15.9916291499999996 5.0089362499999996 0.1778447900000000 Au
atom 18.8243947700000014 5.0213758600000000 0.1595049700000000 Au
atom 21.6113009699999985 5.0243213899999999 0.1288001600000000 Au
atom 24.4052122599999990 4.8940197400000001 0.0801501500000000 Au
atom 27.2681906299999994 4.9478580599999997 0.1971966800000000 Au
atom 1.9059560799999999 4.9445944099999997 0.1901741800000000 Au
atom 4.6897008600000003 4.9702614399999998 0.1174945900000000 Au
atom 8.9390640999999995 7.4070753600000003 0.0320790900000000 Au
atom 11.7625348299999999 7.3527203700000001 0.0447036000000000 Au
atom 14.5498534399999997 7.4093015199999996 -0.0017589600000000 Au
atom 17.3578661399999987 7.4285100899999996 0.0889848000000000 Au
atom 20.2108311799999996 7.4856778400000001 0.0575109900000000 Au
atom 23.0659138100000014 7.4495334499999997 0.1531558600000000 Au
atom 25.8718112200000014 7.4329296300000003 0.0435253200000000 Au
atom 0.4759376000000000 7.3793524399999999 0.0639526000000000 Au
atom 3.2438314400000001 7.4389904400000004 0.0385501000000000 Au
atom 6.0686219200000000 7.4245984199999997 0.0421147300000000 Au
atom 7.5033624999999997 9.8776274399999995 -0.0291472700000000 Au
atom 10.3572969799999992 9.9090755099999992 -0.0433936900000000 Au
atom 13.1581628500000001 9.8832913300000005 0.0554791500000000 Au
atom 15.9704806500000007 9.8292923600000002 -0.0650217100000000 Au
atom 18.8039527699999987 9.8983157599999991 -0.0514490000000000 Au
atom 21.5912718099999985 9.9132225199999997 0.0398080900000000 Au
atom 24.3513633399999989 9.8955560200000008 0.0968039100000000 Au
atom 27.2096800300000012 9.9179571400000004 0.0576043800000000 Au
atom 1.7777881000000000 9.8901983199999997 0.1116741900000000 Au
atom 4.6510791600000001 9.8426631400000009 0.0271448300000000 Au
atom 8.9266627300000003 12.3189068200000005 -0.1064552100000000 Au
atom 11.8082630500000008 12.3225188200000009 -0.1943196700000000 Au
atom 14.6393178699999993 12.3343161299999995 -0.1542379500000000 Au
atom 17.4364923800000007 12.3146140000000006 -0.0592777000000000 Au
atom 20.1790569099999999 12.3339057099999998 -0.0075006100000000 Au
atom 23.0106982699999989 12.3956377700000004 -0.0968481900000000 Au
atom 25.7684806199999983 12.3630315599999996 -0.0005612300000000 Au
atom 0.4045845400000000 12.3495282199999998 -0.0883396300000000 Au
atom 3.2581828499999999 12.3140692699999992 0.0559743000000000 Au
atom 6.1468784500000000 12.3118535700000002 0.0215351800000000 Au
atom 7.5477028500000003 13.1731849499999996 2.6075752799999998 Au
atom 10.3693280699999999 13.1578501800000005 2.4710874899999999 Au
atom 13.1445666499999998 13.2074041100000006 2.4157954400000001 Au
atom 15.9482457100000001 13.1376862800000005 2.4635704700000001 Au
atom 18.7028622999999996 13.1834900099999999 2.7062158100000002 Au
atom 21.5377216699999998 13.1879198800000008 2.5268784300000000 Au
atom 24.4256088200000008 13.2607419400000008 2.6231472700000000 Au
atom 27.2410614399999993 13.2409447599999996 2.4758743299999999 Au
atom 1.8409564800000000 13.1628829899999999 2.6193243900000001 Au
atom 4.6834445899999997 13.2031778800000001 2.5593556700000000 Au
atom 8.9468912700000001 15.5859798699999992 2.6524552600000000 Au
atom 11.7035469600000006 15.6550743499999996 2.6343551299999999 Au
atom 14.5363999499999998 15.6102624300000006 2.5250465300000000 Au
atom 17.3559057699999997 15.6547884499999999 2.6055574799999999 Au
atom 20.1576615399999994 15.5948318100000005 2.4990486700000001 Au
atom 22.9874471500000013 15.6543309700000002 2.5422982200000002 Au
atom 25.8255096100000010 15.6848011100000004 2.5641785100000001 Au
atom 0.4468011100000000 15.6555823800000002 2.5610296400000001 Au
atom 3.2468298199999999 15.6410732299999999 2.5105311200000000 Au
atom 6.0634922700000002 15.6218326399999992 2.6009657399999999 Au
atom 7.4884344000000000 18.0558876400000017 2.7276267999999999 Au
atom 10.2757480599999997 18.1409082899999987 2.3667563399999998 Au
atom 13.1218976499999993 18.1053891399999998 2.4906785299999998 Au
atom 15.9306628799999999 18.1236277900000005 2.4753770300000002 Au
atom 18.7872803799999986 18.0177447899999983 2.6882792000000002 Au
atom 21.6027879100000000 18.1053558300000006 2.6839112100000002 Au
atom 24.4081456900000013 18.0722611600000000 2.7135808799999999 Au
atom 27.2702544300000014 18.1188132300000007 2.5076105200000001 Au
atom 1.8673751300000001 18.0836889800000016 2.6741467900000000 Au
atom 4.6901486099999996 18.1092343699999994 2.5486365499999999 Au
atom 8.9000544300000008 20.6147275400000005 2.7272299100000001 Au
atom 11.7430781399999997 20.5789353000000013 2.6224718800000000 Au
atom 14.5322049500000006 20.5862782300000013 2.5767902000000000 Au
atom 17.3915745699999995 20.5417343999999993 2.6308177800000001 Au
atom 20.2281711800000004 20.5633799999999987 2.5072968100000002 Au
atom 23.0062678399999996 20.5335311599999990 2.7493929100000001 Au
atom 25.8598946400000003 20.6022985299999988 2.6629885600000001 Au
atom 0.4518580000000000 20.5897695300000017 2.7564101200000000 Au
atom 3.3151746599999998 20.5687092299999996 2.8626373100000002 Au
atom 6.0603681299999996 20.5681369799999985 2.6556595299999999 Au
atom 7.4889420700000002 23.0210163899999998 2.6969663499999998 Au
atom 10.3196201799999994 23.1056262500000003 2.6801289100000001 Au
atom 13.1605834599999998 23.1222481500000008 2.5199582100000000 Au
atom 15.9317501900000007 23.1184523700000000 2.5365158999999999 Au
atom 18.7495194299999994 23.0132594799999985 2.5948904300000000 Au
atom 21.5659940600000013 23.0654921799999997 2.4912571699999999 Au
atom 24.4051489400000001 23.0009833400000012 2.6528001099999998 Au
atom 27.2247632700000004 23.0976781799999991 2.6702937599999998 Au
atom 1.8242568600000000 23.0579645100000015 2.7128086699999998 Au
atom 4.6652942099999999 23.1019452399999992 2.7981950000000002 Au
atom 8.8989654199999997 25.4962023299999991 2.6870109300000000 Au
atom 11.7069548099999992 25.5891638800000010 2.6084121499999999 Au
atom 14.5748706600000002 25.5883000799999998 2.5230589000000001 Au
atom 17.3856689600000003 25.5514924400000005 2.4936560399999999 Au
atom 20.2279881800000005 25.5129452900000011 2.5338935199999999 Au
atom 23.0529155099999983 25.5060961599999985 2.6698823699999998 Au
atom 25.8468569799999983 25.5152404600000011 2.7315543700000000 Au
atom 0.4796216500000000 25.5548151899999993 2.6970698099999999 Au
atom 3.2805971899999999 25.5410566400000008 2.6369769199999999 Au
atom 6.0753029800000000 25.5362323099999990 2.6686942299999998 Au
atom 7.4824570599999998 27.9794754999999995 2.5578364900000001 Au
atom 10.3624099500000000 28.0267656299999999 2.6776036500000000 Au
atom 13.1783145000000008 28.0149546399999991 2.5098311299999998 Au
atom 16.0021633299999984 28.0377767099999993 2.5456922899999999 Au
atom 18.7808352300000010 28.0171134200000012 2.4670067100000002 Au
atom 21.5782041000000007 28.0582249300000015 2.7325395700000001 Au
atom 24.4087286500000005 27.9813650600000017 2.7166971499999999 Au
atom 27.2342148199999983 27.9784183099999986 2.7579930099999999 Au
atom 1.8946963900000000 27.9981508699999999 2.6446416600000000 Au
atom 4.6960371399999996 28.0445893599999998 2.7975045800000000 Au
atom 8.9318835700000001 30.4207820700000013 2.6423783300000001 Au
atom 11.6924083999999997 30.4839084599999985 2.5670255900000001 Au
atom 14.5100347500000009 30.4682688699999993 2.5485091400000002 Au
atom 17.3774282199999988 30.4794829599999986 2.6583108000000002 Au
atom 20.2584205100000005 30.4963662800000002 2.7400111500000000 Au
atom 23.0700096799999983 30.4413616900000008 2.4753148700000001 Au
atom 25.8512617300000009 30.4485512699999994 2.6357519800000002 Au
atom 0.4536969300000000 30.4216930099999985 2.6526981599999999 Au
atom 3.2919947399999998 30.4536569700000008 2.5537508799999999 Au
atom 6.1008774600000004 30.4687169599999983 2.6263120600000001 Au
atom 7.5358958400000002 32.9248460199999968 2.6184918499999998 Au
atom 10.3454284199999993 32.9695647200000010 2.7669218000000000 Au
atom 13.1380964599999999 32.9492880600000007 2.5765460500000001 Au
atom 15.9706245599999992 32.9215121100000019 2.6814197399999999 Au
atom 18.8038386099999997 32.9250255999999979 2.6117441100000001 Au
atom 21.6108244099999993 32.8888581599999981 2.6656580900000000 Au
atom 24.4045110299999983 32.9420611199999982 2.5150817000000001 Au
atom 27.2647665900000007 32.9481965200000033 2.6447728700000002 Au
atom 1.9027678200000000 32.8999901999999977 2.5277845399999999 Au
atom 4.7434322699999996 32.9574325000000030 2.5611343099999999 Au
atom 8.9469782700000007 35.3781256500000012 2.7443148499999999 Au
atom 11.7958451800000006 35.4225115500000030 2.5967096600000001 Au
atom 14.5734169500000004 35.4162176700000018 2.6040274100000000 Au
atom 17.4070064199999983 35.3584625900000020 2.6604265699999998 Au
atom 20.2095559300000005 35.3711617399999980 2.6923375300000001 Au
atom 22.9463666999999987 35.3758499999999998 2.5557493999999998 Au
atom 25.8230907300000005 35.3947845900000004 2.5805595399999999 Au
atom 0.4440991900000000 35.3481743399999999 2.5466665200000000 Au
atom 3.3041418500000002 35.3689938899999987 2.6943996200000000 Au
atom 6.1170146599999997 35.4333906700000014 2.6450821499999999 Au
atom 7.5607764199999998 37.8474338199999991 2.6904687400000000 Au
atom 10.3861595999999992 37.8573476799999966 2.5279171699999998 Au
atom 13.1892103800000005 37.8938305599999978 2.5009821799999998 Au
atom 16.0112972599999992 37.8427474300000029 2.7521095899999999 Au
atom 18.7998488299999984 37.8526358000000016 2.7469960900000001 Au
atom 21.6248258299999989 37.8931816799999979 2.6023737499999999 Au
atom 24.3918355899999995 37.8726887500000018 2.5596934199999999 Au
atom 27.1949264200000016 37.8458110400000010 2.5602417000000002 Au
atom 1.8303428399999999 37.8106856599999972 2.6902717300000001 Au
atom 4.6614242800000003 37.8241822800000023 2.6550913399999998 Au
atom 8.8819935799999996 0.8650852000000000 2.6590848000000000 Au
atom 11.7172432200000003 0.8480362100000000 2.7392427000000001 Au
atom 14.5556097799999993 0.8725759600000000 2.7023223600000001 Au
atom 17.3639141300000013 0.8489973400000000 2.8469838699999999 Au
atom 20.2089134799999997 0.8661879700000000 2.7003223799999998 Au
atom 23.0515335499999985 0.9250385200000000 2.6401407799999999 Au
atom 25.8392561500000006 0.8576380000000000 2.7798310499999999 Au
atom 0.4182698100000000 0.8472363100000000 2.6886247800000000 Au
atom 3.2748443599999999 0.8449658500000000 2.7242105300000001 Au
atom 6.0844495500000004 0.8318035100000000 2.6040112899999999 Au
atom 7.4759144700000002 3.3283398599999998 2.5806009400000001 Au
atom 10.2938197799999998 3.2842666299999999 2.6449866499999999 Au
atom 13.1139933400000004 3.2963040600000002 2.6860268899999999 Au
atom 15.9597373499999993 3.3483465300000002 2.6683442199999998 Au
atom 18.8090124199999984 3.3091332400000000 2.6210430100000002 Au
atom 21.6054347000000000 3.3299109900000001 2.6056236799999999 Au
atom 24.4038785800000007 3.3783753800000000 2.6504773500000001 Au
atom 27.1943888800000018 3.3776529800000001 2.7842298699999999 Au
atom 1.8391246400000001 3.3430332400000000 2.7843643899999999 Au
atom 4.6779338600000004 3.3391385699999998 2.6936167900000001 Au
atom 8.8742800499999994 5.7904227500000003 2.7211380300000001 Au
atom 11.7260153999999996 5.8057049300000001 2.7904717500000000 Au
atom 14.5137596299999991 5.8354621399999997 2.7390760799999998 Au
atom 17.3936251900000016 5.8172896500000002 2.7754107299999999 Au
atom 20.1927142699999997 5.7965671199999997 2.7689089700000000 Au
atom 23.0278516199999999 5.8489981100000001 2.7397269600000000 Au
atom 25.7990659999999998 5.8495390299999999 2.6958729099999998 Au
atom 0.4100074400000000 5.8035133400000003 2.7390272000000002 Au
atom 3.2782372899999999 5.8428854100000001 2.8318095900000002 Au
atom 6.0704042100000004 5.8559868799999997 2.6871461700000001 Au
atom 7.4845644699999996 8.3036306300000007 2.6704128200000001 Au
atom 10.2917755500000005 8.2415810399999998 2.5640576300000002 Au
atom 13.0996399199999995 8.2990952700000005 2.6572404700000001 Au
atom 15.9254630899999992 8.2493529199999998 2.6495131600000001 Au
atom 18.7675321799999999 8.3218054000000006 2.7632698800000002 Au
atom 21.6403962499999984 8.2962855399999995 2.6773037199999998 Au
atom 24.4359915900000004 8.3539941800000008 2.8319412700000002 Au
atom 27.2293990999999984 8.2717714800000000 2.6083012100000000 Au
atom 1.8297961100000000 8.2824034700000002 2.6923722600000000 Au
atom 4.6223387499999999 8.2664086099999992 2.6203693299999999 Au
atom 8.8514930900000000 10.7400483199999996 2.5985191400000001 Au
atom 11.6541238800000002 10.7285171300000002 2.5713507600000001 Au
atom 14.5022439599999995 10.7265093700000005 2.5988460600000001 Au
atom 17.3165979900000018 10.6987659399999995 2.5425428299999999 Au
atom 20.1546430299999990 10.7350721000000000 2.5993762199999999 Au
atom 23.0073080999999995 10.7855323100000007 2.6629140300000000 Au
atom 25.8221333699999995 10.8035441900000002 2.6315238700000001 Au
atom 0.4579414500000000 10.7431822799999992 2.6727154400000002 Au
atom 3.2255827799999999 10.7207989000000001 2.6503024700000002 Au
atom 6.0686190699999996 10.6864325699999991 2.5907160700000000 Au
atom 7.6407143399999997 13.0622132099999995 5.7372934100000004 Cl
atom 7.2954665800000003 15.9191041200000001 8.2863419700000005 Cl
atom 7.7068906200000002 12.9139914200000003 8.6199574099999996 Na
atom 7.5554802900000002 15.8957695300000008 5.6152724500000000 Na
atom 7.3758040600000001 19.0047052000000001 5.6948129700000001 Cl
atom 7.5292627500000000 21.5941744799999995 8.4813335799999994 Cl
atom 7.5528122199999999 18.7651471900000004 8.2948931300000002 Na
atom 7.4185823900000001 21.8049425899999996 5.6997624000000000 Na
atom 7.3005606600000004 24.7082904600000006 5.7659878500000001 Cl
atom 7.4709029800000000 27.4587354200000000 8.6805805700000001 Cl
atom 7.5682687499999997 24.5669317599999992 8.3531046199999999 Na
atom 7.4718697799999996 27.4817570499999988 5.9653955700000001 Na
atom 7.4041533199999998 30.2282175899999999 5.7485879899999999 Cl
atom 7.5391425200000004 32.9081091600000022 8.5908624800000002 Cl
atom 7.5196569499999999 30.2443663799999989 8.4060460100000007 Na
atom 7.4595243499999997 33.0227392299999991 5.8473730399999999 Na
atom 7.4650870899999999 35.8520496900000012 5.7903172500000002 Cl
atom 7.5246480199999999 38.5640721199999987 8.6204109100000004 Cl
atom 7.4982950900000001 35.7327544799999970 8.4490515100000003 Na
atom 7.5451036399999998 38.6090199900000002 5.9170489300000000 Na
atom 7.5208355700000000 1.8081162799999999 5.7589744899999999 Cl
atom 7.5145786899999996 4.6663117500000002 8.7462669200000001 Cl
atom 7.4790517100000002 1.8573895100000000 8.4333842600000004 Na
atom 7.4870780400000001 4.6150687599999998 5.9450479500000002 Na
atom 7.3352307999999997 7.3200818099999996 5.8225791700000000 Cl
atom 7.2021513500000003 10.3146899600000008 8.2656507399999999 Cl
atom 7.5253638599999997 7.6661145399999997 8.4740439799999994 Na
atom 7.3210334499999998 10.2162552499999997 5.6461665600000002 Na
atom 10.3167348200000006 13.1476513399999995 5.7902477299999999 Na
atom 13.0712524699999992 13.1600890600000007 5.4885942900000000 Cl
atom 10.3406362499999993 15.9964447399999994 8.3302740800000006 Na
atom 13.2578196800000008 16.0148569800000011 8.4463264599999999 Cl
atom 13.1861878099999998 13.1781573499999993 8.0665360499999998 Na
atom 10.5123513699999993 13.3087614900000002 8.4090141200000001 Cl
atom 13.1267534399999999 15.9802645900000009 5.8303858499999999 Na
atom 10.4230504100000001 16.1323598799999992 5.7430542100000004 Cl
atom 10.3517983299999994 18.6802367499999988 5.8253995999999999 Na
atom 13.0890968200000000 18.7313700800000014 5.5698248000000001 Cl
atom 10.3825553199999998 21.5277667100000016 8.3491965100000005 Na
atom 13.1055682099999995 21.4794219700000006 8.1357661100000005 Cl
atom 13.1867916699999999 18.7920456300000005 8.1949220599999997 Na
atom 10.2103829200000007 18.7730021600000008 8.6732470999999993 Cl
atom 13.0292499399999997 21.5338725599999989 5.5554495900000003 Na
atom 10.2095271499999996 21.6916312299999987 5.7442957400000001 Cl
atom 10.3527705000000001 24.5128337499999986 5.7909405400000002 Na
atom 13.1553699200000001 24.6273587099999993 5.6820664100000000 Cl
atom 10.2931024200000003 27.4054376700000013 8.4651166000000000 Na
atom 13.0693557400000007 27.6007917800000016 8.7256686299999995 Cl
atom 12.8942670100000001 24.6123259400000016 8.1225609199999997 Na
atom 10.3727588300000004 24.5188037700000017 8.4591501000000004 Cl
atom 13.1444512899999992 27.3760831099999997 5.9024220500000002 Na
atom 10.2448723000000008 27.4014356300000017 5.8532805300000001 Cl
atom 10.3143844199999997 30.1584702100000008 5.8556763500000004 Na
atom 13.1619850899999999 30.1343674899999989 5.7845408899999997 Cl
atom 10.3353667500000004 32.9588673700000001 8.3948116099999996 Na
atom 13.1071503200000006 32.9261717799999971 8.6195556399999997 Cl
atom 13.2164693199999999 30.2733276599999996 8.3999974900000005 Na
atom 10.3149320000000007 30.2559866900000003 8.6824764200000004 Cl
atom 13.1841920100000003 32.9201250599999966 5.8890653700000000 Na
atom 10.2780831799999994 33.0069707199999982 5.7185079700000001 Cl
atom 10.3465259799999991 35.8023487500000002 5.9725152399999999 Na
atom 13.1916654399999995 35.7787472799999975 5.7784538500000000 Cl
atom 10.3152627799999994 38.6532103999999990 8.5267053799999992 Na
atom 13.1867332200000007 38.5261049799999995 8.6701568899999994 Cl
atom 13.1903790000000001 35.7567969500000018 8.4853883700000008 Na
atom 10.4016981299999998 35.7897103000000030 8.7398703799999993 Cl
atom 13.1957300899999996 38.5278225400000025 5.8602697600000004 Na
atom 10.3539533899999991 38.5576169200000010 5.8489579899999997 Cl
atom 10.3430189899999991 1.8155749400000001 5.8407290500000002 Na
atom 13.1996476600000001 1.8134557700000000 5.8083298699999997 Cl
atom 10.3247450900000004 4.7267997599999996 8.4287416700000009 Na
atom 13.2143397500000006 4.6589370800000003 8.6274241400000005 Cl
atom 13.1404541800000008 1.8857613200000001 8.4974126600000002 Na
atom 10.3204732799999999 1.8547936500000000 8.6090871900000003 Cl
atom 13.2147062999999996 4.7167828800000002 5.9046934699999998 Na
atom 10.3475904199999995 4.6925114600000004 5.8526477100000003 Cl
atom 10.2706228100000008 7.4650925499999996 5.8348216300000004 Na
atom 13.1453132000000004 7.5903795299999999 5.9145200300000003 Cl
atom 10.2051542600000005 10.2535890799999994 8.1966768099999996 Na
atom 13.2815786199999994 10.2275138699999992 8.6286022199999994 Cl
atom 13.1701782099999996 7.5557699999999999 8.5728734899999992 Na
atom 10.3830740800000001 7.6285067599999996 8.6058418000000003 Cl
atom 13.0874092300000004 10.1776804999999992 5.7260600400000001 Na
atom 10.1655515100000002 10.2247217999999993 5.5577883999999997 Cl
atom 15.9190181099999997 13.0355101700000002 5.7540340199999997 Na
atom 18.7219259200000003 12.9529728599999991 5.6134819299999998 Cl
atom 16.0075114300000010 15.8910820000000008 8.1469125699999996 Na
atom 18.9016609399999993 15.8989314000000004 8.2642187699999994 Cl
atom 18.8529604500000012 13.1584399100000002 8.2713049600000002 Na
atom 16.1347565599999996 13.0902261200000005 8.5413693500000001 Cl
atom 18.8328694799999994 15.9196775400000003 5.5469356799999998 Na
atom 15.9277982500000004 15.8103201700000007 5.5391801999999997 Cl
atom 15.8582212499999997 19.1471211799999992 5.6806121100000002 Na
atom 19.0435811599999987 18.7611801900000010 5.5376538100000001 Cl
atom 15.8450694700000003 21.6502157900000007 8.2619858199999996 Na
atom 18.6074966099999983 21.3771574000000015 8.5394813900000006 Cl
atom 18.7778034399999996 18.8087169000000003 8.1314828400000003 Na
atom 16.1891144199999992 18.6499936700000006 8.1900206400000002 Cl
atom 18.7591438400000001 21.6351950500000001 5.8278549100000001 Na
atom 16.0054886500000002 22.0448423200000008 5.6267724899999996 Cl
atom 15.9016124800000007 24.5510269399999999 5.9301094599999997 Na
atom 18.6657232099999995 24.2836753200000004 5.8202165499999996 Cl
atom 16.0321125000000002 27.2121235000000006 8.3782181799999993 Na
atom 18.7631085999999989 27.3198822800000016 8.5170719399999992 Cl
atom 18.4773667599999989 24.4393630199999983 8.3901914000000009 Na
atom 15.7838792300000001 24.4570904800000015 8.5771946000000003 Cl
atom 18.9188391100000004 26.9474036599999991 5.8022443199999998 Na
atom 16.0999539700000014 27.2270515099999990 5.7403391399999997 Cl
atom 16.0048319799999987 30.0393588800000018 5.6685719199999998 Na
atom 19.0377418899999995 30.1133458599999990 5.5858772200000004 Cl
atom 16.0458779299999996 32.8633425200000033 8.5616883399999999 Na
atom 18.8712187299999989 32.8846915199999970 8.7701890099999993 Cl
atom 18.8905146799999990 30.0556128999999999 8.3000154199999994 Na
atom 16.1596161599999988 30.0694674199999987 8.4803587399999998 Cl
atom 18.8937552000000011 32.8243073599999988 5.9540650399999997 Na
atom 16.0996508300000016 32.8885853399999988 5.8718128399999996 Cl
atom 16.0165405599999993 35.7015319400000024 5.9986227999999997 Na
atom 18.8782062400000008 35.7339772600000032 5.8684399999999997 Cl
atom 16.0395788000000010 38.4882443400000014 8.5713920199999993 Na
atom 18.8889038000000014 38.5087831000000023 8.7188416100000001 Cl
atom 18.8465303599999991 35.6827808800000028 8.5407968299999997 Na
atom 16.0324290500000011 35.7219187899999966 8.6836437400000008 Cl
atom 18.8740784800000014 38.5116121800000002 5.9588681599999997 Na