#===============================================================================
# Created using the Atomic Simulation Environment (ASE)

# Sat Nov  1 21:48:32 2025

#=======================================================
lattice_vector 28.1999999999999993 0.0000000000000000 0.0000000000000000 
lattice_vector 0.0000000000000000 39.4799999999999969 0.0000000000000000 
lattice_vector 0.0000000000000000 0.0000000000000000 62.3296083400000001 
atom 7.4184370199999998 14.8491055799999998 0.0570644400000000 Au
atom 10.2307488200000005 14.8637852200000005 -0.0977016900000000 Au
atom 13.0517783000000005 14.8668998299999995 0.0866316600000000 Au
atom 15.9008677800000005 14.7748557300000005 -0.0473417600000000 Au
atom 18.7549886800000003 14.8632623200000005 -0.0781938300000000 Au
atom 21.7096403699999989 14.7387701100000008 0.0276764800000000 Au
atom 24.5990414400000006 14.7686549899999999 0.0739710300000000 Au
atom 27.3441305899999989 14.8809858699999999 0.0215377600000000 Au
atom 1.7251907200000001 14.8536693700000004 0.0466238400000000 Au
atom 4.6871705199999996 14.8831088499999993 0.0484954700000000 Au
atom 8.9165789899999996 17.2597719299999994 -0.0403395600000000 Au
atom 11.6023750700000008 17.2500916999999987 0.0046592700000000 Au
atom 14.4820794900000003 17.3619680599999988 0.0289088900000000 Au
atom 17.4345535799999993 17.3068201299999984 -0.1019747500000000 Au
atom 20.2189399499999993 17.1064146299999997 -0.1072490000000000 Au
atom 23.1542771800000011 17.1673001200000002 -0.0785607100000000 Au
atom 25.8566121100000004 17.3388904400000001 0.0434706500000000 Au
atom 0.2409002900000000 17.1863337399999985 0.0684664700000000 Au
atom 3.2579865799999999 17.3885473099999999 0.1016680300000000 Au
atom 5.9746462899999999 17.3208801500000007 -0.0449889400000000 Au
atom 7.3424117799999999 19.6440687800000013 0.1611407600000000 Au
atom 10.3135359599999994 19.8518885800000007 0.0199322300000000 Au
atom 13.2024215700000003 19.6548164499999984 -0.0262335200000000 Au
atom 16.1510381199999991 19.8135902000000002 -0.1115285700000000 Au
atom 18.8036943399999998 19.7858817999999985 0.2286210000000000 Au
atom 21.4819073600000010 19.8355945700000014 0.0544415000000000 Au
atom 24.3397897599999986 19.8332988199999996 0.0139059600000000 Au
atom 27.0962913800000003 19.7022086600000002 0.0840785200000000 Au
atom 1.9860764799999999 19.6696115899999988 0.0318708500000000 Au
atom 4.8821147600000003 19.7600003899999983 0.0647240200000000 Au
atom 9.0346614800000005 22.1704134900000014 0.0935716500000000 Au
atom 11.7765433399999999 22.1206352700000011 0.3189033500000000 Au
atom 14.7145934700000005 22.1134967300000014 0.1934349400000000 Au
atom 17.4823904799999994 22.3220064399999991 0.1680479200000000 Au
atom 20.1163645299999985 22.1890069099999998 -0.1330476300000000 Au
atom 22.9906371000000007 22.1722438000000004 0.2223186100000000 Au
atom 25.8987789299999989 22.1868600100000002 0.1621016400000000 Au
atom 0.5398281200000000 22.1481448699999994 0.1538809100000000 Au
atom 3.2699135899999998 22.0781133400000016 0.0453127800000000 Au
atom 6.1103518599999997 22.2841003600000001 0.0720275900000000 Au
atom 7.6836263000000002 24.5587930900000018 0.0097406200000000 Au
atom 10.2016270400000000 24.7510732500000010 0.0723402700000000 Au
atom 12.7626401699999992 24.8184552899999993 -0.0045431600000000 Au
atom 16.0516806900000013 24.5247181199999993 0.1438756500000000 Au
atom 18.8585312599999995 24.7372808800000001 0.1259845800000000 Au
atom 21.5266528500000014 24.4943530699999990 0.1666806600000000 Au
atom 24.3174181000000011 24.6823194599999987 0.2197931400000000 Au
atom 27.2493866999999987 24.8243243500000013 0.0184185900000000 Au
atom 1.7805338900000001 24.4992310899999985 0.1670081800000000 Au
atom 4.6430953199999996 24.7690454200000012 0.0786027600000000 Au
atom 9.0540085500000007 27.1318042699999999 0.1484024300000000 Au
atom 11.7486780199999998 27.2567536200000013 -0.1160136600000000 Au
atom 14.4319404900000006 27.2740395199999988 -0.0239485700000000 Au
atom 17.3864645099999997 27.1553608900000008 0.1693095700000000 Au
atom 20.1612205399999986 27.1301641099999991 0.0958527700000000 Au
atom 22.9339478800000016 27.1992861499999989 0.1698799900000000 Au
atom 25.8654591700000012 27.2936587599999996 -0.0983602500000000 Au
atom 0.6086472900000000 26.9523042199999985 0.2311036600000000 Au
atom 3.2120419700000000 27.1498463399999999 0.0568936500000000 Au
atom 6.2418350100000000 27.1881470900000011 0.1569302500000000 Au
atom 7.3797155300000004 29.6757283600000008 0.0703408800000000 Au
atom 10.2155777000000008 29.4622020000000013 0.0517478600000000 Au
atom 13.1711439600000002 29.6802728800000004 0.0715144000000000 Au
atom 15.8475334799999992 29.6639934600000004 0.0133970300000000 Au
atom 18.7263641700000001 29.6558377299999982 0.1332427400000000 Au
atom 21.7569873999999999 29.7817887399999996 0.0152561600000000 Au
atom 24.3048003299999991 29.6513668499999987 0.2223726700000000 Au
atom 27.2444498700000004 29.8656188399999998 0.0695126000000000 Au
atom 1.8239899500000001 29.6086709500000005 0.0280493500000000 Au
atom 4.7138481099999998 29.6788540900000015 0.1338197000000000 Au
atom 8.7856390799999993 32.0603959800000027 0.0297130300000000 Au
atom 11.5480615499999999 32.0261482499999985 -0.0953936700000000 Au
atom 14.7161923500000000 31.9881129000000008 0.0200601600000000 Au
atom 17.3877468499999992 32.0056145900000004 0.1307938800000000 Au
atom 20.3599555700000003 32.0345380600000027 -0.0229982800000000 Au
atom 23.1882952399999986 32.0874098600000011 -0.0719822900000000 Au
atom 25.7809957999999995 32.0247346199999967 0.0240592100000000 Au
atom 0.4196405200000000 31.9109723199999991 0.0102599700000000 Au
atom 3.3355579500000001 32.2153038399999971 0.1044045200000000 Au
atom 6.0253304200000004 32.1019927800000033 0.1066272500000000 Au
atom 7.5261470600000004 34.6601085400000031 -0.0707703900000000 Au
atom 10.2439210200000002 34.7024229000000020 0.0906784800000000 Au
atom 12.9815490499999999 34.5488344199999986 -0.1397371300000000 Au
atom 15.9836525799999993 34.6258312900000007 0.1186417500000000 Au
atom 18.7282311499999992 34.5804426899999982 0.1147340700000000 Au
atom 21.7320515999999984 34.5783055599999969 0.0553047700000000 Au
atom 24.3893429300000015 34.6730783200000019 -0.0599465500000000 Au
atom 27.1992288500000008 34.5605289700000000 0.0086290200000000 Au
atom 1.9085880900000001 34.4086894200000017 0.1076079800000000 Au
atom 4.7006631600000004 34.6164709099999968 0.2173178700000000 Au
atom 8.9424396000000002 36.9984634799999981 0.0761888800000000 Au
atom 11.8347889100000003 36.9957445599999986 0.0030845100000000 Au
atom 14.5705059299999995 37.1214860799999968 0.1746767500000000 Au
atom 17.3839048799999993 37.1866122099999998 0.0168394900000000 Au
atom 20.1484525400000010 37.1332493800000023 0.1580207700000000 Au
atom 23.0380700199999993 37.0346130699999989 0.1164213900000000 Au
atom 25.7495234900000014 36.9638394799999972 0.1439810500000000 Au
atom 0.5085710900000000 36.8960374400000006 -0.1129528600000000 Au
atom 3.3766176899999998 36.9033006200000031 -0.0416088400000000 Au
atom 6.1010939100000003 36.9759736500000002 0.1347396500000000 Au
atom 7.5412406599999997 0.0646952600000000 0.0900622800000000 Au
atom 10.2915839400000007 -0.0608486500000000 0.1002300600000000 Au
atom 13.1347927200000001 -0.0679086200000000 -0.0692283700000000 Au
atom 15.8726670300000006 -0.0465895100000000 0.1611486500000000 Au
atom 18.7155510999999990 -0.1430654200000000 -0.0191741100000000 Au
atom 21.6325543300000014 0.0553131800000000 0.0895724400000000 Au
atom 24.4500888699999983 -0.0005161500000000 0.3201013200000000 Au
atom 27.3476945100000002 -0.0803294400000000 0.2569462900000000 Au
atom 1.8321954700000000 0.0134501800000000 -0.0280969600000000 Au
atom 4.4447734700000003 0.0819420300000000 0.1623859400000000 Au
atom 9.0765604700000004 2.5637726999999999 0.0020128800000000 Au
atom 11.7986085000000003 2.6113255400000002 -0.0951598100000000 Au
atom 14.3463353599999994 2.2945992300000002 -0.0145642000000000 Au
atom 17.2852439000000011 2.3409382700000001 -0.0531370100000000 Au
atom 20.2132771200000008 2.5304494399999999 0.1029271000000000 Au
atom 22.9196591000000005 2.4847425099999998 0.0539181900000000 Au
atom 25.7588083200000000 2.5202240900000001 -0.0453446600000000 Au
atom 0.3280906700000000 2.3665427600000002 0.1196905200000000 Au
atom 3.3069186600000000 2.4276727800000000 0.0997236500000000 Au
atom 6.1234815300000003 2.6267582100000002 0.1230253600000000 Au
atom 7.5530762899999999 4.9025928299999997 0.1648152600000000 Au
atom 10.1807585500000002 4.8970636900000004 0.1381872700000000 Au
atom 13.0033414599999997 4.9276933900000000 0.1052406300000000 Au
atom 16.0189725199999984 4.9695567399999998 0.0748732000000000 Au
atom 18.8453645700000010 5.0132211800000004 0.0456539500000000 Au
atom 21.5501917499999998 4.7837300699999998 0.1383790800000000 Au
atom 24.4035782800000014 4.8251106300000002 0.1586611000000000 Au
atom 27.3778355900000001 5.1258964599999999 0.0264700200000000 Au
atom 1.7869760800000001 4.8696685999999998 0.0810255100000000 Au
atom 4.7043924500000003 5.0599888799999997 0.2691661500000000 Au
atom 8.9248799900000009 7.4424874000000001 0.1502173400000000 Au
atom 11.7675054499999998 7.3487170900000001 0.1091411500000000 Au
atom 14.5791138000000000 7.5015074000000004 -0.1870322400000000 Au
atom 17.3552341900000009 7.3008489799999996 0.0899086800000000 Au
atom 20.1661516700000014 7.5398325100000001 -0.1257032900000000 Au
atom 22.9895925000000005 7.4535778600000002 0.1031325700000000 Au
atom 25.8521584100000013 7.4285386100000004 0.0188652600000000 Au
atom 0.5386553300000000 7.2685956300000001 0.0276324900000000 Au
atom 3.4529080699999999 7.4048654000000003 -0.1439224100000000 Au
atom 6.0606479699999998 7.3877403499999996 0.1561654400000000 Au
atom 7.3631530999999999 9.8937073099999999 0.0279529800000000 Au
atom 10.3341169100000005 9.8341026599999992 -0.0023101600000000 Au
atom 13.2171964699999993 9.6493820199999991 0.0167118600000000 Au
atom 16.0467705699999996 9.9421830599999996 0.0815429200000000 Au
atom 18.8847915499999992 9.9295489200000002 -0.0358911600000000 Au
atom 21.4912386099999999 9.9810946800000000 0.1725870500000000 Au
atom 24.4398099400000000 9.8223906999999997 0.0935336800000000 Au
atom 27.0449607100000016 9.8678084699999999 0.2719496300000000 Au
atom 1.9187220100000000 9.9136894600000005 0.0733820300000000 Au
atom 4.6952101099999997 9.8864021199999996 -0.0667394600000000 Au
atom 9.0875443499999999 12.2134502400000002 -0.1257450400000000 Au
atom 11.6151297699999994 12.2957246199999997 0.0568682500000000 Au
atom 14.5721565500000008 12.2335372200000005 0.0094408900000000 Au
atom 17.4346201500000006 12.4716135700000006 0.0043881000000000 Au
atom 20.2277738900000017 12.4046122099999998 -0.1198966900000000 Au
atom 22.8989321500000003 12.3963057400000007 0.1373486700000000 Au
atom 25.9129203600000011 12.4980392899999995 0.0992138500000000 Au
atom 0.4130125000000000 12.3663568300000009 -0.0272768700000000 Au
atom 3.1649061199999999 12.3853646499999996 0.0634769300000000 Au
atom 6.1952428299999998 12.1744489399999996 0.0981282700000000 Au
atom 7.5240636700000003 13.3097942299999996 2.6286278900000002 Au
atom 10.2690679899999999 13.1886353199999995 2.5614622900000001 Au
atom 12.9948614899999999 13.2808864799999995 2.6380560499999999 Au
atom 16.0575688800000016 13.2149195299999995 2.6718492600000001 Au
atom 18.7134963600000006 13.2579838199999998 2.7385487500000001 Au
atom 21.5678556599999993 13.1495358400000004 2.4493489700000000 Au
atom 24.4942717499999993 13.2675360599999994 2.6576955600000001 Au
atom 27.1785241500000012 13.1123776099999994 2.6144191100000000 Au
atom 1.8841611599999999 13.2667478800000005 2.6406751800000001 Au
atom 4.7425007600000004 13.1245993399999996 2.4454764400000002 Au
atom 8.7309892300000005 15.7153121999999996 2.7109915899999999 Au
atom 11.7520297199999995 15.5286133999999993 2.7146759399999998 Au
atom 14.5414996700000003 15.7540058999999992 2.5964373200000002 Au
atom 17.2768568000000009 15.8164205500000001 2.5531300799999999 Au
atom 20.1589509100000015 15.5712199899999995 2.5091294700000000 Au
atom 23.0149951299999991 15.6742522199999996 2.6733218000000001 Au
atom 25.7563433699999997 15.6327496700000008 2.5719650299999999 Au
atom 0.4680513200000000 15.6311427500000004 2.6592260699999999 Au
atom 3.3914610900000000 15.7037250700000008 2.6679528900000000 Au
atom 5.9966609399999999 15.3006642599999996 2.7887696900000001 Au
atom 7.3391692800000001 17.9699656200000000 2.8627257300000002 Au
atom 10.3413029000000005 17.9460059700000016 2.5539487099999998 Au
atom 13.0610412199999999 18.0770595699999994 2.5074978200000002 Au
atom 16.0468159399999983 18.1399174700000003 2.6916587800000000 Au
atom 18.8670401599999984 18.1617821600000013 2.7346654899999998 Au
atom 21.4548910600000013 17.9800029700000010 2.6556054800000002 Au
atom 24.3622581800000013 18.1888165499999985 2.7167431099999999 Au
atom 27.1473173900000013 18.0227940699999998 2.7596523899999998 Au
atom 1.8937866200000000 18.1514266199999987 2.7526342399999999 Au
atom 4.6707806400000003 18.1453043100000002 2.7157752300000002 Au
atom 9.1235652799999993 20.5145575499999993 2.8843170499999999 Au
atom 11.8148828800000008 20.5734466000000005 2.5935449199999998 Au
atom 14.5353665799999998 20.5870872899999995 2.7395673700000001 Au
atom 17.3917892899999984 20.5229690500000004 2.6913957300000000 Au
atom 20.2733134300000017 20.6170659200000017 2.6057745099999998 Au
atom 23.0223501199999987 20.6609872000000010 2.7923531499999998 Au
atom 25.7299258500000008 20.5166062499999988 2.8310057799999999 Au
atom 0.2927158200000000 20.6453003099999997 2.7114478300000000 Au
atom 3.3160704600000002 20.4993131800000015 2.6493184300000001 Au
atom 6.0908352199999998 20.5826969400000017 2.7276877100000001 Au
atom 7.6298346700000002 23.2615705599999991 2.7542941399999998 Au
atom 10.4028861599999995 22.8555695700000001 2.6942209799999999 Au
atom 13.0881981500000002 22.9957775099999999 2.6636099600000001 Au
atom 15.9988744000000001 23.0680791700000007 2.8207974500000002 Au
atom 18.7897848799999991 23.1359949799999995 2.6816866300000002 Au
atom 21.4659471099999983 22.9704937399999984 2.5229606300000000 Au
atom 24.3981447200000012 22.9593529600000004 2.7488458300000000 Au
atom 27.2237044099999999 22.9728445900000011 2.6491373299999998 Au
atom 1.9476293300000000 23.0516636599999991 2.7380409100000000 Au
atom 4.5305078300000003 23.1611430899999995 2.6172242400000001 Au
atom 8.8859019299999993 25.5682499000000014 2.6375929500000002 Au
atom 11.7256245299999993 25.4098649499999993 2.5932644100000002 Au
atom 14.3939590099999997 25.5340476999999986 2.9051868800000000 Au
atom 17.2439540800000017 25.5504108099999989 2.5648285199999998 Au
atom 20.2607309499999992 25.4292415799999993 2.6090125899999999 Au
atom 22.9452570300000005 25.4459856299999991 2.6035906799999999 Au
atom 25.8713671699999992 25.6169294399999998 2.8026985099999999 Au
atom 0.3618299000000000 25.6168238499999994 2.7386825300000002 Au
atom 3.3838860600000000 25.5017111800000009 2.8068826499999999 Au
atom 6.0827163700000000 25.7682176299999988 2.7430935999999999 Au
atom 7.5175371599999998 27.9109572899999989 2.6814171500000001 Au
atom 10.1903163699999997 27.8648023999999985 2.7442655800000000 Au
atom 13.0696764699999992 27.8830267599999999 2.8095843399999998 Au
atom 15.8677101199999999 28.0952175599999983 2.7379109499999998 Au
atom 18.7984555499999999 27.8027765600000016 2.6179885700000001 Au
atom 21.6729121000000013 28.1802444100000002 2.6407525199999999 Au
atom 24.4678463099999988 28.0380842500000007 2.5749705000000001 Au
atom 27.4274635000000018 27.8928965899999994 2.4677252900000002 Au
atom 2.0036981200000001 28.1413997800000004 2.6622492499999999 Au
atom 4.6816304100000004 27.9733448899999999 2.9121535299999999 Au
atom 8.8366238900000003 30.6975681599999994 2.5057428599999998 Au
atom 11.9188420700000002 30.3326156199999986 2.5954170099999998 Au
atom 14.6261854099999997 30.1968229400000006 2.5873596200000000 Au
atom 17.4115707999999998 30.5460826499999989 2.7407000500000001 Au
atom 20.1790522800000005 30.2945379700000004 2.6098079900000002 Au
atom 22.8981587399999995 30.5525398199999998 2.5213043100000001 Au
atom 25.6848035699999997 30.3744106400000007 2.7570799199999998 Au
atom 0.3308536700000000 30.5586397699999992 2.6554113500000001 Au
atom 3.3067776000000002 30.4289117500000010 2.6493201900000001 Au
atom 6.1611633599999998 30.4235232099999990 2.5505890099999999 Au
atom 7.5749857299999999 32.9494144399999982 2.5064524100000001 Au
atom 10.3235431400000000 32.8616978800000012 2.7049938199999999 Au
atom 13.1311946899999992 32.8682025700000011 2.5279267299999999 Au
atom 15.9562781299999994 32.9572934500000017 2.8280986700000001 Au
atom 18.7670026400000012 32.8210286999999994 2.5679414299999999 Au
atom 21.6881900099999996 32.9470754099999965 2.5705987299999999 Au
atom 24.5113220100000007 32.7399901499999970 2.5507692000000000 Au
atom 27.2482325600000017 32.7115828700000009 2.6142657200000001 Au
atom 2.2373713700000000 33.0371579700000026 2.5139079899999999 Au
atom 4.6408590900000002 32.9878900300000026 2.5912204399999998 Au
atom 8.6695121900000007 35.2803220600000031 2.8736838200000001 Au
atom 11.7543393700000003 35.3666585499999968 2.7551103900000000 Au
atom 14.5277882700000003 35.5097854600000034 2.6368307700000000 Au
atom 17.3088797099999994 35.3523518100000018 2.7114391599999998 Au
atom 20.2881744799999986 35.3884664500000028 2.6045183999999999 Au
atom 23.0777391399999985 35.4289399800000027 2.8053425500000002 Au
atom 25.9974490399999993 35.4353778899999980 2.6521384800000001 Au
atom 0.3390509400000000 35.4698096400000011 2.6254497200000002 Au
atom 3.1865707099999998 35.3134408499999992 2.5172667500000001 Au
atom 6.1591183599999999 35.5001950699999966 2.6986875200000000 Au
atom 7.7189548800000001 37.8369276800000023 2.5683367700000002 Au
atom 10.3230212800000007 37.8348802900000010 2.6952738900000002 Au
atom 13.2284053299999993 37.9335194399999978 2.5525298200000002 Au
atom 15.8913873300000006 37.7999884999999978 2.9118451599999999 Au
atom 18.8304295800000006 37.8186473000000021 2.6890775499999999 Au
atom 21.5521095000000003 37.8978436100000025 2.6888907000000000 Au
atom 24.3752647600000003 37.6608121699999998 2.6813369699999998 Au
atom 27.3008744599999993 37.8046158300000030 2.4581400300000000 Au
atom 1.7573961000000000 37.9409871800000005 2.6186895600000000 Au
atom 4.7997070500000003 37.7603719199999972 2.7598042600000001 Au
atom 8.8978833300000009 0.8648996600000000 2.6790233300000001 Au
atom 11.6814776100000000 0.7725285000000000 2.7228919700000001 Au
atom 14.3887295399999999 0.8044672600000000 2.7550360399999998 Au
atom 17.4854122399999987 0.8582085500000000 2.7032395199999999 Au
atom 20.1298363100000017 0.9569018400000000 2.5833177500000000 Au
atom 22.9747002999999985 0.7654644000000000 2.6494773500000002 Au
atom 25.8905311100000013 0.7867833400000001 2.8081650300000001 Au
atom 0.5130333000000000 1.0248947200000000 2.6716912200000000 Au
atom 3.2172677599999999 0.8479410400000000 2.7215793399999999 Au
atom 6.0192246799999998 0.9662708800000001 2.6536455200000000 Au
atom 7.6147471500000004 3.2653816299999998 2.5969181600000000 Au
atom 10.3125950900000003 3.2855042499999998 2.6241262299999999 Au
atom 13.1111533799999993 3.3851486099999999 2.6744383400000000 Au
atom 15.9468341299999992 3.2854168399999999 2.6251244499999999 Au
atom 18.6137713299999987 3.4178869399999998 2.7353744700000000 Au
atom 21.6294767700000001 3.1766722600000001 2.6849983900000001 Au
atom 24.2868742399999995 3.2786884100000000 2.7586921599999998 Au
atom 27.4119454699999991 3.3022877600000000 2.6026073400000000 Au
atom 2.0515396899999998 3.2645792500000002 2.7864371700000001 Au
atom 4.7077301399999998 3.2460212400000001 2.7169690100000001 Au
atom 8.8619339799999999 5.6797927699999997 2.7854609899999998 Au
atom 11.7166393099999997 5.8185608100000001 2.6581339499999999 Au
atom 14.5600349599999994 5.8932583400000000 2.8128484700000000 Au
atom 17.1662807800000010 5.8606120700000002 2.7794927500000002 Au
atom 20.1085341699999987 5.7549809200000004 2.6879425900000000 Au
atom 22.9370068700000012 5.6831753500000000 2.6095263399999999 Au
atom 25.8179045900000013 5.7134970100000002 2.8171738500000001 Au
atom 0.3618798800000000 5.9345652700000002 2.7505028899999999 Au
atom 3.3072423299999998 6.0083922400000001 2.7389823500000001 Au
atom 6.2526307100000000 6.0418585900000004 2.8302211700000002 Au
atom 7.6688155800000004 8.2666607299999999 2.6338295299999999 Au
atom 10.4576778800000003 8.3834409300000008 2.6703191799999999 Au
atom 13.2302471399999995 8.2209444699999992 2.7690746800000001 Au
atom 15.9079478000000005 8.2129603699999993 2.4925931800000001 Au
atom 18.6871706000000017 8.2497611200000005 2.7535447099999999 Au
atom 21.7729953400000014 8.2906759999999995 2.6330458800000001 Au
atom 24.4305914999999985 8.2365622399999996 2.4548063500000001 Au
atom 27.2161110899999983 8.0599305099999992 2.6141763800000000 Au
atom 1.8932182300000000 8.1041962200000004 2.5485796000000001 Au
atom 4.6308858800000001 8.2584019000000009 2.5651635100000001 Au
atom 8.9253539199999992 10.5401830200000006 2.6176350400000001 Au
atom 11.7619593099999999 10.7043408699999993 2.8004923499999999 Au
atom 14.6097340300000003 10.4765770699999994 2.6160303800000002 Au
atom 17.4526907300000005 10.7399922199999995 2.5992217900000001 Au
atom 20.0178245500000003 10.9236883599999999 2.7412523800000002 Au
atom 22.9296972600000011 10.7592628399999999 2.7516614599999998 Au
atom 25.8789096299999990 10.6792514100000009 2.8465423099999998 Au
atom 0.4356223000000000 10.7002363900000006 2.7523608099999999 Au
atom 3.3567138200000000 10.5913601800000006 2.5064760000000001 Au
atom 5.9979940999999997 10.7150500199999996 2.5944034100000000 Au
atom 7.4559358700000002 13.2652253099999999 5.6233958499999996 Cl
atom 7.4581176200000003 15.9646078899999999 8.4453919699999993 Cl
atom 7.5730867999999996 13.3015286400000008 8.4105148700000001 Na
atom 7.4925438299999998 15.9736044499999998 5.5862514399999998 Na
atom 7.3410786400000001 18.7030388899999984 5.7942473400000001 Cl
atom 7.4619118000000002 21.6939349600000000 8.5050863999999997 Cl
atom 7.3667343900000004 18.7487654900000003 8.5041490999999994 Na
atom 7.2292943599999999 21.7176614199999989 5.7925222300000003 Na
atom 7.6704780299999999 24.3902849300000000 5.5692530400000004 Cl
atom 7.4301458000000000 27.2327876099999990 8.5752233100000002 Cl
atom 7.5638533800000003 24.4543122000000004 8.4162168099999999 Na
atom 7.5964461600000002 27.0785803399999985 5.7378727899999999 Na
atom 7.4465584500000004 30.1716902699999991 5.7641344300000004 Cl
atom 7.3734016699999998 32.8522617799999992 8.5605346299999994 Cl
atom 7.4771962500000004 30.1968971300000000 8.3858323800000001 Na
atom 7.4461569299999999 32.9128131599999989 5.9321772299999997 Na
atom 7.5583229400000000 35.6954412199999993 5.6919271000000000 Cl
atom 7.3898085499999997 38.5642852699999992 8.7925103799999995 Cl
atom 7.3973591299999999 35.7815874799999989 8.1788577199999999 Na
atom 7.7092661199999997 38.6299285600000033 5.9036829600000003 Na
atom 7.3504363599999998 2.0341396600000001 5.7732880199999999 Cl
atom 7.4036617600000003 4.7164748000000003 8.6305821599999994 Cl
atom 7.2299368499999996 1.9108025600000000 8.3957105399999996 Na
atom 7.4112242699999999 4.7162991200000004 5.7996887099999999 Na
atom 7.6077444700000001 7.7324973200000002 5.5794133500000003 Cl
atom 7.3870815700000003 10.4439818500000001 8.5127022799999992 Cl
atom 7.4912438999999997 7.5980726900000004 8.2694731000000008 Na
atom 7.6486682699999999 10.4355446199999999 5.8242868000000003 Na
atom 10.2225904199999995 13.1264127399999992 5.7947925099999997 Na
atom 13.1242416399999993 13.1097253699999996 5.7524342199999996 Cl
atom 10.3144842099999998 15.8683027499999998 8.2458972300000006 Na
atom 13.2209078299999998 16.0063165900000008 8.5378201899999997 Cl
atom 13.1593463499999999 13.0972166500000000 8.3668005700000005 Na
atom 10.4282843700000001 13.1658300900000000 8.7381468200000008 Cl
atom 13.1078598199999998 16.1221957200000006 5.8612051999999997 Na
atom 10.3086858299999999 16.0756018199999993 5.6823526500000003 Cl
atom 10.1053062300000001 18.8519706099999986 5.9397500799999996 Na
atom 13.2342415500000001 18.6701064199999998 5.4840860999999999 Cl
atom 10.4354877599999991 21.7653863100000002 8.3752395699999997 Na
atom 13.0803237299999999 21.6927140600000001 8.5669500400000000 Cl
atom 13.1042615100000006 18.9217043300000007 8.4245148000000007 Na
atom 10.2828917200000003 18.7833158800000000 8.6014980500000000 Cl
atom 13.1841944000000009 21.7733959199999987 5.7355952900000000 Na
atom 10.2856649000000004 21.6407304600000003 5.6453154799999998 Cl
atom 10.3890500899999996 24.5839424899999983 5.9902096499999997 Na
atom 13.1311295099999992 24.3997713199999993 5.7245561399999998 Cl
atom 10.3552604400000003 27.4263225700000000 8.2952734299999999 Na
atom 13.2574496199999992 27.2803574200000014 8.5616355599999991 Cl
atom 13.2214320000000001 24.5248421900000011 8.3237364599999992 Na
atom 10.4075323599999994 24.5501962499999991 8.7511307400000007 Cl
atom 13.1709088500000000 27.1313317599999984 5.6734259800000002 Na
atom 10.2596799500000007 27.1853063900000009 5.7718074100000001 Cl
atom 10.4468852200000004 30.0063102099999988 5.9015354599999998 Na
atom 12.9992638700000001 30.1548888800000014 5.9552376400000000 Cl
atom 10.3916815899999992 32.8680461300000033 8.3423721200000003 Na
atom 13.1568705399999999 32.8125189100000014 8.5151818800000001 Cl
atom 13.0829207299999997 30.1798155799999996 8.2120517500000005 Na
atom 10.1405056200000008 30.0606049400000011 8.5415398499999995 Cl
atom 13.0248934300000005 32.7527491399999988 5.8881383200000004 Na
atom 10.4108876299999995 32.9881617400000025 5.6522351000000004 Cl
atom 10.3154267500000003 35.7722360300000020 5.8540209100000000 Na
atom 12.9717141999999992 35.7390863600000017 5.8257965100000000 Cl
atom 10.5007816599999995 38.5562111699999974 8.5183383599999996 Na
atom 12.9671100500000005 38.4406530799999970 8.7684773200000006 Cl
atom 13.2391089399999995 35.6747334900000013 8.4024700400000008 Na
atom 10.3399132399999996 35.7639671299999975 8.4815453400000003 Cl
atom 13.2365283100000006 38.5110258300000012 5.6801531000000001 Na
atom 10.3081510099999996 38.5699798999999999 5.7524219199999997 Cl
atom 10.2920480300000001 1.8272297399999999 5.8650982699999998 Na
atom 13.1654417600000002 1.9286863599999999 5.7252366300000004 Cl
atom 10.1993741000000000 4.5158571500000004 8.4944426699999998 Na
atom 13.0735279299999991 4.8491780599999998 8.6388583499999996 Cl
atom 13.2126666299999993 1.7183198799999999 8.4535798700000004 Na
atom 10.4092395700000004 1.9487352600000001 8.6275297599999998 Cl
atom 13.0566608300000002 4.4891882399999998 5.8164253500000003 Na
atom 10.2128438399999997 4.7148638800000002 5.8205181799999997 Cl
atom 10.1748315700000003 7.6169140400000002 5.6365069600000002 Na
atom 13.2968305800000000 7.4029696800000000 5.6639058000000002 Cl
atom 10.4080530800000002 10.3292751200000001 8.5151797800000004 Na
atom 13.0989991400000001 10.2316269900000005 8.5822773899999998 Cl
atom 13.1435118200000005 7.6403292000000000 8.6023590500000005 Na
atom 10.5304655100000009 7.3881479700000003 8.7934948199999994 Cl
atom 13.1315742300000000 10.4752716299999999 5.8466617999999997 Na
atom 10.3113367999999994 10.3939677400000008 5.7475955599999997 Cl
atom 15.8037176299999995 13.1823612099999998 5.8580387399999996 Na
atom 18.7080096100000013 13.2570682299999998 5.5113120300000000 Cl
atom 15.8101508299999995 15.8855140200000005 8.3615058599999994 Na
atom 18.7554066800000001 15.8691819600000006 8.4600089700000005 Cl
atom 18.7021586100000015 13.0604815700000003 8.3983743700000009 Na
atom 16.0433359099999997 13.2816503099999998 8.5380246799999995 Cl
atom 18.8535413399999996 15.9686355399999993 5.6225983700000004 Na
atom 15.9819764800000002 15.9689811299999995 5.8105788799999996 Cl
atom 16.1198604600000017 19.0102774100000005 5.8025798899999996 Na
atom 18.7194968199999998 18.6963523199999990 5.5836088300000002 Cl
atom 15.9221011600000004 21.5373231400000016 8.3100747599999991 Na
atom 18.8530646100000006 21.4400888400000014 8.4156715400000000 Cl
atom 18.8195250999999999 18.7002147699999988 8.4008204099999997 Na
atom 16.0819594799999983 18.5361531699999986 8.7256790899999999 Cl
atom 18.8262373099999998 21.7226703199999989 5.8694273299999997 Na
atom 15.9718222799999996 21.4383555299999990 5.6436217700000002 Cl
atom 15.9748561799999997 24.4659292599999993 5.7765843400000003 Na
atom 18.8746955300000003 24.4931146499999990 5.7127306100000004 Cl
atom 16.1349539200000009 27.3827738300000014 8.2609764499999994 Na
atom 18.6529268600000009 27.1851657600000003 8.6421656400000000 Cl
atom 18.7570936400000008 24.3579425000000001 8.5815526700000007 Na
atom 16.0805188100000009 24.4175249399999998 8.2755756999999992 Cl
atom 18.8897622699999985 27.1425227599999985 5.9029674300000003 Na
atom 15.9708784799999997 27.1326660299999993 5.7470046799999999 Cl
atom 15.9863558399999999 30.0956722399999990 5.7686971099999997 Na
atom 18.7244546199999995 30.0673968100000018 5.6667117100000004 Cl
atom 15.8614321199999999 32.9262379600000017 8.1984938799999991 Na
atom 18.8127759499999989 32.9589489700000016 8.5668541900000008 Cl
atom 18.7579828299999996 30.1300719999999984 8.2647047899999997 Na
atom 16.1125638600000016 30.1966952000000006 8.6672271500000004 Cl
atom 18.7164102800000016 33.0244361399999988 5.7844856900000003 Na
atom 16.0430429600000011 32.8670205800000019 5.6083401100000003 Cl
atom 16.1213285599999985 35.6392608100000032 5.8615592799999998 Na
atom 18.6163295200000007 35.7106273400000021 5.5754123199999999 Cl
atom 15.7463063099999996 38.6395528999999982 8.3163007199999992 Na
atom 18.8952637500000016 38.4846553900000004 8.5214320200000007 Cl
atom 18.7971438800000001 35.6118448599999979 8.5154480899999996 Na
atom 15.9655984800000006 35.7226989500000016 8.4839934299999999 Cl
atom 18.8153207999999985 38.5972483099999977 5.7214863600000001 Na
atom 15.9249814799999996 38.5450573199999980 5.9189582600000001 Cl