#===============================================================================
# Created using the Atomic Simulation Environment (ASE)

# Tue Dec 23 22:25:59 2025

#=======================================================
lattice_vector 28.1999999999999993 0.0000000000000000 0.0000000000000000 
lattice_vector 0.0000000000000000 39.4799999999999969 0.0000000000000000 
lattice_vector 0.0000000000000000 0.0000000000000000 62.3296083400000001 
atom 7.5347338500000003 14.7920500300000004 0.0661609400000000 Au
atom 10.3163264600000009 14.7774630299999998 -0.0089193200000000 Au
atom 13.0892620500000003 14.8548752499999992 -0.0079031000000000 Au
atom 15.9478273599999998 14.8906005700000001 -0.0650017500000000 Au
atom 18.7920344800000017 14.7739584700000002 -0.0087112200000000 Au
atom 21.6282734800000007 14.8036298599999991 -0.0840154700000000 Au
atom 24.4263809300000005 14.8017731099999992 -0.0056027500000000 Au
atom 27.2316052100000014 14.8115960300000005 0.0243085200000000 Au
atom 1.8353354900000001 14.8536125099999996 -0.0644161400000000 Au
atom 4.6886347500000003 14.7946618500000007 0.0099113000000000 Au
atom 8.8582060699999996 17.2660491100000009 -0.0140535500000000 Au
atom 11.6869184700000002 17.2650427899999990 -0.0201333100000000 Au
atom 14.5312542400000009 17.2598428300000002 -0.0564707600000000 Au
atom 17.4012740900000011 17.2858731299999988 0.0445312900000000 Au
atom 20.1805445699999986 17.3170771700000010 0.1153496100000000 Au
atom 23.0316430899999993 17.2702437700000004 0.0208115200000000 Au
atom 25.8049608200000016 17.3889986000000007 -0.0019677500000000 Au
atom 0.4818259800000000 17.2655180199999982 -0.1457975900000000 Au
atom 3.2772333400000000 17.3262165500000016 -0.0447504800000000 Au
atom 6.0938643499999996 17.2888614400000016 0.0635181300000000 Au
atom 7.5189411000000002 19.7107127099999992 0.2417879400000000 Au
atom 10.3225451699999997 19.8146324500000013 -0.0201118000000000 Au
atom 13.1172759499999998 19.7686628199999994 0.1140335600000000 Au
atom 15.9669698499999999 19.7682877499999989 0.0326588600000000 Au
atom 18.7562875099999999 19.7808985600000007 0.0729951000000000 Au
atom 21.6052863200000012 19.6996813800000012 0.0487560300000000 Au
atom 24.3945239399999991 19.7186032800000000 0.1694022400000000 Au
atom 27.2445222300000012 19.9163912500000002 0.0892343100000000 Au
atom 1.8361996599999999 19.7376705799999996 0.1667717900000000 Au
atom 4.7054485699999997 19.7402554399999985 0.0624500300000000 Au
atom 8.8520895500000005 22.2756093300000018 0.0835237400000000 Au
atom 11.7367428799999995 22.2395844099999991 0.0437410900000000 Au
atom 14.5525182700000002 22.2138281400000004 0.0650773000000000 Au
atom 17.3654448099999996 22.1965815100000015 0.0351861600000000 Au
atom 20.2103995599999990 22.2007980899999993 0.0271894100000000 Au
atom 23.0053336500000007 22.2225709500000015 -0.0021845500000000 Au
atom 25.8414596400000001 22.2504675100000000 -0.0283688000000000 Au
atom 0.4310114900000000 22.3582613200000004 -0.0863501400000000 Au
atom 3.2719217800000000 22.1793663899999984 0.2471588800000000 Au
atom 6.1140665900000002 22.2011860100000007 0.1182046600000000 Au
atom 7.4854888900000001 24.6950154799999986 0.1092288300000000 Au
atom 10.3537394000000003 24.7448717699999996 0.0906302500000000 Au
atom 13.1303254500000008 24.6757259200000014 0.0162514600000000 Au
atom 15.9333073899999995 24.6536402300000006 -0.0256458300000000 Au
atom 18.7888731500000006 24.6617689800000015 0.0539117300000000 Au
atom 21.6249893899999996 24.6716296200000009 -0.0629249600000000 Au
atom 24.4339447999999990 24.5853101500000015 0.0982920700000000 Au
atom 27.2392584199999988 24.5304017300000012 0.0515694400000000 Au
atom 1.8179781699999999 24.5576121900000004 0.1533626000000000 Au
atom 4.6953437600000001 24.6521089400000015 0.0712980200000000 Au
atom 8.8585329000000002 27.1456557700000012 0.1230530200000000 Au
atom 11.7104972600000004 27.1398728100000000 0.0485546200000000 Au
atom 14.5227953000000003 27.1845556299999984 -0.0579048200000000 Au
atom 17.3606882899999988 27.1495371600000013 -0.1374123000000000 Au
atom 20.1581029500000000 27.1281154399999984 -0.0195672500000000 Au
atom 22.9752224799999993 27.1580515700000014 0.1802820100000000 Au
atom 25.8222151300000000 27.1435037399999999 0.1170398000000000 Au
atom 0.4346714600000000 27.0947003700000018 0.1047302100000000 Au
atom 3.2347149200000000 27.1644883300000011 0.0711340400000000 Au
atom 6.0554781499999999 27.1495607200000002 0.0888764600000000 Au
atom 7.4947304399999997 29.5967597299999987 0.0406803100000000 Au
atom 10.2627669699999995 29.6335376299999993 -0.0272970100000000 Au
atom 13.1087712300000003 29.6575317100000007 -0.0668440500000000 Au
atom 15.9664952000000007 29.6095143100000016 0.0337548900000000 Au
atom 18.7797758899999998 29.6607914999999984 0.0607476400000000 Au
atom 21.5483908799999995 29.5723978299999999 0.0135353200000000 Au
atom 24.4474486499999983 29.5590525500000005 0.0270254300000000 Au
atom 27.2261303900000016 29.6649600400000004 0.1265562400000000 Au
atom 1.8558146400000000 29.6227234499999987 -0.0198177700000000 Au
atom 4.6913038900000004 29.5824210900000004 0.0309811300000000 Au
atom 8.9571092300000004 32.0802410100000017 0.0445753100000000 Au
atom 11.7266171700000008 32.1258447100000026 0.0121702900000000 Au
atom 14.5853561200000001 32.1302933300000007 -0.0583057300000000 Au
atom 17.3471648000000016 32.1402806299999995 -0.0232434900000000 Au
atom 20.1362880799999999 32.0948630500000007 0.0813427200000000 Au
atom 23.0075164900000004 32.0080877700000030 -0.1346492000000000 Au
atom 25.8254325599999994 32.0320778800000028 0.0321649300000000 Au
atom 0.4705276800000000 32.1365587599999998 -0.1539340300000000 Au
atom 3.2924577300000002 32.0594424900000021 -0.0277104700000000 Au
atom 6.0763276199999998 32.1159352999999967 -0.0519506000000000 Au
atom 7.4765531699999999 34.5329812599999997 0.0916522700000000 Au
atom 10.3000250900000001 34.5702882100000011 0.0160059300000000 Au
atom 13.1735863799999997 34.6045331799999971 0.0318325100000000 Au
atom 15.9855104400000005 34.6102546099999984 -0.0338633300000000 Au
atom 18.7683513200000007 34.5598564300000035 -0.0362134000000000 Au
atom 21.6215744699999988 34.5895736100000022 0.0121944900000000 Au
atom 24.4523283700000000 34.5357282900000016 0.0210346400000000 Au
atom 27.2442144699999993 34.4824713900000006 -0.0295018000000000 Au
atom 1.8331993300000000 34.5925580800000034 -0.0213245900000000 Au
atom 4.6061450199999996 34.5353741799999980 0.0744844300000000 Au
atom 9.1972591799999996 37.0182039500000002 0.1399650200000000 Au
atom 11.7651212399999991 37.0766391000000013 -0.1798100800000000 Au
atom 14.7504766200000006 37.0809118100000035 0.2020379900000000 Au
atom 17.3329666499999995 37.0398283500000005 -0.0219242200000000 Au
atom 20.2021648099999993 37.0770803899999990 0.1032019800000000 Au
atom 23.0909594399999989 37.0879752399999987 -0.1567011200000000 Au
atom 25.7647021000000009 37.0367314900000011 0.0487851500000000 Au
atom 0.4303373000000000 37.1928113499999995 -0.0560795500000000 Au
atom 3.2706105299999999 37.0239528800000031 0.1689767800000000 Au
atom 6.0622217400000000 36.9983692899999994 0.1334625500000000 Au
atom 7.4945794499999998 -0.0106601900000000 -0.0324924400000000 Au
atom 10.1952181599999996 0.0172230000000000 0.1332349900000000 Au
atom 13.1849672499999997 0.0962067300000000 0.2192027800000000 Au
atom 16.1011804400000003 0.0376182700000000 -0.0829738100000000 Au
atom 18.8248765300000009 0.0424614500000000 0.0384955900000000 Au
atom 21.5624806599999985 0.0505384300000000 0.0103323100000000 Au
atom 24.6388097799999990 0.0414453100000000 0.3324987200000000 Au
atom 27.3212495500000010 0.2770993200000000 -0.1267735600000000 Au
atom 1.7485416100000000 0.0259855300000000 0.4286835600000000 Au
atom 4.7611623700000001 0.0800244200000000 0.0470420300000000 Au
atom 8.8709775999999998 2.5068834099999999 0.0094156000000000 Au
atom 11.7115148300000005 2.4963524900000000 0.0542260500000000 Au
atom 14.6056735599999996 2.5434458300000000 0.0238780800000000 Au
atom 17.4334720599999997 2.5456606700000002 0.1385480100000000 Au
atom 20.2153762899999982 2.5422119400000001 -0.0571800000000000 Au
atom 23.0119059899999989 2.5440114100000000 -0.0498170100000000 Au
atom 25.8669962700000013 2.3870214700000001 0.0710291300000000 Au
atom 0.4554795800000000 2.4822439599999999 0.0642548100000000 Au
atom 3.3233604600000000 2.5212656800000000 0.1034930100000000 Au
atom 6.1138847299999997 2.5304547999999998 0.0615588900000000 Au
atom 7.4632110200000001 4.9841926100000000 0.0613465800000000 Au
atom 10.2782217899999999 4.9184791199999998 0.1042587500000000 Au
atom 13.1189833300000007 4.9511050599999997 0.0946845200000000 Au
atom 15.9977247200000008 4.9700595400000003 0.1524923400000000 Au
atom 18.8073772000000012 4.9988440799999996 0.1339968600000000 Au
atom 21.6294169700000012 4.9650036100000001 0.1395685800000000 Au
atom 24.4106079999999999 4.9564051400000002 0.0503415000000000 Au
atom 27.2349155500000002 4.9129066400000001 0.1430969500000000 Au
atom 1.9319956199999999 4.9876516100000003 0.1778158100000000 Au
atom 4.6771324099999996 4.9432523399999999 0.1220906400000000 Au
atom 8.9184231799999996 7.4096705700000003 -0.0022236800000000 Au
atom 11.7469788200000007 7.3678217000000004 0.0543343500000000 Au
atom 14.5725656800000003 7.3920621799999999 0.0274603100000000 Au
atom 17.3795389500000006 7.4009544700000003 0.0375376900000000 Au
atom 20.2317123899999984 7.4767330000000003 0.0667731500000000 Au
atom 23.0852943999999987 7.4110909300000003 0.1255397100000000 Au
atom 25.8094490400000005 7.3776277600000002 0.0280787300000000 Au
atom 0.4909819500000000 7.3536674000000000 0.1423954700000000 Au
atom 3.2577631899999999 7.4640973700000002 0.0093717900000000 Au
atom 6.0535093599999996 7.4581270499999999 0.0652362800000000 Au
atom 7.5259531199999996 9.8703424700000006 -0.0196391000000000 Au
atom 10.3681822399999994 9.8911212299999995 -0.0386775200000000 Au
atom 13.2004340599999992 9.9135771699999999 0.0621913700000000 Au
atom 16.0030533900000016 9.8402354400000007 -0.0668267600000000 Au
atom 18.7782036699999999 9.8747606900000005 -0.0306615800000000 Au
atom 21.6130137299999987 9.9299057699999995 0.0301149100000000 Au
atom 24.4289982600000002 9.8865055599999998 0.0766007700000000 Au
atom 27.1583246400000000 9.8041190500000006 0.0968178900000000 Au
atom 1.8016845200000000 9.8839951999999993 0.0498218200000000 Au
atom 4.6304108599999996 9.8554265999999995 0.0163684100000000 Au
atom 8.9112887300000008 12.2891279099999995 -0.0525974000000000 Au
atom 11.7735994000000002 12.3269741899999996 -0.1276642800000000 Au
atom 14.6248173799999996 12.3477569400000000 -0.0925475600000000 Au
atom 17.4286830899999998 12.3110714699999999 -0.0278752500000000 Au
atom 20.1791403199999984 12.3517087799999992 -0.0205249900000000 Au
atom 23.0461689499999984 12.3635654200000005 -0.1233080400000000 Au
atom 25.8197305499999992 12.4588578800000001 -0.0502371900000000 Au
atom 0.4162717000000000 12.4107710400000002 -0.0248467400000000 Au
atom 3.2573789600000000 12.3251243699999993 0.0086523400000000 Au
atom 6.1485667399999997 12.3587390700000004 0.0184246900000000 Au
atom 7.5358352899999996 13.1942305199999996 2.6509246800000001 Au
atom 10.3682377900000002 13.1660956200000001 2.4932697500000001 Au
atom 13.1559109200000002 13.2228194999999999 2.4248156399999998 Au
atom 15.9351223199999996 13.1430193499999994 2.4904501200000002 Au
atom 18.7075415900000017 13.1931038899999997 2.7041878399999999 Au
atom 21.5051608600000002 13.1787558199999992 2.5550810899999998 Au
atom 24.4048659900000011 13.2024326599999995 2.6467393499999998 Au
atom 27.2089162699999996 13.1858509700000006 2.3718459599999999 Au
atom 1.8441333200000001 13.1027034100000002 2.5773159899999998 Au
atom 4.6929626000000004 13.1605656700000004 2.5978153599999998 Au
atom 8.9092830200000002 15.6005713099999994 2.6561451900000002 Au
atom 11.7455164500000002 15.6349720500000000 2.6531674399999998 Au
atom 14.5563756899999994 15.6429325400000003 2.5592156099999999 Au
atom 17.3680354100000010 15.6693991399999994 2.5950154500000000 Au
atom 20.1660907700000003 15.6324807299999993 2.5495054200000000 Au
atom 22.9496750700000014 15.6495758800000004 2.5731006700000001 Au
atom 25.8471971799999984 15.6711995700000006 2.6032512900000002 Au
atom 0.4727645800000000 15.6796907200000000 2.5302939000000002 Au
atom 3.2653405800000002 15.6721061699999993 2.6267043900000000 Au
atom 6.0757225300000002 15.6776346400000008 2.5753443100000002 Au
atom 7.4807803599999998 18.0407908699999986 2.6886040100000002 Au
atom 10.2663704800000009 18.1485130699999999 2.3250523699999999 Au
atom 13.1341111099999992 18.1253934799999996 2.4797861600000002 Au
atom 15.9500178899999998 18.1099171100000014 2.5088218300000000 Au
atom 18.7601385600000015 18.0269553500000015 2.6930163700000000 Au
atom 21.6256552800000001 18.1021862800000015 2.6824734000000001 Au
atom 24.4302879100000006 18.0663647900000015 2.7239834400000000 Au
atom 27.2539332099999996 17.9605343099999999 2.6139632900000001 Au
atom 1.9044146200000001 18.0940873800000013 2.5989465400000000 Au
atom 4.6566542999999996 18.1307390400000017 2.5717102600000001 Au
atom 8.8821104599999998 20.6129435000000001 2.7231312499999998 Au
atom 11.7503863699999993 20.5936391000000008 2.6640923200000000 Au
atom 14.5288812200000006 20.5707480800000013 2.5798142899999998 Au
atom 17.4292355900000011 20.5220991400000017 2.6164429899999999 Au
atom 20.2003636200000010 20.5415854099999997 2.5492123599999998 Au
atom 23.0019308199999983 20.5279017000000010 2.6978388700000000 Au
atom 25.8246076900000006 20.6637802800000010 2.7428735099999999 Au
atom 0.4447359600000000 20.6827073599999984 2.6712320100000002 Au
atom 3.3026738600000001 20.6230741799999997 2.8780485599999999 Au
atom 6.0588455899999998 20.5753718899999996 2.6511378099999998 Au
atom 7.4746604200000002 23.0015789400000017 2.6636952599999999 Au
atom 10.3418229799999999 23.1184128700000002 2.6342243700000001 Au
atom 13.1364746700000001 23.1261505800000009 2.5076220000000000 Au
atom 15.9764193300000006 23.1237545299999994 2.5114528500000000 Au
atom 18.7498124600000011 23.0127804599999983 2.5650336299999998 Au
atom 21.6280940500000014 23.0432025100000004 2.5035633100000001 Au
atom 24.4544763799999991 23.0340425000000018 2.6891232100000000 Au
atom 27.2382839799999985 23.0962127600000002 2.8227713400000001 Au
atom 1.8045339899999999 23.0078163099999990 2.6570619600000001 Au
atom 4.6542931699999999 23.1279707300000013 2.7477580399999999 Au
atom 8.9023978800000005 25.4637219500000000 2.6544193100000002 Au
atom 11.7138079800000003 25.5665849099999996 2.5910173099999998 Au
atom 14.5371407500000007 25.5455397600000005 2.5410099900000001 Au
atom 17.3653105600000011 25.5271572300000003 2.5521587999999999 Au
atom 20.2288972999999999 25.5644420699999984 2.5700128900000001 Au
atom 23.0253628399999997 25.4753076000000007 2.6641588700000001 Au
atom 25.8630957399999986 25.4479749700000006 2.7142766200000001 Au
atom 0.4698951600000000 25.4668768300000004 2.7559279299999999 Au
atom 3.2812142899999999 25.5582007199999985 2.6485417899999999 Au
atom 6.0874187299999996 25.5433548799999990 2.6781861199999999 Au
atom 7.4851902700000004 27.9561391000000015 2.5428312000000002 Au
atom 10.3482864200000009 28.0031472999999984 2.6984281499999998 Au
atom 13.1873403499999995 28.0428220000000010 2.4789847300000001 Au
atom 15.9735322100000001 28.0072457099999994 2.5974102999999999 Au
atom 18.7581001699999987 28.0086404400000006 2.5335042500000000 Au
atom 21.5961950300000005 28.0198295699999989 2.7255617100000000 Au
atom 24.4163879900000005 27.9510351499999992 2.6949116599999998 Au
atom 27.2538995499999999 28.2436092300000006 2.5949699599999998 Au
atom 1.8842239700000001 27.9729557799999995 2.6081929599999998 Au
atom 4.7164842000000000 28.0317823699999984 2.7686912700000001 Au
atom 8.9076722700000008 30.3973839999999988 2.6646683599999998 Au
atom 11.7079435299999997 30.4392452899999988 2.6157206300000002 Au
atom 14.5745414600000007 30.4550284399999995 2.5423134599999999 Au
atom 17.3771038500000010 30.4732309800000003 2.6588389200000000 Au
atom 20.2469726100000003 30.5194225299999999 2.6753035299999999 Au
atom 23.0405071600000007 30.4269637999999993 2.5268187200000001 Au
atom 25.8816182700000006 30.5046042600000007 2.6645249400000002 Au
atom 0.4653996300000000 30.4331673299999999 2.7207983499999999 Au
atom 3.2946914800000000 30.3983397900000014 2.5461726599999999 Au
atom 6.1288520699999998 30.4789838700000004 2.6284859300000001 Au
atom 7.5254967400000004 32.9263571500000012 2.6057998100000002 Au
atom 10.3093322399999998 32.9484887200000003 2.7721673400000002 Au
atom 13.1483378000000002 32.9454808200000002 2.5865037399999999 Au
atom 15.9966465200000005 32.9302672900000033 2.6676621900000002 Au
atom 18.7675898399999994 32.8926861599999967 2.6303401599999998 Au
atom 21.6658767700000006 32.8987105300000024 2.6440874399999998 Au
atom 24.4263768600000013 32.9842527099999998 2.5344965300000002 Au
atom 27.2376571299999988 33.0038574000000011 2.7309999399999998 Au
atom 1.8807399700000000 32.8278860300000019 2.5160539900000001 Au
atom 4.7299361500000003 32.9320008199999990 2.6103330300000001 Au
atom 8.9565226300000003 35.4139654700000008 2.7244649700000001 Au
atom 11.7956434800000007 35.4207998099999983 2.5741475100000000 Au
atom 14.5927748800000003 35.4516803499999966 2.6259206399999999 Au
atom 17.4135504099999991 35.3352979300000030 2.6524411200000002 Au
atom 20.1727371600000005 35.3673964600000019 2.6690390800000001 Au
atom 22.9543640999999994 35.3831047400000003 2.5815211900000001 Au
atom 25.8294942799999987 35.3480623800000018 2.5949224100000001 Au
atom 0.4150617100000000 35.2591667700000002 2.3999939100000001 Au
atom 3.2492011399999998 35.3783774300000005 2.6914343100000000 Au
atom 6.1007679499999998 35.4098469999999992 2.6419813099999998 Au
atom 7.4866138700000002 37.8820177500000028 2.8338747099999999 Au
atom 10.1544850499999999 37.8679543599999988 2.2323561199999999 Au
atom 13.0450911600000001 37.9331619200000034 2.5894048399999998 Au
atom 15.9364994299999996 37.8286511399999981 2.4346444699999998 Au
atom 18.6824778500000015 37.8873833600000012 2.7608401499999999 Au
atom 21.9020570100000000 37.8578339600000007 2.4617265300000000 Au
atom 24.3112558099999987 37.8910353799999982 2.2684888700000001 Au
atom 27.3084365700000014 37.6949157600000007 2.7962050199999999 Au
atom 2.0676167200000002 37.7960801600000025 2.5152706700000000 Au
atom 4.7432257499999997 37.8370460300000033 2.8022334099999999 Au
atom 8.8760702600000005 0.8974807700000000 2.7204571199999998 Au
atom 11.8417247999999997 0.8572613200000000 2.8398561400000002 Au
atom 14.5117175599999992 0.8672727200000000 2.8406093399999999 Au
atom 17.4669227900000017 0.8290747900000000 2.8530094199999998 Au
atom 20.0844892900000005 0.8471356400000000 2.6289646900000001 Au
atom 23.1351203100000014 0.8894758400000000 2.5672460400000001 Au
atom 25.8329648200000008 0.8017103400000000 2.8552051299999999 Au
atom 0.5207070000000000 0.7926577600000000 2.6528391299999998 Au
atom 3.3243315700000000 0.8634141500000000 2.7580912799999999 Au
atom 6.1842850499999997 0.8183352900000000 2.6314719100000001 Au
atom 7.4992268099999997 3.3043507200000000 2.5988113400000001 Au
atom 10.2859932799999996 3.2804556300000001 2.6653052599999998 Au
atom 13.1009075300000006 3.3267598399999998 2.7212325100000001 Au
atom 15.9406944999999993 3.3186788300000001 2.6285432200000001 Au
atom 18.8015052000000011 3.3196844599999999 2.6361128699999998 Au
atom 21.6175722599999993 3.2926774499999998 2.6184468800000000 Au
atom 24.4242580300000007 3.3572668999999999 2.6773845900000000 Au
atom 27.2169166800000006 3.4858721799999999 2.8466261899999998 Au
atom 1.8547399700000000 3.3192875599999998 2.8321438900000002 Au
atom 4.7044127500000004 3.3374267999999998 2.7042930799999998 Au
atom 8.8790670100000000 5.7399149899999999 2.7625914499999999 Au
atom 11.7465512600000004 5.8240957900000003 2.8120376500000002 Au
atom 14.4997828999999996 5.8122717899999996 2.7184607700000001 Au
atom 17.3997965100000016 5.7953204999999999 2.7990336899999999 Au
atom 20.2458796700000008 5.8278301299999997 2.7408872600000000 Au
atom 23.0145603600000008 5.8381085700000002 2.7695760500000000 Au
atom 25.8170049500000012 5.7742705200000000 2.7659963900000002 Au
atom 0.4453314800000000 5.7984457400000000 2.7576793099999999 Au
atom 3.2661730699999998 5.8390688199999996 2.7538883699999999 Au
atom 6.1273157600000001 5.8183377199999997 2.6910495900000000 Au
atom 7.4847095299999999 8.2706918399999996 2.6625044299999998 Au
atom 10.2999999199999994 8.2937023199999995 2.5769099999999998 Au
atom 13.0610118199999992 8.2931049899999998 2.6693381500000002 Au
atom 15.9301221300000009 8.2453444400000002 2.6606006500000001 Au
atom 18.7349843500000013 8.2928182499999998 2.7368189300000001 Au
atom 21.6259435099999990 8.2506862099999996 2.6649772500000002 Au
atom 24.4598473600000013 8.3497745299999995 2.8313989899999998 Au
atom 27.2290047299999998 8.2307766699999991 2.4645508299999999 Au
atom 1.8230269900000000 8.2578033600000005 2.7162799099999999 Au
atom 4.6316320400000004 8.2896979799999997 2.6331081799999998 Au
atom 8.8596508099999998 10.8176653100000006 2.6142566500000002 Au
atom 11.6183420099999992 10.7360116399999992 2.6029871999999998 Au
atom 14.4439952999999992 10.7523700499999997 2.6266259500000002 Au
atom 17.2740865899999996 10.6748463999999998 2.5919959900000000 Au
atom 20.1792668699999993 10.7179572899999993 2.6118515300000000 Au
atom 23.0231076500000000 10.7961461900000000 2.6568300100000002 Au
atom 25.8345587700000010 10.7504212300000006 2.6857560899999999 Au
atom 0.4362304500000000 10.7255911800000003 2.6308174200000001 Au
atom 3.2385257200000002 10.7315800299999999 2.6486801899999999 Au
atom 6.0694284600000001 10.6787034399999996 2.6061770900000001 Au
atom 7.3697758599999998 12.9800450000000005 5.7598057699999998 Cl
atom 7.3770116699999999 16.0035287900000007 8.0702863100000002 Cl
atom 7.5482130300000003 13.1177802900000007 8.3673625900000008 Na
atom 7.2790687099999998 15.8997334699999993 5.4295914200000004 Na
atom 7.2512523199999999 19.0288313400000000 5.7247051999999998 Cl
atom 7.6284483700000001 21.5763164500000002 8.3207906900000008 Cl
atom 7.4464289700000004 18.7998590800000009 8.2899797100000008 Na
atom 7.1873833100000004 21.8563243000000007 5.7263292200000002 Na
atom 7.2767635700000000 24.6573270700000009 5.6746702800000000 Cl
atom 7.4164455000000000 27.4080171999999997 8.6051666200000003 Cl
atom 7.5155653100000004 24.4699274200000012 8.3730703000000002 Na
atom 7.3446537999999997 27.4551452800000000 5.9156589600000000 Na
atom 7.3712451799999998 30.1865317500000003 5.6903676299999999 Cl
atom 7.5436444900000001 32.9528027100000003 8.5146408099999995 Cl
atom 7.5255419400000001 30.2193745999999983 8.3652075400000001 Na
atom 7.4656906899999997 33.0649046400000017 5.7828395500000003 Na
atom 7.4689200199999997 35.8465610699999999 5.7485376900000000 Cl
atom 7.4679042000000004 38.5612540799999977 8.6367464300000005 Cl
atom 7.4711946100000004 35.8003991200000016 8.4355531500000005 Na
atom 7.5443908000000004 38.5176870700000009 6.0653439499999999 Na
atom 7.5457382600000003 1.9311046100000000 5.7585633899999999 Cl
atom 7.4155493000000003 4.5887296299999996 8.6436700399999999 Cl
atom 7.4759560900000004 1.9140772900000000 8.4968048100000004 Na
atom 7.4681993000000002 4.6787207999999998 5.9743444999999999 Na
atom 7.4265425100000000 7.3798714500000004 5.7979979500000001 Cl
atom 7.2514002499999997 10.3635138100000006 8.2995874399999998 Cl
atom 7.5633122300000002 7.6437508300000001 8.4263224900000004 Na
atom 7.2093750400000003 10.1938493999999995 5.6599171100000003 Na
atom 10.3609025599999995 13.0028758100000008 5.6063228799999996 Na
atom 13.1454936300000007 12.9832379600000003 5.4681060300000004 Cl
atom 10.2494137500000004 16.0300744100000010 8.2014844399999998 Na
atom 13.2498290599999997 16.1113096200000001 8.2693913000000006 Cl
atom 13.1619115699999991 13.0386190000000006 8.4999483300000005 Na
atom 10.4666598600000000 13.3565597999999994 8.4903964900000002 Cl
atom 13.0832590000000000 15.8963570500000007 5.5599251100000000 Na
atom 10.1486598600000004 16.1390232100000013 5.5400670900000000 Cl
atom 10.0463726300000005 18.9841260900000002 5.4605969400000003 Na
atom 13.1218257200000004 18.8925681800000014 5.7517766400000001 Cl
atom 10.2958763900000001 21.4635837999999985 8.1584784399999997 Na
atom 13.1897181900000007 21.4804149299999985 8.0192444700000003 Cl
atom 13.2026146600000001 18.6565337599999985 8.2988204700000008 Na
atom 10.4141664699999996 18.7101053899999989 8.3898905399999997 Cl
atom 12.9157127000000003 21.6508090200000005 5.2009782400000004 Na
atom 10.0015699300000005 21.8622390899999992 5.6849975500000003 Cl
atom 10.1344924100000000 24.6688349600000016 5.6434562000000001 Na
atom 12.9738831500000007 24.7966363299999983 5.5214857700000000 Cl
atom 10.3819972200000006 27.3502477800000001 8.4407343000000008 Na
atom 13.2197139099999994 27.4097342799999986 8.6010522100000006 Cl
atom 13.2330501599999995 24.6364607900000010 8.3473986799999995 Na
atom 10.4059805999999995 24.6262098999999992 8.3401162400000004 Cl
atom 13.1049698100000001 27.4002408399999986 5.8308581100000003 Na
atom 10.1789608900000008 27.5904470999999987 5.8597780699999999 Cl
atom 10.2837345800000008 30.2658220600000014 5.7598263599999999 Na
atom 13.0857495900000007 30.1312479700000004 5.7867930000000003 Cl
atom 10.3269499000000007 32.9413546700000026 8.4107716499999992 Na
atom 13.0812567699999995 32.9565138099999970 8.5484557900000002 Cl
atom 13.1776685899999997 30.1540971900000017 8.4363155400000007 Na
atom 10.4194960299999995 30.1041336199999989 8.5611862399999996 Cl
atom 13.1079023699999997 32.9172389300000034 5.7975643799999999 Na
atom 10.2494580800000001 33.0886337399999988 5.6664280199999997 Cl
atom 10.3073197499999996 35.8220047200000025 5.9539459900000002 Na
atom 13.1335824199999998 35.7679578199999995 5.7860715599999999 Cl
atom 10.2327196300000001 38.5605177099999992 8.4807424200000003 Na
atom 13.1488072799999998 38.5461774700000035 8.6482741200000000 Cl
atom 13.1344402299999992 35.7763658399999969 8.4320033700000003 Na
atom 10.3094361400000007 35.8368668199999973 8.6515013300000003 Cl
atom 13.2753766300000002 38.5615164299999975 5.7250271200000000 Na
atom 10.2750228000000003 38.5985122399999980 5.7537984499999997 Cl
atom 10.2758952400000005 1.8744522600000000 5.9581209499999996 Na
atom 13.0960244400000008 1.8170666300000000 5.8451361500000001 Cl
atom 10.3207058499999995 4.6976327199999997 8.4371458700000002 Na
atom 13.2377561499999992 4.6032594500000004 8.6181197300000001 Cl
atom 13.2633798299999999 1.7866257500000000 8.3880277299999992 Na
atom 10.4103133600000000 1.8990418800000000 8.6582952599999992 Cl
atom 13.1814448700000000 4.6478175700000000 5.9006437600000003 Na
atom 10.2727958499999996 4.5808029100000001 5.8267582500000001 Cl
atom 10.3010879200000005 7.3701321399999999 5.8876172699999998 Na
atom 13.1622353699999994 7.5764123699999999 5.8630478400000001 Cl
atom 10.4622177300000008 10.5209369800000001 8.3906068999999999 Na
atom 13.1883531099999995 10.4726011200000002 8.6273255399999993 Cl
atom 13.0797458199999994 7.4117496000000003 8.5045015399999997 Na
atom 10.3791283500000002 7.4432568100000003 8.6289025200000005 Cl
atom 13.1580787200000007 10.3009120000000003 5.7112523399999997 Na
atom 10.0171171000000001 10.0893138899999997 5.5979934900000003 Cl
atom 16.0086668900000006 12.9661397899999997 5.7005746899999998 Na
atom 18.8309522700000009 12.9271656999999998 5.8025841199999997 Cl
atom 16.0658121999999999 15.8947515999999993 8.0310895299999991 Na
atom 18.6578774000000003 15.8265910200000004 8.2579565699999993 Cl
atom 18.7254727599999988 13.1177166700000001 8.3438807199999996 Na
atom 15.9178468500000001 13.2132506200000002 8.4926876500000006 Cl
atom 18.9241241699999989 15.8841001800000008 5.6012046800000004 Na
atom 16.0725075599999983 15.7797096900000007 5.4946837000000004 Cl
atom 15.9764051499999997 18.7870736399999991 5.3926658300000003 Na
atom 19.1185353999999990 18.7095893699999998 5.6484228200000004 Cl
atom 15.7801234000000008 21.8012731100000003 8.0077880799999992 Na
atom 18.6014827899999986 21.6586597999999988 8.1998743399999992 Cl
atom 18.9921935399999988 18.6717284200000009 8.1691628999999999 Na
atom 16.0522544600000003 18.6688308099999993 8.0974263600000000 Cl
atom 19.3020485099999988 21.4432060200000016 5.4899532899999999 Na
atom 16.1637620300000009 21.9148420100000010 5.4570253099999997 Cl
atom 15.7783569600000000 24.6154854000000007 5.3503540300000001 Na
atom 19.0394939299999990 24.1363386800000015 5.7130349499999999 Cl
atom 15.9707564200000007 27.3197861700000004 8.2833365800000003 Na
atom 18.9331632899999995 27.1828534700000013 8.2686360499999996 Cl
atom 18.6094257100000000 24.2905741199999987 8.3845568799999999 Na
atom 15.6799073700000005 24.4387253599999994 8.5819592000000000 Cl
atom 19.0522247200000017 27.1366372300000016 5.4939279100000000 Na
atom 16.0610034500000012 27.4175583399999994 5.5626873699999999 Cl
atom 15.9371966100000009 30.0977169899999986 5.6693996300000000 Na
atom 18.9427810500000007 30.0778128100000011 5.7991265199999997 Cl
atom 16.0014067599999983 32.8162671600000024 8.4425355999999994 Na
atom 18.7564822599999985 32.9537966700000027 8.7455051499999996 Cl
atom 18.8258046599999993 30.0221489499999983 8.3858648200000001 Na
atom 15.9362375200000006 29.9833398100000004 8.4713567100000002 Cl
atom 18.8905642799999995 32.9839019500000035 6.0627687699999999 Na
atom 16.1230370500000006 32.9091888000000026 5.8742870199999997 Cl
atom 16.0309176099999995 35.6454433700000024 5.8595131499999997 Na
atom 18.8639046000000015 35.6939217400000004 5.8196024700000004 Cl
atom 16.0669144199999998 38.4868489999999994 8.4753402999999992 Na
atom 18.9451749499999984 38.5900901500000018 8.6082962799999994 Cl
atom 18.8269421299999991 35.6824503699999980 8.5035605699999994 Na
atom 16.0331747799999995 35.7442372200000023 8.7171321800000001 Cl
atom 18.7194560599999988 38.5349479899999992 5.7813472199999998 Na