#===============================================================================
# Created using the Atomic Simulation Environment (ASE)

# Tue Dec 23 21:42:36 2025

#=======================================================
lattice_vector 28.1999999999999993 0.0000000000000000 0.0000000000000000 
lattice_vector 0.0000000000000000 39.4799999999999969 0.0000000000000000 
lattice_vector 0.0000000000000000 0.0000000000000000 62.3296083400000001 
atom 7.5496320700000004 14.7580604599999994 -0.7997020600000000 Au
atom 10.2618926500000001 14.8028182200000007 -0.0433906500000000 Au
atom 13.0541502999999999 14.8488932800000004 -0.1683937500000000 Au
atom 15.9365994799999999 14.8159737800000002 -0.2094532300000000 Au
atom 18.5969409500000005 14.8642322599999996 -0.0733574200000000 Au
atom 21.4832133200000008 14.7332174100000000 -0.0177161700000000 Au
atom 24.4053149100000013 14.8224040200000005 -0.1481458600000000 Au
atom 27.1038146100000006 14.7694109999999998 -0.1480921800000000 Au
atom 1.7585583700000000 14.8059396799999998 -0.1959435700000000 Au
atom 4.6814174599999996 14.8803548600000006 -0.3524329600000000 Au
atom 8.8524391300000005 17.2152361300000010 -0.0953973600000000 Au
atom 11.6959805299999999 17.2448771399999998 0.0205253100000000 Au
atom 14.4236157899999995 17.2756661800000018 -0.1988725100000000 Au
atom 17.3387801900000014 17.2927706400000005 0.0165126100000000 Au
atom 20.1416872600000012 17.2553727200000004 -0.1999964600000000 Au
atom 22.9301243300000017 17.3062988400000002 -0.0663398100000000 Au
atom 25.8035681600000011 17.2635102600000003 -0.0144630700000000 Au
atom 0.3982483200000000 17.3290661999999998 -0.0020170800000000 Au
atom 3.2656903499999999 17.1784881300000016 -0.0590184300000000 Au
atom 6.0621615000000002 17.3023111100000015 -0.3542440500000000 Au
atom 7.5617675799999997 19.8387969499999990 -0.0912119400000000 Au
atom 10.3424946700000007 19.6973453800000016 -0.1168339800000000 Au
atom 13.1142278200000000 19.7459570800000002 0.3376873600000000 Au
atom 15.8885234499999992 19.8010009199999999 -0.0101221300000000 Au
atom 18.7164450400000000 19.7788890299999984 0.1595551600000000 Au
atom 21.4951486900000006 19.7548716099999986 -0.0254885200000000 Au
atom 24.3551039399999993 19.6550727599999995 0.0746517900000000 Au
atom 27.2789431499999999 19.8398357200000000 0.1085551200000000 Au
atom 1.9094219900000000 19.7607666100000010 -0.0204646800000000 Au
atom 4.7305051999999996 19.7484235099999985 -0.1728205700000000 Au
atom 8.9641281199999998 22.1812018299999991 -0.0999496200000000 Au
atom 11.6964119699999998 22.1627670399999985 0.2621506000000000 Au
atom 14.4845696900000007 22.3103335200000004 0.0211566200000000 Au
atom 17.4315325899999998 22.2206929200000012 0.1019509200000000 Au
atom 20.2132863100000009 22.2355415100000009 0.1838759700000000 Au
atom 23.0165060200000013 22.1211229399999993 -0.0756308100000000 Au
atom 25.7390095300000006 22.2289843800000000 -0.1638511600000000 Au
atom 0.4802331500000000 22.1796402300000004 -0.1756872200000000 Au
atom 3.3452318900000000 22.2039770200000000 -0.2092006100000000 Au
atom 6.0984078200000003 22.2611138100000012 -0.1819954400000000 Au
atom 7.3539539200000004 24.7298983700000008 0.0089337000000000 Au
atom 10.1886858000000000 24.5908125300000009 0.1887088200000000 Au
atom 13.0194744300000007 24.5917357999999986 0.0101249800000000 Au
atom 15.9677031199999995 24.7775871400000014 0.0252329900000000 Au
atom 18.8245533000000016 24.6974735699999997 0.0452957000000000 Au
atom 21.5909864300000010 24.6589498599999999 -0.0666147200000000 Au
atom 24.3438511899999988 24.6444847600000010 -0.0187891200000000 Au
atom 27.0902327199999995 24.6941418800000001 -0.2216673700000000 Au
atom 1.8450611100000001 24.6699229399999993 -0.1962975200000000 Au
atom 4.6264016400000001 24.6740990999999994 -0.0352305600000000 Au
atom 8.7336388399999993 27.1907367999999998 -0.0575000400000000 Au
atom 11.6407704100000000 27.0186063999999995 0.2466955100000000 Au
atom 14.4948122799999997 27.0759252799999999 -0.0663628400000000 Au
atom 17.3764659500000000 27.1685029299999989 -0.1097813600000000 Au
atom 20.1559267400000017 27.2181347299999992 0.1694884800000000 Au
atom 22.9025317699999995 27.1675280800000003 -0.0683937000000000 Au
atom 25.6993743399999985 27.0502756099999999 -0.0985825600000000 Au
atom 0.2881249100000000 27.1277892300000012 -0.0708851300000000 Au
atom 3.1421120100000000 27.1849682299999991 -0.0583675800000000 Au
atom 5.9373652799999999 27.1589746299999995 0.0016431700000000 Au
atom 7.2613581900000002 29.6589075999999991 0.0748717800000000 Au
atom 10.2045445499999996 29.4951155999999983 0.2405026200000000 Au
atom 13.0573858900000008 29.5075314000000013 -0.0678600600000000 Au
atom 15.9146968300000005 29.6135445200000014 -0.1602386000000000 Au
atom 18.6984250600000017 29.6662129899999982 0.0809547000000000 Au
atom 21.5109137900000000 29.6275219300000003 0.0133266200000000 Au
atom 24.4480028099999984 29.6015240900000016 -0.2929062900000000 Au
atom 27.0435869500000017 29.4313645699999995 0.6835864300000000 Au
atom 1.6758395900000000 29.6332168399999993 0.1721672100000000 Au
atom 4.4956173300000000 29.7382982100000000 0.0089468200000000 Au
atom 8.7973052999999997 32.0370788099999970 0.0176246000000000 Au
atom 11.6504170100000000 32.0250353899999993 -0.0632079100000000 Au
atom 14.5091288699999996 32.0189551799999990 -0.1257687900000000 Au
atom 17.3073217899999996 32.0520548200000022 -0.0301859000000000 Au
atom 20.1685120200000014 32.1428344300000006 -0.0332158100000000 Au
atom 22.9937574299999987 32.0185282699999973 0.0410339200000000 Au
atom 25.6649000500000000 31.9249593900000015 0.6127608100000000 Au
atom 0.1968673500000000 32.0336533299999999 0.2853718000000000 Au
atom 3.1446776999999999 32.1418157600000001 -0.0071196900000000 Au
atom 5.9593406199999999 32.2483663399999969 0.0176414300000000 Au
atom 7.4951482900000004 34.6885497199999975 0.2100312600000000 Au
atom 10.1842932099999999 34.5606863499999974 0.1009048100000000 Au
atom 13.1406650400000000 34.4384259400000019 -0.0113326400000000 Au
atom 15.9644630299999992 34.5915540399999983 0.1505811500000000 Au
atom 18.6833945200000002 34.6690865799999983 0.1413134800000000 Au
atom 21.5754364000000010 34.5302971200000002 0.1764874900000000 Au
atom 24.3429518199999997 34.4052680400000028 0.3746775300000000 Au
atom 27.0579698700000009 34.5370332600000012 0.4616508500000000 Au
atom 1.6668570599999999 34.5057709499999987 -0.0513845200000000 Au
atom 4.5937524800000000 34.5918909900000031 -0.0293821900000000 Au
atom 8.7733644700000006 37.0699607900000032 0.0360143200000000 Au
atom 11.6936694100000000 36.9727187800000010 -0.2518401600000000 Au
atom 14.5690675899999995 37.0664412699999986 0.1207108700000000 Au
atom 17.3755135500000009 37.1174498299999982 0.2247549600000000 Au
atom 20.1968956900000016 36.9852612800000031 0.0491166100000000 Au
atom 23.0246923599999995 36.9616714599999980 0.1994701400000000 Au
atom 25.7524901200000009 36.9660447799999972 0.1567558600000000 Au
atom 0.3688948300000000 36.9931472800000023 0.2180072800000000 Au
atom 3.1873629299999999 37.0229676800000007 0.0596542900000000 Au
atom 6.0071249800000004 37.1469144300000025 0.0161092400000000 Au
atom 7.4909132200000004 -0.0231474100000000 0.0630027100000000 Au
atom 10.2828949299999994 0.1299331000000000 0.0885840400000000 Au
atom 13.0747352200000009 0.0564867900000000 0.3801672400000000 Au
atom 15.9056250299999995 -0.0214825600000000 0.1754918400000000 Au
atom 18.7538808400000008 0.1600047200000000 0.3509967100000000 Au
atom 21.5504393900000011 0.0117827900000000 0.3599453300000000 Au
atom 24.2866365199999983 0.0537300600000000 0.2772787700000000 Au
atom 27.1492093600000004 -0.0265283400000000 0.1680481300000000 Au
atom 1.6847830500000001 0.0984153500000000 0.1685199400000000 Au
atom 4.5839688399999998 -0.0333578500000000 0.2847735600000000 Au
atom 8.7896842300000007 2.4529627199999999 0.3006814200000000 Au
atom 11.7121924300000000 2.5569744800000000 0.1068063400000000 Au
atom 14.5414658299999999 2.4754755099999999 0.3697090000000000 Au
atom 17.2854004900000007 2.4874971499999998 0.0909407500000000 Au
atom 20.1156699400000001 2.5221695099999999 0.3188891000000000 Au
atom 22.9527891299999993 2.5573332500000001 0.3401249600000000 Au
atom 25.7194867999999985 2.3847189300000000 0.4650828500000000 Au
atom 0.3379862000000000 2.5521224299999998 0.1014363800000000 Au
atom 3.1850330300000000 2.4606005799999999 0.1928567300000000 Au
atom 5.9578501399999997 2.4099935600000002 0.1309791600000000 Au
atom 7.3373674700000002 4.9383519800000002 0.2994752000000000 Au
atom 10.1343261200000008 4.8955774700000001 0.1073958000000000 Au
atom 13.0778581099999993 4.9635653800000004 0.0937449200000000 Au
atom 15.9157888500000002 4.9459063499999996 0.1115544700000000 Au
atom 18.7862918800000003 4.9542982200000001 0.0016938800000000 Au
atom 21.5238914399999999 4.9260591099999997 0.2358385600000000 Au
atom 24.3804538800000010 4.8909091499999997 0.2712667600000000 Au
atom 27.1773765599999990 5.0118257100000001 0.3842041500000000 Au
atom 1.7344936200000001 4.9347181500000001 0.1138208700000000 Au
atom 4.6242151199999997 4.9206063300000000 0.0058218600000000 Au
atom 8.8696033300000003 7.3211980299999997 0.0154111200000000 Au
atom 11.7095685799999991 7.3546372000000000 -0.0438884800000000 Au
atom 14.6350491900000002 7.4658920599999998 -0.1648991900000000 Au
atom 17.4482505100000012 7.4335966300000003 -0.0760676800000000 Au
atom 20.1688727999999990 7.5302440300000004 0.2235858200000000 Au
atom 23.0519955500000009 7.3850248900000004 0.0808350500000000 Au
atom 25.8499600899999997 7.2981862900000003 -0.0008489000000000 Au
atom 0.3586818500000000 7.4201787100000001 0.0573173800000000 Au
atom 3.1738153100000002 7.2719782799999999 0.0133541200000000 Au
atom 5.9831200899999999 7.4280171599999996 0.2119873800000000 Au
atom 7.5133884000000002 9.8695489500000004 -0.0110984000000000 Au
atom 10.3742302700000000 9.8288580700000008 -0.1328640000000000 Au
atom 13.0930586200000008 9.7784650600000003 -0.4748979300000000 Au
atom 15.8277649999999994 9.9200307399999996 -0.4284176100000000 Au
atom 18.5633940200000005 9.8499523199999999 0.2115400900000000 Au
atom 21.5829142300000001 9.9616355799999994 0.1281938000000000 Au
atom 24.4873679499999994 9.7160484399999998 0.1049474000000000 Au
atom 27.3093256300000000 9.8596847600000004 0.0334046200000000 Au
atom 1.8433769300000000 9.8747585200000003 -0.0439506900000000 Au
atom 4.6077992999999999 9.8133902099999997 -0.1479572700000000 Au
atom 8.9853785300000002 12.2683736999999997 -0.6145910900000000 Au
atom 11.6897637299999992 12.3422426499999993 -0.0571057100000000 Au
atom 14.4475669599999996 12.3943527200000005 -0.3849585200000000 Au
atom 17.2743594000000016 12.3419097299999994 -0.1703935300000000 Au
atom 20.1549624600000001 12.3702424400000002 -0.0610856900000000 Au
atom 22.9983673700000004 12.2991622700000001 -0.0013810600000000 Au
atom 25.7693566099999991 12.2099528999999993 -0.1847133200000000 Au
atom 0.3569743600000000 12.3394784800000004 -0.2460755300000000 Au
atom 3.2087633800000002 12.3874261099999998 -0.2967262800000000 Au
atom 6.1446056999999996 12.3854894899999994 -0.5468814200000000 Au
atom 7.4824576100000000 13.2887388800000004 1.7474191400000001 Au
atom 10.2617684899999997 13.3280496100000008 2.4168408900000000 Au
atom 13.0138501400000006 13.3356368300000003 2.4460105799999998 Au
atom 15.8115784300000008 13.2226127800000004 2.4049521100000000 Au
atom 18.6521904200000002 13.2076616199999997 2.2807719600000000 Au
atom 21.5316740300000014 13.2588597200000002 2.4937531599999998 Au
atom 24.3687169200000007 13.1762013000000007 2.4885703499999998 Au
atom 27.1534404100000017 13.2219409199999998 2.2874178800000000 Au
atom 1.7683977200000001 13.0522523100000001 2.4270728300000002 Au
atom 4.6297976900000002 13.1527375000000006 2.1800256099999999 Au
atom 8.7745046000000002 15.7074691000000009 2.4663378699999998 Au
atom 11.6602686200000001 15.7149304399999998 2.7384856599999998 Au
atom 14.5391225300000002 15.7532951499999996 2.4342936599999998 Au
atom 17.2980377200000000 15.6541453500000003 2.5572038199999998 Au
atom 20.1476221200000012 15.7260991299999997 2.3934229199999999 Au
atom 23.0009810299999984 15.6871639300000005 2.3445807099999998 Au
atom 25.8255460700000015 15.5914831300000003 2.6338550900000000 Au
atom 0.5054506800000000 15.6248539799999993 2.4787903500000001 Au
atom 3.2398498700000000 15.4698650600000001 2.3860139800000000 Au
atom 6.1077500300000001 15.6346783499999997 1.9720698000000001 Au
atom 7.4688228399999996 18.1366295899999983 2.3980143699999998 Au
atom 10.2576428400000008 18.1348040700000013 2.5442368399999999 Au
atom 13.0721309300000001 18.1412430899999997 2.7430723399999999 Au
atom 15.8719399600000006 18.1214436499999998 2.4688263099999999 Au
atom 18.7621555399999984 18.0949662899999986 2.7342068400000001 Au
atom 21.5906288699999998 18.2309615799999989 2.4309567200000002 Au
atom 24.3949963700000012 18.0627264899999993 2.5147192999999999 Au
atom 27.2601330900000001 18.1273611499999987 2.6276960100000002 Au
atom 1.9206353500000000 17.9834604200000001 2.5865377399999998 Au
atom 4.7044166699999996 18.0024678199999997 2.3225458799999998 Au
atom 8.9151123699999992 20.6357834699999998 2.6143138399999999 Au
atom 11.6988495700000001 20.5265228200000003 2.7449637000000000 Au
atom 14.6166091100000006 20.6597207599999990 2.5935371300000001 Au
atom 17.4357713700000012 20.6847639399999998 2.7059462399999998 Au
atom 20.0859162399999995 20.6931166699999984 2.7937653400000002 Au
atom 22.9443501599999991 20.6062179699999994 2.8316850900000001 Au
atom 25.7990001900000010 20.5709015400000013 2.5683215499999998 Au
atom 0.5461871800000000 20.5179078100000005 2.6912174400000000 Au
atom 3.2925255800000000 20.4956086800000001 2.5163140500000001 Au
atom 6.1296608700000004 20.5196302099999990 2.2965172300000001 Au
atom 7.4243562900000004 23.0395687000000002 2.4336207500000002 Au
atom 10.2787567800000001 22.9878661800000010 2.8631939399999999 Au
atom 13.1950062199999998 23.0853746199999996 2.6734084299999998 Au
atom 16.0802117399999993 23.1697176899999988 2.6600539400000001 Au
atom 18.8037563299999988 23.2279627700000013 2.7845840200000000 Au
atom 21.5204166000000008 23.0994645900000002 2.8510255099999999 Au
atom 24.4014720400000016 23.0073621999999993 2.5490206099999999 Au
atom 27.2828330399999999 22.8802496099999999 2.4023791399999999 Au
atom 1.9364905600000000 22.8996048700000010 2.5554841700000002 Au
atom 4.6939240900000003 22.9610453499999991 2.4810053600000002 Au
atom 8.7608920000000001 25.4839761600000010 2.6703096600000000 Au
atom 11.7240603599999993 25.4400564200000012 2.6763955500000001 Au
atom 14.5942360799999999 25.5315653299999994 2.7080710799999999 Au
atom 17.3983263900000011 25.6492889099999992 2.6309401299999999 Au
atom 20.1974688299999983 25.5157365200000008 2.6704452299999999 Au
atom 22.9873137000000014 25.5803400399999994 2.4988448000000001 Au
atom 25.7862596300000000 25.4165601099999989 2.5030847800000000 Au
atom 0.4641022700000000 25.3454365499999987 2.3243226500000000 Au
atom 3.1630707000000000 25.4665084099999994 2.5256693100000001 Au
atom 5.9394495699999998 25.5020689999999988 2.6823555200000002 Au
atom 7.4213771199999998 27.9463489900000006 2.5305152899999999 Au
atom 10.2684914999999997 27.9332792599999991 2.7068406399999998 Au
atom 13.0706102699999995 27.9567554099999995 2.6491340399999999 Au
atom 15.8112712700000007 28.1358535500000002 2.4368787900000002 Au
atom 18.6802174100000009 28.0327379800000003 2.7110171699999999 Au
atom 21.5368374799999991 28.0108881300000014 2.7458587699999999 Au
atom 24.4090451299999991 28.1137512399999991 2.4042820400000000 Au
atom 27.1376064700000015 27.7492341200000006 3.0589025200000002 Au
atom 1.7714911400000000 27.8759275799999990 2.6261697700000002 Au
atom 4.5638887500000003 27.9520345600000013 2.6428004399999998 Au
atom 8.6710891100000005 30.4353001399999989 2.7684670900000001 Au
atom 11.6827937199999994 30.3754124099999991 2.5048170999999999 Au
atom 14.4270531200000001 30.5316518499999994 2.5426216699999999 Au
atom 17.2818486000000000 30.4343020399999986 2.6303815600000000 Au
atom 20.1729595099999983 30.5124662099999995 2.6390413599999998 Au
atom 22.9841884999999984 30.4557967400000003 2.5494949700000000 Au
atom 25.6885515799999986 30.4896492899999991 3.2112026400000002 Au
atom 0.2953714300000000 30.4586089700000002 2.8572483100000001 Au
atom 3.1788719599999999 30.5243865399999983 2.7765860999999998 Au
atom 5.9244144800000003 30.5588086499999996 2.4786932099999999 Au
atom 7.3508476199999997 32.9103789099999986 2.6657878600000000 Au
atom 10.1505357200000006 32.8290302600000032 2.4612532400000000 Au
atom 13.0547812899999993 32.9651251599999995 2.5274192000000002 Au
atom 15.8522740199999994 32.9430132999999969 2.8418762100000001 Au
atom 18.7252386999999985 32.9568373700000024 2.5392762400000000 Au
atom 21.5311687099999993 32.9111165799999981 2.7575262999999999 Au
atom 24.3082912299999983 32.9714151499999986 2.9342233000000002 Au
atom 27.1362385199999991 32.9868407499999989 3.2524813300000002 Au
atom 1.6942461300000000 32.8972168299999979 2.5534473200000001 Au
atom 4.4490712600000002 32.9316440600000035 2.6546018400000002 Au
atom 8.6722369900000000 35.3171612100000019 2.8899124600000001 Au
atom 11.6493397299999994 35.3584987799999979 2.5851688899999998 Au
atom 14.5200394799999994 35.3874791699999989 2.5308929600000001 Au
atom 17.3659826099999997 35.4630891999999989 2.8107123299999999 Au
atom 20.2100051500000006 35.4748354600000013 2.8848193599999998 Au
atom 22.9572988000000002 35.4253297300000014 2.8076750100000001 Au
atom 25.7461373400000006 35.5404534600000019 3.0688592799999999 Au
atom 0.3435332500000000 35.5047104900000008 2.7827633600000001 Au
atom 3.1294538900000002 35.4370559299999996 2.6339086400000000 Au
atom 5.9314621599999997 35.4551383399999978 2.6710740799999999 Au
atom 7.4126130400000001 37.9250238600000031 2.6343424700000000 Au
atom 10.1608241199999991 37.7547097300000019 2.4021615800000000 Au
atom 13.0210892400000002 37.8309516099999996 2.7322068900000001 Au
atom 15.9174944499999995 37.8601230100000024 2.8675106000000001 Au
atom 18.7101906100000015 37.9193776199999988 2.6431164100000002 Au
atom 21.4848925000000008 37.9378601599999996 2.8043383799999999 Au
atom 24.3371242199999998 37.9025793100000001 2.8067269000000001 Au
atom 27.0491875399999984 37.8744360900000032 2.6902989399999999 Au
atom 1.6563297699999999 37.9684150399999965 2.6749086200000001 Au
atom 4.5755846199999999 37.8480503199999987 2.8355511799999999 Au
atom 8.8140952200000005 0.9011333400000000 2.8237458800000002 Au
atom 11.6183718500000008 0.7802808600000000 2.8120473300000000 Au
atom 14.4503453499999992 0.8444256600000000 3.0230681499999998 Au
atom 17.1957619599999987 0.8383451600000000 2.7880192199999998 Au
atom 19.9928168799999995 0.8725022700000000 3.1940413400000001 Au
atom 23.0045519100000000 0.8506961400000000 2.9796480299999999 Au
atom 25.7713037100000015 0.9089403000000000 2.9975993399999998 Au
atom 0.3040579600000000 0.7970877400000000 2.8672497699999999 Au
atom 3.2020426600000000 0.8942759400000000 2.7501210999999999 Au
atom 6.0297886099999998 0.9317412800000000 2.8680783600000002 Au
atom 7.4433813200000003 3.4264878300000001 2.9958344499999998 Au
atom 10.2447532599999995 3.3023361900000001 2.8291374800000000 Au
atom 13.0093861700000009 3.3620403200000002 2.7054746000000001 Au
atom 15.9000646700000008 3.3849448000000000 2.9578229399999998 Au
atom 18.6507882299999999 3.3387809800000001 2.6944197700000001 Au
atom 21.4856868600000013 3.3243054800000000 2.9034398200000000 Au
atom 24.2780592599999991 3.4214019800000002 3.0280041500000001 Au
atom 27.2281995700000010 3.3269145899999999 2.8869765500000000 Au
atom 1.7374648300000000 3.2861249600000000 2.7608096000000000 Au
atom 4.6614323899999999 3.4508543600000001 2.6930159100000002 Au
atom 8.8817518599999996 5.9016599899999997 2.6503445999999999 Au
atom 11.7781783299999994 5.9781945099999998 2.6310157900000002 Au
atom 14.5430729400000001 5.8141190700000003 2.5574793599999999 Au
atom 17.3502739300000002 5.9468872700000004 2.5754891500000001 Au
atom 20.0678222200000000 5.6562682600000000 2.5896083700000001 Au
atom 22.8301220200000010 5.8355126700000000 2.7275622400000001 Au
atom 25.7903666499999993 5.8488394200000000 2.8213408499999999 Au
atom 0.5246982900000000 5.8685674499999996 2.8528235099999999 Au
atom 3.2210448000000000 5.7657586800000002 2.6083300199999999 Au
atom 5.9780834699999996 6.0133115799999999 2.9325559900000000 Au
atom 7.5026275800000004 8.4161906500000008 2.7041032899999999 Au
atom 10.2715072999999997 8.4382135199999997 2.4555926499999998 Au
atom 13.0967614399999999 8.3642712899999996 2.3049507199999999 Au
atom 15.9680121300000000 8.3392714600000009 2.3286814200000001 Au
atom 18.6583202099999994 8.4230017299999993 2.9929481800000000 Au
atom 21.4816765200000006 8.3090992499999992 2.5747896600000000 Au
atom 24.2546545800000004 8.3217193799999993 2.8585964300000000 Au
atom 27.1775426200000005 8.2871991200000004 2.6952818000000001 Au
atom 1.7426571799999999 8.2814929900000003 2.5418280900000001 Au
atom 4.6018079500000004 8.2676400300000008 2.6716389000000000 Au
atom 8.9662918000000005 10.9229398900000003 2.3320562400000000 Au
atom 11.7160869999999999 10.8302842500000001 2.5403392199999999 Au
atom 14.4513002099999994 10.7759241800000005 2.1453209000000002 Au
atom 17.1875097500000003 10.8325612099999997 2.5467967699999998 Au
atom 20.0947814300000012 10.7816957299999991 2.5471887000000000 Au
atom 22.9842409799999992 10.8477389800000008 2.7335771000000002 Au
atom 25.7733293699999990 10.7079884900000000 2.5616143099999999 Au
atom 0.2881343800000000 10.7070689500000000 2.6309023200000001 Au
atom 3.2333301500000000 10.7053882599999994 2.5551764600000002 Au
atom 6.0582039900000000 10.8063781300000006 2.3942884800000002 Au
atom 8.3563661200000006 13.2630670500000001 5.5835165099999999 Cl
atom 8.1980053000000002 16.2736166299999994 8.2740490399999995 Cl
atom 8.2480688600000001 13.4246773499999996 8.2642561299999997 Na
atom 8.0173210200000007 16.0948337300000013 5.5955415000000004 Na
atom 7.8895983400000000 18.8202005300000010 5.6122446600000000 Cl
atom 7.9904554000000001 21.8736622400000016 8.4020916999999997 Cl
atom 7.8388351099999998 18.9604923599999999 8.2833775099999993 Na
atom 7.8913524300000004 21.6355326699999999 5.7259093400000003 Na
atom 7.6822030699999999 24.4920325400000003 5.6550225200000002 Cl
atom 7.9232831299999997 27.4009793799999990 8.6076641800000004 Cl
atom 7.8410732400000001 24.5155097200000007 8.3652671000000005 Na
atom 7.7764070500000004 27.2855934100000006 5.9681498299999998 Na
atom 7.8410751000000003 30.2471658499999982 5.7648165499999999 Cl
atom 7.7644775399999997 33.0487741900000032 8.6820794800000005 Cl
atom 7.7587411700000004 30.1366056299999983 8.4281013700000003 Na
atom 7.9435171400000000 32.8669206599999981 5.9417951799999997 Na
atom 7.7352980799999997 35.7323625200000023 5.6643268100000004 Cl
atom 7.9799312699999998 38.7429375999999976 8.4260427900000003 Cl
atom 8.0312796199999994 35.8004609400000007 8.4037229900000003 Na
atom 7.9143183300000004 38.8636370299999996 5.8132080999999998 Na
atom 8.0592466799999993 2.0143142100000002 5.8255903599999996 Cl
atom 8.0036770599999993 4.8080001699999997 8.6274446400000002 Cl
atom 8.0320787700000000 2.0441548900000002 8.4586305599999996 Na
atom 8.0606880200000006 4.9267127700000000 5.7972058999999998 Na
atom 7.7259842200000000 7.5852569399999998 5.6482682799999999 Cl
atom 7.8393937800000000 10.4397498899999999 8.3121423300000004 Cl
atom 7.9345805100000000 7.6908008700000003 8.2974502999999995 Na
atom 7.9567879799999996 10.3292342999999995 5.7487185700000003 Na
atom 10.9886600600000008 13.2029135499999999 5.6121392800000001 Na
atom 13.7012122299999994 13.3169213299999996 5.6017400400000001 Cl
atom 10.8984887100000005 16.4231167300000003 8.3534923200000009 Na
atom 13.6437262599999993 16.1883452299999995 8.3678860400000001 Cl
atom 13.6129538300000004 13.2902624199999995 8.2011660200000005 Na
atom 10.9086308299999999 12.8806194800000000 8.1194885299999999 Cl
atom 13.7993615100000007 16.3578621700000006 5.7138799200000001 Na
atom 10.8569973799999993 16.3217749699999999 5.3487681599999997 Cl
atom 10.7766131800000000 19.0173991499999993 5.6883656399999998 Na
atom 13.7245397199999992 19.0630630100000005 5.7931561900000004 Cl
atom 10.8589316999999994 21.8052057099999992 8.2623575299999992 Na
atom 13.6602667100000001 21.7775137500000007 8.5532638599999995 Cl
atom 13.6573588600000004 19.0293194300000010 8.2735188500000003 Na
atom 10.8601089700000006 18.9898734000000005 8.4425264400000000 Cl
atom 13.7152414900000004 21.6734179800000000 5.6845202600000002 Na
atom 10.8373019900000003 21.8577622600000012 5.5719513999999997 Cl
atom 10.4385077600000002 24.5188517499999996 5.6845436100000004 Na
atom 13.5590732400000000 24.4821444499999998 5.8325942199999998 Cl
atom 10.7430160899999994 27.1543690099999999 8.4213428700000001 Na
atom 13.4689642500000009 27.2602862600000009 8.8851936499999997 Cl
atom 13.7045070500000001 24.5147479200000014 8.3894320800000006 Na
atom 10.5885687199999996 24.4803670500000017 8.5387569299999999 Cl
atom 13.3780260500000008 27.2372961599999996 5.9056109599999997 Na
atom 10.7508382000000005 27.2092846199999983 5.7864307000000004 Cl
atom 10.6822812400000000 29.9996152999999985 5.6956017100000000 Na
atom 13.4234662999999994 30.2041891500000013 5.8252375699999996 Cl
atom 10.6809952399999997 32.9969381700000000 8.3546886800000006 Na
atom 13.5256421400000004 32.9268097100000006 8.6783421799999996 Cl
atom 13.3397788800000008 30.1834848899999990 8.6010919500000007 Na
atom 10.6936634500000007 30.0504286500000006 8.5109670400000006 Cl
atom 13.3799050000000008 32.9441793800000013 5.9497117299999998 Na
atom 10.4659767899999991 32.8954034899999996 5.8188430899999997 Cl
atom 10.6636641799999996 35.8136746599999967 5.9526107599999998 Na
atom 13.4495431199999995 35.7680737700000009 5.8369425499999998 Cl
atom 10.7907191499999993 38.7884843499999974 8.4376676100000001 Na
atom 13.6069121400000004 38.6517561400000034 8.8558382600000005 Cl
atom 13.6463022499999997 35.7467412000000024 8.4707696699999993 Na
atom 10.8081976300000004 35.6954677599999997 8.5204094500000007 Cl
atom 13.6430028199999995 38.5308986100000013 6.0737027499999998 Na
atom 11.0154857699999997 38.6214285200000020 5.7028813700000001 Cl
atom 10.7968815199999995 2.0297022899999999 5.9507974399999997 Na
atom 13.5184192200000002 1.9166120700000000 6.0106730700000002 Cl
atom 10.8644565499999999 4.7425496599999999 8.6278301800000001 Na
atom 13.7705124600000008 4.7476441999999999 8.8853424699999994 Cl
atom 13.7243248199999996 1.9982922800000000 8.6636324499999997 Na
atom 10.7637415300000008 1.8887622399999999 8.6433130800000004 Cl
atom 13.6840347999999992 4.6340978499999999 5.8909889700000004 Na
atom 11.0251511900000008 4.8458759300000001 5.7055033699999997 Cl
atom 10.9879369899999997 7.3604531199999998 5.5807048600000000 Na
atom 13.7998372600000003 7.3881202699999999 5.6559801199999997 Cl
atom 10.8141958599999999 10.2789771299999995 8.1914025200000005 Na
atom 13.7623837200000008 10.5413895199999992 8.3524538699999997 Cl
atom 13.6827951900000002 7.7085472900000003 8.3576161199999994 Na
atom 10.7733628499999998 7.6362403499999996 8.4191407100000006 Cl
atom 13.6422079299999996 10.4266428999999992 5.6558033200000004 Na
atom 10.7947157399999991 10.3081260799999992 5.5205194000000004 Cl
atom 16.4290689199999989 13.1876545400000005 5.7060742500000003 Na
atom 19.1729634599999983 13.1495730599999998 5.5387469600000001 Cl
atom 16.5326345100000012 16.0200547399999991 8.3792344900000000 Na
atom 19.2269729299999987 15.9829089900000003 8.6403655500000003 Cl
atom 19.2015492300000012 13.0651558300000001 8.3436842599999999 Na
atom 16.4646763500000013 13.3245851700000006 8.4369712299999993 Cl
atom 19.4122619699999994 15.9613684800000009 5.8022034400000004 Na
atom 16.7069017399999993 16.0918445000000006 5.6121206299999997 Cl
atom 16.5695522100000012 18.9546304200000009 5.8910822800000000 Na
atom 19.2726623900000007 18.7087609099999987 5.7004289999999997 Cl
atom 16.3472301400000006 21.9664733000000005 8.4585291700000003 Na
atom 19.4633189800000004 21.7523114200000016 8.6399655600000003 Cl
atom 19.3666770300000017 18.6673299600000000 8.6701344900000006 Na
atom 16.6037052400000000 18.8579676800000016 8.6535127599999999 Cl
atom 19.3498189799999984 21.6525579700000002 6.0056220900000001 Na
atom 16.5714343900000003 21.7106318400000013 5.7078547999999998 Cl
atom 16.3718625399999986 24.6224909499999995 5.8044003699999998 Na
atom 19.3710969900000016 24.5690940500000004 5.7999829800000002 Cl
atom 16.2939747399999995 27.4909511100000010 8.4261234399999996 Na
atom 19.3049633400000005 27.4005391200000012 8.5776486799999994 Cl
atom 19.2001100300000012 24.7614089300000018 8.3919358400000004 Na
atom 16.4607928000000001 24.7112267800000005 8.5901779699999992 Cl
atom 19.4218203799999998 27.4116904199999993 5.8226464900000003 Na
atom 16.3845236800000009 27.3274832100000005 5.8379886100000000 Cl
atom 16.4033858200000005 30.1085974000000007 5.7334098300000003 Na
atom 19.1931093399999995 30.0998867499999996 5.8118775800000000 Cl
atom 16.2695443100000006 32.9517960399999978 8.5405983200000009 Na
atom 19.1813665899999997 32.8783980799999966 8.6022330799999995 Cl
atom 19.3593866199999987 30.1028858100000001 8.5433537600000005 Na
atom 16.3302857599999989 30.1911488599999984 8.5353934900000006 Cl
atom 19.1553052400000006 32.9146467799999982 5.9362926199999997 Na
atom 16.2846214499999995 32.9182754899999992 5.6656872500000004 Cl
atom 16.3638174200000002 35.7523530899999997 5.9145280900000001 Na
atom 19.2255268900000011 35.9483589700000010 5.8962855000000003 Cl
atom 16.4052017200000009 38.4600763500000014 8.4741790699999999 Na
atom 19.1527963200000002 38.5083052800000019 8.8080380100000006 Cl
atom 19.0107737999999991 35.6858077300000005 8.5080789499999998 Na
atom 16.4123005999999982 35.7686443600000032 8.7170228499999993 Cl
atom 19.1671529099999987 38.5391772600000024 5.9653203200000000 Na