#===============================================================================
# Created using the Atomic Simulation Environment (ASE)

# Tue Dec 23 22:26:43 2025

#=======================================================
lattice_vector 28.1999999999999993 0.0000000000000000 0.0000000000000000 
lattice_vector 0.0000000000000000 39.4799999999999969 0.0000000000000000 
lattice_vector 0.0000000000000000 0.0000000000000000 62.3296083400000001 
atom 7.5661074299999997 14.7820387300000000 -0.1918437400000000 Au
atom 10.3421933300000006 14.8578728299999998 -0.2121408500000000 Au
atom 13.1853356799999997 14.7941164700000005 -0.1362325800000000 Au
atom 15.9688122999999997 14.7907031300000007 -0.1957085700000000 Au
atom 18.7814877799999991 14.7974797500000008 -0.0308625300000000 Au
atom 21.6666920500000018 14.8125965399999995 -0.1974314900000000 Au
atom 24.4594146200000004 14.8270180400000005 -0.0423444900000000 Au
atom 27.3161413400000015 14.7940819399999999 -0.0376052600000000 Au
atom 1.9169604400000000 14.7982260300000004 -0.0805373700000000 Au
atom 4.6871115300000001 14.8080188199999991 0.1054584400000000 Au
atom 8.9113782799999992 17.2692192599999998 -0.1185217300000000 Au
atom 11.7422773100000004 17.2552838699999995 -0.2479340500000000 Au
atom 14.6143108700000006 17.2909084799999988 -0.1571165400000000 Au
atom 17.4247546299999989 17.3063234699999988 -0.1513669600000000 Au
atom 20.2689477099999991 17.3168179299999991 -0.0301420000000000 Au
atom 23.0714654699999997 17.2790346100000001 -0.1269346500000000 Au
atom 25.8540231899999995 17.2920515700000017 0.1461291400000000 Au
atom 0.4821377600000000 17.3182223700000009 -0.0068765500000000 Au
atom 3.3037039400000001 17.3028730899999985 0.0361428000000000 Au
atom 6.1071403100000001 17.2329282200000016 0.1960465600000000 Au
atom 7.5279857100000003 19.7194067000000004 0.0426894000000000 Au
atom 10.3297308900000004 19.7123327999999987 -0.1476756300000000 Au
atom 13.1614691100000005 19.7203522699999994 -0.0219306100000000 Au
atom 16.0209782899999986 19.7702333299999999 -0.0561610100000000 Au
atom 18.8673674600000005 19.7184477899999990 -0.0404247100000000 Au
atom 21.7090164899999998 19.7489969400000014 -0.0716152000000000 Au
atom 24.4568857199999989 19.7825024700000007 0.1243263700000000 Au
atom 27.2772721400000009 19.8183023899999995 0.0206702100000000 Au
atom 1.9249948100000001 19.8336426099999983 0.1331952200000000 Au
atom 4.7475949899999996 19.7210563000000008 0.0295632800000000 Au
atom 8.8999983900000004 22.2022382900000004 0.0074756100000000 Au
atom 11.7092537100000005 22.1536428900000004 0.0894558500000000 Au
atom 14.5349354399999999 22.1538949999999986 0.0938290500000000 Au
atom 17.3602554100000006 22.2211540899999989 0.0316119700000000 Au
atom 20.2110722299999992 22.2112357600000010 -0.0511594100000000 Au
atom 22.9872501599999985 22.2620786399999986 0.0921345500000000 Au
atom 25.7778100200000004 22.1978648800000009 0.1155920000000000 Au
atom 0.5085965300000000 22.2352111000000008 -0.0263041500000000 Au
atom 3.3115392600000000 22.2468439300000007 0.0153141500000000 Au
atom 6.0820394599999998 22.1888183099999985 0.0528292100000000 Au
atom 7.5243825400000004 24.7167242400000013 0.0750278400000000 Au
atom 10.3174824500000000 24.6608704100000011 0.0716222400000000 Au
atom 13.1464420499999992 24.6489753500000006 0.1136629000000000 Au
atom 15.9876410100000008 24.6455141900000001 -0.1103839500000000 Au
atom 18.7987928000000011 24.6297010100000016 -0.0365395400000000 Au
atom 21.6363720499999985 24.6439886299999991 -0.0716599400000000 Au
atom 24.4720837700000011 24.7019991899999987 0.0887089700000000 Au
atom 27.2295672800000013 24.6675230899999995 -0.0214921300000000 Au
atom 1.8583250600000001 24.7465676700000010 0.1658197300000000 Au
atom 4.6729535699999998 24.6729393299999984 0.1822271700000000 Au
atom 9.2178134000000007 27.1870656100000012 0.1195215900000000 Au
atom 11.4356361999999994 27.1415737999999997 0.0329515100000000 Au
atom 14.5517036900000001 27.1185877099999999 -0.0782518000000000 Au
atom 17.3939403900000009 27.0806578599999987 -0.0489897700000000 Au
atom 20.2059746199999992 27.0984671400000003 0.0317324600000000 Au
atom 23.0476557600000014 27.1214285799999999 0.0769416300000000 Au
atom 25.8398698700000011 27.1489416400000003 0.1091344800000000 Au
atom 0.4265059400000000 27.1787760700000014 0.1443025500000000 Au
atom 3.2778210900000002 27.1388683399999984 -0.0073870900000000 Au
atom 6.1223024800000001 27.2005215699999994 0.0737829000000000 Au
atom 7.4949235200000004 29.7009304000000007 -0.0907249400000000 Au
atom 10.3256730500000007 29.6354838600000008 0.0538770100000000 Au
atom 13.0933835999999992 29.5957479300000017 -0.0648581700000000 Au
atom 15.9710879699999992 29.6011318800000005 -0.0775034300000000 Au
atom 18.8155082000000000 29.5901173300000018 -0.1055541000000000 Au
atom 21.6285646699999994 29.5977285999999999 0.0155199800000000 Au
atom 24.4843485799999989 29.6333417600000004 -0.0195606800000000 Au
atom 27.2399281900000005 29.6763086099999995 0.0735981900000000 Au
atom 1.8787907900000000 29.5935303999999988 -0.0262093700000000 Au
atom 4.6601427199999996 29.5872247699999988 -0.0040883900000000 Au
atom 8.9038279300000003 32.1364230399999968 -0.0021433100000000 Au
atom 11.7488158899999995 32.1374442700000031 0.1582002700000000 Au
atom 14.5462159500000006 32.0412516600000004 0.0286159700000000 Au
atom 17.3620534999999983 32.1054261299999979 0.0283218200000000 Au
atom 20.2367564900000012 32.0893276400000005 -0.1182803300000000 Au
atom 23.0343090799999999 32.1054168900000008 -0.0891772400000000 Au
atom 25.7990201299999988 32.0851479800000021 0.0185299700000000 Au
atom 0.4765965600000000 32.1277836300000033 0.0119825300000000 Au
atom 3.2872039100000001 32.1000679099999999 0.0671427700000000 Au
atom 6.0861940700000003 32.0885218800000018 -0.0284048900000000 Au
atom 7.4958568600000000 34.6077700800000017 -0.1025582800000000 Au
atom 10.3092424400000002 34.5253636799999981 0.0707725200000000 Au
atom 13.1524606500000001 34.6016528600000015 0.0492263000000000 Au
atom 15.9804598200000001 34.5613378899999972 0.0073570900000000 Au
atom 18.7917760200000004 34.5179333000000028 0.0788881400000000 Au
atom 21.5995830099999999 34.5823171500000015 0.0515587400000000 Au
atom 24.4114625899999993 34.6259834700000013 0.0031422200000000 Au
atom 27.1801208299999999 34.5640062399999977 -0.1645498200000000 Au
atom 1.8120637600000000 34.5487251500000028 -0.0938775500000000 Au
atom 4.6776345800000003 34.5025890100000012 0.0169701300000000 Au
atom 8.8683376400000000 36.9935922499999990 0.0822321400000000 Au
atom 11.6887665700000003 36.9976810499999971 0.0086202800000000 Au
atom 14.4913235100000009 37.0888737699999993 0.0170742800000000 Au
atom 17.3490912799999997 37.0016020699999970 0.1605774900000000 Au
atom 20.2066149400000015 37.0210269600000004 0.1397592000000000 Au
atom 22.9649921399999997 37.0551357200000027 0.0142857500000000 Au
atom 25.7826504499999984 37.1069907199999989 0.1458377700000000 Au
atom 0.4042133400000000 36.9676932200000010 -0.0204439900000000 Au
atom 3.2803750900000002 37.0175853699999990 0.0707595700000000 Au
atom 6.0483622400000003 37.0159576499999972 0.0397783400000000 Au
atom 7.4770044200000001 -0.0403947700000000 0.2468132200000000 Au
atom 10.2773511600000003 -0.0330480700000000 0.1036093900000000 Au
atom 13.1162281000000007 0.0119958100000000 -0.0002999400000000 Au
atom 15.9331660300000006 -0.0243622200000000 0.1234955700000000 Au
atom 18.7474501300000007 -0.0428721500000000 0.1441302600000000 Au
atom 21.5396290800000010 0.0061626500000000 0.2202791800000000 Au
atom 24.3539894600000011 0.0393107300000000 0.2194295500000000 Au
atom 27.2679963399999998 -0.0230568900000000 0.1222590300000000 Au
atom 1.8594286700000000 0.0099623000000000 0.1593938000000000 Au
atom 4.6635675499999998 0.0680224900000000 0.2652324500000000 Au
atom 8.8754053099999997 2.4364967100000001 0.0265197500000000 Au
atom 11.7052618899999992 2.5062938600000000 0.0443189700000000 Au
atom 14.5377189700000002 2.4476399999999998 0.1823533300000000 Au
atom 17.3241812499999988 2.5109877799999998 0.1156797100000000 Au
atom 20.1529541399999985 2.4404618999999999 0.2305079700000000 Au
atom 23.0238150300000015 2.4919740600000000 0.1136668300000000 Au
atom 25.8204210200000013 2.4556157000000001 0.1029568800000000 Au
atom 0.4524909800000000 2.4597789799999998 0.1179685700000000 Au
atom 3.2697894000000001 2.4725224799999999 0.1978796300000000 Au
atom 6.0986431799999998 2.4205874500000002 0.1029898300000000 Au
atom 7.4279960000000003 4.9032034299999996 -0.0158173700000000 Au
atom 10.2832658499999994 4.8720254699999996 0.1508688600000000 Au
atom 13.1447379800000004 4.9385853600000003 0.1624989100000000 Au
atom 15.9506144600000006 4.9325713799999997 0.0620659400000000 Au
atom 18.7458114400000007 4.9287377599999997 0.0891769400000000 Au
atom 21.5986581099999988 4.8974400400000002 0.0505311300000000 Au
atom 24.3828776800000000 4.9986075400000001 0.1564576900000000 Au
atom 27.1914683599999982 5.0017037799999997 0.0889053900000000 Au
atom 1.8316868300000000 4.9393508800000001 0.0753078100000000 Au
atom 4.6494756099999996 4.8820346700000004 0.0472774600000000 Au
atom 8.8708325800000001 7.3308823399999996 0.1140923700000000 Au
atom 11.6780893100000007 7.3224985000000000 0.0237170500000000 Au
atom 14.5536985100000003 7.3915290200000001 -0.0651261100000000 Au
atom 17.3694027800000015 7.3927672900000001 -0.0163812000000000 Au
atom 20.1668997200000000 7.3894866199999996 -0.0741396800000000 Au
atom 22.9787760100000007 7.4695052000000004 0.1554668100000000 Au
atom 25.7919644599999991 7.5044973500000003 0.0170406800000000 Au
atom 0.4187520100000000 7.3904816400000000 0.0622584000000000 Au
atom 3.2497510599999999 7.3784179999999999 0.1017126200000000 Au
atom 6.0520303599999998 7.3006293900000001 0.0320518300000000 Au
atom 7.5366612399999999 9.8007113799999992 -0.0259215400000000 Au
atom 10.3173232200000005 9.8097086800000000 0.0830581800000000 Au
atom 13.1282514100000007 9.8575556399999993 -0.0198597700000000 Au
atom 15.9864217699999998 9.8561271900000005 -0.0779520100000000 Au
atom 18.7744082100000007 9.9668934300000007 -0.0807630000000000 Au
atom 21.5759692700000016 9.8959460499999992 0.0669782200000000 Au
atom 24.3975692100000003 9.9589393400000006 0.0847901900000000 Au
atom 27.2089023499999989 9.8930877000000006 -0.1509535400000000 Au
atom 1.8575787699999999 9.8572354799999999 -0.0086553500000000 Au
atom 4.6712543799999997 9.8141568100000001 0.0236665700000000 Au
atom 8.9894657099999993 12.3023369200000001 -0.1239735900000000 Au
atom 11.7479349400000004 12.2837995899999992 -0.1659895100000000 Au
atom 14.5479450000000003 12.3225213700000005 -0.1228545100000000 Au
atom 17.3832632199999999 12.3329232100000006 -0.1997403800000000 Au
atom 20.2247674599999989 12.3588871900000008 0.0414522600000000 Au
atom 23.0034085700000013 12.3398499499999996 -0.0783523800000000 Au
atom 25.8220174500000006 12.3508487599999999 0.0238212400000000 Au
atom 0.4508896800000000 12.3135568899999992 -0.0331755100000000 Au
atom 3.3176526000000002 12.2980887400000007 0.0126668800000000 Au
atom 6.1641545999999998 12.2743985700000007 -0.0113345700000000 Au
atom 7.5872201099999996 13.1805385299999998 2.5658609800000001 Au
atom 10.3948845700000003 13.1931986899999991 2.5387075900000000 Au
atom 13.1582790700000007 13.1663635100000000 2.5248395200000000 Au
atom 15.9477177799999996 13.2209069600000007 2.3644304900000002 Au
atom 18.7418282199999986 13.2110035499999992 2.5709234599999999 Au
atom 21.6132348500000013 13.2309629399999995 2.5102240999999998 Au
atom 24.4870902000000008 13.1407236300000001 2.5420442599999999 Au
atom 27.3134314899999993 13.1402919100000002 2.5839462800000002 Au
atom 1.9203194200000000 13.1525140900000004 2.6341175400000001 Au
atom 4.7006878700000003 13.1499182599999997 2.6052877600000000 Au
atom 8.9440090199999993 15.6081028499999999 2.4905111199999999 Au
atom 11.6627861799999994 15.6635090500000000 2.5306543300000000 Au
atom 14.5984290100000003 15.6655002999999997 2.5011367400000002 Au
atom 17.3291893600000009 15.6930328600000006 2.5475759000000000 Au
atom 20.1732534699999988 15.5925642399999997 2.4689224799999998 Au
atom 23.0563396500000017 15.6286041699999991 2.5571932700000000 Au
atom 25.8901868899999990 15.5924848199999992 2.6262146000000000 Au
atom 0.4894251000000000 15.6587367499999992 2.6037783600000002 Au
atom 3.3261138799999999 15.6415285700000002 2.6461101100000000 Au
atom 6.1409355699999999 15.6461591200000001 2.7105850000000000 Au
atom 7.5778779199999997 18.0752474599999999 2.7859220200000001 Au
atom 10.3852437099999992 18.0645637999999984 2.4752602399999999 Au
atom 13.1801062499999997 18.1670547099999986 2.6420707700000001 Au
atom 16.0117138899999993 18.0952955399999986 2.4118902100000001 Au
atom 18.9174381199999999 18.0990147400000012 2.5215198399999998 Au
atom 21.7461598699999996 18.0962929099999990 2.4873661399999998 Au
atom 24.4787448699999999 18.0428424800000009 2.7391716399999999 Au
atom 27.2523499700000009 18.0855300800000016 2.5542598999999999 Au
atom 1.9567994200000001 18.1549367000000004 2.7477858899999998 Au
atom 4.7592569200000003 18.1076259399999984 2.6868790800000002 Au
atom 9.0859258900000004 20.5118021299999995 2.6735449000000000 Au
atom 11.7637320699999997 20.5796840000000003 2.6029486400000001 Au
atom 14.5816083600000006 20.5474261600000006 2.6643890600000000 Au
atom 17.4337146099999991 20.5326619800000003 2.6059312900000000 Au
atom 20.2561419700000016 20.5918247200000017 2.5858841799999999 Au
atom 23.0671624800000004 20.5991939799999990 2.6967852899999998 Au
atom 25.8620016300000017 20.5534441100000009 2.6925960099999999 Au
atom 0.4915724700000000 20.6155218399999995 2.6296693100000001 Au
atom 3.3597823500000001 20.6039760600000008 2.7099572099999998 Au
atom 6.0693924900000003 20.5526571599999990 2.5481455000000000 Au
atom 7.5906294100000000 22.9979013700000010 2.5949901000000000 Au
atom 10.3569640199999995 23.0718062099999983 2.6634310800000001 Au
atom 13.1882214199999996 23.0104688199999998 2.6179497999999999 Au
atom 16.0291340099999999 23.0464006499999989 2.6304602199999998 Au
atom 18.8083345900000012 23.0240020600000008 2.7421472499999999 Au
atom 21.5941460700000007 23.1129265799999999 2.6486896000000000 Au
atom 24.4353395999999989 23.0396777300000011 2.6838773300000001 Au
atom 27.2012190899999986 23.1271076800000017 2.5833436700000001 Au
atom 1.8939299700000001 23.0349381300000005 2.6005370399999999 Au
atom 4.7824173900000000 23.0782634999999985 2.6072559000000002 Au
atom 8.9250964699999997 25.5699442700000006 2.7095606299999999 Au
atom 11.8047845999999996 25.5618540900000006 2.6950520000000000 Au
atom 14.6055841599999994 25.5599282199999998 2.6430488200000002 Au
atom 17.4265187099999999 25.5411387499999982 2.6048595099999998 Au
atom 20.2527289599999989 25.5326781599999997 2.6152523599999999 Au
atom 23.0433255000000017 25.5316495600000017 2.5893718099999998 Au
atom 25.8422096000000003 25.5685786800000017 2.7519124700000002 Au
atom 0.4702881100000000 25.5226846099999989 2.7500781600000002 Au
atom 3.3034182900000002 25.5517302000000015 2.7132915799999999 Au
atom 6.1243009900000001 25.5489270099999999 2.7956070500000001 Au
atom 7.5205742899999999 27.9873219599999992 2.6740396700000000 Au
atom 10.3641730299999999 28.0335610399999986 2.6329402900000001 Au
atom 13.1912491700000007 28.0514955899999983 2.4567717199999999 Au
atom 16.0032309400000017 28.0325698099999983 2.5084192199999999 Au
atom 18.7661462400000012 28.0160577900000014 2.5495234099999999 Au
atom 21.6164010699999984 27.9961868500000008 2.6714618600000000 Au
atom 24.4306121199999993 27.9887880200000012 2.6584625300000000 Au
atom 27.2207228699999995 28.0284225099999986 2.7193648600000002 Au
atom 1.8721148900000000 28.0030827699999989 2.6252253900000002 Au
atom 4.6936116300000004 27.9698782299999991 2.6186494599999999 Au
atom 8.9351477900000003 30.4258481900000000 2.5616227100000000 Au
atom 11.7819725999999996 30.5040667100000000 2.6249585799999999 Au
atom 14.6178673900000007 30.5338981800000013 2.6155521899999998 Au
atom 17.4038670400000015 30.4967385499999999 2.5918990000000002 Au
atom 20.2008993200000013 30.4460703799999983 2.5583241299999999 Au
atom 23.0336952900000007 30.4912050999999984 2.5548646800000001 Au
atom 25.8585432799999992 30.5190059500000004 2.6766805300000001 Au
atom 0.4429273600000000 30.4897979100000001 2.5908135300000001 Au
atom 3.2793499000000002 30.4048415699999985 2.6330054999999999 Au
atom 6.0718369200000000 30.4572493599999987 2.6006738700000001 Au
atom 7.5269407700000004 32.9559836700000020 2.5160388700000000 Au
atom 10.3490348599999997 32.9246951300000035 2.8241161199999998 Au
atom 13.1700185800000007 32.9804516800000016 2.6709200700000002 Au
atom 15.9830031600000009 32.9864198699999989 2.6065851800000002 Au
atom 18.8597349600000008 32.9161288900000031 2.5446465900000002 Au
atom 21.6668099500000011 32.9144739199999989 2.6007352099999999 Au
atom 24.4383905900000009 32.9543671099999997 2.6351189000000002 Au
atom 27.2193006100000012 32.9255071999999984 2.5691939000000001 Au
atom 1.9047837599999999 32.8964778899999999 2.6147890500000002 Au
atom 4.6991422700000003 32.8676340299999978 2.7747359000000000 Au
atom 8.9188003600000005 35.3839756599999973 2.6971481000000002 Au
atom 11.7248155799999996 35.4279739199999995 2.5961691800000000 Au
atom 14.5660376899999999 35.4054179700000020 2.6265821699999998 Au
atom 17.4488282400000010 35.4016123299999990 2.7123634700000001 Au
atom 20.2238156999999994 35.3834210500000026 2.6279530900000001 Au
atom 23.0635100299999998 35.4762677900000014 2.6007768900000001 Au
atom 25.8649341799999988 35.4002497299999987 2.5693883799999999 Au
atom 0.4351367800000000 35.3671430200000003 2.5910741300000000 Au
atom 3.2390662300000002 35.3399638599999975 2.5685489200000000 Au
atom 6.0274499199999996 35.3620032099999975 2.5463416200000002 Au
atom 7.4538920500000003 37.8265587100000005 2.7118088199999999 Au
atom 10.3203834899999993 37.8529833400000015 2.7338007499999999 Au
atom 13.1438145899999999 37.8708091000000024 2.6600708100000001 Au
atom 15.9992743199999996 37.8593626999999984 2.8165466200000000 Au
atom 18.7666954399999995 37.8940918500000024 2.7174553399999999 Au
atom 21.5901293599999988 37.8817350400000024 2.7892155399999998 Au
atom 24.3913618399999983 37.8572199400000002 2.6671125800000000 Au
atom 27.2134968700000002 37.8951824999999971 2.8141104299999999 Au
atom 1.7829524000000001 37.8774442899999997 2.6355838000000000 Au
atom 4.6013983300000003 37.8211293800000021 2.7582440799999999 Au
atom 8.9349412400000006 0.8324143000000001 2.7974935699999999 Au
atom 11.7419134399999994 0.9054183800000000 2.6719361099999999 Au
atom 14.4885377099999992 0.9043779700000000 2.7311227599999999 Au
atom 17.3359540599999988 0.8824016200000000 2.7261129300000002 Au
atom 20.1739861299999994 0.8696416800000000 2.9135391700000000 Au
atom 22.9951273100000009 0.9352009900000000 2.8097748800000000 Au
atom 25.7889114399999997 0.8433137200000000 2.6837371900000000 Au
atom 0.4095486600000000 0.8806485800000000 2.7476362000000001 Au
atom 3.2520954999999998 0.8434536300000000 2.8162063900000001 Au
atom 6.0973595100000004 0.8491167300000000 2.8365645000000002 Au
atom 7.5573264599999996 3.3207193699999999 2.5976644599999998 Au
atom 10.2737135100000003 3.3063591099999998 2.7581918999999999 Au
atom 13.1218474100000009 3.3928568200000000 2.6696668300000002 Au
atom 15.9817321299999993 3.3504798999999998 2.6779801499999998 Au
atom 18.7850041300000008 3.4133214600000001 2.7670697700000000 Au
atom 21.5708723700000000 3.3807958899999999 2.7458138100000000 Au
atom 24.4044065100000012 3.3800433999999999 2.6807407099999998 Au
atom 27.2434794499999988 3.2809921599999998 2.7015509299999998 Au
atom 1.8840852299999999 3.2890651800000001 2.7832508300000001 Au
atom 4.7403269899999998 3.2983461300000001 2.7766408999999999 Au
atom 8.9099822399999997 5.8164940200000004 2.7810690700000000 Au
atom 11.7264951499999999 5.7581138100000002 2.7580640700000001 Au
atom 14.5597374800000008 5.7856646500000002 2.6502428099999999 Au
atom 17.3720002899999990 5.8657243200000000 2.7247425299999999 Au
atom 20.1293974700000007 5.9091433899999997 2.7327946600000002 Au
atom 22.9453655500000018 5.8722253899999997 2.7811193400000001 Au
atom 25.7728885500000011 5.8784384400000000 2.6843921100000001 Au
atom 0.4386550900000000 5.7329141000000003 2.6998172199999999 Au
atom 3.3318384700000001 5.7591828400000002 2.7624393500000002 Au
atom 6.1257700799999997 5.7540989900000001 2.5622154400000001 Au
atom 7.5053536899999997 8.3291941699999992 2.6845711200000002 Au
atom 10.3241896999999998 8.2490654600000006 2.6402141600000002 Au
atom 13.1062287499999996 8.2497431900000002 2.5425960900000000 Au
atom 15.9399597300000000 8.2957770899999996 2.5191476700000002 Au
atom 18.7510795200000011 8.3596716200000003 2.5080392100000002 Au
atom 21.5329222000000016 8.3417519999999996 2.5930589600000000 Au
atom 24.3549171800000011 8.3302002999999996 2.7330113100000002 Au
atom 27.2152313899999996 8.2922324700000001 2.6075453000000000 Au
atom 1.8446200600000000 8.2070159999999994 2.6739525899999999 Au
atom 4.7165523599999997 8.2151654599999997 2.6789744799999999 Au
atom 8.9851431900000005 10.7804965500000005 2.5892509700000002 Au
atom 11.7647910499999995 10.7119306699999992 2.5957032000000000 Au
atom 14.4967783899999993 10.7439504699999997 2.5579699800000002 Au
atom 17.2871245900000012 10.7644337500000002 2.5845843899999998 Au
atom 20.1002707299999983 10.8155452099999998 2.7020299500000000 Au
atom 22.9481598399999989 10.8095781899999999 2.6370585800000002 Au
atom 25.8589644300000003 10.7369117500000009 2.5796809100000000 Au
atom 0.4871016600000000 10.6665512800000002 2.5601848800000000 Au
atom 3.2747971699999998 10.6681818300000000 2.5772677300000000 Au
atom 6.1514662299999996 10.7520387999999993 2.6072915700000001 Au
atom 7.4818628299999999 13.0322948499999995 6.0133684299999999 Cl
atom 7.5185180400000000 15.8147117200000000 8.7558130799999994 Cl
atom 7.3795727299999996 13.0379313299999993 8.5672025499999993 Na
atom 7.6188483600000003 15.7329931700000003 5.9984129299999998 Na
atom 7.4302487700000004 18.6367087299999987 5.8797993000000002 Cl
atom 7.4777491100000004 21.6146112600000002 8.5687991399999994 Cl
atom 7.4546733800000000 18.8024435899999993 8.7331168199999993 Na
atom 7.5812906699999996 21.3780520600000017 5.8449407899999999 Na
atom 7.5269275999999996 24.4103283799999993 5.6286275000000003 Cl
atom 7.4961679400000003 27.2550243499999993 8.6012085500000008 Cl
atom 7.3244238099999999 24.4864397599999997 8.3990436000000006 Na
atom 7.5179245400000001 27.2153217699999992 5.8516305500000003 Na
atom 7.5447050100000004 30.0877717699999998 5.6236695599999997 Cl
atom 7.4045550400000000 32.9558330799999979 8.6801601099999992 Cl
atom 7.4375660300000002 30.1060407099999985 8.5645833800000002 Na
atom 7.4879017599999997 32.8264140400000031 5.8450570600000002 Na
atom 7.5388127799999998 35.6423618500000003 5.7772481400000002 Cl
atom 7.4625562900000002 38.4977925299999981 8.5834082299999999 Cl
atom 7.4571021899999996 35.7092361999999994 8.4556622499999996 Na
atom 7.4734955799999998 38.5992216200000016 5.8730711800000002 Na
atom 7.4759559800000002 1.8711329900000000 5.5082472500000002 Cl
atom 7.4369700999999999 4.6946345699999998 8.6026557100000005 Cl
atom 7.4118731300000000 1.9004391500000000 8.7555302899999994 Na
atom 7.3700047499999997 4.7084757599999998 5.8137099299999999 Na
atom 7.4874636199999998 7.4664498500000001 5.7690450999999996 Cl
atom 7.4577156899999997 10.2128186900000006 8.8050890899999992 Cl
atom 7.4500086899999998 7.4047947599999997 8.4775081700000001 Na
atom 7.4579252800000004 10.2755137100000002 6.0642266400000002 Na
atom 10.3674781100000004 13.2095823600000006 5.7644161299999999 Na
atom 13.1682869399999998 13.0767691599999996 6.0334759399999998 Cl
atom 10.4190480599999997 15.6180684200000002 8.7943378899999995 Na
atom 12.9389660000000006 15.9604223399999992 8.5745102899999992 Cl
atom 13.2484446499999997 13.0209071999999999 8.4992298200000000 Na
atom 10.2612238500000004 13.5655390100000002 8.6797049699999995 Cl
atom 12.9990618399999995 15.9365929200000007 5.6147823900000002 Na
atom 10.2480744099999992 15.8861744700000003 5.5613575900000001 Cl
atom 10.4885684599999998 18.7583210099999995 5.7281926700000003 Na
atom 12.8405625699999995 18.7744986699999998 5.5551256599999999 Cl
atom 10.3746465800000003 21.6730083299999983 8.2863085099999996 Na
atom 13.2025834700000004 21.6897659000000012 8.6790121300000003 Cl
atom 13.1288052799999999 18.8786735099999987 8.5890727499999997 Na
atom 10.2775441799999996 18.6354161500000011 8.5294266600000004 Cl
atom 13.0616168500000001 21.5963586300000010 5.8064202700000003 Na
atom 10.3264186000000002 21.5183652400000014 5.7719866199999998 Cl
atom 10.2494479700000003 24.4898377700000012 5.6739403599999996 Na
atom 13.1707014800000000 24.4554601699999985 5.8124829699999996 Cl
atom 10.3178703100000000 27.3124488200000002 8.4229118100000004 Na
atom 13.1226139800000006 27.2164426800000001 8.6239824400000007 Cl
atom 13.2270463199999995 24.4682273200000004 8.4824644800000009 Na
atom 10.3338426499999994 24.2875846799999984 8.5673942400000005 Cl
atom 13.1572989800000002 27.2006382900000006 5.8918633199999997 Na
atom 10.2912906599999996 27.2821931199999987 5.7369259100000001 Cl
atom 10.2861910699999992 30.1467547300000014 5.6680897799999999 Na
atom 13.1709454400000006 30.1268467000000015 5.6671571800000002 Cl
atom 10.2504172600000008 32.8838454999999996 8.6304546999999996 Na
atom 13.0494015000000001 32.9348669299999983 8.5043714900000005 Cl
atom 13.1008048400000003 29.9825189499999993 8.3566448700000002 Na
atom 10.3070412400000002 30.1017257100000002 8.6654364899999994 Cl
atom 13.0867697900000000 32.8277063299999980 5.9280287800000000 Na
atom 10.2908517300000000 32.9071677600000001 5.5540958199999997 Cl
atom 10.2519472100000009 35.6559333399999971 5.8521786300000000 Na
atom 13.0472446800000004 35.6782243099999974 5.5612321199999997 Cl
atom 10.2327624999999998 38.4692946199999994 8.4736620899999995 Na
atom 13.0320869899999998 38.5035743099999976 8.5964296099999995 Cl
atom 12.9808208000000000 35.7477615800000024 8.6869469000000006 Na
atom 10.2899205600000005 35.6656601099999975 8.7133198600000004 Cl
atom 13.0893021399999991 38.5549477899999999 5.8791547199999998 Na
atom 10.2246605899999992 38.4411270000000016 5.7685408200000001 Cl
atom 10.2388521600000004 1.8904468900000000 5.8762727300000002 Na
atom 13.0727386100000000 1.8955955300000000 5.8305743899999998 Cl
atom 10.2771695100000002 4.6415210900000003 8.5085744000000005 Na
atom 13.1027486700000004 4.7015200300000002 8.5134615700000005 Cl
atom 13.0974652400000000 1.7978224000000000 8.4284145200000005 Na
atom 10.2430607699999996 1.8045929500000000 8.6115391999999993 Cl
atom 13.1071929199999992 4.6349603100000003 5.7566683799999998 Na
atom 10.2272520999999994 4.6639145400000004 5.7127183400000003 Cl
atom 10.2192491600000004 7.3847038100000004 5.9533832999999996 Na
atom 13.1126360000000002 7.5133299600000001 5.8472790899999998 Cl
atom 10.3552100399999993 10.4209160599999997 8.7360664499999992 Na
atom 13.2106230900000003 10.3115693700000008 8.7766348999999995 Cl
atom 13.1121447000000000 7.5002310500000000 8.2754974600000004 Na
atom 10.2975712200000000 7.3776450599999999 8.6822250299999997 Cl
atom 13.3477990000000002 10.1987663899999994 5.8742739300000002 Na
atom 10.3417817200000002 10.2122811900000006 5.9478632400000002 Cl
atom 15.9237618699999999 13.1258005299999994 5.7909390800000002 Na
atom 18.6715601100000015 13.0893496000000003 5.4511746700000003 Cl
atom 15.8064569800000001 15.9819410699999995 8.1478815000000004 Na
atom 18.8539735399999984 15.8838387799999996 8.6636920499999999 Cl
atom 18.8283316099999993 13.1301782899999999 8.4003253099999995 Na
atom 15.9982653999999993 13.2185886900000007 8.6521397300000000 Cl
atom 18.8367702900000005 15.9709293300000006 5.2038959000000000 Na
atom 15.9285417200000001 15.9290446899999996 5.8804639700000001 Cl
atom 15.7458656399999999 18.6267150599999987 5.7181350000000002 Na
atom 18.5258813099999990 18.9065083600000001 5.5882003300000003 Cl
atom 16.0280746699999987 21.5124078200000000 8.2093900699999995 Na
atom 18.8206338700000018 21.6955607499999985 8.6604020500000001 Cl
atom 18.8668007700000011 18.6930767300000014 8.2538440800000004 Na
atom 15.9124055200000001 18.7839135699999993 8.5287807299999994 Cl
atom 18.8110599900000004 21.6821934100000000 5.8445333000000002 Na
atom 15.8059979399999992 21.4438731699999998 5.7944206800000000 Cl
atom 15.9925766399999993 24.4497334100000003 5.8142906700000001 Na
atom 18.7538877500000005 24.5458537300000010 5.9003507500000003 Cl
atom 16.1576646100000012 27.4824551700000015 8.7944189300000009 Na
atom 19.0322561999999991 27.4509316199999986 8.5359326600000003 Cl
atom 18.9737740399999986 24.6889913199999995 8.5719632099999998 Na
atom 16.0732102499999989 24.3913000199999992 8.7138954500000008 Cl
atom 18.7526595799999996 27.3734788599999987 5.8457745299999999 Na
atom 15.9898135400000001 27.3463089900000007 5.8680124100000004 Cl
atom 15.9340619399999994 30.2081331099999986 5.7717071200000003 Na
atom 18.7752498099999983 30.1795846300000008 5.7401039300000001 Cl
atom 15.8499498100000000 32.9052637699999977 8.3045444400000008 Na
atom 18.7547130799999984 33.0248721500000002 8.5060501399999993 Cl
atom 18.8346350999999999 30.2897387900000012 8.5021848799999997 Na
atom 15.8354614599999994 30.1971480899999989 8.6935076000000002 Cl
atom 18.8129902700000002 32.9643979000000016 5.7441125700000004 Na
atom 15.9055677600000003 32.8945269999999965 5.6051322499999996 Cl
atom 15.9238177499999995 35.7008635400000003 5.7401474400000003 Na
atom 18.7478428299999997 35.8162947599999981 5.5727349700000000 Cl
atom 15.8987203200000007 38.4937621600000028 8.7578847300000007 Na
atom 18.6974738000000009 38.4454519900000022 8.6910626700000009 Cl
atom 18.6968610700000006 35.7397545999999977 8.5916000700000001 Na
atom 15.8660068899999995 35.6248209999999972 8.5709583299999998 Cl
atom 18.6521034099999987 38.6091194600000023 5.9026263099999996 Na