#===============================================================================
# Created using the Atomic Simulation Environment (ASE)

# Tue Dec 23 22:26:51 2025

#=======================================================
lattice_vector 28.1999999999999993 0.0000000000000000 0.0000000000000000 
lattice_vector 0.0000000000000000 39.4799999999999969 0.0000000000000000 
lattice_vector 0.0000000000000000 0.0000000000000000 62.3296083400000001 
atom 7.5982944100000003 14.6080109500000006 -0.2154202800000000 Au
atom 10.2567524599999995 14.9728856799999992 0.0651349100000000 Au
atom 13.0896001799999997 14.7990411900000005 -0.1830562600000000 Au
atom 15.8393202199999994 14.7065967499999992 -0.0204593100000000 Au
atom 18.8301696900000017 14.7219633600000002 -0.1841534800000000 Au
atom 21.4023264100000006 14.9646423700000000 0.1242054100000000 Au
atom 24.5668086700000003 14.9535815700000008 -0.0102276900000000 Au
atom 27.3488882900000014 14.7979733699999993 -0.0012208500000000 Au
atom 1.7417451300000000 14.7778065800000000 0.0478917600000000 Au
atom 4.6594566999999998 14.7145410499999993 -0.0434962600000000 Au
atom 8.8873356500000007 17.0598523600000007 0.0222028800000000 Au
atom 11.7766807599999996 17.1450229500000013 -0.1323460400000000 Au
atom 14.4633665400000009 17.2034750599999988 0.2494251900000000 Au
atom 17.5208946099999991 17.3550080099999988 0.0021230700000000 Au
atom 20.1982670300000002 17.1262444100000017 0.0191104500000000 Au
atom 22.9609980600000014 17.3477750099999994 -0.1487292400000000 Au
atom 25.7266588399999989 17.0733099199999998 0.2779028500000000 Au
atom 0.3999392100000000 17.3483673299999985 0.2023894900000000 Au
atom 3.2343972000000001 17.1881794200000009 0.0658531200000000 Au
atom 5.9882580200000000 17.4072284099999983 -0.1520516800000000 Au
atom 7.5606614900000002 19.6923013599999983 0.1111719000000000 Au
atom 10.3092964299999998 19.7601414099999992 0.0405884800000000 Au
atom 13.2020104600000003 19.8263816000000013 -0.1370528300000000 Au
atom 15.9251393100000005 19.6693918900000000 -0.1812118100000000 Au
atom 18.8206389200000004 19.6630885999999983 -0.0310565400000000 Au
atom 21.5832826199999985 19.6267425600000003 0.1648463300000000 Au
atom 24.4705103900000012 19.6266741099999997 0.1591876400000000 Au
atom 27.1352201899999983 19.8180914399999999 0.0018952300000000 Au
atom 1.8469113800000001 19.7907751699999999 -0.0572345600000000 Au
atom 4.7695948699999997 19.5854634999999995 -0.2430066900000000 Au
atom 8.9767490999999993 22.1368396800000014 0.0657644800000000 Au
atom 11.8928731899999995 22.1982765999999998 0.2020734200000000 Au
atom 14.5630436900000007 22.2239493099999983 -0.0357051600000000 Au
atom 17.5470656900000002 22.5086986399999986 0.0288164200000000 Au
atom 20.1845024600000009 22.0697780799999990 0.0589967600000000 Au
atom 23.0577830199999987 22.0778635600000008 0.2288000800000000 Au
atom 25.6963265400000012 22.2971265900000013 0.2188642900000000 Au
atom 0.3789010200000000 22.2749136099999987 0.0057448300000000 Au
atom 3.2914568300000000 22.1001154900000003 0.0965256700000000 Au
atom 6.1241912599999999 22.0495410199999995 -0.0258995600000000 Au
atom 7.5014068800000002 24.6900419000000007 0.1115402800000000 Au
atom 10.3997079499999998 24.6806460799999989 -0.0602788300000000 Au
atom 13.0189463599999993 24.7602061900000017 0.1298112800000000 Au
atom 16.0251064700000008 24.5699923600000005 0.0736063300000000 Au
atom 18.7535043799999990 24.8428131599999986 0.4104317900000000 Au
atom 21.5299697399999985 24.5230377100000005 0.0438722200000000 Au
atom 24.5693333299999992 24.6841897299999999 0.1002551400000000 Au
atom 27.0897544699999990 24.6159691800000004 0.1836091300000000 Au
atom 1.7429455700000001 24.6965389000000002 0.1592869400000000 Au
atom 4.8918748000000001 24.7916707199999991 -0.0230817700000000 Au
atom 8.7719726100000006 27.1908662700000008 0.1457892800000000 Au
atom 11.6139109099999995 27.1031080200000005 -0.0457969700000000 Au
atom 14.4853966100000005 26.9916942700000000 0.0562543400000000 Au
atom 17.4427744000000011 27.1698822000000000 0.1583661800000000 Au
atom 20.2206753100000007 27.0699615700000003 -0.0033674300000000 Au
atom 23.1649899400000017 27.0067397599999985 0.1777248800000000 Au
atom 25.7288303499999991 27.0704963300000010 0.2091612300000000 Au
atom 0.5003854800000000 27.1166139400000006 0.0269749100000000 Au
atom 3.2882152400000000 27.2276136300000005 0.1585771600000000 Au
atom 5.9925693400000002 27.0181004400000013 -0.1138148600000000 Au
atom 7.4121142200000003 29.7236160600000012 -0.2188751700000000 Au
atom 10.2392725400000000 29.5473422600000006 -0.2819327400000000 Au
atom 13.3476671200000006 29.6120534100000015 -0.1517430400000000 Au
atom 16.1469674699999999 29.7766723800000008 0.0944078300000000 Au
atom 18.7442525800000013 29.6387064900000006 0.0652615200000000 Au
atom 21.5540367000000010 29.6105505899999990 -0.1083152700000000 Au
atom 24.5005905099999985 29.6628051699999986 -0.0583694100000000 Au
atom 27.2521175699999993 29.5005852500000003 0.0921338000000000 Au
atom 1.8809708700000001 29.6948355799999995 -0.0128713600000000 Au
atom 4.5575038000000001 29.7139680599999991 -0.1346639600000000 Au
atom 8.8304347399999994 32.0649008500000008 -0.1135360000000000 Au
atom 11.6466717200000005 31.9535927499999985 -0.1523264400000000 Au
atom 14.5007634900000006 32.1002466600000034 0.0909865000000000 Au
atom 17.2566219099999998 32.1234832700000013 0.1369830000000000 Au
atom 20.3694008300000000 32.1832820500000025 -0.1152463200000000 Au
atom 23.1470235799999990 32.1941619299999999 -0.1028467600000000 Au
atom 25.8070727700000013 32.1295255699999984 0.0988949800000000 Au
atom 0.3705595800000000 32.2752205999999973 -0.0792906600000000 Au
atom 3.3607881800000001 32.1627234199999990 0.1066914900000000 Au
atom 6.2142162599999997 31.7964382000000008 -0.0425228000000000 Au
atom 7.3062820799999999 34.8142766499999965 -0.0863513800000000 Au
atom 10.1855853399999994 34.5043708800000033 -0.0788632200000000 Au
atom 13.0068362700000009 34.4445147500000033 -0.0947225600000000 Au
atom 15.8553699199999993 34.4494706899999983 0.1096025300000000 Au
atom 18.8210749700000015 34.6343111600000029 -0.1357193300000000 Au
atom 21.5913690299999992 34.4954108499999990 0.0604440600000000 Au
atom 24.4538938500000000 34.3819581400000018 -0.1402586100000000 Au
atom 27.2661394199999982 34.4373815300000032 -0.0604600700000000 Au
atom 1.7623198400000000 34.6014326399999987 0.0798334400000000 Au
atom 4.8411726699999997 34.8256547599999990 -0.0439311800000000 Au
atom 8.9370972599999998 36.9006884300000024 -0.0427461400000000 Au
atom 11.7083377599999992 37.0450097800000009 0.1870440300000000 Au
atom 14.3713326200000004 36.9863082600000013 -0.2207926200000000 Au
atom 17.5978549700000002 36.8465438100000000 -0.0559785100000000 Au
atom 20.1190705399999992 36.9976775299999971 0.1270436200000000 Au
atom 23.0012667700000009 37.0632831400000029 0.0972558100000000 Au
atom 25.9049024099999983 37.0907728099999972 -0.1145099400000000 Au
atom 0.5183884300000000 36.9601623699999990 0.0030105200000000 Au
atom 3.1288628900000002 37.1126933399999999 -0.1137156600000000 Au
atom 6.1862490899999996 37.0441415599999999 -0.0434265500000000 Au
atom 7.6016063000000003 -0.0987798200000000 0.3258556400000000 Au
atom 10.2047170299999994 0.0185763800000000 0.1171777200000000 Au
atom 13.3245081299999999 -0.0676708900000000 -0.0291015500000000 Au
atom 15.9423947500000001 -0.2450036200000000 0.0851099600000000 Au
atom 18.7425556700000016 0.0774132300000000 0.1312852700000000 Au
atom 21.4844085900000010 -0.0057578500000000 0.1808618700000000 Au
atom 24.4951432099999984 -0.1176742100000000 -0.0701417100000000 Au
atom 27.2295397199999982 0.3050640000000000 0.1285486200000000 Au
atom 1.7740189099999999 -0.0059001000000000 0.1301092200000000 Au
atom 4.7234292599999996 -0.1297171700000000 0.0379844200000000 Au
atom 8.8066292599999993 2.5389631300000000 -0.2052223500000000 Au
atom 11.6989336999999995 2.4040229700000002 0.0374619400000000 Au
atom 14.2875845399999992 2.3814659200000001 -0.0196922600000000 Au
atom 17.4695691500000017 2.5596255200000000 0.2041790500000000 Au
atom 20.2811840799999992 2.2986902699999998 -0.0285788400000000 Au
atom 23.1122540200000017 2.5193952300000002 -0.0103819100000000 Au
atom 25.9163465899999998 2.4871935000000001 0.0799533500000000 Au
atom 0.8156706400000000 2.3816171000000002 0.1042416900000000 Au
atom 3.3446633000000001 2.4467669600000002 0.2899318700000000 Au
atom 6.0357299800000002 2.3974874599999998 0.2329996600000000 Au
atom 7.5361762900000002 4.8603860200000000 0.1674510300000000 Au
atom 10.2301796399999994 4.8848855100000002 0.2950563800000000 Au
atom 13.0366367600000004 4.8835857400000000 -0.2032297500000000 Au
atom 16.0017832899999988 4.7536298099999996 0.1389296100000000 Au
atom 18.8393863500000016 4.9307768100000002 0.1811117500000000 Au
atom 21.5071108299999985 4.7809339399999997 0.1491920600000000 Au
atom 24.4670994099999994 5.0847570400000004 -0.1332778000000000 Au
atom 27.1084077900000011 5.0404593599999998 0.2686179000000000 Au
atom 1.9186358800000001 5.0588656600000004 -0.0133225400000000 Au
atom 4.6783291100000000 4.8878492199999997 0.0187792700000000 Au
atom 9.0489793299999999 7.2638910000000001 0.1767953100000000 Au
atom 11.8485301300000003 7.3443260700000002 0.2651897700000000 Au
atom 14.6781421600000002 7.2991270600000000 0.2541803200000000 Au
atom 17.5297494500000006 7.4336387300000002 -0.0506281000000000 Au
atom 20.2449582499999998 7.4293310500000000 -0.0422117200000000 Au
atom 23.1704261699999989 7.4993672599999996 0.0538772100000000 Au
atom 25.8182663099999985 7.2543108600000004 0.0695185100000000 Au
atom 0.4779919900000000 7.3720778600000001 0.0835137400000000 Au
atom 3.2678386399999999 7.3849187599999997 -0.0926008300000000 Au
atom 6.1056030899999998 7.4350529300000003 0.2587432700000000 Au
atom 7.5434778900000001 9.8615005599999996 0.1479384900000000 Au
atom 10.3470924800000006 9.7496264299999993 0.0098363500000000 Au
atom 13.1141056999999996 9.9134070600000008 0.0752130200000000 Au
atom 16.0423913999999996 9.8974194799999999 -0.2654644200000000 Au
atom 18.8367301400000002 9.9083585799999998 -0.0327663400000000 Au
atom 21.6549869900000012 9.8388523200000009 -0.0120859900000000 Au
atom 24.2705330199999985 10.0423922700000006 -0.0386179000000000 Au
atom 27.1736365599999985 9.7738106200000008 0.1728740600000000 Au
atom 1.9712419400000001 9.7065052000000005 0.0866238100000000 Au
atom 4.6934956000000003 10.0273151100000000 -0.0551507400000000 Au
atom 9.0625274900000008 12.4550680899999993 0.0163580900000000 Au
atom 11.7581913100000008 12.3154233600000005 -0.3359679600000000 Au
atom 14.6987923400000007 12.3562747099999992 -0.2680455300000000 Au
atom 17.3292812400000003 12.3651109500000000 -0.1594673500000000 Au
atom 20.1507669599999986 12.2792577200000004 -0.0420314100000000 Au
atom 23.3077021000000002 12.4446213399999994 0.2012918100000000 Au
atom 25.8423880600000011 12.3888285800000002 -0.0655542600000000 Au
atom 0.3763562900000000 12.2969324899999997 -0.1390466900000000 Au
atom 3.2690932300000002 12.2775076999999992 0.1522720000000000 Au
atom 6.2128677999999997 12.3168011100000001 -0.0920022000000000 Au
atom 7.4560260200000004 13.1251794700000008 2.5322358899999999 Au
atom 10.4382869100000004 13.0697584700000000 2.4893376500000000 Au
atom 13.2189635499999998 13.1871800199999996 2.4676154100000001 Au
atom 15.8813678800000009 13.3110462599999995 2.6031111800000000 Au
atom 18.9192284400000013 13.1068147800000006 2.5773706999999999 Au
atom 21.4850151800000013 13.2933629799999995 2.6151403499999999 Au
atom 24.5827545000000001 13.0989178400000004 2.5881831000000002 Au
atom 27.3740925799999992 13.1822589000000008 2.7069182399999998 Au
atom 1.8806882100000000 13.4088464199999997 2.7916253700000002 Au
atom 4.6058169500000004 13.1683461099999999 2.6137643300000000 Au
atom 9.0457733999999999 15.5467299400000005 2.3756941800000000 Au
atom 11.8902545800000006 15.7598205300000007 2.2875034300000001 Au
atom 14.6249065399999996 15.7436814300000005 2.5205052200000000 Au
atom 17.3701113900000017 15.6958178400000001 2.4854313800000001 Au
atom 20.0955887500000010 15.6767938099999995 2.3997630399999998 Au
atom 22.9396580000000014 15.6599999400000005 2.6225860600000002 Au
atom 25.7592337200000010 15.7177739600000006 2.6760159500000000 Au
atom 0.1503650100000000 15.7588807899999992 2.6993103100000000 Au
atom 3.2581791099999999 15.6727135900000007 2.6452010100000001 Au
atom 6.2628056100000000 15.8142980200000007 2.6054490900000000 Au
atom 7.7688086099999998 18.0518505400000002 2.7369290899999998 Au
atom 10.4557564999999997 18.2949279999999987 2.3416729799999998 Au
atom 13.1048382199999995 17.9748916799999989 2.7475852500000002 Au
atom 15.8997145000000000 18.1509468799999993 2.3931010700000002 Au
atom 18.6661206499999999 17.9855339699999988 2.5700511300000000 Au
atom 21.7147998000000015 18.2190842999999987 2.4655691900000001 Au
atom 24.5628542900000006 18.1229645200000000 2.8265676900000001 Au
atom 27.3487420499999985 18.0156256500000005 2.7438302900000000 Au
atom 1.7628175600000000 18.1316588400000001 2.7378061599999999 Au
atom 4.6495617200000003 17.7902005599999988 2.5608449599999998 Au
atom 8.9023754799999999 20.5183390500000016 2.7813612700000001 Au
atom 11.8606309599999999 20.6106916099999999 2.4622605499999999 Au
atom 14.3980643700000002 20.6782438100000014 2.9734788200000000 Au
atom 17.3547115800000000 20.5747199700000003 2.6809294499999998 Au
atom 20.1787054700000006 20.5413078499999990 2.3982531599999999 Au
atom 23.1057868800000001 20.7049459400000018 2.9249900599999998 Au
atom 25.8160433699999992 20.4979546900000003 2.6166018300000000 Au
atom 0.5003347600000000 20.5063778300000017 2.6935646900000001 Au
atom 3.4278212400000001 20.3751575100000011 2.6406541699999999 Au
atom 6.1114725700000001 20.5192127900000010 2.7082196299999999 Au
atom 7.4187397900000001 22.9466929499999992 2.6365089300000002 Au
atom 10.3482174699999998 23.1138831399999987 2.5573074999999998 Au
atom 13.1767489199999996 22.9707939400000001 2.6023075599999999 Au
atom 15.7448170500000000 23.1507781199999982 2.4916644300000002 Au
atom 18.7663937300000008 23.1373090700000006 2.6901660999999999 Au
atom 21.6308729200000016 22.9402936100000012 2.3834004800000002 Au
atom 24.4806812799999989 23.2410653399999987 2.6617691400000001 Au
atom 27.2937942100000015 23.0880095200000000 2.5840312900000000 Au
atom 2.0824086700000000 23.0514797800000011 2.6511682500000000 Au
atom 4.6852407400000002 22.9876967599999986 2.3663688199999999 Au
atom 8.8907320599999995 25.4219332700000002 2.6343047700000000 Au
atom 11.8766774500000007 25.5552956800000004 2.7967337400000001 Au
atom 14.4994604400000000 25.4537278100000002 2.7387580499999999 Au
atom 17.3424494500000002 25.4595616000000007 2.6576252899999999 Au
atom 20.2706421799999994 25.4928640599999987 2.7734101099999999 Au
atom 23.0349991299999992 25.5024055999999995 2.7804390300000001 Au
atom 25.9054931300000000 25.3793181300000015 2.4788761400000001 Au
atom 0.5018229300000000 25.4149399400000000 2.7716796200000000 Au
atom 3.3517547599999999 25.6564982300000004 2.7424586700000000 Au
atom 6.1904472500000001 25.5945518300000003 2.6535867400000002 Au
atom 7.6175537899999997 27.9156293700000013 2.4510944900000000 Au
atom 10.1671180600000000 28.1659397799999986 2.5986520700000000 Au
atom 13.1221658100000003 27.7989964299999990 2.7462280300000002 Au
atom 15.9798484199999997 27.8744757499999984 2.7926427500000002 Au
atom 18.8767222600000011 28.0165730900000014 2.5543526299999999 Au
atom 21.6077628399999995 28.1724703699999992 2.7542702000000001 Au
atom 24.4390886300000005 28.1007016699999994 2.6060396099999998 Au
atom 27.3251377099999999 28.0137463599999990 2.7229491299999999 Au
atom 1.9798682800000000 27.9822239900000014 2.6172301199999999 Au
atom 4.6396787899999996 27.9965914699999985 2.4612458799999999 Au
atom 8.7750416700000002 30.5454967300000000 2.4212496400000001 Au
atom 11.8392797099999996 30.4206242799999984 2.5846197700000002 Au
atom 14.5483218200000000 30.4158028199999997 2.6656084899999999 Au
atom 17.4045821600000004 30.2681301800000000 2.6743453700000002 Au
atom 20.0706695800000006 30.5825938300000004 2.5800015200000002 Au
atom 23.1676012699999987 30.4080456199999993 2.5183800500000002 Au
atom 25.7385220500000003 30.5069031600000002 2.6054474600000002 Au
atom 0.5120995800000000 30.5910002200000015 2.7799203100000001 Au
atom 3.4674697399999999 30.3743230400000002 2.4616397000000001 Au
atom 5.9596705800000001 30.5207684800000010 2.5894970900000001 Au
atom 7.5123446700000001 32.8700562399999967 2.5456258500000000 Au
atom 10.3536420200000006 32.9976799399999976 2.7675116900000001 Au
atom 13.1374872899999993 33.0225593600000025 2.6667148799999998 Au
atom 15.9859988200000007 32.8880229000000028 2.7411493299999998 Au
atom 18.6616857600000010 32.9257085300000014 2.4806968800000000 Au
atom 21.3674394099999994 32.8573490500000034 2.7411129299999999 Au
atom 24.5155027499999996 32.9833607599999965 2.5383615700000002 Au
atom 27.2825404800000015 33.1777775500000018 2.8043706799999999 Au
atom 1.6650617999999999 32.9489050999999975 2.7253470700000002 Au
atom 4.7631091300000001 32.8095973499999971 2.8687616899999999 Au
atom 8.7056900800000001 35.1986762399999975 2.5103095799999999 Au
atom 11.9322089499999997 35.4153115100000022 2.7125048700000001 Au
atom 14.3872702399999994 35.3993945400000030 2.5482032999999999 Au
atom 17.2970824999999984 35.4184564299999991 2.5718339800000001 Au
atom 20.2434778500000014 35.4559586499999995 2.5866029400000001 Au
atom 22.9305548200000011 35.4885221899999976 2.6263891600000000 Au
atom 25.8425975699999988 35.3058469599999967 2.6068652700000001 Au
atom 0.4591089000000000 35.4928895999999980 2.4654417700000000 Au
atom 3.4078731900000001 35.4924896200000006 2.5313548899999998 Au
atom 6.1215468499999997 35.3142421000000013 2.6057799500000001 Au
atom 7.3294141200000000 37.8016167199999984 2.7877438300000001 Au
atom 10.0145204799999998 37.9872857699999997 2.6090449300000000 Au
atom 13.0673575700000004 37.7880630599999989 2.8225874800000001 Au
atom 15.8707730399999996 37.8279166299999972 2.7115304299999998 Au
atom 18.6727637599999987 37.7889495499999981 2.7983852499999999 Au
atom 21.5393039699999989 37.8599493199999984 2.6008334899999999 Au
atom 24.3812602699999985 37.7546047000000016 2.4310732200000000 Au
atom 27.3124380699999989 37.8219432300000022 2.5260468399999998 Au
atom 1.9359976100000000 37.7973462400000031 2.4653392200000002 Au
atom 4.9704281600000000 37.9076818799999984 2.5731944699999998 Au
atom 8.7492804900000003 1.0728790500000001 2.6873600500000001 Au
atom 11.7487729299999994 0.8923333000000000 2.5618779400000000 Au
atom 14.4287063599999996 0.8182092100000000 2.6819505700000001 Au
atom 17.4402827199999990 0.9792271000000000 2.8071719800000001 Au
atom 20.1297605200000014 0.8033681700000000 2.8516488199999999 Au
atom 23.0334731499999990 0.8429300300000000 2.5661117600000001 Au
atom 26.0509269799999998 0.6783564100000000 2.6153178499999998 Au
atom 0.5248029100000000 0.7237644300000000 2.6670255200000001 Au
atom 3.2833222100000001 0.9438274100000000 2.6516241200000001 Au
atom 6.1866485400000002 0.7249898700000000 2.7291062600000000 Au
atom 7.5718603000000000 3.4529087900000000 2.6270594699999998 Au
atom 10.4564383400000001 3.2617570699999998 2.6710764899999999 Au
atom 13.0920707000000007 3.2826712599999999 2.6540101400000000 Au
atom 15.9839553999999993 3.1289563000000000 2.6459504800000002 Au
atom 18.7992858100000007 3.3806195300000002 2.6337137199999998 Au
atom 21.6311500499999987 3.3441632200000000 2.7866559199999998 Au
atom 24.4690556299999997 3.4598826499999999 2.8032584699999998 Au
atom 27.2312617199999991 3.4066091599999999 2.6527740199999998 Au
atom 1.6952649399999999 3.2956296500000000 2.5531506099999999 Au
atom 4.7918059199999998 3.3492749499999999 2.7145478000000001 Au
atom 8.9297942799999994 5.9117023199999998 2.5494416800000002 Au
atom 11.6646641700000000 5.8166562300000004 2.5884537600000002 Au
atom 14.5943214799999996 5.8855810699999997 2.4858174300000000 Au
atom 17.4218195000000016 5.9376089099999998 2.7929760600000000 Au
atom 20.1284498599999999 5.8825689399999996 2.6445822600000000 Au
atom 23.1867712499999996 5.8748604000000002 2.7402139100000000 Au
atom 25.8519716799999983 5.6998536199999998 2.8960965900000000 Au
atom 0.2671798900000000 5.7178909000000004 2.9173306600000002 Au
atom 3.2231269100000000 5.8867609400000003 2.6767171599999999 Au
atom 6.2143923699999997 5.8853222499999998 2.8433450300000001 Au
atom 7.5635836799999998 8.2107233199999996 2.6412908399999999 Au
atom 10.4753477200000003 8.3344802900000001 2.6303569300000000 Au
atom 13.1354288399999994 8.2955823500000001 2.6441103199999998 Au
atom 16.0354184500000017 8.1332098300000002 2.5254845900000000 Au
atom 18.6406378299999993 8.2386663000000002 2.6035592500000000 Au
atom 21.6687195700000004 8.0899937800000004 2.5543342000000000 Au
atom 24.2468575699999995 8.2598158999999995 2.6262352500000001 Au
atom 27.3650578399999986 8.3104915699999999 2.4883947399999999 Au
atom 1.7683257800000001 8.1672138200000006 2.7629773000000002 Au
atom 4.8526736799999997 8.3309722100000005 2.5387142100000002 Au
atom 8.8200676199999997 10.8240815500000007 2.6907420100000001 Au
atom 11.7720164900000004 10.8088806599999998 2.5871133300000002 Au
atom 14.6823845100000003 10.6570076900000004 2.4533582300000001 Au
atom 17.2445293100000008 10.7156848700000005 2.3940090600000001 Au
atom 20.3545210300000008 10.6851693799999996 2.6561820300000001 Au
atom 23.0147381399999986 10.7190834899999992 2.5329523300000001 Au
atom 25.8749405199999991 10.9150789199999991 2.8402117100000002 Au
atom 0.6594892999999999 10.7393304799999996 2.6372370699999999 Au
atom 3.2439538099999998 10.7497509999999998 2.7214192000000001 Au
atom 6.1930467299999998 10.6278520800000003 2.4255686999999999 Au
atom 7.3761148700000003 13.0746122899999992 5.8134674899999998 Cl
atom 7.5255024400000003 15.9459815500000008 8.6595449099999993 Cl
atom 7.6462593700000001 13.0397506700000001 8.6243550800000008 Na
atom 7.2833624400000003 15.7918800499999996 5.4888504300000003 Na
atom 7.6343632599999998 18.9209366199999991 5.6713906900000000 Cl
atom 7.5221447599999998 21.9192751199999982 8.3457766800000002 Cl
atom 7.4539138700000001 18.8690005999999997 8.3640244599999996 Na
atom 7.5662857099999998 21.8000546300000018 5.9573851199999996 Na
atom 7.5915746899999998 24.5697448700000010 5.5249602299999996 Cl
atom 7.3446424099999996 27.4655126799999998 8.5829164099999993 Cl
atom 7.2061421299999999 24.5959552799999983 8.2961768599999992 Na
atom 7.5727548000000002 27.3858987099999993 5.8570133000000002 Na
atom 7.4576788199999999 30.1299055200000012 5.3791155899999996 Cl
atom 7.4559037000000004 32.9903364199999984 8.4743309700000005 Cl
atom 7.5893094699999999 30.2318446099999996 8.2795072800000007 Na
atom 7.6241751000000004 33.0800599399999982 5.8688414199999999 Na
atom 7.3674206699999996 35.8055082200000001 5.7413982700000004 Cl
atom 7.3929777300000001 38.8292272199999999 8.6961843900000009 Cl
atom 7.6377186100000003 35.7727332700000034 8.3586091899999992 Na
atom 7.5307604100000001 38.6606521599999979 5.9564069100000001 Na
atom 7.4727030000000001 1.9055816200000000 5.7212159600000003 Cl
atom 7.6381755299999998 4.6355338699999997 8.6924353399999994 Cl
atom 7.5498068099999998 2.1169823800000001 8.3804896600000003 Na
atom 7.6106692000000002 4.8428393800000000 5.7792576999999996 Na
atom 7.7435447100000001 7.5931637099999998 5.9123372400000003 Cl
atom 7.5392480500000003 10.2478414099999995 8.5862302699999997 Cl
atom 7.3927447900000001 7.6399538199999997 8.6578963200000008 Na
atom 7.5481262300000003 10.2786190600000005 5.7641379500000003 Na
atom 10.2284074100000009 13.2639743200000009 6.1116454600000001 Na
atom 13.0516388100000000 13.3276920200000006 5.7574764800000002 Cl
atom 10.2192382800000008 15.8993711700000002 8.4406972000000007 Na
atom 13.0809248500000006 15.9810952400000001 8.6947300700000003 Cl
atom 13.0816184000000000 13.3149467200000000 8.5558920399999998 Na
atom 10.5072001999999998 13.0563384199999994 8.8727285299999998 Cl
atom 12.8893222900000008 15.8506939199999994 5.4426036699999996 Na
atom 10.0823330900000006 16.0076664400000013 5.6114855099999996 Cl
atom 10.1877751199999995 18.9120133000000017 5.8516070400000002 Na
atom 13.2090779699999992 19.0090030500000005 5.8378945099999999 Cl
atom 10.3743283799999997 21.7118578400000004 8.6242947900000004 Na
atom 13.3086345300000009 21.4434369400000016 8.6850437500000002 Cl
atom 13.2456513999999999 18.5267273599999989 8.5788405900000004 Na
atom 10.4417340900000006 18.7983327600000010 8.7056883299999992 Cl
atom 13.2056424700000008 21.5316304500000015 5.6835674200000001 Na
atom 10.3912066299999992 21.6453494299999996 5.7336511699999999 Cl
atom 10.2852536000000008 24.3653380400000010 5.6145480699999997 Na
atom 12.9497526100000009 24.4890947200000006 5.6175826300000002 Cl
atom 10.0493844400000008 27.4408775799999987 8.1318380900000005 Na
atom 12.8355827100000006 27.2447930900000017 8.8346467000000004 Cl
atom 13.2417422400000007 24.6209077799999996 8.4090922900000002 Na
atom 10.1799192699999992 24.5749636699999989 8.4526784999999993 Cl
atom 13.1025870599999994 27.4052411400000011 5.9603557800000004 Na
atom 10.5664985300000005 27.4402525399999995 5.6962406000000003 Cl
atom 10.5037692099999997 30.0920275699999991 5.6751554000000004 Na
atom 13.2423194599999992 29.9602354899999987 5.8675897299999997 Cl
atom 10.2660544199999997 33.0513454900000028 8.4839123799999996 Na
atom 13.0272225699999993 32.9588953900000021 8.5766379599999993 Cl
atom 12.9245879499999994 30.0593482700000010 8.4662363400000000 Na
atom 10.2420006899999994 30.1596432900000018 8.5620022099999993 Cl
atom 13.0364701600000004 32.7059083999999984 5.7197525499999999 Na
atom 10.4999933199999997 33.0112506500000009 5.5264770800000003 Cl
atom 10.3856392599999996 35.6683322499999989 5.8629341600000000 Na
atom 13.0661419199999997 35.6654232699999980 5.8149228199999996 Cl
atom 10.3594651800000008 38.4955076899999966 8.5085435900000004 Na
atom 13.2699012700000001 38.7896378800000008 8.6377261399999998 Cl
atom 13.3568944700000003 35.8474957399999994 8.2557407400000002 Na
atom 10.2629045100000003 35.6576721200000009 8.6310483500000004 Cl
atom 13.1744650100000005 38.4635528199999968 5.7504270999999996 Na
atom 10.2747571700000009 38.6438640399999969 5.8104685399999996 Cl
atom 10.2840413200000000 1.9562490400000001 5.8615338100000001 Na
atom 13.1526387000000007 2.0192367999999998 5.7500072500000003 Cl
atom 10.4007244199999995 4.8508348899999998 8.4952960199999996 Na
atom 13.2581800100000002 4.8686308900000004 8.6916321900000000 Cl
atom 13.2268765199999994 1.9940117900000001 8.5418501100000004 Na
atom 10.2648680300000006 1.9437987299999999 8.6042100999999995 Cl
atom 13.3898953800000005 4.7206061699999999 5.7788129399999999 Na
atom 10.2059441399999997 4.8246007700000000 5.7844931199999996 Cl
atom 10.5904165199999998 7.5791287199999999 5.8608457400000002 Na
atom 12.9579710200000005 7.5154667499999999 5.5980979299999998 Cl
atom 10.3951501099999994 10.3376717100000004 8.6585510299999999 Na
atom 13.2160540900000001 10.3649682900000002 8.7378800299999995 Cl
atom 13.0277064500000002 7.5289705500000004 8.2764589900000001 Na
atom 10.3158084799999994 7.4493480300000003 8.7266184899999999 Cl
atom 13.0187741199999998 10.1078639700000004 5.6730474900000001 Na
atom 10.4351040299999998 10.5180886699999991 5.9050480099999998 Cl
atom 15.8557255700000006 13.1442983200000008 5.8033686199999996 Na
atom 18.7488092500000008 13.1852285499999997 5.6869974900000004 Cl
atom 16.0273724800000004 16.0912689799999988 8.3308727600000001 Na
atom 18.5928173900000004 16.0324685600000016 8.2785239900000001 Cl
atom 18.6412766300000001 12.9582217800000006 8.4027975500000007 Na
atom 15.9256099300000002 13.1264869799999992 8.4987037099999991 Cl
atom 18.7032971699999990 15.8965252600000007 5.6857622799999996 Na
atom 15.9289099200000006 16.0278693799999985 5.6386990399999997 Cl
atom 15.9069806099999997 18.5414067699999983 5.7240222400000000 Na
atom 18.6113489799999989 18.8020920400000016 5.6398168100000001 Cl
atom 15.9430354800000007 21.5921317700000017 8.3617551999999993 Na
atom 18.8274070999999985 21.8003832499999994 8.5125122199999996 Cl
atom 18.9806896899999984 18.7976334499999993 8.3281375600000001 Na
atom 16.0731662399999990 18.7285295900000008 8.5893959800000008 Cl
atom 18.5644110500000004 21.8554878499999994 5.6931860600000004 Na
atom 15.8450794500000001 21.5729438599999988 5.9012156600000001 Cl
atom 16.0625320199999990 24.4500817999999995 6.0913613000000000 Na
atom 18.4712269400000011 24.7337618699999986 6.0572526000000000 Cl
atom 15.9498154499999991 27.5232857600000003 8.8825999800000002 Na
atom 18.9548133700000001 27.2817146400000006 8.8489979600000002 Cl
atom 18.6276309299999987 24.7391901800000014 8.6496564199999995 Na
atom 16.0879499899999985 24.5642561999999991 8.7576906999999995 Cl
atom 18.7926038999999996 27.2379788400000002 6.1492221400000000 Na
atom 16.0270087100000005 27.1743504599999994 6.0390754199999996 Cl
atom 16.1099124399999987 30.4020854800000002 6.0090002499999997 Na
atom 18.6429203699999988 30.2203713799999996 5.8879340899999999 Cl
atom 16.0233518400000001 33.1223301400000025 8.6285662300000006 Na
atom 18.8188618100000014 32.9212666999999968 8.6210081299999999 Cl
atom 18.8950199099999985 30.3862662800000010 8.6800891399999998 Na
atom 16.0869086099999983 30.1492647600000012 8.8962400299999995 Cl
atom 18.8878170200000000 32.8331238099999965 6.0479381999999999 Na
atom 16.0519014999999996 32.8319828200000003 5.7714522800000001 Cl
atom 15.9409287200000005 35.6310406599999965 5.7927092299999998 Na
atom 18.7303176899999997 35.5382653699999977 5.6899005499999999 Cl
atom 16.0674996599999993 38.4489841500000011 8.5094767800000000 Na
atom 18.9375390299999999 38.5707380799999981 8.4920597600000001 Cl
atom 18.7258796799999985 35.7584654799999981 8.3375003200000002 Na
atom 15.9081135699999994 35.6719595300000023 8.6051076099999992 Cl
atom 18.6636428199999997 38.6132514000000029 5.8698815800000004 Na