#===============================================================================
# Created using the Atomic Simulation Environment (ASE)

# Tue Dec 23 21:41:56 2025

#=======================================================
lattice_vector 28.1999999999999993 0.0000000000000000 0.0000000000000000 
lattice_vector 0.0000000000000000 39.4799999999999969 0.0000000000000000 
lattice_vector 0.0000000000000000 0.0000000000000000 62.3296083400000001 
atom 7.5790629999999997 14.8749451100000005 -0.2757443300000000 Au
atom 10.3760897500000002 14.8346323299999998 0.0949144600000000 Au
atom 13.2186853400000004 14.8065546399999999 0.0432374500000000 Au
atom 16.0775121200000015 14.9420964900000008 0.0427343500000000 Au
atom 18.8112832899999987 14.7763734699999993 -0.0706390200000000 Au
atom 21.6590634599999987 14.8061837900000004 -0.3503047600000000 Au
atom 24.4853600600000014 14.8262834800000007 -0.1690953600000000 Au
atom 27.2633073900000014 14.9522778499999998 -0.3170479300000000 Au
atom 1.9541996399999999 14.8838207199999992 -0.3004314200000000 Au
atom 4.8442608900000002 14.8619762600000005 -0.0274180200000000 Au
atom 8.9080816400000007 17.2961816900000009 -0.2129276000000000 Au
atom 11.7829410899999996 17.2729092100000017 0.0416645700000000 Au
atom 14.5381141599999992 17.3964758099999983 0.0550162600000000 Au
atom 17.4085213500000009 17.3201953000000017 -0.0578511300000000 Au
atom 20.3078681500000009 17.2679203200000018 -0.0755013800000000 Au
atom 23.0992514100000008 17.3329994599999999 -0.1029227000000000 Au
atom 25.7204400299999989 17.3007972999999993 -0.1007706400000000 Au
atom 0.4391853100000000 17.4154560099999998 -0.0529216900000000 Au
atom 3.2964535300000000 17.4489144399999994 -0.1942332000000000 Au
atom 6.0273503200000000 17.3788766400000014 -0.0489241200000000 Au
atom 7.4928289299999999 19.7899295600000009 -0.0188148700000000 Au
atom 10.2615574299999999 19.7232972800000006 -0.0055043800000000 Au
atom 13.1046840699999994 19.7854060899999986 0.0605411700000000 Au
atom 16.1258672199999999 19.8585774700000002 -0.0185443000000000 Au
atom 18.8836537699999987 19.7818944999999999 -0.1264126700000000 Au
atom 21.6510706299999995 19.8156131299999991 -0.0431854700000000 Au
atom 24.4173026100000001 19.8761657900000017 0.1418063200000000 Au
atom 27.1954703400000000 19.8130212599999993 0.0950451600000000 Au
atom 1.7774985000000001 19.8279980599999988 0.1561041500000000 Au
atom 4.6081553599999996 19.9589587299999991 -0.1481394200000000 Au
atom 8.9565658799999994 22.2621562299999987 -0.0202580200000000 Au
atom 11.7409811000000008 22.3157098199999986 -0.2236037600000000 Au
atom 14.6462594999999993 22.2549600500000011 0.0434192600000000 Au
atom 17.4525111399999986 22.3164553000000012 0.2414608900000000 Au
atom 20.1924291099999991 22.2836492200000009 0.2283428100000000 Au
atom 23.0093025799999999 22.3594286999999987 0.2992145700000000 Au
atom 25.7874393899999994 22.3123275099999994 0.2432259800000000 Au
atom 0.4952347900000000 22.2927153199999992 0.2988721200000000 Au
atom 3.2790227600000001 22.2445197899999982 0.4165586300000000 Au
atom 6.1633989600000003 22.3404386600000002 0.0156134200000000 Au
atom 7.4663969200000002 24.7348947899999985 -0.0849199000000000 Au
atom 10.2888702999999992 24.7965623999999991 -0.1326366900000000 Au
atom 13.1457631900000003 24.7137082300000017 0.1011293500000000 Au
atom 16.0259714100000004 24.7946644899999988 0.4164303500000000 Au
atom 18.8970495499999984 24.7971934500000017 0.5850759700000000 Au
atom 21.6263895300000009 24.9122167899999987 0.5494187400000000 Au
atom 24.5116073900000018 24.8844417100000008 0.5876582299999999 Au
atom 27.2336596700000015 24.8002479399999984 0.3773814400000000 Au
atom 1.8741465600000000 24.6664529399999992 0.4690690300000000 Au
atom 4.6529821199999999 24.7322462200000004 0.0571211000000000 Au
atom 8.9628244000000006 27.2329541900000009 0.0695669800000000 Au
atom 11.8256975499999992 27.0919470500000017 -0.1058363100000000 Au
atom 14.7039743800000000 27.1702385299999989 0.0083493100000000 Au
atom 17.3413707200000005 27.2529805299999985 0.1084945700000000 Au
atom 20.1930550999999987 27.2528307299999994 0.1717171800000000 Au
atom 23.1052836399999997 27.3225857499999982 0.0694526000000000 Au
atom 25.9342839299999994 27.2880288600000007 0.3054895900000000 Au
atom 0.5474237700000000 27.2619526000000008 0.1729719500000000 Au
atom 3.2685538500000000 27.0723274600000003 0.2585090600000000 Au
atom 6.0594381999999998 27.2473928000000001 -0.0809078200000000 Au
atom 7.5578299500000004 29.7041250300000002 -0.0156369100000000 Au
atom 10.3674159400000008 29.6471645600000002 -0.0176706000000000 Au
atom 13.0984543999999996 29.6186311499999988 -0.2568090100000000 Au
atom 16.0211965899999988 29.7698016099999982 -0.0606653400000000 Au
atom 18.8064013699999997 29.6370155000000004 0.2049722900000000 Au
atom 21.6639812099999993 29.6207264300000013 0.0804834700000000 Au
atom 24.4485864299999989 29.7168958699999983 0.1170348900000000 Au
atom 27.2371505599999999 29.7331861599999989 -0.0140965400000000 Au
atom 1.9239825900000000 29.7754292400000011 0.1766800600000000 Au
atom 4.6894645199999996 29.7095677599999988 0.1407071700000000 Au
atom 8.8423357500000002 32.1592300900000012 -0.3259355500000000 Au
atom 11.7616428800000001 32.1024601000000018 -0.2233519700000000 Au
atom 14.6070970700000000 32.1075494600000013 -0.2584342900000000 Au
atom 17.3285220299999985 32.1778485900000035 -0.0890106900000000 Au
atom 20.2086382899999997 32.1520030599999984 0.1353828700000000 Au
atom 22.9408797600000014 32.1941597699999988 0.0223164500000000 Au
atom 25.8417543099999989 32.1721857200000017 -0.0454487800000000 Au
atom 0.3755083200000000 32.1063602099999983 -0.0043089300000000 Au
atom 3.2538244999999999 32.1949340399999997 0.0893543400000000 Au
atom 6.0405966299999996 32.1376781299999976 0.0724909100000000 Au
atom 7.4750858400000002 34.6278972799999991 -0.2509373000000000 Au
atom 10.2550308599999997 34.6314358500000026 -0.2157475900000000 Au
atom 13.0938487400000003 34.5491602800000024 -0.1332019800000000 Au
atom 15.8774164700000000 34.5881749899999988 -0.2451453100000000 Au
atom 18.7128945800000004 34.6805166099999980 -0.0630103400000000 Au
atom 21.5743812199999994 34.7023661200000006 0.1938646400000000 Au
atom 24.3729086200000005 34.6046760400000011 -0.0295380500000000 Au
atom 27.2214548200000017 34.6350348100000005 -0.0226580000000000 Au
atom 1.8114240100000001 34.5205966199999992 -0.4044657800000000 Au
atom 4.6389921899999997 34.5616959700000024 -0.0727858700000000 Au
atom 8.8907800600000009 37.1287238399999993 -0.0610178500000000 Au
atom 11.7426695100000007 36.9553652999999969 -0.1651937400000000 Au
atom 14.6549123500000000 37.0365745300000029 -0.1002939000000000 Au
atom 17.4140416199999990 37.1864382799999973 0.0827152800000000 Au
atom 20.2062764000000001 37.1122906499999985 0.0463921300000000 Au
atom 22.9731669600000004 37.0666466999999997 -0.0457943100000000 Au
atom 25.7860176900000013 37.0257003600000019 -0.2957348400000000 Au
atom 0.4269157400000000 37.0808891100000011 -0.0316986800000000 Au
atom 3.2779924700000000 37.0668230400000027 -0.2552922500000000 Au
atom 6.0618808700000004 37.0015488399999981 -0.3090562200000000 Au
atom 7.4433701100000000 0.0010134700000000 -0.1359895700000000 Au
atom 10.3596161599999999 0.0397192100000000 -0.4117661300000000 Au
atom 13.1632375800000005 0.0096452400000000 0.1512552300000000 Au
atom 15.9086767400000006 0.1349737500000000 0.1829694200000000 Au
atom 18.7683879699999991 0.1339079700000000 0.1440767100000000 Au
atom 21.6124744500000006 0.1169573800000000 0.1619298100000000 Au
atom 24.4632724500000016 0.0412768700000000 0.1281854900000000 Au
atom 27.1910246600000001 0.0550634200000000 -0.1186372700000000 Au
atom 1.9807870900000000 0.1154356900000000 -0.2174129600000000 Au
atom 4.7360291400000003 -0.0038368700000000 0.1965496800000000 Au
atom 8.9339359399999996 2.4818159400000002 -0.0948572800000000 Au
atom 11.7624974299999998 2.4895533200000002 -0.1362041700000000 Au
atom 14.5398629300000000 2.5362534700000001 0.0314109600000000 Au
atom 17.3857928599999987 2.5506962000000000 0.1973548200000000 Au
atom 20.2436569900000016 2.6515322700000001 0.0949078100000000 Au
atom 23.0366069399999986 2.5558966700000001 0.0948284500000000 Au
atom 25.8141575199999984 2.5173226799999999 -0.0883917000000000 Au
atom 0.4450611400000000 2.5216950100000002 0.0665941300000000 Au
atom 3.3003232800000002 2.4413692299999998 0.5171763500000000 Au
atom 6.1537359499999997 2.5505453500000002 0.3447419200000000 Au
atom 7.5167496900000002 4.9600709299999997 0.2155318000000000 Au
atom 10.2295060499999995 4.9976951500000002 0.1273630800000000 Au
atom 13.0712510500000008 4.9125616699999997 0.1027230100000000 Au
atom 15.9271710300000002 5.0444946399999999 0.1206361100000000 Au
atom 18.7467272300000012 5.0375383300000003 -0.0646469400000000 Au
atom 21.6534461500000006 5.0825470900000003 0.1389113300000000 Au
atom 24.4421140000000001 5.0247837799999999 0.2400041700000000 Au
atom 27.2869546400000011 4.9775519900000003 0.1425741700000000 Au
atom 1.9110719400000000 4.9480306299999999 0.1225211300000000 Au
atom 4.7374292799999997 4.9201254199999997 0.2699623800000000 Au
atom 8.9709965300000007 7.3534499599999998 0.1918078600000000 Au
atom 11.8031110899999998 7.4695821999999996 0.4097240100000000 Au
atom 14.5841415600000008 7.4715812599999998 0.2694256500000000 Au
atom 17.4660677500000006 7.4649484900000003 0.0001025600000000 Au
atom 20.2081643100000008 7.4520263699999996 -0.0654585500000000 Au
atom 23.1220589200000006 7.5191153300000000 0.0597239200000000 Au
atom 25.9574953000000015 7.5177800100000001 0.2313775500000000 Au
atom 0.4862301500000000 7.4944172399999998 0.0937038500000000 Au
atom 3.2275582699999998 7.3877297500000001 0.2145820000000000 Au
atom 6.1399195300000002 7.3898289799999999 -0.0386502200000000 Au
atom 7.6343160499999998 9.8482489300000005 -0.1086640100000000 Au
atom 10.3870951399999996 9.8467667999999993 0.3140814900000000 Au
atom 13.2559524799999995 9.9096556299999996 0.2155937700000000 Au
atom 16.0122796899999997 9.9105743499999992 0.3548404300000000 Au
atom 18.8312742700000015 10.0082722099999994 -0.0486744000000000 Au
atom 21.7221491100000001 9.9893825799999991 -0.1625114900000000 Au
atom 24.5396782500000015 9.9138941700000007 -0.1691559800000000 Au
atom 27.2757080199999997 9.9891010700000002 0.1140838100000000 Au
atom 1.9153996700000000 9.9971710700000003 0.0170368500000000 Au
atom 4.7073052600000000 9.7677326799999999 -0.0237245300000000 Au
atom 8.9882085299999996 12.3773282499999997 0.0525004200000000 Au
atom 11.7635690499999992 12.2924252900000006 0.3614523000000000 Au
atom 14.6005477599999995 12.4533461400000007 0.3254574600000000 Au
atom 17.4563831600000015 12.3543634699999991 0.0416919000000000 Au
atom 20.2253069299999986 12.4169470600000000 -0.2220721300000000 Au
atom 23.0695028800000017 12.4130283600000002 -0.3800965400000000 Au
atom 25.9728826499999990 12.3577579300000000 -0.3351044100000000 Au
atom 0.6016692500000000 12.4058860000000006 -0.1869470100000000 Au
atom 3.3948219800000001 12.4008922399999992 -0.1634582600000000 Au
atom 6.2198673700000002 12.3722087100000007 -0.1816844800000000 Au
atom 7.5211232700000004 13.2957684199999999 2.3024299799999999 Au
atom 10.3915336499999995 13.2806540000000002 2.7529996600000000 Au
atom 13.2252823199999998 13.2621285899999997 2.8910278800000002 Au
atom 16.0647000099999993 13.3275898900000005 2.6514978999999999 Au
atom 18.9472873600000007 13.2385557600000006 2.4816638300000000 Au
atom 21.7351106899999991 13.2947363000000003 2.3216468099999998 Au
atom 24.5435063500000012 13.2553761800000007 2.3482432700000002 Au
atom 27.3543709899999996 13.1751846399999994 2.1566711500000002 Au
atom 1.9639720500000000 13.1767208599999996 2.5089198200000000 Au
atom 4.7692320400000003 13.1639584000000003 2.5770571699999998 Au
atom 8.8728195299999992 15.7475609500000004 2.4874346400000000 Au
atom 11.7787006099999996 15.8145700399999996 2.6607298400000001 Au
atom 14.6305344000000002 15.7480648100000007 2.5302011300000000 Au
atom 17.4753087799999989 15.7376945599999996 2.5244499999999999 Au
atom 20.3359909899999991 15.7754984399999998 2.2886708800000002 Au
atom 23.1830842399999995 15.5977621400000004 2.3851964699999999 Au
atom 25.9956534499999989 15.6695508300000004 2.3563651200000000 Au
atom 0.5028142700000000 15.5721118700000005 2.4948281400000001 Au
atom 3.2956975800000001 15.6583632399999999 2.4757840099999999 Au
atom 6.1437103300000002 15.7354262899999995 2.4514430699999998 Au
atom 7.4000410199999997 18.2092796399999983 2.5403237399999998 Au
atom 10.2615650699999996 18.1456710799999996 2.5052702700000000 Au
atom 13.2156421399999999 18.1111793600000013 2.7551908799999998 Au
atom 16.0772026900000000 18.1137392800000008 2.4811117600000001 Au
atom 18.8772749699999984 18.1454810400000000 2.3758959900000001 Au
atom 21.7466777299999983 18.1913023699999989 2.5116456600000001 Au
atom 24.4602590400000004 17.9807739399999988 2.8931455499999998 Au
atom 27.3417239400000014 18.1460879300000002 2.5999263199999998 Au
atom 1.9183874999999999 18.0594858800000004 2.5309164300000000 Au
atom 4.6710811999999997 18.2050168799999987 2.4922439500000002 Au
atom 8.9012668300000009 20.6729947299999992 2.4615251400000000 Au
atom 11.8101126399999998 20.5628984199999998 2.4871376900000000 Au
atom 14.6215714800000001 20.5704081899999984 2.5955048500000002 Au
atom 17.4939464200000003 20.5267104899999993 2.6958707500000001 Au
atom 20.2380012899999997 20.5646728699999990 2.7087425700000001 Au
atom 23.0058749400000018 20.7160766800000005 2.7558424900000000 Au
atom 25.7522427600000015 20.5835250400000014 2.7845462200000002 Au
atom 0.4765375700000000 20.5403281600000014 2.9938586300000001 Au
atom 3.2718109599999998 20.5237121400000007 2.9882959699999998 Au
atom 6.0029408100000001 20.8265378299999995 2.5691706100000000 Au
atom 7.5045057100000001 23.1762342100000005 2.7653533700000001 Au
atom 10.3552480899999999 23.0305834199999993 2.3880397100000001 Au
atom 13.1947668599999997 23.0854465100000006 2.4778136300000000 Au
atom 15.9910701700000004 23.0506906700000016 2.8916984399999999 Au
atom 18.7402193200000013 22.9886546199999984 2.9546914700000002 Au
atom 21.4956979799999992 23.0691149399999986 2.8466940799999998 Au
atom 24.3652045100000016 23.0807014600000002 2.9621611900000002 Au
atom 27.2269992999999992 23.1233814399999993 2.7569355700000000 Au
atom 1.8923498900000000 23.0245080500000014 3.0982338199999999 Au
atom 4.7250326100000004 23.1734434000000000 2.7917926400000002 Au
atom 8.8367774600000004 25.6169758999999999 2.5922407000000001 Au
atom 11.6685590399999999 25.4644118199999987 2.6394299900000000 Au
atom 14.5122395100000006 25.5083812099999996 2.7334535799999999 Au
atom 17.3550040099999983 25.5082393500000002 3.0754603100000000 Au
atom 20.1355574900000001 25.5630580599999995 3.2911300200000002 Au
atom 22.9687947799999996 25.5495124999999987 3.0783628699999999 Au
atom 25.8195308099999998 25.5972852700000004 3.1785833000000001 Au
atom 0.4615462000000000 25.5963417000000000 2.9231819899999998 Au
atom 3.3799056900000002 25.6305398400000009 2.9447042600000000 Au
atom 6.1360257300000001 25.6577905699999995 2.4441681399999999 Au
atom 7.5507059500000002 28.2155510499999984 2.3978398500000000 Au
atom 10.3596912400000001 28.0477094300000012 2.5563982400000000 Au
atom 13.1258029999999994 27.9560059699999996 2.4721112399999998 Au
atom 15.9761297300000003 27.9975634100000015 2.6147970599999999 Au
atom 18.8670983800000016 27.9732798100000011 2.7767808700000001 Au
atom 21.6311666900000006 27.9974235699999987 2.6839673199999998 Au
atom 24.4570076100000016 28.1045557399999986 2.7226607899999999 Au
atom 27.4330868300000006 28.1713834399999996 2.6646074999999998 Au
atom 1.9798784599999999 28.1355381899999983 2.7028517500000002 Au
atom 4.8620505899999999 28.1976580299999995 2.6962512200000002 Au
atom 8.9943831700000008 30.6581247700000006 2.3212122300000000 Au
atom 11.7676232100000000 30.4901774600000017 2.5623689399999998 Au
atom 14.5383984599999998 30.4600371299999999 2.3498786400000000 Au
atom 17.3636445600000009 30.4645871300000017 2.6769320500000000 Au
atom 20.3856911600000004 30.4393569299999989 2.8033752500000002 Au
atom 23.1368895700000010 30.5462751499999996 2.7042538700000001 Au
atom 25.9288668000000015 30.5850184100000000 2.6367750000000001 Au
atom 0.4700342700000000 30.6681825799999999 2.7053571600000001 Au
atom 3.3482219400000002 30.6439698800000002 2.6491856700000000 Au
atom 6.1938186699999997 30.6764769500000014 2.7504784099999999 Au
atom 7.6349254899999996 32.9996716899999996 2.4417049500000001 Au
atom 10.4194623699999998 33.0894072600000015 2.4520551899999998 Au
atom 13.1829271699999993 32.9177306300000012 2.4686518899999998 Au
atom 16.0500689200000011 32.9555218900000000 2.3631310499999998 Au
atom 18.8599868700000002 32.9927810399999970 2.7288173499999999 Au
atom 21.6239023500000016 32.9569724999999991 2.7494776999999999 Au
atom 24.4704832100000012 32.9055681399999997 2.5491197300000001 Au
atom 27.2094252200000000 33.1222269100000020 2.7200554700000001 Au
atom 1.8371637800000000 33.0393547700000028 2.5001452799999999 Au
atom 4.7650304300000004 33.0363194999999976 2.7840742000000001 Au
atom 8.9251406800000002 35.5109328300000016 2.4789877400000000 Au
atom 11.6957625600000004 35.4967767799999976 2.3460084600000002 Au
atom 14.4988994699999996 35.5017314999999982 2.4425370300000000 Au
atom 17.2850245399999984 35.4236192899999978 2.5041007500000001 Au
atom 20.1230288100000010 35.4669317299999989 2.7289091399999998 Au
atom 22.9205689200000009 35.3781456399999996 2.6646079999999999 Au
atom 25.7416829100000015 35.5242480300000025 2.4833184699999999 Au
atom 0.4327968000000000 35.5064051599999999 2.7047477000000000 Au
atom 3.1862878299999999 35.3309456100000006 2.2926204299999999 Au
atom 6.1537972500000002 35.4070726500000035 2.1976353700000000 Au
atom 7.4458985499999999 37.8817948200000032 2.3840047900000001 Au
atom 10.3512109399999996 37.8668536599999968 2.5360125600000001 Au
atom 13.1325435000000006 37.7736817799999969 2.5762129300000001 Au
atom 15.8910463699999998 37.9237761899999981 2.7352425199999999 Au
atom 18.6930135799999988 37.8342071200000021 2.8226123200000002 Au
atom 21.5605241300000010 37.8633749800000032 2.6025315700000000 Au
atom 24.3396888900000015 37.8343616299999965 2.4671281000000000 Au
atom 27.2023785499999988 37.9442770100000004 2.4662178600000000 Au
atom 1.9753814700000001 37.8923030699999970 2.3897803700000000 Au
atom 4.7170833700000001 37.7380692799999977 2.5233148900000000 Au
atom 8.8840831500000004 0.6807824000000000 2.3151193800000001 Au
atom 11.7338045500000003 0.8302591800000000 2.6142385500000000 Au
atom 14.4657549000000003 0.8696188300000000 2.7783345200000000 Au
atom 17.2803317800000009 0.8780065600000000 2.8555734099999999 Au
atom 20.1291904700000011 0.8530038200000000 2.7491633100000001 Au
atom 22.9920890699999987 0.9320768800000000 2.7160256000000000 Au
atom 25.9542518300000005 0.8653706000000000 2.6195600699999999 Au
atom 0.5170234000000000 0.8625762800000000 2.3435572699999998 Au
atom 3.2011491200000002 0.8065609000000000 2.8457729199999999 Au
atom 6.0573481600000001 0.7602399300000000 2.8607673100000000 Au
atom 7.5140380300000000 3.2683564000000001 2.7513920299999999 Au
atom 10.2833406000000007 3.2487037000000001 2.6870737999999998 Au
atom 13.1788085200000005 3.3891984900000001 2.5539285500000002 Au
atom 16.0233134499999998 3.3199590200000002 2.7925332400000000 Au
atom 18.8092118600000013 3.5096648199999998 2.5696972499999999 Au
atom 21.6053580600000004 3.3614388100000001 2.7942737300000000 Au
atom 24.4592724799999992 3.3309840300000002 2.6258927100000000 Au
atom 27.2486142300000012 3.3261571600000002 2.5975357600000000 Au
atom 1.7896546000000000 3.4195727699999998 2.9428068700000001 Au
atom 4.7188898999999997 3.2298670600000001 2.9860866300000000 Au
atom 8.9461261000000007 5.8057178900000004 2.9157878899999998 Au
atom 11.6970083999999996 5.8133512500000002 2.7499084400000000 Au
atom 14.6308497699999993 5.8116785799999997 2.8555944800000002 Au
atom 17.4416815999999990 5.9030494899999999 2.6481503700000002 Au
atom 20.3015951799999996 5.8930260199999998 2.6835093600000000 Au
atom 23.1089090299999995 5.8434570800000003 2.8734001000000000 Au
atom 25.8708274299999985 5.8440308300000003 2.8694810500000001 Au
atom 0.3853001800000000 5.8909489800000001 2.5625214999999999 Au
atom 3.3163159100000001 5.8559090700000000 2.8206295899999998 Au
atom 6.1085639699999996 5.8507579999999999 2.7959193999999998 Au
atom 7.5088465600000003 8.3543170199999999 2.5424330099999999 Au
atom 10.3701309199999994 8.2992904799999998 2.8460648300000000 Au
atom 13.2327522900000005 8.2878874800000002 2.9207630899999999 Au
atom 16.0503959099999989 8.2766850299999994 2.7966884500000000 Au
atom 18.8742220799999991 8.4814024999999997 2.5991355800000000 Au
atom 21.6113071900000016 8.3747141299999992 2.5415042200000002 Au
atom 24.3835417999999997 8.3699151900000004 2.6656022199999998 Au
atom 27.2139837799999995 8.4181323999999993 2.6537833399999999 Au
atom 1.9452112699999999 8.3243381400000001 2.7110406600000001 Au
atom 4.7709244100000001 8.3166176000000007 2.7233637000000002 Au
atom 9.0081998599999995 10.8615111599999992 2.6874224099999999 Au
atom 11.8729364799999999 10.7428353899999998 2.8047490900000001 Au
atom 14.5734967300000005 10.8380021699999993 2.9340600999999999 Au
atom 17.4562487100000006 10.8004822199999992 2.7248710100000002 Au
atom 20.3239378200000012 10.8850206099999998 2.5633583400000002 Au
atom 23.0726035399999994 10.8654378999999999 2.3200692699999999 Au
atom 25.8905612000000005 10.8718115799999993 2.6019667800000001 Au
atom 0.4892452900000000 10.7367086100000009 2.7538373900000002 Au
atom 3.3236849899999998 10.7283221100000006 2.5205982400000000 Au
atom 6.1291501100000003 10.7851047900000001 2.4884853699999998 Au
atom 7.3977563599999998 12.6656820000000003 5.6313713400000003 Cl
atom 7.3232847300000001 15.6271426800000004 8.5213384199999993 Cl
atom 7.3278207000000002 12.7442774900000000 8.3436501799999991 Na
atom 7.2807279500000002 15.5060704000000005 5.6341622999999998 Na
atom 7.0592852700000002 18.5336171699999994 5.6440144500000002 Cl
atom 7.5284963200000004 21.2940186999999987 8.4486678200000007 Cl
atom 7.1499245399999998 18.3257086200000003 8.2375594499999991 Na
atom 7.2938372899999999 21.2561949199999987 5.7645961600000000 Na
atom 7.3779158599999999 24.0621533099999994 5.7122674000000000 Cl
atom 7.3897979899999999 26.9615700400000016 8.4049048800000001 Cl
atom 7.5688728400000000 24.2279943399999986 8.2460819099999991 Na
atom 7.3547548899999997 26.8197619799999991 5.5669545700000000 Na
atom 7.4184321700000000 29.6054935499999985 5.6249033300000004 Cl
atom 7.3920458099999999 32.4677985900000010 8.4210711099999997 Cl
atom 7.4823948800000002 29.6727581799999989 8.3220894500000000 Na
atom 7.3494716400000000 32.4211788799999994 5.5811285799999997 Na
atom 7.0588557500000002 35.2541308899999990 5.3423885100000001 Cl
atom 7.3868512600000003 38.1227775899999983 8.3006522900000004 Cl
atom 7.3749038899999997 35.2853530900000010 8.0022509999999993 Na
atom 7.4913785099999997 37.8754809499999965 5.6565531199999999 Na
atom 7.5073777599999998 1.4365160500000000 5.6937420999999997 Cl
atom 7.3927564800000001 4.3106701200000002 8.5431716699999996 Cl
atom 7.4182919600000004 1.3900086400000000 8.2542316400000004 Na
atom 7.4097009700000003 4.4353577099999999 5.8616157099999997 Na
atom 7.4136249599999999 7.0703662400000002 5.7601808999999999 Cl
atom 7.2902719200000003 10.0406694999999999 8.5980850100000001 Cl
atom 7.4501894499999999 7.1382789999999998 8.4313535500000008 Na
atom 7.2436913100000000 9.8798807499999999 5.6799919299999999 Na
atom 10.3287326600000000 12.7333560899999991 5.7924267599999997 Na
atom 13.0529655899999995 12.7668780500000008 5.7875155899999999 Cl
atom 10.1985200099999993 15.5766240499999995 8.0824148999999998 Na
atom 12.8295675800000009 15.7800313600000006 8.2236633200000000 Cl
atom 13.0923012300000003 12.8344852700000001 8.4638935499999999 Na
atom 10.2145090100000004 12.8838621100000008 8.5209821100000003 Cl
atom 13.1546558699999991 15.7053176800000003 5.5266882600000002 Na
atom 9.9824711799999992 15.5547805599999993 5.5092737700000001 Cl
atom 10.0004778600000002 18.4339236100000008 5.7880754799999998 Na
atom 13.1756113399999997 18.6472573299999986 5.6508116399999997 Cl
atom 10.2194436700000004 21.1638172299999994 8.2290953699999996 Na
atom 12.9882639900000001 21.4308762699999988 8.5751400400000009 Cl
atom 12.8457466199999999 18.5016542199999989 8.2509855099999996 Na
atom 10.2016363400000003 18.3957687300000003 8.3958222100000004 Cl
atom 13.0044594999999994 21.1965447100000013 5.6698204399999996 Na
atom 10.1919111200000003 21.2914335199999982 5.4985989999999996 Cl
atom 10.2067190900000000 24.1281929400000017 5.7863959500000002 Na
atom 13.0679409300000007 23.9777746200000017 5.5133727800000001 Cl
atom 10.3489292400000004 27.0775772000000003 8.2667457199999994 Na
atom 13.1250718400000004 27.0968810900000001 8.5292793200000006 Cl
atom 13.0038028000000008 24.0486149800000000 8.2487836699999999 Na
atom 10.2810504100000006 24.3189286100000004 8.3475987299999996 Cl
atom 13.1267765700000005 26.8248337100000001 5.5945529100000000 Na
atom 10.3420222400000004 26.9353226700000015 5.4798375300000002 Cl
atom 10.1846716399999995 29.7064273499999985 5.6149931500000001 Na
atom 13.2598528800000004 29.8507377399999996 5.7285819099999999 Cl
atom 10.2180670899999999 32.4987062900000012 8.0661161700000008 Na
atom 13.2088187999999995 32.6429639500000022 8.6410373299999996 Cl
atom 13.0899058799999999 29.8135778299999998 8.3425162999999998 Na
atom 10.4007531800000006 29.7282391100000005 8.3218499300000008 Cl
atom 13.1661555099999994 32.5393103400000001 5.4717218399999998 Na
atom 10.1968832999999997 32.4443484299999980 5.4944909400000004 Cl
atom 10.3291468099999992 35.2571901700000012 5.4947184299999998 Na
atom 13.0683628600000006 35.3318425399999967 5.5232650100000003 Cl
atom 10.3151737499999996 38.1025728099999981 8.1702581199999997 Na
atom 13.1620606000000002 38.0018536400000002 8.4352238300000000 Cl
atom 13.2218391499999992 35.2442377799999988 8.1247140800000004 Na
atom 10.2287619500000009 35.2817741400000031 8.1704490399999994 Cl
atom 13.0908590900000004 38.0785478199999972 5.7823450899999997 Na
atom 10.1053863199999991 38.2418895400000025 5.5013361200000004 Cl
atom 10.2007650299999995 1.4014514300000001 5.7607310800000002 Na
atom 13.0407831400000003 1.4105052899999999 5.5894531100000000 Cl
atom 10.2670746400000006 4.2272960599999996 8.3975961300000002 Na
atom 12.9996123000000008 4.0752273299999997 8.3830986900000006 Cl
atom 13.0596502200000000 1.4215350600000001 8.3346764100000001 Na
atom 10.2190317299999993 1.2828068900000000 8.5692501100000005 Cl
atom 13.1136517799999996 4.2939631900000004 5.7294106600000001 Na
atom 10.3239044900000003 4.4778325099999998 5.8587992099999999 Cl
atom 10.2565822299999994 7.2509967199999998 5.9336350199999996 Na
atom 13.0497541300000002 7.2752199700000002 5.7103566600000004 Cl
atom 10.2414252500000007 10.2005425600000006 8.5002022700000008 Na
atom 12.9966228899999994 9.8731644999999997 8.5747407899999999 Cl
atom 12.9988159799999998 7.1884963500000003 8.4329544900000002 Na
atom 10.0025822099999999 7.4513490500000001 8.6692613000000005 Cl
atom 12.9538602800000007 9.9716336099999996 5.8204065700000003 Na
atom 10.0635909600000009 9.9719159800000003 5.6442434900000000 Cl
atom 15.8565097599999998 12.6853421900000001 5.5753463700000001 Na
atom 18.7809649800000003 12.6923330500000002 5.4901225499999997 Cl
atom 15.7914679200000005 15.4306939100000005 8.3700218300000007 Na
atom 18.5937295399999982 15.5398773899999991 8.5603694200000007 Cl
atom 18.6058347300000015 12.7234344000000004 8.3375781000000000 Na
atom 15.9676282399999998 12.7555754500000003 8.2623916800000003 Cl
atom 18.5622439899999989 15.7208629299999991 5.7234900299999998 Na
atom 15.8954478899999998 15.7313840999999996 5.8877637199999997 Cl
atom 15.9366766700000007 18.3663144600000017 5.8339755799999997 Na
atom 18.6706622899999992 18.6384527999999996 5.7164085299999998 Cl
atom 15.6341176399999995 21.0856860499999996 8.3724055800000006 Na
atom 18.6571803600000017 21.1440488799999997 8.7232936500000005 Cl
atom 18.5814327299999995 18.4053182799999995 8.3495154700000001 Na
atom 15.7262928899999999 18.3727568199999993 8.6431922100000005 Cl
atom 18.7681641699999986 21.2348509999999990 6.0793976000000001 Na
atom 15.8732356100000001 21.2839794900000001 5.7757271899999996 Cl
atom 15.9121365299999997 23.9903783500000003 5.8954428400000003 Na
atom 18.6413083700000008 23.9780492800000005 6.1790235600000001 Cl
atom 15.7618212700000004 27.0184996599999998 8.3281387299999992 Na
atom 18.6153135499999998 26.7098623500000016 8.7961322499999994 Cl
atom 18.4056580200000006 23.9639205100000012 8.7425266599999993 Na
atom 15.5807488099999993 24.2782161000000016 8.6434505599999998 Cl
atom 18.6124920899999999 26.7409760500000004 6.0091931299999999 Na
atom 15.9549263200000002 26.7520064099999999 5.8105541699999996 Cl
atom 15.8939254299999995 29.7037283800000012 5.7527606200000001 Na
atom 18.6231541599999986 29.4832530599999991 5.7314706099999997 Cl
atom 15.8045731499999995 32.5178396399999983 8.2867997700000000 Na
atom 18.4661655300000014 32.5624109299999986 8.5499782000000000 Cl
atom 18.5550211099999984 29.5357999599999985 8.4518574399999995 Na
atom 15.9887311299999997 29.7197346499999995 8.7394676699999998 Cl
atom 18.6847093300000004 32.2227232600000022 5.8398254700000001 Na
atom 15.8932803099999997 32.4083061299999997 5.6475022800000003 Cl
atom 15.9827285099999994 35.2712691300000003 5.5677110599999997 Na
atom 18.9039316699999986 35.1476716600000003 5.6009986800000000 Cl
atom 15.9099228999999998 38.1263130899999965 8.2166229400000006 Na
atom 18.5369158600000006 38.1311761099999984 8.5343435999999997 Cl
atom 18.7602936500000013 35.2651527700000003 8.1831615200000005 Na
atom 15.8616364900000004 35.3092191900000003 8.3585705299999997 Cl
atom 18.8372754399999991 38.1709266900000017 5.7813904000000003 Na