#===============================================================================
# Created using the Atomic Simulation Environment (ASE)

# Tue Dec 23 21:42:10 2025

#=======================================================
lattice_vector 28.1999999999999993 0.0000000000000000 0.0000000000000000 
lattice_vector 0.0000000000000000 39.4799999999999969 0.0000000000000000 
lattice_vector 0.0000000000000000 0.0000000000000000 62.3296083400000001 
atom 7.4667311900000000 14.7729924300000004 -0.2227959000000000 Au
atom 10.2461886999999994 14.7759915799999995 -0.0377479200000000 Au
atom 13.1923903199999994 14.8044752200000005 -0.4328593200000000 Au
atom 15.9510403099999998 14.7959036400000006 -0.5742640900000000 Au
atom 18.9028099400000009 14.8070980900000002 -0.3065076500000000 Au
atom 21.6579656000000007 14.7656575700000001 -0.0852581500000000 Au
atom 24.4619390299999999 14.8164341900000007 -0.1543665700000000 Au
atom 27.3269523399999983 14.7729839300000005 -0.2059142200000000 Au
atom 1.9747079199999999 14.7012956399999997 -0.1731346200000000 Au
atom 4.8645835999999996 14.8197356899999999 0.1605193500000000 Au
atom 8.9481041999999995 17.1683020599999985 -0.1284238900000000 Au
atom 11.7457124400000001 17.3517108600000007 -0.3552304100000000 Au
atom 14.5158967899999993 17.3752783499999985 -0.1897954600000000 Au
atom 17.2899607899999985 17.2719161399999983 -0.0523866300000000 Au
atom 20.2329062899999990 17.2907837999999998 -0.2453991900000000 Au
atom 23.1194024200000001 17.3080874099999988 0.1319323900000000 Au
atom 25.8820858399999985 17.2287292600000015 -0.3778410500000000 Au
atom 0.4968706200000000 17.2460444399999986 0.0106353600000000 Au
atom 3.3907235400000002 17.2512797599999992 0.0443795600000000 Au
atom 6.2114456999999996 17.3349211200000006 -0.1276224300000000 Au
atom 7.6022233000000003 19.7072498899999999 0.3112612000000000 Au
atom 10.3728621000000008 19.7769751400000011 0.0668768900000000 Au
atom 13.2267153099999994 19.8795423100000015 -0.0378177300000000 Au
atom 15.9721761499999992 19.7315170199999983 0.1577026300000000 Au
atom 18.8225304899999983 19.7427010900000006 -0.0214266000000000 Au
atom 21.6061907600000005 19.6388190300000005 0.0361764800000000 Au
atom 24.5396682000000013 19.7258525700000007 0.1133452900000000 Au
atom 27.3160905300000003 19.7297251100000004 -0.1466101500000000 Au
atom 1.8630814400000000 19.7111619100000013 0.2260441400000000 Au
atom 4.7910602100000004 19.7813616100000011 0.1148548600000000 Au
atom 9.0616989300000004 22.1950517000000005 -0.1372985600000000 Au
atom 11.8072624499999996 22.2696757599999984 -0.0257767600000000 Au
atom 14.6441334500000000 22.2960391899999983 0.0630717500000000 Au
atom 17.3608934899999987 22.2607945799999989 0.2821552900000000 Au
atom 20.3203008499999989 22.2078212899999983 0.3639535300000000 Au
atom 23.1021971099999988 22.2691613400000001 0.0732554300000000 Au
atom 25.8876201200000011 22.2088560000000008 0.4689917500000000 Au
atom 0.5154410100000000 22.1937671200000004 0.0002790300000000 Au
atom 3.3479857900000001 22.1337145200000016 0.2412360000000000 Au
atom 6.2454800900000000 22.1742794799999992 0.1482658800000000 Au
atom 7.6352114999999996 24.7759101400000006 0.1133103600000000 Au
atom 10.4167533900000002 24.7929672500000002 0.1029280200000000 Au
atom 13.2232216600000001 24.7097079599999994 -0.2145460000000000 Au
atom 16.0376661399999989 24.7162768499999999 0.0243771400000000 Au
atom 18.8657562900000002 24.6085561400000010 0.1979048600000000 Au
atom 21.6972397100000016 24.7736704400000001 0.2253303700000000 Au
atom 24.4761621699999985 24.6870273800000000 0.1578097100000000 Au
atom 27.3694612799999994 24.6096521499999987 0.2317947600000000 Au
atom 1.9876866700000000 24.5791525700000015 0.3142814600000000 Au
atom 4.8024078699999997 24.5495915700000005 -0.0079403800000000 Au
atom 9.0449179799999992 27.1572933200000008 0.1670074000000000 Au
atom 11.8819243500000002 27.2182471899999996 0.0438667900000000 Au
atom 14.6018780899999996 27.1826553400000002 0.3844578000000000 Au
atom 17.4064694099999997 27.2140588100000009 0.1539382900000000 Au
atom 20.2157416400000010 27.0444588999999986 0.0585934700000000 Au
atom 23.0661163299999998 27.2038070099999985 -0.1117374800000000 Au
atom 25.8201698099999994 27.1436166700000001 0.0770798600000000 Au
atom 0.5138409100000000 27.0553280500000000 0.0017286100000000 Au
atom 3.3149435000000000 27.0809768999999996 0.1877167400000000 Au
atom 6.1406442099999996 27.1320546699999987 -0.1141285400000000 Au
atom 7.5784186699999996 29.6487951999999986 0.0250968100000000 Au
atom 10.4016799899999999 29.6940473900000015 -0.0516973300000000 Au
atom 13.2207082699999994 29.6789171100000004 0.0700019800000000 Au
atom 16.0420712899999991 29.6011991999999999 0.0301349900000000 Au
atom 18.8866815999999993 29.6050653699999984 -0.0306008200000000 Au
atom 21.6458833900000016 29.5914755700000001 -0.1288618800000000 Au
atom 24.5589956299999983 29.6885329599999999 0.3210294000000000 Au
atom 27.3376317299999982 29.5570665199999993 -0.1260712300000000 Au
atom 1.8887269400000000 29.6273167499999985 0.1880526400000000 Au
atom 4.7208759499999999 29.5462996699999998 -0.2702299600000000 Au
atom 8.9857215200000002 32.1247176099999976 -0.1219602000000000 Au
atom 11.7759242400000002 32.1952483399999991 -0.2066074100000000 Au
atom 14.5575464799999992 32.0851542400000014 -0.1805487200000000 Au
atom 17.4051851100000015 32.0273649399999982 -0.0937214400000000 Au
atom 20.2825103400000017 32.0614747199999996 0.0037805600000000 Au
atom 23.1866893000000012 32.1213579400000029 -0.1206710800000000 Au
atom 26.0110943500000005 32.0686891200000019 -0.1751705400000000 Au
atom 0.6054044900000000 32.0951472300000020 -0.0281409500000000 Au
atom 3.3920899499999999 32.0616094100000026 -0.1058125800000000 Au
atom 6.2100716399999998 32.0918845200000007 -0.0568179700000000 Au
atom 7.5599536199999999 34.5936618699999983 -0.0808809200000000 Au
atom 10.3450893199999996 34.6346291600000029 -0.1797948300000000 Au
atom 13.1705738300000004 34.6831003200000012 -0.3091929300000000 Au
atom 16.0437942699999994 34.6199859099999969 -0.2669286400000000 Au
atom 18.9065813899999995 34.4784288900000035 0.0050045900000000 Au
atom 21.7317335900000010 34.3705940600000019 -0.0215641900000000 Au
atom 24.4526440200000010 34.6442566099999993 -0.0542814300000000 Au
atom 27.2188869000000011 34.5888296700000026 0.1282176100000000 Au
atom 1.8574682600000001 34.5278812500000001 -0.0294978200000000 Au
atom 4.7617626700000004 34.4893817700000014 -0.0072199100000000 Au
atom 9.0583369499999993 36.9860909399999969 0.0372646200000000 Au
atom 11.8829246600000005 37.1682404800000015 -0.3117731200000000 Au
atom 14.6527605199999993 37.0975895500000021 -0.1521491200000000 Au
atom 17.4172836699999998 37.0041165900000024 -0.0643792300000000 Au
atom 20.3819968600000010 36.8800096300000035 0.0399021100000000 Au
atom 23.1352683699999986 36.9940478600000020 0.0584427200000000 Au
atom 25.9858891400000012 37.0425640099999995 -0.0631353200000000 Au
atom 0.5505505000000001 37.0147434300000029 -0.0267106200000000 Au
atom 3.4715528899999999 37.0092698600000034 -0.0779091600000000 Au
atom 6.2211604400000002 37.0004107700000020 0.0247765400000000 Au
atom 7.6531943599999996 0.0313806800000000 0.1804356100000000 Au
atom 10.4193600199999992 0.0278403300000000 -0.0169280500000000 Au
atom 13.1830367000000006 0.0939110000000000 0.2188482600000000 Au
atom 16.0109275900000014 0.0586261100000000 0.1531547200000000 Au
atom 18.7928730100000010 -0.1154063000000000 0.2366653900000000 Au
atom 21.6236247000000006 -0.0190407900000000 0.1084553700000000 Au
atom 24.5112085600000000 -0.0390750000000000 -0.0805768000000000 Au
atom 27.2211119799999999 -0.0457839800000000 0.1374786000000000 Au
atom 1.8642375700000000 0.0401553600000000 0.0362782900000000 Au
atom 4.8181844299999996 -0.0043686900000000 0.1499817400000000 Au
atom 9.0119398999999998 2.5064225000000002 -0.0767157500000000 Au
atom 11.7596883400000003 2.5487021699999999 0.3128099900000000 Au
atom 14.6279770899999999 2.4269928599999999 0.0628639700000000 Au
atom 17.4261799500000016 2.4609538299999998 0.2177363700000000 Au
atom 20.2970809699999997 2.3849140200000001 0.2760465700000000 Au
atom 23.0340333000000008 2.5278180400000001 0.2475548700000000 Au
atom 25.8540186399999996 2.5050503399999999 0.2921132500000000 Au
atom 0.4351215100000000 2.3949296000000002 0.0179986200000000 Au
atom 3.3322289600000001 2.4203520400000000 0.0687351900000000 Au
atom 6.2155922500000003 2.4230895100000001 0.1719764000000000 Au
atom 7.5979041199999999 4.8948872600000000 0.3538023600000000 Au
atom 10.3079461099999996 4.9804461800000004 -0.0743044500000000 Au
atom 13.2792608100000002 4.9190239800000004 0.0684564300000000 Au
atom 16.0631684399999983 4.8687171400000002 0.0210847700000000 Au
atom 18.8711890400000009 4.8433799000000004 0.0744922400000000 Au
atom 21.6025075899999983 4.9033849900000002 0.1978778200000000 Au
atom 24.4074371399999990 4.9032922499999998 0.1093100700000000 Au
atom 27.2941801599999998 4.9805116099999998 0.0716223800000000 Au
atom 1.9692397600000000 5.0182316699999996 0.0433448100000000 Au
atom 4.6812533299999997 4.8841346400000001 0.0476940800000000 Au
atom 8.9072051099999996 7.3881593700000003 0.1106353100000000 Au
atom 11.6902499500000001 7.3652860300000000 0.0031220800000000 Au
atom 14.5610520500000007 7.3192214499999997 -0.1256406900000000 Au
atom 17.3923329200000012 7.4097833700000004 -0.0345509100000000 Au
atom 20.1260998499999992 7.3811149499999997 -0.0198806200000000 Au
atom 22.9175139299999984 7.3832453700000000 0.1717623900000000 Au
atom 25.7667679800000009 7.3405852899999999 0.0633823600000000 Au
atom 0.4539278400000000 7.3703572399999997 -0.1335109600000000 Au
atom 3.3290458400000000 7.4347744300000000 -0.0881754700000000 Au
atom 6.0341045400000004 7.2447301499999996 0.1359418500000000 Au
atom 7.4780668700000001 9.7936076799999991 0.2150405400000000 Au
atom 10.3348235699999993 9.9095593500000003 0.1683036600000000 Au
atom 13.0865613500000002 9.7866522699999994 -0.1729815700000000 Au
atom 15.9649283600000000 9.7928806500000007 -0.1157777700000000 Au
atom 18.8620216399999983 9.9278354800000006 -0.1277750500000000 Au
atom 21.6011905700000000 9.7889365399999999 0.2395633300000000 Au
atom 24.3108865200000004 9.7358089200000002 -0.2346513800000000 Au
atom 27.2211511299999991 9.8420754200000005 -0.4125176300000000 Au
atom 1.9381571799999999 9.7913564500000003 -0.1928224700000000 Au
atom 4.6968157100000001 9.7001070899999995 0.1862589100000000 Au
atom 8.8932786999999998 12.2725325699999992 -0.0213605900000000 Au
atom 11.7757065799999996 12.3445302399999992 -0.1593110800000000 Au
atom 14.5535668900000008 12.2511434900000005 -0.3788197400000000 Au
atom 17.4178663799999995 12.3346636800000002 -0.4349914600000000 Au
atom 20.2934519999999985 12.2707195799999997 -0.3846738700000000 Au
atom 23.0319218399999990 12.3356744000000003 -0.1643554000000000 Au
atom 25.8418958200000013 12.3392855600000004 -0.1729863100000000 Au
atom 0.5100346000000000 12.3024376600000007 -0.1423251600000000 Au
atom 3.3412544899999999 12.2310559800000007 -0.0577844500000000 Au
atom 6.0940349600000001 12.2374559200000004 0.0161432800000000 Au
atom 7.5116996499999997 13.1585297699999995 2.3644775500000002 Au
atom 10.3437699999999992 13.2652299800000009 2.4280316800000001 Au
atom 13.1223819600000002 13.2281727999999994 2.2096624299999998 Au
atom 15.8922352900000003 13.2135493999999998 1.9534073700000001 Au
atom 18.7966389900000017 13.1340726900000000 2.0881670799999998 Au
atom 21.5733360000000012 13.1284056200000006 2.4123799300000002 Au
atom 24.4660517300000002 13.3124957399999992 2.4258670200000001 Au
atom 27.2633900699999998 13.1463644399999993 2.4207344700000002 Au
atom 1.8184113399999999 13.1158068399999994 2.4224108100000001 Au
atom 4.6550681899999997 13.1446095199999995 2.5878425500000000 Au
atom 8.9826578999999995 15.6237490300000008 2.5730989000000002 Au
atom 11.8166325699999994 15.8273093800000009 2.1217954799999998 Au
atom 14.5898342900000006 15.6856850399999992 2.1088086499999998 Au
atom 17.3441071099999995 15.5317377400000005 2.4221132700000001 Au
atom 20.1799298699999987 15.6189811400000007 2.4281446299999998 Au
atom 22.9943598000000016 15.6146686700000004 2.5712153299999998 Au
atom 25.8818490600000004 15.7466228200000007 2.3368049700000002 Au
atom 0.4744754300000000 15.5723892599999996 2.5994612899999998 Au
atom 3.2889136600000000 15.5490149199999994 2.5844550300000000 Au
atom 6.2051663000000001 15.6184942000000007 2.5580000799999998 Au
atom 7.5099526000000001 18.0081444200000007 2.6639044500000000 Au
atom 10.3152463300000008 18.1607532899999988 2.2732091500000000 Au
atom 13.1719011699999999 18.1814147599999991 2.4166967900000000 Au
atom 16.0282628000000003 18.1164119499999998 2.6322567800000001 Au
atom 18.8096820600000001 18.0415037699999985 2.4257540899999999 Au
atom 21.6410596999999996 18.0681414999999994 2.6259756500000000 Au
atom 24.4401552600000009 18.0986471000000009 2.7987910600000001 Au
atom 27.2630932299999991 18.1560658900000007 2.4755803799999998 Au
atom 1.9185486400000000 17.9853915899999990 2.8189321000000001 Au
atom 4.7047278700000001 18.0183841499999993 2.6042071800000000 Au
atom 8.8549229900000004 20.6166221800000002 2.8004548599999999 Au
atom 11.7077581100000003 20.5531656600000012 2.6284980999999998 Au
atom 14.5477589199999997 20.5348591499999991 2.7030669999999999 Au
atom 17.4637102499999983 20.5451722699999983 2.7378354900000001 Au
atom 20.3273075299999988 20.5186663100000004 2.8269268500000000 Au
atom 23.0929450900000006 20.5792451000000014 2.6217796400000002 Au
atom 25.8433007199999984 20.5598278199999989 2.9677350300000001 Au
atom 0.3846609400000000 20.6582606800000015 2.6606277000000000 Au
atom 3.2286271700000002 20.4786929099999995 2.9690791499999998 Au
atom 6.0077718500000001 20.6381733999999994 2.7394594099999998 Au
atom 7.6106920899999997 23.1098796499999999 2.5604070499999998 Au
atom 10.3783814299999992 22.9980885800000010 2.4404612200000000 Au
atom 13.2165391299999992 22.9779386800000012 2.5537171500000002 Au
atom 16.0187230999999990 22.9728760700000016 2.7311431499999999 Au
atom 18.8060951400000000 22.9598496200000000 2.9012544899999999 Au
atom 21.6686003400000011 23.0331970300000002 2.7933018900000000 Au
atom 24.4615717500000009 23.0646273599999994 2.9027582399999998 Au
atom 27.2867702600000008 23.1075486800000007 2.8551759699999999 Au
atom 1.9216157800000000 22.9247949999999996 2.8126777299999999 Au
atom 4.7495772599999997 23.1602782500000011 2.7363334500000001 Au
atom 9.0879566300000008 25.4458422499999983 2.7839521600000001 Au
atom 11.8710231499999992 25.5295570299999994 2.6377175799999999 Au
atom 14.5914763399999998 25.5155347200000016 2.6345525599999999 Au
atom 17.3496094899999989 25.4020318500000002 2.5843887799999998 Au
atom 20.1806565199999994 25.5274332999999984 2.8608018799999999 Au
atom 23.1393797600000006 25.5108603100000018 2.7283984600000002 Au
atom 25.9118356699999985 25.5349707399999986 2.7764732200000002 Au
atom 0.4645651700000000 25.5440624599999992 2.8551174600000002 Au
atom 3.3139712600000002 25.5209702699999994 2.8430688100000001 Au
atom 6.2463401100000002 25.6439838800000004 2.7677705100000001 Au
atom 7.5252701899999996 27.9399929900000004 2.5686635400000002 Au
atom 10.3812452499999992 27.9781656299999995 2.6869780599999999 Au
atom 13.2246366399999999 28.0269459199999993 2.8410188000000001 Au
atom 15.9843466999999997 27.9242580300000007 2.9455688100000001 Au
atom 18.8454435700000005 27.9587771300000014 2.6388589599999999 Au
atom 21.6930529999999990 27.9493928700000005 2.4845218700000000 Au
atom 24.4587698399999987 28.0288946500000016 2.7373137900000000 Au
atom 27.3576499099999992 27.9610210300000013 2.4315279900000002 Au
atom 1.9572128200000001 27.9638064399999990 2.7173434599999999 Au
atom 4.7335248999999999 28.0327311100000003 2.6680534300000001 Au
atom 9.0189336999999998 30.4238575199999985 2.4532140299999998 Au
atom 11.7548372899999993 30.4119339000000011 2.5651863000000001 Au
atom 14.6227190900000004 30.5724994400000014 2.5944867299999999 Au
atom 17.4755659200000011 30.2716537800000012 2.4544082199999999 Au
atom 20.2723449100000011 30.3987078900000007 2.5596850000000000 Au
atom 23.0589495599999985 30.5303708000000000 2.6888434600000002 Au
atom 25.9467057099999998 30.5368971199999990 2.6380648299999998 Au
atom 0.5851004200000000 30.4947324600000016 2.5798569800000002 Au
atom 3.4285784499999998 30.4609543500000015 2.4217362400000000 Au
atom 6.1000642300000001 30.3981620799999988 2.4353071000000002 Au
atom 7.6710022699999998 32.8601691200000019 2.6381992500000000 Au
atom 10.5088251800000005 32.9177526699999987 2.5444327400000000 Au
atom 13.1913218299999997 32.9339880200000010 2.2981488300000001 Au
atom 16.0357140300000012 32.9689759700000025 2.3342171199999999 Au
atom 18.6858005700000014 32.8626412400000021 2.7068500700000002 Au
atom 21.6167855499999995 32.9973725299999998 2.5788077399999998 Au
atom 24.5341130499999984 32.9168187900000007 2.3825315699999998 Au
atom 27.4699844199999994 32.9885021799999976 2.6786335600000002 Au
atom 1.9843271700000000 32.9380148099999985 2.4499954700000002 Au
atom 4.9641319599999996 32.9549612300000021 2.6135000200000000 Au
atom 9.0552057900000005 35.3587678499999996 2.6320022999999999 Au
atom 11.8226499599999997 35.5034651699999984 2.2821130500000000 Au
atom 14.6191275199999993 35.4475364799999966 2.2857887899999998 Au
atom 17.3941960100000017 35.3939662000000013 2.6117133899999998 Au
atom 20.2038318399999994 35.3468865999999977 2.7046573500000002 Au
atom 23.1090531599999984 35.4633121900000035 2.5889663000000001 Au
atom 25.9139713100000009 35.3340986600000022 2.5906787400000000 Au
atom 0.5902515699999999 35.4358284899999987 2.5506202800000000 Au
atom 3.4427133699999999 35.4326994799999966 2.6489177399999999 Au
atom 6.3385576900000000 35.4374592899999996 2.7152902100000000 Au
atom 7.5852906600000001 37.8969336099999978 2.4811157800000001 Au
atom 10.4963391900000005 37.9025974600000026 2.3914737599999998 Au
atom 13.2820702300000004 37.8805733399999980 2.5542124899999998 Au
atom 16.1057879100000001 37.9081441599999991 2.6204768399999998 Au
atom 18.8238702499999988 37.8453449599999985 2.6422979600000001 Au
atom 21.6064441500000015 37.8084643400000004 2.7806972600000002 Au
atom 24.5152131799999999 37.9925018899999998 2.4928550999999999 Au
atom 27.3131744199999993 37.8695755899999966 2.6332226699999999 Au
atom 1.9728475900000000 37.9114721999999986 2.4757363099999998 Au
atom 4.7694537300000004 37.8870277500000014 2.6075494600000000 Au
atom 9.0172953099999997 0.9470711200000000 2.6751434700000001 Au
atom 11.7722184300000006 0.8581190400000001 2.7591551499999998 Au
atom 14.6153898499999997 0.9742164400000000 2.8019876400000001 Au
atom 17.3784172400000010 0.8612718600000000 2.7790258099999998 Au
atom 20.2004101399999989 0.8832086500000000 2.7424096499999999 Au
atom 22.8779296599999995 0.8409657900000000 2.7871130399999999 Au
atom 25.7632639999999995 0.9580205400000000 2.7706127999999999 Au
atom 0.4592569000000000 0.8941448800000000 2.7078649100000001 Au
atom 3.3441379300000000 0.9060411000000000 2.6285850200000000 Au
atom 6.1308091100000004 0.9033908400000000 2.7665743599999999 Au
atom 7.5525451300000004 3.3246445900000001 2.7921105900000001 Au
atom 10.4043439400000004 3.3959010500000000 2.6995572399999999 Au
atom 13.1578054800000004 3.4069530700000001 2.7444457199999999 Au
atom 15.9829968400000002 3.4050337599999998 2.7353982600000002 Au
atom 18.8546790800000004 3.3632764599999998 2.8142892399999999 Au
atom 21.6560805800000011 3.3491403100000001 2.7858136299999998 Au
atom 24.3543906600000000 3.3496994199999999 2.7532058500000001 Au
atom 27.2772137800000003 3.3861016700000000 2.6655505700000002 Au
atom 1.9484393499999999 3.3902366599999998 2.5348613200000001 Au
atom 4.6814591200000004 3.3705002700000000 2.6242049399999998 Au
atom 9.0201339600000008 5.7664088700000002 2.6355387200000000 Au
atom 11.8239053700000003 5.9112761200000001 2.5118459199999998 Au
atom 14.6569900999999998 5.8739748399999998 2.5154092700000001 Au
atom 17.4315455600000000 5.8592244600000001 2.7721723300000001 Au
atom 20.1645883700000006 5.9095052900000002 2.6692226099999998 Au
atom 22.9453566600000016 5.8338129399999996 2.8613693100000002 Au
atom 25.7712670499999987 5.7812693900000003 2.8141414199999999 Au
atom 0.4481824500000000 5.8568712800000000 2.6197206099999999 Au
atom 3.2791865499999999 5.8981613199999998 2.6826939599999999 Au
atom 6.1299273699999999 5.8075567799999996 2.8275921899999998 Au
atom 7.5564264100000003 8.2263750099999999 2.7951003999999999 Au
atom 10.3129729500000007 8.2829488900000001 2.7115738299999999 Au
atom 13.2121988300000002 8.2980283999999997 2.5599371999999998 Au
atom 15.9139759000000005 8.3654251700000000 2.5963417199999999 Au
atom 18.6987491100000014 8.4309326999999996 2.5384081200000002 Au
atom 21.5991807300000005 8.2779757800000002 2.7029958900000000 Au
atom 24.4268430999999993 8.2837705499999998 2.6539007400000001 Au
atom 27.2245932699999997 8.3026495400000009 2.2932278300000002 Au
atom 1.8582287000000000 8.2860758499999996 2.6060224200000000 Au
atom 4.7978337000000000 8.2906087799999995 2.6945829400000001 Au
atom 8.8999465299999994 10.8282473100000001 2.5880872899999998 Au
atom 11.7066315999999997 10.7560810599999996 2.5661328600000002 Au
atom 14.4086218499999994 10.7594391199999997 2.3393799999999998 Au
atom 17.2920001799999987 10.8037276999999996 2.3527433800000002 Au
atom 20.1858134699999994 10.8052549899999999 2.5724206500000002 Au
atom 23.0540037099999999 10.8037471699999994 2.6987591100000001 Au
atom 25.8138031099999985 10.7505386000000005 2.2311121500000000 Au
atom 0.3955280100000000 10.7019967099999995 2.2821108200000002 Au
atom 3.2249337900000001 10.6509008600000001 2.5343216300000000 Au
atom 6.1287764899999999 10.8419447800000004 2.9038524799999998 Au
atom 7.1654211999999999 12.8637037000000003 5.5509155300000002 Cl
atom 7.2730964599999997 15.8730297900000004 8.4173202899999993 Cl
atom 7.2319104699999999 12.9674666199999997 8.2734073600000002 Na
atom 7.3331217100000003 15.7009373799999992 5.6994439400000001 Na
atom 7.1242588800000002 18.4819814800000017 5.6029944800000004 Cl
atom 7.1515290000000000 21.2644040399999987 8.7261526000000007 Cl
atom 7.1577903899999997 18.6637744900000015 8.3076694799999995 Na
atom 7.2425296799999996 21.2530574700000017 5.8560692000000003 Na
atom 7.1611418200000001 24.0691803200000010 5.5800787200000004 Cl
atom 7.2288526600000003 27.1279347900000012 8.5695524200000008 Cl
atom 7.2032472600000004 24.1128402599999987 8.3493185499999996 Na
atom 7.1129511499999998 26.8597463800000007 5.7132035600000002 Na
atom 7.1093340800000000 29.7423201299999995 5.5602358699999996 Cl
atom 7.1664606199999996 32.7368522399999975 8.4633450299999993 Cl
atom 7.0421873000000001 29.9211215000000017 8.2152356599999994 Na
atom 7.3289169999999997 32.6286156999999974 5.7007698600000003 Na
atom 7.1171829200000003 35.5360159900000028 5.6493967800000000 Cl
atom 7.1537295399999996 38.4286531400000015 8.4665172599999998 Cl
atom 7.0827204500000001 35.5717140699999987 8.3635030199999996 Na
atom 7.2002763400000003 38.3802881599999992 5.6436297399999997 Na
atom 7.0823072800000002 1.7337800999999999 5.5689793200000004 Cl
atom 7.1183982200000004 4.5809618199999997 8.3630854899999996 Cl
atom 7.1103781799999997 1.6861202799999999 8.3095248000000002 Na
atom 7.1757147500000000 4.5319629099999998 5.5780749099999998 Na
atom 7.2436387699999996 7.4049618800000001 5.7660071100000003 Cl
atom 7.1952531400000002 10.0997132700000005 8.4596604099999997 Cl
atom 7.2871411699999999 7.3795298799999998 8.4131841800000000 Na
atom 7.1731970799999996 10.0886841999999994 5.7011940399999999 Na
atom 10.0514165700000007 12.9804436600000006 5.6770845799999998 Na
atom 12.8199098399999993 13.1355443100000002 5.4788042800000003 Cl
atom 10.0275452000000005 15.8739092399999997 8.4012864999999994 Na
atom 12.7266063599999999 15.6677612600000007 8.4672319999999992 Cl
atom 12.8001559999999994 12.9394640800000005 8.2566381999999994 Na
atom 10.0374939800000007 12.8727761100000002 8.2544893300000002 Cl
atom 12.8548664200000005 15.8764503599999998 5.8516032899999999 Na
atom 10.1391248100000002 15.8320916599999997 5.7284179300000000 Cl
atom 10.0917135099999999 18.5053441399999983 5.9186208000000002 Na
atom 12.9131456900000003 18.5636186499999987 5.9333546000000004 Cl
atom 9.9794390300000000 21.2458661299999996 8.5137841999999999 Na
atom 12.8065057699999993 21.3969436000000002 8.7803611700000008 Cl
atom 12.6221192700000007 18.5349485099999995 8.6343668400000002 Na
atom 9.9485825099999996 18.5413364399999985 8.4287368899999997 Cl
atom 12.8950654000000000 21.4176540200000005 6.0942702100000004 Na
atom 10.1082012100000007 21.3103377800000011 5.8197750299999997 Cl
atom 10.0441478899999996 24.1689200399999997 5.8205679699999999 Na
atom 12.7553893299999999 24.0139249499999998 5.7197363299999999 Cl
atom 9.8720555099999991 27.0610114499999987 8.2829925299999996 Na
atom 12.6653477500000005 27.1084574700000012 8.6007152799999993 Cl
atom 12.8032550199999999 24.1719080899999987 8.4415245599999995 Na
atom 10.0274374999999996 24.2972340699999982 8.6439973400000003 Cl
atom 12.7842729100000003 26.9290523700000008 5.6441158600000003 Na
atom 9.9023981800000005 26.8462848100000002 5.5370104500000004 Cl
atom 9.8432276600000002 29.7342910499999995 5.8230810300000000 Na
atom 12.6564362900000003 30.0624107400000007 5.6826923499999999 Cl
atom 9.8002705399999996 32.7545954799999990 8.3256315900000004 Na
atom 12.5453525999999993 32.6380353300000010 8.6509009399999997 Cl
atom 12.5955143399999994 29.8774836000000015 8.1982983800000007 Na
atom 9.8211372400000005 29.8270780000000002 8.4260414400000005 Cl
atom 12.7301892900000002 32.8225329300000013 5.7879163800000004 Na
atom 10.1676657600000002 32.6891524700000033 5.6349928499999997 Cl
atom 9.9592279900000005 35.7451209199999980 5.8111220100000001 Na
atom 12.9057028500000008 35.5185835600000033 5.5989077700000003 Cl
atom 9.9096381999999998 38.3422233399999968 8.3390283499999995 Na
atom 12.6233006200000002 38.2036260400000032 8.3473811700000002 Cl
atom 12.7238779799999993 35.3164896299999995 8.2659009900000004 Na
atom 9.8987858899999992 35.4795349999999985 8.5572870600000002 Cl
atom 12.8721540200000000 38.2358926799999992 5.6603794699999996 Na
atom 10.0221374900000004 38.4915439299999989 5.6915094499999999 Cl
atom 9.9580024100000006 1.6545434200000000 5.7803262200000001 Na
atom 12.8695492999999992 2.0031698400000000 5.8402822600000004 Cl
atom 9.8615989699999993 4.5120287799999996 8.1551938800000006 Na
atom 12.9174068700000007 4.8449472199999999 8.6183441500000004 Cl
atom 12.8484161700000001 1.6789614900000001 8.4002691100000000 Na
atom 9.9989076499999996 1.9126290100000001 8.4373210499999995 Cl
atom 12.9547629999999998 4.6933838400000001 5.8963942300000003 Na
atom 10.1076268700000007 4.5413549900000003 5.6240547799999998 Cl
atom 10.1744570700000008 7.2759528099999997 5.5995973200000000 Na
atom 12.8681584099999995 7.5288609400000004 5.6678607599999999 Cl
atom 9.9418549100000000 10.3067980000000006 8.2640934799999997 Na
atom 12.9406319399999994 10.3047977500000005 8.4292943200000003 Cl
atom 12.8315133699999997 7.5056786700000000 8.3282316900000009 Na
atom 10.1574916999999996 7.4603706000000001 8.4802233000000005 Cl
atom 12.8670479100000001 10.2688411800000008 5.7176052600000000 Na
atom 10.1035467099999998 10.3831320199999997 5.6543510299999999 Cl
atom 15.6362921799999999 12.9769718100000002 5.5813876899999997 Na
atom 18.4079640600000012 13.1554049899999992 5.5196993799999996 Cl
atom 15.5805453000000007 15.6635748299999999 8.4085340800000008 Na
atom 18.4006737999999999 15.5817508399999998 8.6441101699999994 Cl
atom 18.6293075600000009 12.9685115100000008 8.1334891599999999 Na
atom 15.6017691900000006 12.9388553500000008 8.3302786300000005 Cl
atom 18.3041518399999994 15.8953915299999995 5.8174750700000004 Na
atom 15.6431220000000000 15.8932639499999997 5.6704769600000002 Cl
atom 15.5800492500000001 18.5745466099999987 5.9178267699999996 Na
atom 18.4147648799999999 18.5855505799999996 5.8499482399999998 Cl
atom 15.5475377699999999 21.2691914799999999 8.4516376799999993 Na
atom 18.2679604299999987 21.5578022599999990 8.7515156199999993 Cl
atom 18.4599664700000012 18.6114598800000017 8.5021794100000001 Na
atom 15.6978502599999992 18.5257996899999995 8.6605309599999991 Cl
atom 18.2948760600000000 21.3555839700000014 6.0294227800000000 Na
atom 15.5353667000000009 21.2869386600000006 5.7729461600000000 Cl
atom 15.5220754999999997 24.3024238900000000 5.6673395800000002 Na
atom 18.3363125400000015 24.3987345399999995 5.6435995400000003 Cl
atom 15.5447025399999994 26.9271025500000007 8.2808348600000006 Na
atom 18.4973174600000014 27.3153567200000005 8.3981107000000002 Cl
atom 18.3966299999999983 24.4003841100000010 8.3352591000000000 Na
atom 15.5918077999999998 24.3122969500000004 8.4974246200000003 Cl
atom 18.1610543699999987 27.2619234599999984 5.7758095100000002 Na
atom 15.3589821799999999 27.1318969599999988 5.6795818100000002 Cl
atom 15.5951361500000001 30.0089524800000014 5.6509269099999999 Na
atom 18.4965971399999987 30.0312633799999986 5.5390451100000000 Cl
atom 15.5065244399999997 32.8202088800000027 8.1519456399999992 Na
atom 18.4325306100000006 32.6830718100000013 8.6502248900000005 Cl
atom 18.5109603599999986 30.0045400399999984 8.1709652100000003 Na
atom 15.4918978500000009 29.9577004600000016 8.3292864000000009 Cl
atom 18.4164779699999990 32.7292898500000007 5.8453393699999996 Na
atom 15.4254029900000003 32.8062130100000005 5.5431673699999999 Cl
atom 15.7351671199999998 35.5188789799999967 5.6858801200000002 Na
atom 18.5950201700000015 35.5957462800000002 5.7167568400000004 Cl
atom 15.8072893699999995 38.4560188399999987 8.3161205299999992 Na
atom 18.5944460199999995 38.3292573200000035 8.5458769900000000 Cl
atom 18.6234744899999995 35.4283759500000031 8.2675671400000006 Na
atom 15.7365990000000000 35.5589648400000016 8.2824792400000007 Cl
atom 18.4748205399999996 38.4194882999999976 5.8390908599999998 Na