#===============================================================================
# Created using the Atomic Simulation Environment (ASE)

# Tue Dec 23 22:26:55 2025

#=======================================================
lattice_vector 28.1999999999999993 0.0000000000000000 0.0000000000000000 
lattice_vector 0.0000000000000000 39.4799999999999969 0.0000000000000000 
lattice_vector 0.0000000000000000 0.0000000000000000 62.3296083400000001 
atom 7.6272409300000001 14.7396824300000002 -0.5057919800000000 Au
atom 10.3549722099999997 14.6717062200000008 -0.3852013600000000 Au
atom 13.3229863000000002 14.6232387399999997 -0.3422884200000000 Au
atom 16.1109337600000018 14.7140331500000006 -0.4228481500000000 Au
atom 18.8959972799999996 14.6134218100000002 -0.4383895000000000 Au
atom 21.7477331599999992 14.7218110299999996 -0.5149625100000000 Au
atom 24.3446378500000016 14.5741380899999999 -0.4665375600000000 Au
atom 27.2489695599999990 14.7093931700000002 -0.5154843500000000 Au
atom 1.7993003299999999 14.5868961099999996 -0.4413022300000000 Au
atom 4.6052580499999998 14.7034690300000008 -0.5208553100000000 Au
atom 9.0605621799999998 17.0966982799999982 -0.5573803500000000 Au
atom 11.8513747899999995 16.9989448600000017 -0.5129596500000000 Au
atom 14.6043013100000003 17.1678617299999985 -0.4608467900000000 Au
atom 17.5019691299999991 17.0694955899999989 -0.4824626900000000 Au
atom 20.2841059399999999 17.0197498100000004 -0.3499450300000000 Au
atom 23.1741457100000012 17.1178722699999994 -0.3617763400000000 Au
atom 25.8831587700000014 17.0620480100000016 -0.4806790700000000 Au
atom 0.4318452700000000 17.0817109999999985 -0.4658425200000000 Au
atom 3.1578602000000000 17.0469307999999984 -0.5858119800000000 Au
atom 6.2438615500000001 17.1571658199999995 -0.3876429200000000 Au
atom 7.5815548899999996 19.4773475299999994 -0.5145880300000000 Au
atom 10.3113330600000008 19.5878811299999995 -0.4314862300000000 Au
atom 13.0693940299999998 19.7409428100000000 -0.2472759700000000 Au
atom 15.7651439700000005 19.7093020500000016 -0.4966197300000000 Au
atom 18.8228579799999984 19.6491508000000010 -0.4636033600000000 Au
atom 21.6084765300000008 19.6324444400000004 -0.3953249000000000 Au
atom 24.4491488500000003 19.6023850199999998 -0.2803014800000000 Au
atom 27.2032934399999995 19.7888274899999992 -0.4248155900000000 Au
atom 1.9967457300000000 19.6546385699999995 -0.4093537900000000 Au
atom 4.7965792799999996 19.4727858299999994 -0.4763043400000000 Au
atom 9.1199199800000006 22.0903695099999986 -0.4594338900000000 Au
atom 11.7826314199999995 22.0094017099999988 -0.3849153000000000 Au
atom 14.5710089499999995 21.7739525900000004 -0.5961530100000000 Au
atom 17.3353043400000004 21.9769778400000000 -0.5257152400000000 Au
atom 20.1944158199999997 21.9927871199999991 -0.2226740600000000 Au
atom 22.8984555900000011 21.8636099199999983 -0.5119587000000000 Au
atom 25.8423697399999988 22.0758842100000017 -0.5219521499999999 Au
atom 0.5375926700000000 22.1421547499999996 -0.3000169200000000 Au
atom 3.2366343500000001 22.2606294899999995 -0.2890772200000000 Au
atom 6.2443394300000001 21.9757039899999995 -0.5047310600000000 Au
atom 7.6355231300000002 24.4690777399999995 -0.5303955600000000 Au
atom 10.3142405000000004 24.6529171399999996 -0.4378157900000000 Au
atom 13.1021401399999995 24.5131412399999995 -0.3721975700000000 Au
atom 15.9234913299999992 24.6187709699999999 -0.5346747700000000 Au
atom 18.7051475099999998 24.5184017800000014 -0.4850044200000000 Au
atom 21.5959360499999988 24.5120622099999999 -0.2531887200000000 Au
atom 24.2937021400000006 24.7549622499999984 -0.3828119500000000 Au
atom 27.1800040299999992 24.3037885200000012 -0.4354990800000000 Au
atom 1.7466453799999999 24.3098421000000009 -0.4079066100000000 Au
atom 4.6265109000000004 24.6939444200000011 -0.5625646200000000 Au
atom 8.8198060500000004 27.1108723599999983 -0.7012792799999999 Au
atom 11.7547560299999994 27.0350709100000017 -0.5513919100000000 Au
atom 14.5668786699999995 27.1914077600000006 -0.6176605100000000 Au
atom 17.3769843699999988 27.0010702999999985 -0.5147431900000000 Au
atom 20.3237381200000016 26.9371606899999989 -0.7286960900000000 Au
atom 23.0094215899999988 26.8168776999999992 -0.5951443400000000 Au
atom 25.8459971700000004 26.9533221099999984 -0.4583746100000000 Au
atom 0.4241935000000000 26.9028870200000014 -0.5284113600000000 Au
atom 3.2619462299999999 27.1184163900000001 -0.4770283300000000 Au
atom 6.0006119499999997 27.0419677400000005 -0.5374403600000000 Au
atom 7.5024144799999997 29.4007019599999992 -0.5360110600000000 Au
atom 10.3475449200000007 29.3938365600000004 -0.6331377100000000 Au
atom 13.1298368799999992 29.4736960299999993 -0.5487883400000000 Au
atom 15.9604657799999998 29.3554163000000017 -0.5622152900000000 Au
atom 19.0117727700000003 29.5426832200000007 -0.5838183900000000 Au
atom 21.5220753199999990 29.5957438400000008 -0.6012362300000000 Au
atom 24.4701965900000005 29.3318093200000014 -0.6927617200000000 Au
atom 27.2007792700000017 29.4239418099999988 -0.5757815600000000 Au
atom 1.7583667999999999 29.4531408799999994 -0.4955117700000000 Au
atom 4.6610815299999997 29.4640914100000018 -0.6064015200000000 Au
atom 9.0474902299999993 32.1030058899999986 -0.6748684400000000 Au
atom 11.5770574699999997 31.9022505199999991 -0.5291797400000000 Au
atom 14.6524281199999997 31.9782647699999991 -0.5081845500000000 Au
atom 17.4647508500000015 31.9445010600000003 -0.6046677700000000 Au
atom 20.4270068500000015 31.8968814800000011 -0.5063440500000000 Au
atom 22.7889912800000012 31.6337207999999990 -0.6484935700000000 Au
atom 26.0267970700000006 31.7930724900000001 -0.7267352400000000 Au
atom 0.6189004299999999 32.0696347900000021 -0.3958536000000000 Au
atom 3.3784013399999999 31.8530556199999992 -0.5540968100000000 Au
atom 6.0418273400000002 31.8195390200000006 -0.5051878000000000 Au
atom 7.6361020499999999 34.3680191999999991 -0.6929848900000000 Au
atom 10.5112170700000007 34.3709965899999972 -0.4406235300000000 Au
atom 13.5358499900000009 34.2813172399999999 -0.5745638600000000 Au
atom 16.2171137999999999 34.3154531500000033 -0.4322894700000000 Au
atom 18.7333415300000006 34.4245795200000018 -0.3628598400000000 Au
atom 21.7147374000000006 34.5397390099999981 -0.5454739300000000 Au
atom 24.4140047600000010 34.3733707900000027 -0.6368816800000000 Au
atom 27.5168441199999982 34.4988626700000012 -0.4894545400000000 Au
atom 1.8210404700000000 34.4092767300000020 -0.3873634400000000 Au
atom 4.6104843799999999 34.4332653000000022 -0.4059846000000000 Au
atom 9.0560506499999995 36.7668637499999988 -0.4937954400000000 Au
atom 11.8549973699999995 36.7440766400000030 -0.5434972800000000 Au
atom 14.5790023600000005 36.9340733599999993 -0.5481355500000000 Au
atom 17.4440151199999995 36.9415235000000024 -0.5824516300000000 Au
atom 20.1753224600000003 36.9326901199999966 -0.4387667800000000 Au
atom 23.0450113300000012 36.7510836699999999 -0.6779359300000000 Au
atom 25.8716177499999986 36.8540688499999973 -0.2044330400000000 Au
atom 0.4709874500000000 36.8293951300000018 -0.3594309200000000 Au
atom 3.3269076499999999 36.9023115700000020 -0.4820534300000000 Au
atom 6.3157218600000000 36.8351893399999994 -0.3841085700000000 Au
atom 7.2346557100000002 -0.2351002600000000 -0.5132025099999999 Au
atom 10.4188906600000006 -0.1261497600000000 -0.4195972600000000 Au
atom 13.2021968300000001 -0.2806991300000000 -0.4783482200000000 Au
atom 16.1477918000000003 -0.0418788100000000 -0.2947554400000000 Au
atom 18.5397882500000009 -0.0475546300000000 -0.6589241700000000 Au
atom 21.7018619999999984 -0.3097554800000000 -0.3923871300000000 Au
atom 24.3490887299999983 -0.0485672400000000 -0.4916126200000000 Au
atom 27.1809830300000002 -0.1955780700000000 -0.3078329200000000 Au
atom 2.0040842500000000 -0.0057321500000000 -0.2750366800000000 Au
atom 4.7031288199999999 0.0334507600000000 -0.4173494200000000 Au
atom 8.8717261999999995 2.3358410300000001 -0.4205075100000000 Au
atom 11.7276918999999999 2.4167788600000000 -0.3229083800000000 Au
atom 14.6310664399999997 2.3173340900000001 -0.4481384300000000 Au
atom 17.3914889600000002 2.3232096300000000 -0.4251724100000000 Au
atom 20.3918247999999984 2.4041653300000001 -0.5309049400000000 Au
atom 23.1342660000000002 2.3754738199999998 -0.4274250900000000 Au
atom 25.8532213999999989 2.3012785299999998 -0.3263707700000000 Au
atom 0.3480027700000000 2.5331164199999998 -0.2770543100000000 Au
atom 3.3261348000000002 2.4399413700000001 -0.6175727900000000 Au
atom 6.0777027600000002 2.3753341600000000 -0.3998821400000000 Au
atom 7.4662797599999999 4.8016938700000003 -0.4033653900000000 Au
atom 10.2902101300000002 4.9520080399999999 -0.3321050500000000 Au
atom 13.2263207999999999 4.8321166599999996 -0.4640271200000000 Au
atom 16.0155964500000003 4.8182674099999998 -0.5029952000000000 Au
atom 18.7558809900000014 4.9966725500000004 -0.3053112400000000 Au
atom 21.4890768899999998 4.6944967799999997 -0.4693931300000000 Au
atom 24.5722049600000005 4.9894209500000004 -0.4658176900000000 Au
atom 27.3334207999999990 4.8645975300000002 -0.3452145100000000 Au
atom 1.8952536300000000 4.9383257299999999 -0.5114841300000000 Au
atom 4.7280279600000004 4.8099913200000000 -0.4443544800000000 Au
atom 8.8875512800000003 7.1473802400000004 -0.5379736100000000 Au
atom 11.8875267099999995 7.2389252600000003 -0.3973657000000000 Au
atom 14.6515146999999999 7.1843390200000004 -0.4398768300000000 Au
atom 17.4821861699999985 7.3595964599999997 -0.4250151600000000 Au
atom 20.2294468700000003 7.3132692800000001 -0.6883552400000000 Au
atom 22.8681763400000015 7.1643839099999997 -0.4769046000000000 Au
atom 25.8225163400000000 7.2618033200000003 -0.4870866700000000 Au
atom 0.4272995400000000 7.1680384699999999 -0.7969057400000000 Au
atom 3.4138813200000002 7.2124593199999998 -0.4387256500000000 Au
atom 6.1075443900000002 7.0765245400000003 -0.5992539800000000 Au
atom 7.6525224700000001 9.6557331800000004 -0.5649799400000000 Au
atom 10.4227269499999995 9.7651474799999995 -0.6524273300000000 Au
atom 13.2559565100000007 9.5096845099999996 -0.6710438900000000 Au
atom 16.0014024600000013 9.6667760900000008 -0.5911706200000000 Au
atom 18.8457788099999988 9.5391032599999992 -0.6360962999999999 Au
atom 21.7038609200000003 9.7971111299999993 -0.5530847300000000 Au
atom 24.4462220499999994 9.5719480699999995 -0.6201953400000000 Au
atom 27.1228114100000006 9.5665007800000001 -0.7230962500000000 Au
atom 1.7803010200000000 9.6794749200000005 -0.5486974000000000 Au
atom 4.7866786599999998 9.7880894299999994 -0.5840628700000000 Au
atom 8.9596660799999999 12.0642461000000001 -0.6460509100000000 Au
atom 12.0315284800000004 12.0566942499999996 -0.4398761900000000 Au
atom 14.6081897000000005 12.2866886300000004 -0.5699320500000000 Au
atom 17.3959136299999990 12.1264386200000001 -0.7247752600000000 Au
atom 20.1962699400000005 12.4452448300000000 -0.5468214200000000 Au
atom 23.0806614199999984 11.9880748799999992 -0.5230173900000000 Au
atom 25.7393621099999983 12.1122277599999997 -0.5467491200000000 Au
atom 0.5781830000000000 11.9014401599999999 -0.5635773800000000 Au
atom 3.2754872300000000 12.2496379799999993 -0.6975240600000000 Au
atom 6.1850313600000000 12.1774121199999996 -0.6515215900000000 Au
atom 7.6311389199999997 13.0545080400000000 2.0826126999999999 Au
atom 10.3177448500000004 13.0375005999999996 1.9781848099999999 Au
atom 13.3906199200000007 13.0254178100000004 2.1006328999999999 Au
atom 16.0036926500000014 13.0590449599999996 2.0425271199999999 Au
atom 18.8834257799999996 13.0331045200000002 2.2899698700000002 Au
atom 21.5993683099999991 13.1952604000000004 1.7357306299999999 Au
atom 24.5252238300000016 12.9937606500000005 2.0824870099999999 Au
atom 27.2374536899999988 13.0910499900000001 2.1215685000000000 Au
atom 2.0171432000000000 13.0209292100000003 1.9505450700000000 Au
atom 4.6122064399999996 13.0087508500000002 2.0545189700000002 Au
atom 8.8051062299999998 15.6273535799999994 2.2674105299999998 Au
atom 11.6427036699999995 15.4594444000000006 2.1320571199999998 Au
atom 14.5687583699999994 15.4755185999999991 2.1910420799999999 Au
atom 17.4994488299999986 15.3793140499999996 2.1090171000000000 Au
atom 20.2913600099999982 15.4012883100000000 2.0290958699999999 Au
atom 23.0537459200000008 15.5991102099999992 2.2453837299999999 Au
atom 25.9580787400000013 15.5210526200000007 2.2888499300000000 Au
atom 0.4661651200000000 15.3057933500000001 1.9994787400000000 Au
atom 3.3227339400000000 15.6519462300000001 2.2523194499999999 Au
atom 6.1853026000000000 15.3797527800000005 1.9907774800000000 Au
atom 7.7297928599999999 17.9989141000000004 2.2364479099999999 Au
atom 10.3343125600000008 17.9576196599999989 2.0436522400000001 Au
atom 13.0894785400000000 17.8385307900000001 2.1459818300000002 Au
atom 15.8847891200000007 18.1040890499999989 2.0365418700000002 Au
atom 18.8170646700000006 18.1230159399999984 2.2402482699999999 Au
atom 21.7484957700000017 17.9654829199999995 2.0776272300000000 Au
atom 24.3436372500000004 17.9448972200000014 2.0752259999999998 Au
atom 27.1876628800000013 18.0823409400000017 2.2036970400000002 Au
atom 1.8663839600000001 17.8701461200000011 2.3422882000000000 Au
atom 4.8918859699999997 17.9141742899999983 2.0478534700000002 Au
atom 9.0297659699999997 20.3701232700000006 2.3700997600000000 Au
atom 11.7163150399999996 20.5455624999999991 2.1358213199999998 Au
atom 14.4963100800000007 20.4722862100000000 2.4052959899999999 Au
atom 17.3206051000000016 20.2653430800000010 2.0850374899999999 Au
atom 20.3234234899999997 20.3185892999999993 2.1563808000000000 Au
atom 22.9195059800000003 20.5933500599999988 2.1131466699999999 Au
atom 25.9789972200000001 20.5732027500000001 2.1146382199999998 Au
atom 0.5336951599999999 20.5425313100000011 2.2471298700000002 Au
atom 3.4213951300000001 20.5286081200000012 2.4167199600000000 Au
atom 6.2204396700000002 20.4789554500000008 2.1948946500000002 Au
atom 7.3394186899999996 22.9947370199999988 2.1255030300000000 Au
atom 10.3958382799999995 22.8442394499999999 2.2358659300000001 Au
atom 13.2750543299999997 22.9395229500000006 2.1897177200000000 Au
atom 16.0100115699999996 22.8502662900000004 2.2954370800000001 Au
atom 18.8095403099999992 23.0367664099999985 2.2628002899999999 Au
atom 21.4861112500000004 23.1129910699999996 2.0097622600000000 Au
atom 24.3257137700000001 22.9213386200000002 2.0764909000000000 Au
atom 27.4617862899999992 22.8085118099999988 2.0865493499999999 Au
atom 1.9556211600000000 22.7307019399999994 2.0384837000000000 Au
atom 4.8983957399999998 22.9025347900000007 2.0719703500000000 Au
atom 8.9483320400000004 25.3985041400000000 2.1564306300000000 Au
atom 11.8044490799999995 25.4320476800000002 2.0427836500000001 Au
atom 14.5184886800000008 25.4044008999999988 2.0747302599999999 Au
atom 17.3010424000000000 25.3523485199999996 1.9800972400000001 Au
atom 20.3329507099999987 25.4005029100000002 2.0651828200000000 Au
atom 23.0792169300000012 25.4097425200000018 2.1276356800000000 Au
atom 25.9732955499999996 25.5020233400000009 2.1196648499999999 Au
atom 0.3836767000000000 25.3270319700000002 2.1940612800000001 Au
atom 3.2824248599999999 25.5062860600000008 1.9769828500000000 Au
atom 6.2573525700000001 25.2066126699999984 2.1343738399999999 Au
atom 7.6177778900000002 27.9248049999999992 2.0315360299999998 Au
atom 10.3660947700000001 27.8795074800000009 1.9979096599999999 Au
atom 13.1738058599999999 27.8793130600000012 2.3015177699999998 Au
atom 15.8548161400000005 27.9446500100000002 2.0729403799999999 Au
atom 18.8154487800000005 28.0092598499999994 1.9933323300000001 Au
atom 21.5182522700000014 27.7835715100000016 2.1963992700000001 Au
atom 24.6176234399999991 27.7208978600000009 1.9991423200000000 Au
atom 27.2150794199999986 27.8333162499999993 2.1348324399999998 Au
atom 2.0300395800000000 27.9393707099999986 1.8895692200000000 Au
atom 4.6874328099999998 27.8454388100000010 2.1476297199999999 Au
atom 9.1339657299999999 30.3746044099999999 2.0854137700000002 Au
atom 11.6337118900000007 30.4400618999999999 1.8999176799999999 Au
atom 14.6214246800000005 30.1378739099999997 2.1811749499999999 Au
atom 17.5519578400000000 30.3134434400000004 2.0520739899999998 Au
atom 20.1689742199999991 30.2402241099999998 2.0778321399999999 Au
atom 23.1021340200000012 30.3462140500000004 2.2086881500000000 Au
atom 25.8419380499999995 30.2704154599999988 1.9836281300000000 Au
atom 0.3941931200000000 30.3905605600000008 2.0357981000000001 Au
atom 3.3975879299999998 30.2861982099999985 2.0250400599999998 Au
atom 6.1560553999999996 30.3983191300000009 2.0484502000000000 Au
atom 7.3937085600000003 32.7562559100000001 2.1048490399999999 Au
atom 10.5106981499999996 32.6253867200000016 2.3451695300000002 Au
atom 13.1386566200000008 32.7754360300000016 2.0501170200000001 Au
atom 15.9185871999999993 32.8078374999999980 2.1990830099999998 Au
atom 18.7550301799999986 32.8145102699999995 2.2009528399999998 Au
atom 21.7258843199999987 32.6037234799999993 2.0833960299999998 Au
atom 24.5741349900000010 32.6844606900000016 2.0085142000000000 Au
atom 27.2927744399999987 32.7947748099999998 2.0669747500000000 Au
atom 1.8382845999999999 32.8852925999999997 2.1021429100000000 Au
atom 4.6349698600000000 32.7223437999999973 2.0269881000000001 Au
atom 9.1208624399999998 35.1774041700000026 2.0926338200000001 Au
atom 11.8416487299999993 35.3979284500000020 2.1175347499999999 Au
atom 14.5718821799999994 35.3054501399999978 2.0741309200000000 Au
atom 17.4287518800000001 35.1435150000000007 2.2558421300000000 Au
atom 20.2080508300000012 35.3291036600000012 2.1518481899999999 Au
atom 23.0635891599999994 35.2399059099999974 2.2113936600000001 Au
atom 25.8058580100000015 35.1514578499999999 2.0529318499999998 Au
atom 0.5413013900000000 35.1136025400000023 2.0535288299999999 Au
atom 3.4534449199999999 35.1778368599999993 2.0668328100000002 Au
atom 6.1942883899999996 35.2781475099999966 2.1286120500000001 Au
atom 7.4868481300000003 37.5722500800000034 2.0527889500000001 Au
atom 10.5651826100000008 37.7583761899999999 1.9510923300000000 Au
atom 13.2440000700000002 37.8642768099999998 1.9515378200000000 Au
atom 16.0908575399999982 37.6940418000000008 2.2404791799999999 Au
atom 18.8581337200000014 37.7391146800000001 2.1830889600000001 Au
atom 21.7649346799999996 37.7390269899999993 2.1327771100000001 Au
atom 24.4729390600000016 37.8450897900000029 2.1195653399999999 Au
atom 27.3214952199999992 37.7090880200000029 2.2392336199999998 Au
atom 1.9658276600000000 37.7425022899999973 2.1515823500000000 Au
atom 4.7467544100000003 37.5364936499999970 2.1767561099999999 Au
atom 9.0832271400000000 0.7270870600000000 2.3371996400000001 Au
atom 11.7975083099999996 0.6546420400000000 2.3702563099999998 Au
atom 14.5589891799999993 0.6220469199999999 2.1294015599999998 Au
atom 17.4956765099999991 0.8084731600000000 2.2389425799999998 Au
atom 20.2537852299999983 0.7884771800000000 2.3092207500000002 Au
atom 23.0355324500000016 0.6903176300000000 2.2894869500000001 Au
atom 25.9523507199999983 0.6618061000000000 2.2258566000000002 Au
atom 0.3800634100000000 0.6992996200000000 2.1420142100000001 Au
atom 3.2966691899999998 0.5377062900000000 2.2265145500000001 Au
atom 6.2321584699999999 0.5590423200000000 2.3330176900000001 Au
atom 7.5213443399999997 3.1531636500000002 2.2126890800000001 Au
atom 10.5137519600000005 3.0138627100000002 2.1170147799999999 Au
atom 12.9432260600000006 3.2138820199999998 2.1639056399999999 Au
atom 16.0284915599999991 3.2231305799999999 2.0589951900000001 Au
atom 18.8642839199999983 3.0835820300000001 2.2063098200000000 Au
atom 21.6171501600000013 3.0284803700000000 2.2985218900000000 Au
atom 24.5078712400000001 3.2680257500000001 2.2359689700000001 Au
atom 27.2881651299999994 3.0997787300000001 2.0328209899999998 Au
atom 1.8170189400000001 3.3184840900000001 2.1950970000000001 Au
atom 4.8302636799999998 2.9894674700000001 2.1347971900000000 Au
atom 8.9131603399999992 5.6341137000000003 2.0946442599999999 Au
atom 11.7497944899999993 5.6678776900000001 2.0888119399999998 Au
atom 14.6496455900000004 5.7195073100000000 2.1404546199999999 Au
atom 17.3424487800000016 5.6626323200000002 2.1311121499999999 Au
atom 20.1560797100000002 5.6204123099999999 2.3103703100000001 Au
atom 23.1017834700000009 5.6417981700000004 2.1564751900000001 Au
atom 25.8822602000000010 5.6202798200000004 2.3117548000000001 Au
atom 0.4849523100000000 5.7305130999999996 2.2033683599999998 Au
atom 3.1372789900000000 5.6899864700000000 2.1843196900000001 Au
atom 6.1402950199999999 5.8334929000000004 2.0611047999999998 Au
atom 7.6693126400000002 8.1332639699999998 2.2185786300000001 Au
atom 10.4022807700000008 8.1723888099999993 2.0917501100000000 Au
atom 13.2657946599999992 8.2637469499999998 1.9712368899999999 Au
atom 15.9000742000000006 7.9073726799999999 1.9448129400000000 Au
atom 18.9060518500000008 8.1131655899999995 1.9306776999999999 Au
atom 21.5903128200000012 8.0068932200000003 1.9334094399999999 Au
atom 24.4530263099999985 8.2223889200000002 2.2510072900000000 Au
atom 27.4859909599999988 8.0439983799999997 1.9224219600000001 Au
atom 1.8785544400000000 8.3294771799999996 2.2684477400000000 Au
atom 4.5774946900000000 8.1309963199999995 2.0184994600000001 Au
atom 8.9671902200000009 10.6404496999999996 2.0629670600000001 Au
atom 11.7616418500000002 10.4942536799999999 2.1842664100000002 Au
atom 14.5452793000000007 10.5967638799999992 2.0043516399999999 Au
atom 17.4431778100000017 10.6399405399999996 2.0827454599999999 Au
atom 20.2842312800000002 10.5763632100000002 2.1409066100000000 Au
atom 23.0979578100000005 10.5361346999999999 1.9215493600000000 Au
atom 25.8099615399999998 10.4649799600000009 1.7985615600000000 Au
atom 0.4852189400000000 10.5291365799999994 1.9227898299999999 Au
atom 3.3586249800000001 10.5006919599999993 1.9354610800000001 Au
atom 6.1811355700000004 10.5181971599999997 1.9405381100000001 Au
atom 7.6615470500000002 13.4685791300000002 4.9661782700000003 Cl
atom 7.4710394000000004 16.2863713099999998 8.0995778299999994 Cl
atom 7.4231659800000003 13.3286580000000008 7.9033022500000003 Na
atom 7.3926558699999996 16.2544982400000002 5.2920456800000002 Na
atom 7.4182740300000001 19.1091469600000003 5.2387945499999997 Cl
atom 7.3953834000000001 21.9572562299999987 8.0594129100000007 Cl
atom 7.5518705900000000 18.9094268099999994 7.8181371500000001 Na
atom 7.3981764999999999 21.6352072000000000 5.4111861200000000 Na
atom 7.5685137100000004 24.8181835000000000 5.1468885699999998 Cl
atom 7.4881115200000004 27.4214902100000018 7.9119585900000002 Cl
atom 7.3481782000000004 24.7492936199999995 7.8842048299999998 Na
atom 7.5427338800000001 27.4741742900000006 5.2219196300000004 Na
atom 7.6701335400000001 30.3363835799999997 5.0275170600000001 Cl
atom 7.4526029600000001 33.2356530899999996 8.0451186799999999 Cl
atom 7.4996063199999998 30.4225115700000011 7.7737778000000004 Na
atom 7.5482833600000001 33.0370496500000002 5.1523986500000003 Na
atom 7.6392132799999999 35.9780466500000031 5.3160666200000000 Cl
atom 7.6010258700000000 38.6304143799999977 8.0658774399999995 Cl
atom 7.6481846100000004 35.9322975600000021 7.7449985899999998 Na
atom 7.6048725900000003 38.8866226999999967 5.3038577800000004 Na
atom 7.6999077299999996 2.0348623099999998 5.3721587499999996 Cl
atom 7.5071914900000003 4.8900852199999996 7.9862890499999999 Cl
atom 7.5444713500000002 2.2712824899999999 7.9460271699999998 Na
atom 7.6621492599999996 4.8342058500000000 5.2556692500000004 Na
atom 7.6671727000000001 7.7048678500000003 4.9778134800000000 Cl
atom 7.4624497999999999 10.4125546199999999 8.0985436699999998 Cl
atom 7.3638338000000001 7.7577687700000002 7.7945485400000001 Na
atom 7.5325763999999999 10.5337787699999996 5.1289384699999996 Na
atom 10.5103174199999998 13.5382392700000000 5.2044011499999998 Na
atom 13.1409756400000006 13.3239313599999996 5.1068211300000002 Cl
atom 10.3242963299999992 16.3813947599999992 8.0140884099999994 Na
atom 13.1520251100000003 16.0998788799999986 8.0730488999999999 Cl
atom 13.1561002200000008 13.3518878300000008 7.7905221600000001 Na
atom 10.3617004599999998 13.4319097099999993 8.0012993500000000 Cl
atom 13.0890832199999991 16.2676474999999989 5.3680032600000001 Na
atom 10.2968270499999992 16.0634585500000000 5.3340975100000003 Cl
atom 10.1207656799999999 19.0185360599999989 5.2830215000000003 Na
atom 13.2796117599999999 19.0222119200000002 5.2975105700000000 Cl
atom 10.6385034899999997 21.8367315700000013 7.8804830299999997 Na
atom 13.1463453599999998 21.6993099600000008 7.9776440199999996 Cl
atom 13.3572389900000008 18.9966997500000012 7.9803305599999996 Na
atom 10.3235562000000005 18.9875164400000003 8.3226245199999997 Cl
atom 13.1090378500000000 21.9524641400000000 5.2416651300000003 Na
atom 10.6338841599999991 21.9872682600000005 5.3065754800000002 Cl
atom 10.2328760200000008 24.6268077800000000 5.4705615200000004 Na
atom 13.2110605600000000 24.6409845400000016 5.2540294500000000 Cl
atom 10.2841936000000000 27.4911470000000016 7.6821077999999998 Na
atom 13.2651857100000008 27.4651463800000002 7.9902880600000001 Cl
atom 13.0295384700000003 24.7983339500000000 7.8777400300000000 Na
atom 10.2855076200000006 24.5995662700000004 8.1593373899999992 Cl
atom 13.1138777300000005 27.6975729100000017 5.0645837399999998 Na
atom 10.4434227100000001 27.3326932300000003 5.2168285900000004 Cl
atom 10.4743725300000001 30.2944910800000002 5.1506056500000001 Na
atom 13.2342120199999993 30.2489117999999984 5.0569322999999997 Cl
atom 10.3448989499999993 33.0784842500000025 7.8590793799999998 Na
atom 13.1351008799999995 33.0131073399999977 8.1598496899999997 Cl
atom 12.9801610499999995 30.3705645599999983 7.8160023499999998 Na
atom 10.3870778300000008 30.2823890400000018 7.9562489400000000 Cl
atom 13.1675627199999994 33.1109286399999974 5.2303685800000004 Na
atom 10.3918738499999996 32.9677637899999993 5.2324516100000000 Cl
atom 10.4025521300000001 35.9926520900000000 5.3568878199999999 Na
atom 13.2871557199999994 36.0972066599999977 5.3377827499999997 Cl
atom 10.2159157799999996 38.7558955599999990 7.8895416100000002 Na
atom 13.2440429200000001 38.6358147099999982 8.1240848000000003 Cl
atom 13.1346484599999993 35.8697554700000012 7.9423259899999996 Na
atom 10.2109276900000001 35.9758891099999971 8.0577336400000004 Cl
atom 13.3277621199999992 38.7673728700000026 5.4667376499999998 Na
atom 10.2134271900000009 38.8017873699999996 5.1874237699999997 Cl
atom 10.0753377600000000 1.9636405900000000 5.4210423499999996 Na
atom 13.1889140400000002 2.1714025000000001 5.3139135399999997 Cl
atom 10.4276220800000008 4.8650768500000003 7.7849017700000003 Na
atom 13.0345031599999999 5.0568882600000000 7.9928236500000001 Cl
atom 13.1478197199999993 2.1483455500000002 7.7048532300000003 Na
atom 10.5091041900000004 1.9465329200000001 8.2676875299999999 Cl
atom 13.3111170600000008 5.0041805100000003 5.4835517300000003 Na
atom 10.5810311899999991 4.7953656899999997 5.3545859000000000 Cl
atom 10.4311751899999994 7.6119600299999997 5.3064585900000001 Na
atom 13.3309409199999997 7.6385911999999996 5.2235735900000000 Cl
atom 10.1799053799999992 10.3768506100000000 7.7757862199999996 Na
atom 13.1560674800000008 10.5164391599999991 7.8915175700000004 Cl
atom 13.2327201700000003 7.6524773300000000 7.6883274500000001 Na
atom 10.2403866899999993 7.6474360800000003 7.9191484900000004 Cl
atom 13.0915243399999994 10.6465983000000008 5.2778423300000004 Na
atom 10.5759514200000009 10.5822353000000007 5.2882404100000002 Cl
atom 15.9166912800000002 13.3991559599999999 5.1875047900000002 Na
atom 18.8412681199999987 13.2487323000000004 4.9777423100000000 Cl
atom 16.0153080099999983 16.2097233699999990 7.7968966300000000 Na
atom 18.9458115300000003 16.1189318899999989 8.1472843200000007 Cl
atom 18.7797804500000005 13.3644123700000002 7.9707945300000000 Na
atom 16.0230768999999995 13.2827630899999996 7.9854727199999997 Cl
atom 18.8717701300000016 16.1757940900000001 5.4009140599999998 Na
atom 15.9390939599999992 16.3200508599999985 5.3438677300000004 Cl
atom 15.9302187499999999 18.9323827099999988 5.4589382200000003 Na
atom 18.8788711499999984 19.0228046000000006 5.2633668699999996 Cl
atom 16.0944499000000008 22.1475528200000014 7.8631960000000003 Na
atom 18.8637213300000006 21.7961136800000013 8.0001165099999998 Cl
atom 19.0061580399999990 19.1343251899999984 7.9718710799999997 Na
atom 15.8931297300000001 19.0897641900000004 8.0043420600000008 Cl
atom 18.9296422299999989 22.0030207000000004 5.2483993599999996 Na
atom 15.9629128199999997 21.7592470099999993 5.2591334700000001 Cl
atom 16.0667874099999999 24.4895510999999999 5.3817243599999998 Na
atom 18.9599566300000006 24.6418541699999984 5.2310369400000001 Cl
atom 15.9337117100000007 27.6424346400000012 7.7614922399999999 Na
atom 18.4943979300000017 27.6737571100000004 8.0857420900000001 Cl
atom 18.7685076299999984 24.6460398500000011 7.9512935699999998 Na
atom 15.9938863599999994 24.5149130200000016 8.0674203900000006 Cl
atom 18.6136720300000000 27.3906303099999988 5.3765620399999996 Na
atom 15.9107503599999998 27.3938112700000005 5.1106893800000002 Cl
atom 16.1275932500000003 30.3146297800000006 4.9649993900000000 Na
atom 18.7785921199999990 30.3766720600000006 5.3389852800000002 Cl
atom 15.8675836100000005 33.0117003399999973 7.7134372000000004 Na
atom 18.8364604399999997 33.0944550399999997 8.0369153900000008 Cl
atom 18.7010764199999997 30.1930985199999995 7.8603932199999997 Na
atom 15.9435889799999995 30.2673338700000016 7.8458173300000000 Cl
atom 18.9073921499999997 33.1898521800000026 5.2248113700000003 Na
atom 16.1066077300000003 33.1571462200000013 5.3183477100000003 Cl
atom 15.8685582499999995 36.0975769300000024 5.3235562200000004 Na
atom 18.9821062299999994 35.7511590100000021 5.3289827699999996 Cl
atom 15.8138212399999993 38.8098528599999995 8.0100876000000003 Na
atom 18.9397654399999986 38.7769519200000019 8.0543149199999995 Cl
atom 18.6943134700000009 35.8741976600000001 7.6491895300000001 Na
atom 15.9837743099999994 35.9296084100000002 8.0909102300000004 Cl