#===============================================================================
# Created using the Atomic Simulation Environment (ASE)

# Tue Dec 23 21:42:16 2025

#=======================================================
lattice_vector 28.1999999999999993 0.0000000000000000 0.0000000000000000 
lattice_vector 0.0000000000000000 39.4799999999999969 0.0000000000000000 
lattice_vector 0.0000000000000000 0.0000000000000000 62.3296083400000001 
atom 7.4917952200000002 14.8147706699999997 0.0030399800000000 Au
atom 10.3202322500000001 14.8056513699999996 -0.0269566100000000 Au
atom 13.1228719399999996 14.8143253999999995 -0.0275009200000000 Au
atom 15.9366798200000002 14.8323238899999996 0.0305694500000000 Au
atom 18.7698023999999997 14.8140943899999993 0.0646326000000000 Au
atom 21.6020899100000001 14.8105579100000000 0.0198480400000000 Au
atom 24.4230175600000017 14.7742726199999996 0.0717373200000000 Au
atom 27.2530268800000002 14.8573616299999998 -0.0606792400000000 Au
atom 1.8604434000000001 14.8336841100000001 0.0205385000000000 Au
atom 4.6466027700000003 14.8048651200000005 -0.0261266200000000 Au
atom 8.9105445200000002 17.2640606400000003 -0.0149386900000000 Au
atom 11.7102076900000007 17.2934576699999987 0.0186743300000000 Au
atom 14.5655121699999999 17.2681371100000014 0.0438555200000000 Au
atom 17.3759893599999984 17.2841141100000009 0.0633776900000000 Au
atom 20.2022058599999994 17.2891638299999997 0.0001356000000000 Au
atom 23.0050556099999994 17.2474031600000011 0.0202119600000000 Au
atom 25.7983734899999995 17.2687376800000010 0.0738442100000000 Au
atom 0.4381806200000000 17.3103721999999998 0.0450086500000000 Au
atom 3.2900141600000001 17.2970959899999990 0.0372510900000000 Au
atom 6.1036278099999999 17.2698840500000017 0.0344420500000000 Au
atom 7.4996253299999998 19.7229591500000012 0.1302511200000000 Au
atom 10.3333939899999994 19.7694917500000003 0.0135525300000000 Au
atom 13.1514694900000002 19.6922500400000011 0.1576567300000000 Au
atom 15.9856317499999996 19.7778059500000012 0.0798135300000000 Au
atom 18.7940024699999988 19.7496725399999988 0.0983961900000000 Au
atom 21.6333525900000012 19.7764596499999996 0.0914227400000000 Au
atom 24.4339206699999991 19.7133630099999984 0.1452420100000000 Au
atom 27.2374504299999991 19.7613759500000015 0.0184346200000000 Au
atom 1.8655890500000001 19.7510804399999991 0.1170407000000000 Au
atom 4.6861715100000003 19.7414816299999991 0.0682692700000000 Au
atom 8.9042934900000006 22.1890488800000014 0.0207221700000000 Au
atom 11.7758090699999993 22.2014836299999985 0.0771174400000000 Au
atom 14.5859924599999999 22.1920740899999984 0.0221124500000000 Au
atom 17.3950609800000002 22.2357804500000000 0.1065129200000000 Au
atom 20.1964751299999996 22.2268182100000011 0.0645277000000000 Au
atom 23.0348234400000003 22.1904233300000016 0.0989704000000000 Au
atom 25.8260166399999989 22.1929322099999986 0.0789275500000000 Au
atom 0.4451283400000000 22.2335851700000013 0.0493494400000000 Au
atom 3.2686811499999999 22.2193375000000017 0.0865626300000000 Au
atom 6.0867095000000004 22.2014926300000006 0.0863728100000000 Au
atom 7.5165951800000004 24.6839997400000009 0.1004694600000000 Au
atom 10.3305226000000001 24.6689329599999994 0.0641247300000000 Au
atom 13.1595094300000000 24.7002273300000006 0.1013321200000000 Au
atom 15.9709947099999994 24.6615188500000002 0.0652286300000000 Au
atom 18.8112676400000005 24.6757385000000014 0.1058791100000000 Au
atom 21.6178514600000007 24.6844933200000014 0.1393205600000000 Au
atom 24.4012016600000017 24.6808595500000010 0.1160889400000000 Au
atom 27.2284599900000011 24.6828010199999994 0.0873128400000000 Au
atom 1.8406818100000000 24.7047712900000001 0.1189308500000000 Au
atom 4.6810319900000001 24.6815185100000001 0.0746161700000000 Au
atom 8.9292126300000003 27.1628424799999983 0.0794242000000000 Au
atom 11.7416744600000005 27.1840912400000008 0.0489940600000000 Au
atom 14.5652447200000008 27.1390273999999998 0.0661743500000000 Au
atom 17.3765430800000011 27.1561893099999985 0.0015145400000000 Au
atom 20.2015232400000002 27.1537639199999994 0.0455342000000000 Au
atom 23.0190591500000004 27.1447350599999986 0.1032402100000000 Au
atom 25.8169482200000004 27.1429248600000008 0.0554453000000000 Au
atom 0.4194744100000000 27.1341383399999998 0.0988809700000000 Au
atom 3.2911259199999998 27.1659813999999997 0.0277477800000000 Au
atom 6.0979623800000002 27.1228032299999988 0.0982059800000000 Au
atom 7.4750598200000002 29.6418907400000009 0.0564513600000000 Au
atom 10.3019623500000002 29.6268591999999984 0.0558932300000000 Au
atom 13.1379417099999998 29.6223050599999986 -0.0007370100000000 Au
atom 15.9646316800000001 29.6323696400000003 0.0374825800000000 Au
atom 18.7450331900000009 29.6354195999999988 -0.0440696900000000 Au
atom 21.5897438000000008 29.6529378500000007 0.0560439000000000 Au
atom 24.3994529500000006 29.6160970100000007 -0.0279168200000000 Au
atom 27.2146643099999999 29.5992397999999994 0.0121084100000000 Au
atom 1.8351947200000001 29.6300904299999992 -0.0039558200000000 Au
atom 4.6885592799999998 29.6055716099999984 0.0309686800000000 Au
atom 8.9318402700000004 32.0946214200000028 -0.0237853400000000 Au
atom 11.7402045699999995 32.1123025400000017 0.0790002400000000 Au
atom 14.5577115700000004 32.1083749399999974 -0.0074293600000000 Au
atom 17.3754725999999984 32.0979045600000035 -0.0037170400000000 Au
atom 20.1918693400000002 32.1113758999999988 0.0286065700000000 Au
atom 23.0315427100000001 32.0651330999999971 -0.0034457000000000 Au
atom 25.8393976099999989 32.0416414700000018 -0.0010085700000000 Au
atom 0.4785385400000000 32.0705973299999982 0.0102793400000000 Au
atom 3.3127777200000001 32.1026783100000017 0.0636815100000000 Au
atom 6.1031017800000003 32.1068528200000003 0.0166489000000000 Au
atom 7.5141325200000004 34.5873897199999973 -0.0550701400000000 Au
atom 10.3546438199999997 34.5495752599999975 0.0138166400000000 Au
atom 13.1637370600000008 34.6045451299999982 0.0670833200000000 Au
atom 15.9890502500000000 34.5886401300000017 0.0616381900000000 Au
atom 18.7957568399999992 34.5638751099999979 -0.0282385700000000 Au
atom 21.6323514099999983 34.5347168300000007 0.0882563200000000 Au
atom 24.4183561000000005 34.5680339199999977 -0.0006778600000000 Au
atom 27.2330027699999988 34.5153073399999997 0.0445076200000000 Au
atom 1.8772792899999999 34.5637108700000013 0.0163501300000000 Au
atom 4.7125644299999996 34.5723162700000017 0.0575932800000000 Au
atom 8.9570430499999993 37.0382447300000024 0.0109644400000000 Au
atom 11.7558887199999997 37.0422436799999986 0.0385481400000000 Au
atom 14.5827926300000001 37.0756728499999966 0.0826732300000000 Au
atom 17.3724779600000012 37.0596713300000005 0.0173144200000000 Au
atom 20.2014693700000016 37.0064473699999965 0.0236682000000000 Au
atom 23.0169990300000009 37.0333473299999980 0.0404298400000000 Au
atom 25.8505312600000003 37.0241264300000026 0.0053214000000000 Au
atom 0.4686591400000000 37.0070614500000019 0.0067138500000000 Au
atom 3.2875762200000000 37.0026771499999967 0.0794217000000000 Au
atom 6.1100134099999996 37.0538639999999972 -0.0134745200000000 Au
atom 7.5170153500000003 0.0381072400000000 0.0557207400000000 Au
atom 10.3198952800000008 0.0268272400000000 0.0664427100000000 Au
atom 13.1347454900000002 0.0162880700000000 -0.0026199300000000 Au
atom 15.9980558199999994 0.0368142900000000 0.1130379600000000 Au
atom 18.8088647100000017 0.0381087000000000 0.0563719900000000 Au
atom 21.6193609199999983 0.0253392200000000 0.0651233400000000 Au
atom 24.4139673100000003 0.0239036800000000 0.0569786100000000 Au
atom 27.2256993799999982 0.0152572900000000 0.0522385400000000 Au
atom 1.8796683599999999 -0.0131170600000000 0.1092357600000000 Au
atom 4.7122603400000003 -0.0103377900000000 0.1204565600000000 Au
atom 8.9033242000000001 2.5082736600000000 0.0966653800000000 Au
atom 11.7325844600000000 2.4828667400000000 0.0556548600000000 Au
atom 14.5419754900000004 2.4822558799999999 0.1285505900000000 Au
atom 17.3638261599999986 2.4858847300000000 0.0904009900000000 Au
atom 20.1734717199999984 2.5033050700000001 0.1056842900000000 Au
atom 22.9895555000000016 2.5060029500000001 0.0890845700000000 Au
atom 25.8055252000000017 2.4819307400000001 0.0454816900000000 Au
atom 0.4254588200000000 2.4775218600000000 0.1472411200000000 Au
atom 3.2572783699999999 2.4890506900000000 0.0786582400000000 Au
atom 6.0682916999999996 2.5042816600000002 0.0932444500000000 Au
atom 7.4965499800000002 4.9717552300000003 0.1320068000000000 Au
atom 10.3535866999999993 4.9639023499999997 0.0912567100000000 Au
atom 13.1210329199999993 4.9493175599999999 0.0776330400000000 Au
atom 15.9418564899999993 4.9142455600000003 0.0686625300000000 Au
atom 18.7810257000000007 4.9303114299999997 0.1063560000000000 Au
atom 21.6309835200000009 4.9206000699999999 0.0944947000000000 Au
atom 24.4266557700000000 4.9290518099999998 0.0990429300000000 Au
atom 27.2190476100000005 4.9504666300000002 0.1215878100000000 Au
atom 1.8631014900000000 4.9647283099999999 0.0839845700000000 Au
atom 4.6714087700000002 4.9547547800000000 0.1014568900000000 Au
atom 8.9414771599999998 7.3977786999999999 0.0736511800000000 Au
atom 11.7721983899999998 7.4194233000000001 0.0467496600000000 Au
atom 14.5521098700000007 7.3915557099999996 0.1023590500000000 Au
atom 17.3674748900000004 7.3931684700000000 0.0189591800000000 Au
atom 20.2060539000000006 7.3600112400000004 -0.0062216600000000 Au
atom 23.0209061999999989 7.4350539500000004 0.0452436200000000 Au
atom 25.8314232699999984 7.4362392599999998 0.1157853800000000 Au
atom 0.4765618700000000 7.4065755500000003 0.0477443900000000 Au
atom 3.2862321099999998 7.3939148499999998 0.0379142700000000 Au
atom 6.0776807200000000 7.4146577499999999 0.0197066800000000 Au
atom 7.4929343599999996 9.8506424999999993 0.0309781700000000 Au
atom 10.3604105600000000 9.8795914200000006 0.0502753500000000 Au
atom 13.1541541399999993 9.8844604799999995 0.0793872000000000 Au
atom 15.9409793099999995 9.8906003899999995 0.0462111000000000 Au
atom 18.7788583600000010 9.8568719700000003 0.0652707400000000 Au
atom 21.5719256000000001 9.8794329300000001 0.0194527300000000 Au
atom 24.4126799100000014 9.8690740300000002 0.0114498600000000 Au
atom 27.2498059800000014 9.8821326799999998 0.0192674600000000 Au
atom 1.8450845600000001 9.8712407700000000 0.0448702000000000 Au
atom 4.6928633800000004 9.9017593799999997 0.0077188000000000 Au
atom 8.9084865799999999 12.3409864900000006 0.0249703500000000 Au
atom 11.7451732399999997 12.3413645100000000 -0.0136175800000000 Au
atom 14.5269466499999993 12.3562888999999991 -0.0251284700000000 Au
atom 17.3403373800000011 12.3480164699999992 -0.0211551500000000 Au
atom 20.1783702900000002 12.3413970600000003 0.0194741400000000 Au
atom 23.0067155600000000 12.3097040700000004 0.0044205500000000 Au
atom 25.8492447399999996 12.3437995600000008 0.0419463500000000 Au
atom 0.4694801800000000 12.3686772000000005 0.0154402200000000 Au
atom 3.2680889099999999 12.3509615299999993 0.0417830300000000 Au
atom 6.1009076400000000 12.3704802500000000 0.0134207700000000 Au
atom 7.5248355699999996 13.2061799400000002 2.6823697599999998 Au
atom 10.3507203299999997 13.1881700199999994 2.5425726599999998 Au
atom 13.1456010800000005 13.1888829899999998 2.6448195700000001 Au
atom 15.9530167600000006 13.1788255200000002 2.5935747899999999 Au
atom 18.7423598899999995 13.1625853500000005 2.7161530900000002 Au
atom 21.6057401300000009 13.1614512900000005 2.5376150599999998 Au
atom 24.4400983099999998 13.1843935299999995 2.7079573600000000 Au
atom 27.2945509299999998 13.1746902000000006 2.6215443299999999 Au
atom 1.9023925200000000 13.1990628099999991 2.6704106300000001 Au
atom 4.6955372400000002 13.2029883699999999 2.5941845799999999 Au
atom 8.9195620400000006 15.6307905199999997 2.5698889399999998 Au
atom 11.7607818799999997 15.6607916700000001 2.5446982999999999 Au
atom 14.5174632199999998 15.6372260099999991 2.6318099799999999 Au
atom 17.3719729799999989 15.6381166199999999 2.6211270199999999 Au
atom 20.1488111799999992 15.5975293399999995 2.6254889600000002 Au
atom 23.0166849700000000 15.6652012700000007 2.6451728200000000 Au
atom 25.8331058700000007 15.6173853000000005 2.6193670800000000 Au
atom 0.4613647800000000 15.6457618600000004 2.6305988000000000 Au
atom 3.2870987800000000 15.6693367699999992 2.6177073599999998 Au
atom 6.1039117899999997 15.6460405199999997 2.6187259799999998 Au
atom 7.5465826299999996 18.1129059499999983 2.7410757900000000 Au
atom 10.3021111699999999 18.1479983999999988 2.5636405600000001 Au
atom 13.1615306800000003 18.0983266399999998 2.7405031399999999 Au
atom 15.9526424000000002 18.0706281100000012 2.5809514000000000 Au
atom 18.7796674400000008 18.0999472399999988 2.6421808699999998 Au
atom 21.5656519200000005 18.1148891499999998 2.6630418499999999 Au
atom 24.3903438500000007 18.0985511199999998 2.7131861800000001 Au
atom 27.2312791300000008 18.1018186900000018 2.6409087699999998 Au
atom 1.8461476699999999 18.0926281899999992 2.6797476100000002 Au
atom 4.7062691100000000 18.1231374400000007 2.6436169899999999 Au
atom 8.9288977400000000 20.6029781700000001 2.6602072300000001 Au
atom 11.7258458599999997 20.5931366000000011 2.7325480899999999 Au
atom 14.5402875999999992 20.6094552600000007 2.6569791600000001 Au
atom 17.3429783800000017 20.5520181999999991 2.7385264100000000 Au
atom 20.1687855700000007 20.6115122100000008 2.7208165400000000 Au
atom 23.0030374900000005 20.5787470600000013 2.6901975899999999 Au
atom 25.8066109499999996 20.5611695899999987 2.7510963600000000 Au
atom 0.4250110000000000 20.5603766999999991 2.6802771900000000 Au
atom 3.2686510599999998 20.5567593299999984 2.7085635799999999 Au
atom 6.1226337300000004 20.5814720800000011 2.7518402900000001 Au
atom 7.4851357099999998 23.0490697800000000 2.6879250099999998 Au
atom 10.3143707500000001 23.0803459900000014 2.6355542999999999 Au
atom 13.1233736099999998 23.0523834600000015 2.6551059499999998 Au
atom 15.9754125899999995 23.0623200900000001 2.6674112100000000 Au
atom 18.8038703799999993 23.0603276400000006 2.6412957399999999 Au
atom 21.6246351499999996 23.0771770600000004 2.6887959600000002 Au
atom 24.4400041500000000 23.0275984999999999 2.6990342300000001 Au
atom 27.2257438600000015 23.0528811100000013 2.6641968899999999 Au
atom 1.8476075800000000 23.0354099900000016 2.6867330500000000 Au
atom 4.6783181699999998 23.0404572099999996 2.7155197800000002 Au
atom 8.9083614400000002 25.5529391100000005 2.6979289299999998 Au
atom 11.7030533499999994 25.5144951999999989 2.6951039600000000 Au
atom 14.5638379100000002 25.4817236099999995 2.6910176799999999 Au
atom 17.3722985899999998 25.5346880399999989 2.6387920800000000 Au
atom 20.2144693599999989 25.5450408300000014 2.7165544900000000 Au
atom 23.0377954299999992 25.5680957800000002 2.7769002899999999 Au
atom 25.8468164499999986 25.5160707400000000 2.6916420799999998 Au
atom 0.4762829600000000 25.5202948300000010 2.7781701900000000 Au
atom 3.2831244800000001 25.5427024299999985 2.6797309600000001 Au
atom 6.0767923499999998 25.5680368000000016 2.7395258400000002 Au
atom 7.4698380000000002 28.0384390100000012 2.6418846299999998 Au
atom 10.3060727700000001 27.9925091799999990 2.7657962199999999 Au
atom 13.1709486499999997 27.9244087800000003 2.5838301800000001 Au
atom 15.9705590199999996 27.9988153900000007 2.6290424099999998 Au
atom 18.7913103600000007 27.9956135199999991 2.5797452100000000 Au
atom 21.6114409099999989 28.0143692100000017 2.7129853000000002 Au
atom 24.4713844999999992 27.9987577999999999 2.6975421599999998 Au
atom 27.2588441900000014 27.9954388499999993 2.7254367099999999 Au
atom 1.8619766300000000 28.0360295800000010 2.5926427500000000 Au
atom 4.6394998500000000 28.0188995500000004 2.7292573099999999 Au
atom 8.8932617199999999 30.4578881300000006 2.6587478199999999 Au
atom 11.7220797900000004 30.4251450699999992 2.6329964200000000 Au
atom 14.5680522999999997 30.4559357400000010 2.6323269300000001 Au
atom 17.4124883399999995 30.4628665699999992 2.6517550700000001 Au
atom 20.1918288500000003 30.4739428200000013 2.6155566299999999 Au
atom 23.0405173300000001 30.4631837099999991 2.5837703400000001 Au
atom 25.8390991200000002 30.4728121399999985 2.6666784799999999 Au
atom 0.4279586100000000 30.4767322500000013 2.6196231299999999 Au
atom 3.2544005199999999 30.4975719900000009 2.5882643500000002 Au
atom 6.0430240700000004 30.5063724200000017 2.6552389900000000 Au
atom 7.4994135200000001 32.9459828099999967 2.5914625000000000 Au
atom 10.2804107299999998 32.9258100600000034 2.7041950699999999 Au
atom 13.1165433000000000 32.8993954199999976 2.6021841600000002 Au
atom 15.9313142699999997 32.9071557099999978 2.6963861200000001 Au
atom 18.7583112499999984 32.9252596400000002 2.5962945899999998 Au
atom 21.6136550300000003 32.8956095200000007 2.6638712099999999 Au
atom 24.4221749599999995 32.9148938299999969 2.5301834699999999 Au
atom 27.2406344599999990 32.9609619599999988 2.6983641800000000 Au
atom 1.8583467600000001 32.9503073699999973 2.5523324800000000 Au
atom 4.6752270100000004 32.9445052800000013 2.6917629700000001 Au
atom 8.9187227399999998 35.4034477699999997 2.6071566399999999 Au
atom 11.7414768800000004 35.3956177800000020 2.6676500000000001 Au
atom 14.5689354600000005 35.3843067600000012 2.6435002800000000 Au
atom 17.3837066299999989 35.3752328200000008 2.6023472900000000 Au
atom 20.2098159200000005 35.3720910099999983 2.6765789700000000 Au
atom 23.0091999200000004 35.3698195400000017 2.6221757900000000 Au
atom 25.8369735700000014 35.4067143400000006 2.6217926500000002 Au
atom 0.4076919100000000 35.3847432999999967 2.6722871600000002 Au
atom 3.2744334099999999 35.4234553900000009 2.6830123299999999 Au
atom 6.0923452500000002 35.4014405699999983 2.6449973899999999 Au
atom 7.4969889800000002 37.8340516299999976 2.6158594800000001 Au
atom 10.3209087499999992 37.8369075800000019 2.6705257100000002 Au
atom 13.1651350300000001 37.8610937999999990 2.6389795299999999 Au
atom 16.0199616099999993 37.8334578300000004 2.7130420300000000 Au
atom 18.7893879300000002 37.8278869399999991 2.6045469200000002 Au
atom 21.6089700499999999 37.8408638100000019 2.7041891400000000 Au
atom 24.3872773999999986 37.8798383900000033 2.6144773500000000 Au
atom 27.2220041700000017 37.8613167700000020 2.7007661999999999 Au
atom 1.8152618100000000 37.8804545899999994 2.6689260400000001 Au
atom 4.6869886100000002 37.8543302900000000 2.7133281500000002 Au
atom 8.9290961600000003 0.8010733900000000 2.6867574799999998 Au
atom 11.7279461900000008 0.8176746100000000 2.6559578300000002 Au
atom 14.5747642400000004 0.8077452400000000 2.7038132099999999 Au
atom 17.3837040300000005 0.8296375800000000 2.7258092800000000 Au
atom 20.2052926900000003 0.8089575100000000 2.7407410600000000 Au
atom 23.0203691799999994 0.8564907000000000 2.7423628299999998 Au
atom 25.8329763899999989 0.8600061400000000 2.6975789300000002 Au
atom 0.4349141200000000 0.8630833400000000 2.6626516599999999 Au
atom 3.2547255900000001 0.8528138300000000 2.7251441700000001 Au
atom 6.1015911300000001 0.8678365500000000 2.6739791700000000 Au
atom 7.5457049300000003 3.3070229100000001 2.7191065999999999 Au
atom 10.3349783899999998 3.3020643500000002 2.6800432700000001 Au
atom 13.1250233999999999 3.3281363599999998 2.7126680200000002 Au
atom 15.9597864400000002 3.2946352800000001 2.6756497299999999 Au
atom 18.7963155200000003 3.3163809700000000 2.7523129599999998 Au
atom 21.6174721599999984 3.2874194499999998 2.6891205500000002 Au
atom 24.4512218600000004 3.3416603999999999 2.6937008800000002 Au
atom 27.2189062600000007 3.3521126099999998 2.7196723000000000 Au
atom 1.8814073300000000 3.3483217299999999 2.7008513199999999 Au
atom 4.7115840899999997 3.3252587800000000 2.6955771500000001 Au
atom 8.9332981799999995 5.7867929199999999 2.7373958699999998 Au
atom 11.7468664999999994 5.8050886999999998 2.7125895400000002 Au
atom 14.5544443700000006 5.7849227499999998 2.7101114200000000 Au
atom 17.4074281800000001 5.7895219200000003 2.6953640600000002 Au
atom 20.1951288099999999 5.7842063899999996 2.6928413600000001 Au
atom 23.0202528300000004 5.8016934800000000 2.6640686599999999 Au
atom 25.8406973999999998 5.8259794500000002 2.7238503199999999 Au
atom 0.4580132300000000 5.7904742300000001 2.7223915100000000 Au
atom 3.2714862199999999 5.7707181299999997 2.7266513899999998 Au
atom 6.1108146100000003 5.7914654900000002 2.7217406300000002 Au
atom 7.5251856200000002 8.2724290200000006 2.6602525500000000 Au
atom 10.3296630300000007 8.2504741900000003 2.6255823399999998 Au
atom 13.1618541699999998 8.2798496200000002 2.7111800900000000 Au
atom 15.9668259199999998 8.2437921400000000 2.6307059300000000 Au
atom 18.8232042799999988 8.2650247199999995 2.6406604200000001 Au
atom 21.6401998499999983 8.2512705200000003 2.5684719999999999 Au
atom 24.4683356399999994 8.2608199399999993 2.7273243900000002 Au
atom 27.2883339900000017 8.2663487100000008 2.6127981500000002 Au
atom 1.8950430000000000 8.2512634699999996 2.6905116200000001 Au
atom 4.6606059899999996 8.2409041199999997 2.5749204699999999 Au
atom 8.9458070500000009 10.7549937000000000 2.6022413900000001 Au
atom 11.7533529399999992 10.7000484100000008 2.6978689299999998 Au
atom 14.5912393100000006 10.7343400800000008 2.6917884800000000 Au
atom 17.4078346199999991 10.6985859300000001 2.6217804800000000 Au
atom 20.2111048199999992 10.7381609299999994 2.6472926200000000 Au
atom 23.0243231299999991 10.7084325099999997 2.6225697000000001 Au
atom 25.8162853199999986 10.7167887099999994 2.6560444599999999 Au
atom 0.4588936900000000 10.7228359399999995 2.6529687399999999 Au
atom 3.3035710100000002 10.7495940500000007 2.6260822400000001 Au
atom 6.1442824700000003 10.7043549400000000 2.5892233299999998 Au
atom 7.3821342500000000 13.0661067000000006 5.5582661199999999 Cl
atom 7.6101684100000000 15.9275742099999995 8.3408193900000001 Cl
atom 7.5870082400000003 13.1379125800000001 8.2427009099999999 Na
atom 7.5068511300000003 15.9240677399999999 5.5980202400000003 Na
atom 7.4487282099999996 18.8484205500000002 5.6811485199999998 Cl
atom 7.5212420499999997 21.5825315499999988 8.5614531800000009 Cl
atom 7.5528318299999997 18.6956320100000006 8.3008903000000007 Na
atom 7.4669664800000000 21.6471950299999989 5.8402819299999997 Na
atom 7.3553406900000002 24.4797734300000016 5.7796927000000000 Cl
atom 7.4209918699999999 27.3128610099999989 8.6183030699999996 Cl
atom 7.4848089099999999 24.4553776399999983 8.4956591100000001 Na
atom 7.3981468499999998 27.2727084200000007 5.8517143300000001 Na
atom 7.4314692899999999 30.0678288500000015 5.7196424500000003 Cl
atom 7.4489141099999996 32.8755572999999970 8.5582655800000005 Cl
atom 7.4411946400000000 30.1106112099999983 8.3691884000000005 Na
atom 7.4512762800000001 32.9204565699999989 5.8334707699999999 Na
atom 7.5434652399999997 35.7804940600000023 5.7279484900000002 Cl
atom 7.5009112599999996 38.5775762900000032 8.5344315700000006 Cl
atom 7.4783484299999996 35.7781961100000032 8.3762931100000007 Na
atom 7.4784933499999999 38.6409053100000008 5.7821267100000000 Na
atom 7.5265001299999996 1.8750641699999999 5.7768991500000002 Cl
atom 7.4692511000000001 4.6815232599999996 8.6339436400000000 Cl
atom 7.5085455100000003 1.8613126300000000 8.4533808300000004 Na
atom 7.4897605299999999 4.6685650499999998 5.8727647300000001 Na
atom 7.4302381500000001 7.4653485300000000 5.7534447899999996 Cl
atom 7.3911651500000000 10.2622235699999997 8.6017795699999997 Cl
atom 7.4468118299999997 7.4623567399999997 8.4329933100000005 Na
atom 7.4598210800000002 10.2129736700000002 5.8072294299999996 Na
atom 10.3008022799999992 12.9707922000000000 5.5628668499999998 Na
atom 13.2320588800000003 12.9023737900000004 5.4256601000000000 Cl
atom 10.3000308399999998 15.8989630200000001 7.8990641699999999 Na
atom 12.8924663600000002 15.8882600499999995 8.0142885199999991 Cl
atom 13.0620680500000006 13.0526481099999998 8.1213878000000008 Na
atom 10.2579003300000000 13.2082046700000006 8.3476145800000001 Cl
atom 13.0517472899999998 15.8752520100000005 5.3471553500000004 Na
atom 10.3288263899999997 15.9327156700000003 5.2949618500000000 Cl
atom 10.3004209699999993 18.7776602900000000 5.5985905799999998 Na
atom 13.1645261100000006 18.8923484799999990 5.4634318999999998 Cl
atom 10.3329987200000009 21.5296626000000018 8.2607434800000004 Na
atom 13.1249671600000006 21.5851181099999998 8.3101195800000003 Cl
atom 13.1491664900000007 18.7760072999999998 7.9732723700000001 Na
atom 10.2773066400000008 18.7283651400000011 8.3352869599999995 Cl
atom 13.1116205600000004 21.6739256800000000 5.5914072900000003 Na
atom 10.2069027099999996 21.6969206300000010 5.7567054899999999 Cl
atom 10.0494993499999996 24.4668053800000003 5.8039249999999996 Na
atom 12.7268103600000000 24.5482185800000003 5.4616729199999998 Cl
atom 10.1559679900000006 27.3363987299999991 8.3697834400000009 Na
atom 12.9536402099999997 27.3975729900000005 8.4732841299999997 Cl
atom 13.0820671900000001 24.4782490099999990 8.0792299399999994 Na
atom 10.1558193800000005 24.4934234500000017 8.6139144600000002 Cl
atom 13.0038655999999992 27.2621202199999999 5.6993635500000002 Na
atom 10.1517698200000002 27.2643830899999990 5.7145654400000003 Cl
atom 10.2845500300000001 30.0710120200000013 5.7434795899999997 Na
atom 13.1299122900000000 30.0960498299999983 5.6593976000000001 Cl
atom 10.2712034200000009 32.9181117899999975 8.3921307400000007 Na
atom 13.0962052000000000 32.9097705100000013 8.5911302700000007 Cl
atom 13.1060644300000000 30.0949030600000000 8.3550725999999997 Na
atom 10.1986519599999994 30.1658221600000012 8.5719274500000004 Cl
atom 13.1419926000000000 32.8467159200000012 5.8483690700000004 Na
atom 10.3059562000000007 32.8733718599999989 5.7134518300000003 Cl
atom 10.2947284000000003 35.7057135299999970 5.7665987300000001 Na
atom 13.0636101700000005 35.7454227599999967 5.6961572399999998 Cl
atom 10.3251891199999992 38.5677777399999968 8.3561886899999998 Na
atom 13.0961951800000005 38.5138990900000024 8.5953626799999991 Cl
atom 13.0443496099999994 35.6819130700000002 8.3569792500000002 Na
atom 10.3100493499999999 35.7280573800000028 8.5530421200000006 Cl
atom 13.1121501499999997 38.5769125799999983 5.7983018399999997 Na
atom 10.3024873899999996 38.5727151899999967 5.6349569800000001 Cl
atom 10.2940412999999999 1.8794633800000000 5.8587435200000000 Na
atom 13.1259754700000002 1.8952315799999999 5.7972993199999996 Cl
atom 10.3853717600000000 4.7035046800000000 8.5112514800000003 Na
atom 13.1525701799999997 4.6928268400000004 8.6432314699999999 Cl
atom 13.1763210999999991 1.8670749300000000 8.4713810699999996 Na
atom 10.3469894000000000 1.8804492200000000 8.5943584200000007 Cl
atom 13.1392347699999998 4.6440442700000002 5.8374097699999998 Na
atom 10.3622903199999996 4.6940688499999998 5.7944118400000004 Cl
atom 10.2855179999999997 7.3508862199999996 5.8696524700000001 Na
atom 13.1138482900000000 7.4455085099999998 5.7142296000000004 Cl
atom 10.2854036499999992 10.2620041200000003 8.4712004099999998 Na
atom 13.1752037499999997 10.2864824800000001 8.5585338300000000 Cl
atom 13.1339598700000000 7.5152602999999996 8.3908900800000001 Na
atom 10.2999361900000004 7.5036128099999999 8.6765626699999991 Cl
atom 13.1191863699999995 10.1848241000000002 5.7848985900000001 Na
atom 10.2811227200000008 10.0584341700000000 5.7403913400000004 Cl
atom 16.0011654099999987 13.0835166199999993 5.7862383199999998 Na
atom 18.8311705300000014 13.1413858000000001 5.7026688600000002 Cl
atom 15.7763586300000007 15.9129832300000000 8.1261206000000001 Na
atom 18.8689189000000006 15.9888145799999997 8.4891347800000005 Cl
atom 18.7817182600000017 13.1404308400000005 8.3761626200000006 Na
atom 15.9589537499999992 13.1384846500000005 8.4835072700000005 Cl
atom 18.8152963100000008 15.8874355900000008 5.7428577000000001 Na
atom 16.0133673300000012 15.8885223999999994 5.6358288900000000 Cl
atom 16.0180696699999991 18.7598674599999988 5.5812538700000003 Na
atom 18.8664902699999999 18.6407777500000016 5.4798286100000002 Cl
atom 15.9613076800000009 21.6877752800000003 7.9175401000000001 Na
atom 18.6964886200000002 21.6860333400000016 8.3153549899999994 Cl
atom 18.7996681899999984 18.7699673400000009 8.0940659999999998 Na
atom 15.9130885899999992 18.9151958799999989 8.2049050000000001 Cl
atom 18.8328198299999983 21.6879153500000008 5.5308750800000004 Na
atom 15.9239366699999998 21.6430706000000015 5.3787140500000001 Cl
atom 16.0388337300000003 24.6229780399999996 5.5788475300000000 Na
atom 18.9097790000000003 24.5608126200000001 5.6911752699999996 Cl
atom 15.9751688999999999 27.3188196400000010 8.0281816999999993 Na
atom 18.7331527199999996 27.2273337600000005 8.3834755199999993 Cl
atom 18.5659949699999984 24.2733211400000002 8.2132409699999993 Na
atom 16.0272348999999998 24.3802461299999997 8.2418395800000006 Cl
atom 18.8847321800000003 27.2279644000000012 5.7191626400000004 Na
atom 15.8774195799999998 27.5496233100000012 5.4051039300000001 Cl
atom 15.9707823599999994 30.2674943399999989 5.7706305200000001 Na
atom 18.8385421199999996 30.1783021900000001 5.7073982100000000 Cl
atom 15.9604164999999991 32.9343935400000021 8.3850169200000000 Na
atom 18.8073532499999985 32.8993937299999999 8.6500503000000002 Cl
atom 18.7779482699999996 30.0636623100000016 8.3649600799999995 Na
atom 15.9636951200000006 30.1026210399999989 8.5094649600000007 Cl
atom 18.7889922799999987 32.9308047199999976 5.8704794900000001 Na
atom 15.9378925799999998 32.8931355799999992 5.7347341600000004 Cl
atom 15.9741073700000005 35.7059787900000032 5.8173057300000002 Na
atom 18.7667404299999987 35.7475439600000016 5.7554448100000002 Cl
atom 15.9185380100000007 38.4790020499999983 8.3656319000000003 Na
atom 18.7935771900000006 38.5434056599999977 8.5647720300000003 Cl
atom 18.7745640300000005 35.7304740499999980 8.4010151700000009 Na
atom 15.8843562899999995 35.7494670099999965 8.5580140300000007 Cl
atom 18.7772002700000016 38.5443973699999987 5.8263907799999997 Na
atom 15.8910305399999991 38.4870925499999998 5.6888846600000003 Cl