#===============================================================================
# Created using the Atomic Simulation Environment (ASE)

# Tue Dec 23 22:26:26 2025

#=======================================================
lattice_vector 28.1999999999999993 0.0000000000000000 0.0000000000000000 
lattice_vector 0.0000000000000000 39.4799999999999969 0.0000000000000000 
lattice_vector 0.0000000000000000 0.0000000000000000 62.3296083400000001 
atom 7.5646694500000002 15.1855075599999996 -0.3629366600000000 Au
atom 10.4034820299999993 15.0481658100000004 -0.2300822500000000 Au
atom 13.1760111299999991 15.0209043399999995 -0.3235136900000000 Au
atom 16.2343451700000010 15.1270533900000004 -0.3816989600000000 Au
atom 18.8083386899999994 15.1217823899999999 -0.2440887200000000 Au
atom 21.8501471199999990 15.1962992400000001 -0.2965896500000000 Au
atom 24.6293285600000011 15.2512963100000007 -0.3468375300000000 Au
atom 27.2913453900000000 15.1367347100000007 -0.2759926600000000 Au
atom 2.0319423699999999 15.2120459399999994 0.0030343800000000 Au
atom 4.9642713699999996 15.2126436700000003 -0.1904178800000000 Au
atom 8.8746416799999999 17.7868450200000012 -0.2708567700000000 Au
atom 11.9345920999999997 17.5904624600000012 -0.2623917300000000 Au
atom 14.7427897399999992 17.5303349500000003 -0.4486242600000000 Au
atom 17.4137073800000017 17.7087747600000007 -0.4320501400000000 Au
atom 20.3998790600000000 17.5932166300000006 -0.4033321900000000 Au
atom 22.9742863799999988 17.6107401599999989 -0.2760921300000000 Au
atom 26.1323620299999995 17.6458701100000006 -0.1495736700000000 Au
atom 0.6375922300000000 17.4814768700000016 -0.1841843500000000 Au
atom 3.4212367900000000 17.7356009199999995 -0.2259622900000000 Au
atom 6.2938740700000002 17.6641638100000016 -0.3428701900000000 Au
atom 7.7110898199999998 20.2102795200000003 -0.2868998900000000 Au
atom 10.4185723400000008 20.1320498100000016 -0.4996749600000000 Au
atom 13.4814945399999999 20.2184069400000013 -0.3179046700000000 Au
atom 16.0366237799999993 20.1976050600000008 -0.2647589500000000 Au
atom 18.9301233000000018 19.9977884699999997 -0.1139037600000000 Au
atom 21.7852720300000016 20.0226836800000001 -0.3034517900000000 Au
atom 24.5990339400000018 20.2423396099999984 -0.2937024800000000 Au
atom 27.2765397400000005 20.0882205099999993 -0.0338918100000000 Au
atom 2.1818519200000002 20.1832679900000009 -0.1851138700000000 Au
atom 4.8225054199999997 20.1436433000000008 -0.2579989400000000 Au
atom 9.0588252399999991 22.6532059500000003 -0.0628316700000000 Au
atom 11.7164329699999996 22.6028561199999984 -0.1749943800000000 Au
atom 14.8771114900000008 22.6463104500000014 -0.3434127900000000 Au
atom 17.5355707099999982 22.5758628700000017 -0.1418884000000000 Au
atom 20.3567913300000001 22.5492332900000001 -0.1931525400000000 Au
atom 23.3514891899999988 22.4438093099999989 -0.1593899700000000 Au
atom 26.0533921100000008 22.5645640900000011 -0.1004238800000000 Au
atom 0.5291062500000000 22.4215154599999984 -0.1904837900000000 Au
atom 3.1721231599999999 22.6587288600000001 -0.0676579900000000 Au
atom 6.3329665999999998 22.6614290400000016 -0.2119803600000000 Au
atom 7.5423836399999997 24.9949307999999988 -0.0312600700000000 Au
atom 10.5081239300000000 25.0532948699999984 -0.1639797500000000 Au
atom 13.4593036200000000 25.1245603499999994 -0.0356686900000000 Au
atom 16.1643140500000015 25.1161750800000014 -0.2268015900000000 Au
atom 18.9349115200000000 25.1076177899999990 -0.1360514200000000 Au
atom 21.8061110700000000 25.0752418699999993 0.0306469300000000 Au
atom 24.6983403000000017 25.0423488100000000 -0.0198706900000000 Au
atom 27.3827994200000013 24.8543895799999994 -0.3352196300000000 Au
atom 2.1617224199999998 24.9422966399999986 0.0724905400000000 Au
atom 4.8334267000000004 25.0353164499999998 -0.2159278700000000 Au
atom 8.9782920199999996 27.4176133899999996 0.0353513900000000 Au
atom 11.8947477799999994 27.4517808700000003 -0.0074592300000000 Au
atom 14.6547076399999998 27.4358752800000012 0.0400522400000000 Au
atom 17.5886229400000005 27.5663316899999984 0.0134489700000000 Au
atom 20.2123316600000003 27.6871639300000005 -0.0741561900000000 Au
atom 23.1117463600000015 27.5469198499999983 0.0768778100000000 Au
atom 25.9363895500000012 27.5556973300000010 -0.0236826700000000 Au
atom 0.5872530900000000 27.5502619099999997 0.0480353700000000 Au
atom 3.4454691400000002 27.5126622599999990 -0.1694881700000000 Au
atom 6.0791067600000002 27.6581425500000009 0.1369262400000000 Au
atom 7.6226441300000003 29.8726763999999996 -0.2151314100000000 Au
atom 10.3672381399999995 29.9062926100000013 -0.1196479100000000 Au
atom 13.1495073700000003 30.0680022099999995 0.0524505300000000 Au
atom 16.0043242100000001 29.8014330200000011 0.0389765400000000 Au
atom 18.9241474099999998 30.0662027099999989 0.0296257400000000 Au
atom 21.6185405700000004 29.9949598000000002 0.0194961300000000 Au
atom 24.4700052200000009 30.0115192800000017 0.0434436800000000 Au
atom 27.4088809500000004 30.0136471399999998 -0.0207689700000000 Au
atom 1.9729447700000000 30.0483759200000016 0.0363299000000000 Au
atom 4.8617542100000000 29.9233753600000014 -0.1336197700000000 Au
atom 9.0135921999999997 32.4592353199999977 -0.0039021000000000 Au
atom 12.0484312300000003 32.5797294500000021 0.0628180400000000 Au
atom 14.6669135399999995 32.4643321900000004 0.0202412600000000 Au
atom 17.5990717299999986 32.2918015099999991 0.0238097400000000 Au
atom 20.5132876499999988 32.3984429599999970 -0.1104906500000000 Au
atom 23.0542970800000013 32.4344742099999976 -0.0480610000000000 Au
atom 25.9026839100000004 32.4810427800000028 -0.0827128500000000 Au
atom 0.4964960000000000 32.4899037400000026 -0.0792734600000000 Au
atom 3.4336378299999999 32.3099038800000002 -0.1286208400000000 Au
atom 6.2527755899999997 32.4103269200000028 -0.2558925600000000 Au
atom 7.7002133500000003 34.9056305000000009 -0.0188144200000000 Au
atom 10.4799607600000009 34.9712543300000007 -0.1045968200000000 Au
atom 13.4834367000000004 34.7531910599999989 -0.2133552500000000 Au
atom 15.9935834299999993 34.8290412200000006 -0.1624419600000000 Au
atom 19.0463511600000004 34.8172058500000006 -0.2258789100000000 Au
atom 21.9081523500000017 34.8504081700000015 -0.1063088000000000 Au
atom 24.6696749299999993 35.0941047700000013 -0.1847125600000000 Au
atom 27.3526570400000004 35.1172102800000019 -0.1954325600000000 Au
atom 1.9335086399999999 34.8217515999999989 -0.2278239800000000 Au
atom 4.7441908399999999 34.8634164999999996 -0.0896832400000000 Au
atom 9.1102488200000007 37.4389257799999982 -0.2332379000000000 Au
atom 11.7488119300000005 37.3104650200000023 -0.1443283700000000 Au
atom 14.5665155399999993 37.4681518900000015 -0.0744403600000000 Au
atom 17.3496813500000009 37.3113730299999986 -0.0229135500000000 Au
atom 20.1984283200000014 37.3334768599999975 -0.2980146000000000 Au
atom 23.1686536099999998 37.3235899499999988 -0.3207294000000000 Au
atom 25.9308804500000001 37.4053584199999989 0.0755119000000000 Au
atom 0.5497056800000000 37.3847155300000011 -0.0736648300000000 Au
atom 3.4774809900000001 37.1741305500000010 -0.2806478500000000 Au
atom 6.3286418500000003 37.2438071799999975 -0.1450531000000000 Au
atom 7.5122526399999998 0.2529168600000000 -0.0484909300000000 Au
atom 10.4248072900000004 0.6894362700000000 -0.1048489600000000 Au
atom 13.1197563600000002 0.2634910800000000 -0.0997279300000000 Au
atom 16.1416539400000012 0.5007484300000000 -0.1005127100000000 Au
atom 18.9512253500000014 0.5105938700000000 -0.0518162600000000 Au
atom 21.5581969499999992 0.2564533900000000 -0.0793466100000000 Au
atom 24.5289769299999989 0.4748972600000000 -0.0952638600000000 Au
atom 27.3094939299999986 0.1683628100000000 -0.2214868400000000 Au
atom 2.0111134000000002 0.4094087900000000 -0.1898022100000000 Au
atom 4.6599953200000002 0.5173715700000000 -0.0091551400000000 Au
atom 9.0189081099999999 2.9310533799999998 0.0217950700000000 Au
atom 11.8561034200000002 2.7913209200000000 -0.1000443600000000 Au
atom 14.5634889699999999 2.8273695399999998 -0.1710468500000000 Au
atom 17.5274670899999983 2.9649632499999998 -0.2247814400000000 Au
atom 20.4023788999999987 2.7694608100000000 -0.0712768900000000 Au
atom 23.1024195699999986 2.9235517600000001 -0.2281526500000000 Au
atom 25.9601179199999983 2.7868933500000002 -0.1134429000000000 Au
atom 0.3206559600000000 2.9269441500000002 -0.0990911300000000 Au
atom 3.5691224099999999 2.6533893100000001 -0.0836817600000000 Au
atom 6.2396107699999996 3.0488490000000001 0.0343870300000000 Au
atom 7.7668306200000004 5.4551910599999998 -0.0856746900000000 Au
atom 10.4258828900000005 5.3614456500000003 0.0271746800000000 Au
atom 13.1585495300000002 5.3831510800000002 0.0904019000000000 Au
atom 16.0534065400000010 5.1986076099999998 0.0919753900000000 Au
atom 18.6808763700000000 5.2934621200000000 -0.0876676200000000 Au
atom 21.8857269000000016 5.2249143399999998 -0.1168457200000000 Au
atom 24.6117114400000006 5.1685814199999998 -0.2208351200000000 Au
atom 27.3791080800000017 5.3067579499999997 -0.1641748000000000 Au
atom 1.9556874700000000 5.5121593999999998 -0.0071889100000000 Au
atom 4.9367508000000004 5.2152750399999999 -0.0729477800000000 Au
atom 8.9408148799999996 7.7240898700000002 -0.0439788300000000 Au
atom 11.7506635799999994 7.6849949000000004 0.0525776000000000 Au
atom 14.6523190700000008 7.6569688800000000 -0.0922980500000000 Au
atom 17.4357784400000000 7.8301468700000001 -0.0816494000000000 Au
atom 20.4010378900000013 7.8988665999999998 -0.1263709800000000 Au
atom 22.9726067399999998 7.7137100299999997 -0.0858465900000000 Au
atom 26.1518061099999990 7.9111241600000000 -0.1628341300000000 Au
atom 0.6679176200000000 7.7571450500000001 0.1173953000000000 Au
atom 3.3519557600000001 7.7288464599999998 0.0295748900000000 Au
atom 6.3176394100000000 7.8782265999999996 -0.1636582300000000 Au
atom 7.4491133100000004 10.2201142699999998 -0.3514310600000000 Au
atom 10.3808247300000005 10.2374030699999992 -0.1416815000000000 Au
atom 13.3913467100000005 10.3375931199999993 0.0540154900000000 Au
atom 16.2135284300000002 10.2422563100000001 0.0693904300000000 Au
atom 18.8661227099999991 10.3544813799999993 -0.1756335100000000 Au
atom 21.6623601599999986 10.1980606900000002 0.0253075800000000 Au
atom 24.5949974900000008 10.3612862400000001 -0.1413672000000000 Au
atom 27.3914292599999989 10.3141693799999992 -0.0531648600000000 Au
atom 2.0112128700000000 10.1841269600000004 -0.1482138500000000 Au
atom 4.8331682699999998 10.1781071099999991 -0.1613532300000000 Au
atom 9.0905733000000009 12.6527610300000006 -0.2569085000000000 Au
atom 11.6913353099999995 12.5794013499999995 -0.2843499700000000 Au
atom 14.6017643300000000 12.6950209100000002 -0.1348816200000000 Au
atom 17.6727860499999991 12.5252821099999991 -0.2197744600000000 Au
atom 20.3438799000000010 12.6240708599999998 -0.4120308500000000 Au
atom 23.1808517000000016 12.6603341500000006 -0.1866456600000000 Au
atom 25.9800288799999990 12.7552923000000007 -0.2099293300000000 Au
atom 0.6008666200000000 12.7444821600000004 -0.0579242400000000 Au
atom 3.3008615200000002 12.5996371699999994 -0.1471634500000000 Au
atom 6.2873084700000001 12.6225906400000003 -0.2990461000000000 Au
atom 7.6068502799999997 13.6901102100000003 2.3366934800000001 Au
atom 10.3971352800000005 13.6312327999999994 2.4604144099999998 Au
atom 13.3002245299999995 13.4163393299999996 2.4466587700000000 Au
atom 16.0786742099999991 13.6527611699999998 2.3666245799999999 Au
atom 18.8901146299999994 13.4477185699999993 2.3760687699999998 Au
atom 21.6835927899999987 13.6149434199999995 2.3845678900000000 Au
atom 24.5671103299999984 13.5859636199999994 2.4632303100000001 Au
atom 27.2903931499999999 13.4517001700000005 2.4480673799999999 Au
atom 1.8282222400000001 13.5860034100000000 2.3075522300000002 Au
atom 4.8624222799999997 13.5462488400000005 2.5307798400000001 Au
atom 9.1391146499999998 16.1336078299999990 2.5048507600000001 Au
atom 11.9071183200000004 15.9740134400000002 2.3060326500000001 Au
atom 14.8048078000000007 16.0576580000000000 2.1693914799999998 Au
atom 17.3687145299999983 15.9396076799999999 2.3083134099999998 Au
atom 20.2063364999999990 16.0382408900000009 2.4087059700000002 Au
atom 23.0701223900000016 16.1496364800000016 2.3637480300000000 Au
atom 25.9216153300000016 16.0776438199999987 2.3813027600000001 Au
atom 0.4677984100000000 16.0569257800000003 2.3140135599999998 Au
atom 3.5173004600000000 15.9554010999999996 2.4027079699999998 Au
atom 6.2649712199999996 16.0193601900000004 2.1851574100000000 Au
atom 7.5161805700000004 18.4373137100000015 2.3051440400000001 Au
atom 10.2530867600000004 18.5115875000000010 2.3554883900000001 Au
atom 13.3146097599999997 18.5138700599999986 2.4900765100000002 Au
atom 16.2456664400000008 18.5229261600000008 2.2297397900000000 Au
atom 18.7230810599999984 18.5454738299999988 2.3487471700000002 Au
atom 21.7697114599999999 18.6146539299999993 2.3371459200000002 Au
atom 24.6921641100000002 18.6530631400000004 2.3559661900000002 Au
atom 27.3288484700000005 18.5351246100000004 2.3413874699999999 Au
atom 1.9998287600000000 18.4267994199999983 2.6320530899999999 Au
atom 4.7736855000000000 18.6777823100000013 2.4064024300000000 Au
atom 9.0911501200000000 20.8797264100000000 2.4829392600000002 Au
atom 12.0019185000000004 20.9388126999999997 2.4511194600000001 Au
atom 14.6755118600000003 20.9363819699999993 2.3897210000000002 Au
atom 17.4724716999999998 20.9199080600000009 2.3113972899999999 Au
atom 20.2890982599999994 20.8172316700000017 2.4757528799999999 Au
atom 23.0726279599999984 20.9583023699999984 2.5308266599999998 Au
atom 26.0413225500000003 20.9369482299999987 2.3616139000000000 Au
atom 0.5108288300000000 20.9762614200000002 2.4752113300000000 Au
atom 3.3742163000000001 21.0722934500000001 2.3175243200000000 Au
atom 6.2218639600000003 20.8022807699999994 2.3849124000000002 Au
atom 7.6436399599999998 23.4839373100000017 2.4246710800000000 Au
atom 10.3239490000000007 23.4666867400000001 2.3494460300000002 Au
atom 13.3924917000000008 23.6289871600000012 2.4612236599999999 Au
atom 16.0535996200000000 23.4015371999999999 2.5765491400000000 Au
atom 18.8413947999999998 23.3687593999999983 2.4717577300000002 Au
atom 21.7541189700000004 23.2873395300000006 2.5281296400000000 Au
atom 24.7796788700000015 23.4309079999999987 2.6120650099999998 Au
atom 27.2785729000000003 23.5648026199999983 2.3732892300000001 Au
atom 1.9477284399999999 23.3979716599999996 2.3020214499999998 Au
atom 4.7889768300000002 23.3921874400000007 2.3309887400000000 Au
atom 9.1495295100000007 25.6602857100000001 2.5114019399999998 Au
atom 11.9683766100000000 25.8926229399999990 2.3317844100000000 Au
atom 14.7051223100000001 26.0165459000000006 2.6416446900000001 Au
atom 17.6698758200000015 25.9622076300000018 2.5627928799999999 Au
atom 20.1605196199999988 26.0148952499999986 2.5589226699999998 Au
atom 23.1068073900000002 25.7104899600000003 2.5838613499999998 Au
atom 26.0025645599999997 25.8975152100000017 2.6051618900000002 Au
atom 0.5661401400000000 25.9415728299999984 2.5532040399999998 Au
atom 3.3575642600000002 25.9323500399999993 2.5161801900000000 Au
atom 6.2966509100000003 25.7241279300000016 2.4819326700000000 Au
atom 7.5990612700000000 28.3334282699999989 2.5251101500000002 Au
atom 10.3268034400000008 28.3706199300000002 2.4100601500000001 Au
atom 13.4607396300000008 28.3491207600000017 2.5451197200000002 Au
atom 15.9395835399999992 28.2661007899999994 2.5423055500000000 Au
atom 18.8575922799999987 28.3674242200000002 2.7427611399999998 Au
atom 21.6155496999999990 28.4252546499999994 2.5381967900000002 Au
atom 24.7322469200000015 28.2601771900000003 2.5409869000000000 Au
atom 27.5347047600000003 28.2794498599999997 2.5595558700000001 Au
atom 2.0892495000000002 28.4307201200000002 2.2258773299999999 Au
atom 4.9659828199999998 28.4255473599999995 2.7711934600000001 Au
atom 9.1866665399999992 30.8183028800000010 2.3958137300000000 Au
atom 11.9523717099999995 30.8144905000000016 2.5211359199999999 Au
atom 14.8161855700000000 30.7524936699999998 2.5143339600000001 Au
atom 17.4690691200000003 30.8449714800000017 2.7390369500000000 Au
atom 20.1362142900000016 30.8676325700000014 2.6701159200000002 Au
atom 23.3537052100000011 30.9465963500000001 2.5438875300000001 Au
atom 25.8280776900000006 30.8788200400000008 2.7358320200000001 Au
atom 0.5348007900000000 30.9646772100000014 2.6079131900000001 Au
atom 3.2673149700000002 30.7883347100000009 2.4405709500000001 Au
atom 6.2137637500000000 30.9652379000000018 2.5032639699999999 Au
atom 7.7752721300000003 33.2369764600000011 2.3379906400000001 Au
atom 10.5209009200000008 33.2470695599999999 2.4723866399999999 Au
atom 13.3568305299999999 33.4126784700000030 2.4018743300000001 Au
atom 16.1170762399999994 33.3614631800000012 2.3885256799999999 Au
atom 18.8341577999999998 33.2884732099999994 2.3607650200000001 Au
atom 21.6619441899999998 33.2550173200000003 2.4016709700000001 Au
atom 24.4048508800000015 33.4192056300000004 2.3950729200000000 Au
atom 27.4280580399999998 33.5257045399999996 2.5477419000000001 Au
atom 2.0564853400000001 33.2336127399999981 2.4292075099999999 Au
atom 4.5922308599999999 33.3615365699999984 2.3444259399999998 Au
atom 8.9561427299999998 35.7431869300000002 2.3982812500000001 Au
atom 11.8246178299999993 35.7763435999999970 2.4045387499999999 Au
atom 14.5982985000000003 35.6655596399999979 2.3099670200000002 Au
atom 17.3678453799999986 35.9307618500000032 2.5858572500000001 Au
atom 20.1709390699999993 35.8842926399999982 2.4252251000000000 Au
atom 23.1948761899999987 35.7571000599999991 2.5793434300000002 Au
atom 25.8606762500000009 35.6768874300000007 2.3880055300000000 Au
atom 0.7286939300000000 35.9691594900000027 2.6788766800000001 Au
atom 3.4633952699999999 35.6617452300000011 2.2317232400000000 Au
atom 6.1453971300000001 35.7699298499999969 2.3544559100000000 Au
atom 7.7008241399999999 38.2472994800000023 2.5799892299999998 Au
atom 10.3765197400000009 38.2039724600000028 2.3963268300000000 Au
atom 13.0197055400000004 38.4130077399999976 2.3739700099999999 Au
atom 16.0981273800000011 38.4074210200000010 2.5342894500000002 Au
atom 19.0049057300000008 38.2049170599999997 2.3507027200000001 Au
atom 21.7626453099999999 38.1755193099999985 2.4116998900000000 Au
atom 24.5738979600000000 38.4511586699999981 2.4400148399999999 Au
atom 27.4424033799999982 38.2982421099999968 2.5240784800000000 Au
atom 1.9503107000000000 38.0418678699999973 2.4436039699999998 Au
atom 4.8291426700000004 38.0452184199999976 2.3724965700000000 Au
atom 9.0004646600000004 1.1090898700000000 2.6144370800000001 Au
atom 11.8084149400000005 1.2421006999999999 2.5036978400000001 Au
atom 14.6116440900000004 1.1654560199999999 2.5024358499999999 Au
atom 17.4547657600000008 1.2035472000000000 2.3523732000000002 Au
atom 20.3253707800000001 1.1746148000000001 2.6924881699999998 Au
atom 23.0934738599999996 1.2295076400000000 2.5110895700000002 Au
atom 25.9334987099999985 0.9617017500000000 2.5612353899999998 Au
atom 0.4976201900000000 1.2459074900000000 2.5347727999999998 Au
atom 3.4586525400000001 0.9628617900000001 2.5607135099999998 Au
atom 6.2223237899999999 1.0698339900000000 2.5419128000000000 Au
atom 7.6596361499999999 3.7664997400000000 2.5654666300000000 Au
atom 10.2976446599999996 3.6071424500000000 2.6983429299999999 Au
atom 13.3011305600000007 3.4572911199999998 2.5861671700000000 Au
atom 16.0214885000000002 3.5709607900000000 2.5274534300000000 Au
atom 18.7329747900000001 3.5655199799999999 2.3732746499999999 Au
atom 21.6397618099999995 3.6805398500000002 2.4579419599999999 Au
atom 24.2770463099999994 3.7347575700000002 2.3851910099999998 Au
atom 27.2437170000000002 3.5880902200000002 2.3571210900000001 Au
atom 1.9613960100000001 3.6568390700000002 2.7067841300000000 Au
atom 4.9707274799999999 3.6498882899999998 2.5112518599999998 Au
atom 8.9599140800000008 6.1750249100000003 2.7335044399999999 Au
atom 11.9027350300000005 6.2378020699999999 2.5652452000000001 Au
atom 14.6619641200000004 6.1768801499999997 2.5357196300000000 Au
atom 17.4668369900000009 6.2585267099999999 2.3418083300000001 Au
atom 20.1368656600000016 6.3668129400000000 2.5967188399999999 Au
atom 23.0594631999999997 6.1886261700000000 2.3994362800000002 Au
atom 25.9358829299999982 6.1967467000000003 2.6074853700000000 Au
atom 0.5011878900000000 5.9869657199999997 2.5835869300000001 Au
atom 3.4462130499999999 6.2673218799999999 2.6633427799999998 Au
atom 6.2439173500000003 6.2314160599999999 2.8278414299999999 Au
atom 7.6252915200000002 8.6399718900000000 2.4473110299999998 Au
atom 10.4415172100000007 8.6342112199999992 2.3996804900000002 Au
atom 13.2552341800000004 8.6570176599999993 2.7803837100000002 Au
atom 16.1514717599999997 8.5208960000000005 2.4947176899999999 Au
atom 18.7982010399999986 8.4676674900000002 2.4878764800000002 Au
atom 21.7216943600000008 8.7046524200000004 2.4725285600000002 Au
atom 24.5181259699999998 8.7821830300000006 2.6176005400000002 Au
atom 27.4348440999999994 8.6690130300000003 2.5467689199999999 Au
atom 1.9552989599999999 8.6163382399999993 2.5833532300000002 Au
atom 4.8773547800000001 8.5638855599999992 2.3624790199999999 Au
atom 9.1228754100000007 11.1725639200000000 2.3124049000000002 Au
atom 11.8163096099999994 11.0511676600000008 2.6828297800000001 Au
atom 14.8068716699999996 11.0860628400000003 2.5592704899999998 Au
atom 17.3817370699999998 11.2177958300000000 2.5252186000000001 Au
atom 20.3805268499999990 11.1100682200000005 2.4324923400000000 Au
atom 23.1912505700000011 11.1452987900000000 2.6917226599999999 Au
atom 26.1030272299999986 11.1074344899999993 2.4907648500000001 Au
atom 0.5297262500000000 11.0328670399999993 2.5778948100000001 Au
atom 3.4788345600000001 11.1298439800000004 2.6952911600000000 Au
atom 6.3398440999999996 11.1130807399999991 2.4460616399999999 Au
atom 7.3211273200000004 13.3810812200000004 5.3687000600000001 Cl
atom 7.4876191299999997 15.8944814799999996 8.4187869400000004 Cl
atom 7.6040761300000002 13.3862067600000003 8.0095222899999996 Na
atom 7.7736704999999997 15.9363187499999999 5.5875958700000004 Na
atom 7.8207873399999999 18.8183984600000009 5.4695844300000003 Cl
atom 7.6667632499999998 21.5518558400000018 8.4121592799999991 Cl
atom 7.4254240200000003 18.6736888800000003 7.9600431699999996 Na
atom 7.5256335900000000 21.5905225600000001 5.6124833000000001 Na
atom 7.5484736200000002 24.3632651100000004 5.4108831500000001 Cl
atom 7.4426770900000001 27.0173593200000006 8.3999648300000000 Cl
atom 7.6582803699999999 24.4098266700000011 8.1766777099999999 Na
atom 7.7898970500000004 26.8965209799999982 5.6605976900000003 Na
atom 7.6554686600000004 29.8396640799999986 5.3162925100000002 Cl
atom 7.5251889900000002 32.6258039900000014 8.4903316400000008 Cl
atom 7.3222270900000002 29.9222361100000001 8.3983301000000008 Na
atom 7.3917299999999999 32.8963881299999983 5.6272713500000000 Na
atom 7.7155377600000001 35.3309550500000000 5.6070151499999996 Cl
atom 7.6949015300000001 38.3918156000000010 8.5906681500000008 Cl
atom 7.5096778300000002 35.6177899799999977 8.1014187399999997 Na
atom 7.6009782399999999 38.2637913200000028 5.7260059099999996 Na
atom 7.6759840800000001 1.8444306699999999 5.6570504599999998 Cl
atom 7.4335331199999999 4.5019800200000004 8.2877065299999995 Cl
atom 7.6790767700000000 1.5926276800000001 8.1264233200000007 Na
atom 7.5955211499999997 4.4915109500000003 5.5898714700000003 Na
atom 7.5600119599999998 7.3345535200000000 5.6624617300000004 Cl
atom 7.3041197499999999 10.6634787400000004 7.6746533799999996 Cl
atom 7.8496809100000000 7.5042586000000000 8.2971858399999991 Na
atom 7.5549709600000003 10.4344264300000003 5.3604072199999999 Na
atom 10.4962698099999994 13.0264974599999999 5.6711609599999999 Na
atom 13.3034338699999992 13.0128208700000005 5.5944963400000001 Cl
atom 10.5398358999999999 15.9205001799999994 8.4101301900000003 Na
atom 13.2741129999999998 15.8986058200000002 8.2561751099999992 Cl
atom 13.4186749699999996 13.0285133999999996 8.2197307599999991 Na
atom 10.3042099900000004 13.1270932899999995 8.4115175700000009 Cl
atom 13.4558614100000007 15.9488386500000008 5.4402901000000004 Na
atom 10.5306633999999999 15.8328850299999999 5.5674416100000004 Cl
atom 10.3658271899999992 18.5969564299999988 5.4995302700000002 Na
atom 12.9894439399999992 18.5557915899999983 5.3583559899999997 Cl
atom 10.4492027299999997 21.5572565699999998 7.8583186200000004 Na
atom 13.0316094400000004 21.3574164800000013 8.3423935999999994 Cl
atom 13.0553014199999993 18.6835218300000001 8.0667199000000007 Na
atom 10.5684000800000000 18.7195153900000015 8.2041148199999991 Cl
atom 13.3187299200000009 21.4328905499999998 5.5248968999999999 Na
atom 10.3319883000000008 21.4755862899999990 5.3832651199999999 Cl
atom 10.5965334000000002 24.2372438000000017 5.2907200200000002 Na
atom 12.9431445699999994 24.2112190299999988 5.6692987099999996 Cl
atom 10.3940766399999998 27.2038623800000003 8.2203196999999992 Na
atom 13.1810688299999992 26.9606274699999986 8.5301098500000005 Cl
atom 13.2016496500000002 24.1141857600000016 8.0464998399999992 Na
atom 10.2101601700000000 24.1375728299999999 8.5111093800000006 Cl
atom 13.0812195700000000 27.1070741400000017 5.7827816800000003 Na
atom 10.4552966099999995 27.0133174499999988 5.6857701299999999 Cl
atom 10.3774095499999994 29.8989928800000015 5.7393725499999997 Na
atom 13.1900461599999996 29.7827955600000003 5.6187447900000000 Cl
atom 10.4980001299999994 32.9302083600000017 8.2964131200000004 Na
atom 13.0062555000000000 32.7768228699999966 8.6581471499999996 Cl
atom 13.1975315900000005 30.0373118400000010 8.3972465100000004 Na
atom 10.4076372900000003 29.8840670899999985 8.5009116400000000 Cl
atom 13.1606768200000008 32.7964527199999978 5.7568029799999998 Na
atom 10.4449990300000000 32.8912478000000021 5.5918592900000004 Cl
atom 10.4600499100000004 35.3952464099999986 5.5116122900000004 Na
atom 13.1707912900000004 35.5411009399999998 5.4206970500000002 Cl
atom 10.3671877099999996 38.3050181099999989 8.0950350199999992 Na
atom 13.4493350700000001 38.3645085599999973 8.4940073700000003 Cl
atom 13.2157519800000003 35.4912490099999971 8.2142515899999999 Na
atom 10.3792322099999996 35.6524204299999994 8.4289655099999994 Cl
atom 13.4082878500000007 38.3655331699999991 5.6582703600000004 Na
atom 10.5361860899999993 38.5422982999999988 5.6082726300000001 Cl
atom 10.5772116999999994 1.5022876199999999 5.7849575399999997 Na
atom 13.2463273000000008 1.7638908600000001 5.4850194500000002 Cl
atom 10.3087053900000001 4.3302123999999997 8.2590121599999993 Na
atom 13.5461852799999996 4.4723002300000001 8.5761735899999998 Cl
atom 13.3725017499999996 1.8113712900000001 8.2893852999999993 Na
atom 10.4491553699999997 1.6838570900000001 8.4069095199999992 Cl
atom 13.2812628400000001 4.7897896900000001 5.9134077300000003 Na
atom 10.5004399500000005 4.5049086000000003 5.7112830299999997 Cl
atom 10.6199085199999992 7.2403252599999997 5.6329052600000002 Na
atom 13.3290366299999992 7.4871003399999996 5.5817988600000001 Cl
atom 10.3147600100000005 10.1839611699999999 8.2032902399999994 Na
atom 13.3515545800000002 10.2571378899999992 8.5768700199999994 Cl
atom 13.5055070799999992 7.4214803299999996 8.1427219900000001 Na
atom 10.7762236599999994 7.0229285700000004 8.0905269799999999 Cl
atom 13.2831667299999996 10.2480453699999998 5.7335280199999996 Na
atom 10.2580017800000007 10.1881871799999999 5.7204675800000002 Cl
atom 16.1890255200000013 12.9820698199999995 5.4032235899999996 Na
atom 18.8833633799999987 12.9103426700000004 5.4174029399999997 Cl
atom 16.2570530799999986 15.7261570600000002 8.1239728299999996 Na
atom 18.8157936399999990 15.7220321100000007 8.4960458499999998 Cl
atom 19.0998787700000001 12.9131352400000008 8.0714766099999995 Na
atom 16.2821564000000016 13.2050111799999996 8.2973619299999992 Cl
atom 18.8334892399999987 15.7316792599999999 5.3237596199999997 Na
atom 16.1435865599999993 15.6488997199999993 5.4210160600000004 Cl
atom 15.9377588600000006 18.5912868399999986 5.6443048500000002 Na
atom 18.9494966900000001 18.6745344600000003 5.5200900500000003 Cl
atom 15.8287320699999992 21.2645551700000013 8.0582659799999998 Na
atom 18.8808221899999999 21.2884187900000015 8.4523791100000008 Cl
atom 18.9635659300000015 18.5439338000000014 7.9752617900000002 Na
atom 16.0749693299999983 18.5957040199999994 8.2617455999999994 Cl
atom 18.7675782700000013 21.4426194499999987 5.5380129100000000 Na
atom 16.0236625799999999 21.3637610600000016 5.3730297100000000 Cl
atom 16.1151709099999998 24.2380671300000010 5.6580300499999998 Na
atom 18.9546075000000016 24.2412661000000007 5.5064835700000003 Cl
atom 16.2493974700000017 27.1622882200000006 8.4862554299999999 Na
atom 18.9625788200000009 26.5532996499999996 8.2531243199999995 Cl
atom 18.6229302399999987 23.8574384600000009 8.1820058200000005 Na
atom 16.0922733200000003 24.0389265799999983 8.4507961700000003 Cl
atom 19.0725575200000002 26.9464137999999984 5.5445489400000003 Na
atom 15.9782462600000006 26.9352590099999993 5.6513540400000002 Cl
atom 16.0261194700000011 29.9847370300000016 5.5447578499999999 Na
atom 18.9654886299999994 29.8779711900000002 5.7802052499999999 Cl
atom 16.1157830199999985 32.7118011700000011 8.1904710800000000 Na
atom 18.7973354599999993 32.7150739699999988 8.4426255900000005 Cl
atom 18.8687522299999983 30.0009290499999999 8.4742064700000004 Na
atom 15.7532663799999995 30.1045642200000003 8.1847515299999998 Cl
atom 18.9534447099999994 32.6576418799999999 5.7414711799999996 Na
atom 15.9766072000000001 32.6074689300000031 5.5520172199999998 Cl
atom 15.9351216200000003 35.4398954600000025 5.6756038200000001 Na
atom 18.8659317900000012 35.3059980299999978 5.4942555100000003 Cl
atom 16.0761254200000003 38.3259341699999965 8.2380084799999995 Na
atom 18.7854746000000006 38.1768454899999981 8.4859954900000005 Cl
atom 18.9906122500000016 35.3629544400000029 8.2820442199999995 Na
atom 16.0229262900000009 35.5612754499999966 8.3536809600000002 Cl