#===============================================================================
# Created using the Atomic Simulation Environment (ASE)

# Tue Dec 23 22:26:07 2025

#=======================================================
lattice_vector 28.1999999999999993 0.0000000000000000 0.0000000000000000 
lattice_vector 0.0000000000000000 39.4799999999999969 0.0000000000000000 
lattice_vector 0.0000000000000000 0.0000000000000000 62.3296083400000001 
atom 7.6484050699999999 14.9672686400000003 -0.4404649200000000 Au
atom 10.5716931800000005 14.9781201300000006 -0.2356866600000000 Au
atom 13.2766449099999999 14.8064566899999992 -0.3289281100000000 Au
atom 16.1056659400000015 14.9177344999999999 -0.3044543700000000 Au
atom 18.7576449700000012 14.8113273299999992 -0.1365579200000000 Au
atom 21.5385537900000017 14.6417385600000003 0.0863465500000000 Au
atom 24.3946611400000002 14.6656770099999996 -0.3726718400000000 Au
atom 27.3512955300000016 14.7270453700000008 -0.4423175400000000 Au
atom 2.0785015499999999 14.8818526599999998 -0.0703236000000000 Au
atom 4.6879409699999997 14.7686241700000007 -0.2464884600000000 Au
atom 8.9217620100000001 17.0774453100000017 -0.2269322100000000 Au
atom 11.7073917600000001 17.2534897100000002 -0.4170749400000000 Au
atom 14.4493482499999999 17.3862247500000002 -0.1682089100000000 Au
atom 17.2228196500000017 17.2368950800000000 -0.1418612000000000 Au
atom 20.1775608099999992 17.2620779599999992 0.1247854000000000 Au
atom 22.9210138599999986 17.2070556799999999 0.3467827400000000 Au
atom 25.9863971700000000 17.1757453799999986 -0.0476649900000000 Au
atom 0.4111296000000000 17.2065880600000014 -0.2199355500000000 Au
atom 3.3736193000000001 17.4315082500000003 0.0554845000000000 Au
atom 6.1811915199999996 17.3068019399999997 -0.1310979500000000 Au
atom 7.3999055499999997 19.7693815199999996 0.2522011000000000 Au
atom 10.1368166100000003 19.6444485799999988 -0.1233994400000000 Au
atom 13.0255475399999998 19.8041955999999999 0.3199499000000000 Au
atom 15.9981318600000009 19.8962615000000014 0.4337405900000000 Au
atom 18.7473861900000003 19.7229309800000010 0.2640149100000000 Au
atom 21.4411166599999987 19.8505458499999996 0.2030814500000000 Au
atom 24.4251661400000017 19.8759051800000002 0.2631312200000000 Au
atom 26.9716171600000010 19.5829673799999995 -0.1468305100000000 Au
atom 1.8417989500000000 19.9781385000000000 -0.0110898000000000 Au
atom 4.8713489599999997 19.6915392400000009 0.0332024100000000 Au
atom 9.0300812199999996 22.0599953999999983 0.4167203700000000 Au
atom 11.7648700599999998 22.3038956699999993 0.4102807400000000 Au
atom 14.7880159300000003 22.1620967200000010 0.3573146800000000 Au
atom 17.4282587199999988 22.2666215299999983 0.4505272100000000 Au
atom 20.2839695599999992 22.3940817500000016 0.4410179900000000 Au
atom 22.8757094199999997 22.3187625899999986 0.6231328100000000 Au
atom 25.8347597600000007 22.3991894900000013 0.3591441100000000 Au
atom 0.3618834500000000 22.2577773800000003 -0.1200061500000000 Au
atom 3.2283606200000001 22.3099475900000002 0.1489675900000000 Au
atom 6.3190896600000004 22.1370878799999993 0.0199289000000000 Au
atom 7.4715451399999999 24.6946238099999995 0.3246146600000000 Au
atom 10.2036442899999997 24.6557835599999997 0.5392621100000000 Au
atom 13.1223591600000002 24.6739396800000002 -0.0695197300000000 Au
atom 16.0995036099999993 24.7939605699999994 0.3094479600000000 Au
atom 18.8245486500000005 24.8635299900000000 0.3622503900000000 Au
atom 21.4816684299999991 24.4757184599999995 0.5697815100000000 Au
atom 24.2139356799999987 24.8887296000000013 0.0463577100000000 Au
atom 27.3818666300000011 24.7270848500000007 0.0583774600000000 Au
atom 1.9109034300000001 24.7284996499999998 0.3055119000000000 Au
atom 4.7580050500000004 24.7299415600000003 0.2205453400000000 Au
atom 8.9481704099999995 27.3273072900000003 0.1629552600000000 Au
atom 11.6205947199999997 27.1166075900000010 0.4293715500000000 Au
atom 14.6346126900000009 27.0292411299999991 0.3592730900000000 Au
atom 17.2571616500000005 27.2226696100000005 0.5700145400000000 Au
atom 20.0935683999999988 27.0028141800000014 0.3411626300000000 Au
atom 22.9998775500000008 27.1499718200000011 0.2426520900000000 Au
atom 25.8163798000000000 27.2686572900000002 0.5529873700000000 Au
atom 0.5291545800000000 27.2642551100000006 -0.0740269500000000 Au
atom 3.3564487600000001 26.9332388999999992 0.2510139900000000 Au
atom 6.2052692800000004 27.2145764999999997 -0.1251366600000000 Au
atom 7.7917581399999998 29.4738779000000015 -0.4792332300000000 Au
atom 10.4777874000000004 29.5479548799999989 0.5880092099999999 Au
atom 13.1836030999999991 29.5387528400000008 0.5303193899999999 Au
atom 15.8391816399999996 29.4099986700000002 -0.2992128900000000 Au
atom 18.9894582199999995 29.5452467200000015 0.1662162000000000 Au
atom 21.6381854699999998 29.4994234199999994 0.0397221800000000 Au
atom 24.4268818900000007 29.7144907300000014 -0.0557893100000000 Au
atom 27.4015465999999996 29.7638092199999988 0.2912649700000000 Au
atom 1.6643748500000000 29.4203615300000010 0.0701925300000000 Au
atom 4.9032713799999996 29.5948381500000011 0.0962497500000000 Au
atom 9.0151419900000000 32.0197629800000030 -0.0084341800000000 Au
atom 11.6126717599999996 32.0877328300000002 0.4573257900000000 Au
atom 14.5861677400000005 31.9092110600000005 0.3853018400000000 Au
atom 17.4909033600000008 32.2559369599999997 -0.1367216300000000 Au
atom 20.0067923000000008 32.0907503899999966 0.1913079000000000 Au
atom 23.0006529200000003 31.9562792599999987 0.0882455600000000 Au
atom 26.0543052000000017 32.1833418499999979 0.3930333200000000 Au
atom 0.6528191600000000 32.0790558400000023 -0.0380171100000000 Au
atom 3.2422034399999999 32.0814986299999987 0.0104602300000000 Au
atom 6.0366394000000003 32.2076966899999988 -0.4003304300000000 Au
atom 7.4433631399999998 34.5243374200000019 -0.1956822300000000 Au
atom 10.1267947300000003 34.6255667000000003 0.3081010500000000 Au
atom 13.1129770400000005 34.3799112299999976 0.0757657500000000 Au
atom 15.7870229000000002 34.2294124800000006 0.2874749800000000 Au
atom 18.7271780200000002 34.4964094700000032 -0.1116596900000000 Au
atom 21.5395569800000004 34.5605614199999991 -0.1074880700000000 Au
atom 24.4772762999999998 34.3802534699999995 0.1123844200000000 Au
atom 27.3944681500000016 34.6462753699999979 0.0914462000000000 Au
atom 2.1568301700000001 34.5360711100000017 -0.1718493500000000 Au
atom 4.5501969799999999 34.4610030300000005 -0.0246677600000000 Au
atom 9.0363666100000000 36.8920288799999980 -0.1396491100000000 Au
atom 11.7590396399999992 37.0427760199999980 -0.0341897500000000 Au
atom 14.5828805599999995 36.7847606999999996 -0.0001290700000000 Au
atom 17.4871440400000004 36.8383769200000017 0.0952163900000000 Au
atom 20.1886900699999998 37.0169117000000014 0.4037192200000000 Au
atom 22.9037798099999996 37.0393740800000018 -0.1247436500000000 Au
atom 25.8368161100000009 36.9236326700000035 0.1328122300000000 Au
atom 0.4907305900000000 37.1380084800000034 -0.1967512100000000 Au
atom 3.4542247700000002 36.9408362300000022 -0.1141673200000000 Au
atom 6.0999984700000001 36.9583832300000026 0.1124849000000000 Au
atom 7.5999370500000003 -0.1508882200000000 -0.0225604700000000 Au
atom 10.4048949999999998 -0.1119930300000000 0.1110409300000000 Au
atom 13.2348568400000008 0.0846660000000000 0.4061476900000000 Au
atom 15.7615210700000006 -0.0759121400000000 -0.0313944800000000 Au
atom 18.7572241700000006 -0.1964804500000000 0.1414403600000000 Au
atom 21.6589743100000014 -0.2368737500000000 0.5957821200000000 Au
atom 24.4223035099999990 0.0058744700000000 0.3336094500000000 Au
atom 27.1430702799999999 -0.0678648300000000 0.2195022800000000 Au
atom 1.9173840200000001 -0.2116525800000000 -0.0605127900000000 Au
atom 4.5314456099999996 -0.0196617300000000 0.0130023900000000 Au
atom 9.0364222699999992 2.5980529899999998 -0.0940072600000000 Au
atom 11.9185810100000005 2.4459647200000001 0.0617004700000000 Au
atom 14.5039017200000000 2.4495475999999998 -0.0390202600000000 Au
atom 17.4081792899999996 2.4753860400000001 0.0659773700000000 Au
atom 20.2372048800000002 2.3255032000000000 -0.0746405400000000 Au
atom 22.8742889699999985 2.4398735500000002 0.2741487100000000 Au
atom 25.8576082199999995 2.3197540499999998 0.0778632000000000 Au
atom 0.2052855700000000 2.4350868999999999 -0.0081897000000000 Au
atom 3.2058921900000001 2.3199703100000000 -0.0447891800000000 Au
atom 6.0557661400000002 2.4486201799999998 0.0802145500000000 Au
atom 7.4530529599999999 4.8924217299999997 0.2384673600000000 Au
atom 10.4036686500000002 4.9607818600000000 -0.1760375900000000 Au
atom 12.9672443600000005 4.9771507300000000 -0.0776909300000000 Au
atom 15.9833483899999997 4.8362118199999999 0.4272938600000000 Au
atom 18.7372403600000013 4.8662084099999996 0.3319019600000000 Au
atom 21.6492446700000016 5.1835938300000004 0.2645361000000000 Au
atom 24.3315748300000010 4.9510204299999998 0.2786465300000000 Au
atom 27.0522280799999990 4.7161046999999998 0.3798361700000000 Au
atom 1.7339884800000001 4.7736646399999998 -0.0182304100000000 Au
atom 4.7147473000000000 4.9639660000000001 0.1771531800000000 Au
atom 8.8446018100000003 7.4743075100000000 -0.1579407800000000 Au
atom 11.6759627399999992 7.4110192599999998 0.0107609400000000 Au
atom 14.6194736699999996 7.3460114399999998 -0.0675473300000000 Au
atom 17.4186400900000002 7.4531878400000000 -0.0692011300000000 Au
atom 20.0816216999999995 7.5186446900000004 0.2266353300000000 Au
atom 22.8754950699999995 7.2357163099999999 0.0995902400000000 Au
atom 25.8393495500000014 7.2735285899999997 -0.0000717700000000 Au
atom 0.5358914500000000 7.1794095799999997 0.1747077800000000 Au
atom 3.0543215899999998 7.3710612500000003 0.0457458200000000 Au
atom 6.2103598299999998 7.2207101500000004 -0.0595917700000000 Au
atom 7.7985574000000000 10.0786542800000003 -0.4003179300000000 Au
atom 10.2944563500000008 10.0045357900000003 -0.3641209900000000 Au
atom 13.0527811499999995 9.9588673300000004 -0.4431168600000000 Au
atom 15.8857857800000009 9.8955778300000006 -0.1760455500000000 Au
atom 18.7429946200000010 9.8932639699999996 -0.1130921900000000 Au
atom 21.6232098700000002 9.8164190399999995 -0.0656137100000000 Au
atom 24.3129595999999992 9.7865934200000009 -0.2908049000000000 Au
atom 27.2015980299999995 9.8262273800000006 -0.1863914100000000 Au
atom 1.8329620099999999 9.7814703900000008 -0.0948990800000000 Au
atom 4.6587235099999997 9.6765650700000005 -0.1297683000000000 Au
atom 9.1172723900000001 12.3148470900000007 -0.3960897100000000 Au
atom 11.7686904099999996 12.3904402499999993 -0.2274939600000000 Au
atom 14.5416301600000004 12.0906836400000000 -0.0984014200000000 Au
atom 17.3840458300000016 12.3232676500000000 -0.3033031300000000 Au
atom 20.3365483599999983 12.1375392000000009 -0.0951185500000000 Au
atom 23.0897952199999992 12.0494004300000004 -0.2050061400000000 Au
atom 25.8690333300000006 12.2314364500000003 -0.2742709200000000 Au
atom 0.5272238800000000 12.2524303600000000 -0.3853018300000000 Au
atom 3.4025991400000000 12.1663377599999993 -0.3291116100000000 Au
atom 6.0369882400000003 12.4973114699999996 -0.6040019200000000 Au
atom 7.4905314799999996 13.5306647899999994 2.0001718300000002 Au
atom 10.4598580699999992 12.9971001099999999 2.4075272200000000 Au
atom 13.1429179400000002 13.1269366699999992 2.3428802700000002 Au
atom 15.8670604999999991 13.2562086400000005 2.2604700599999998 Au
atom 19.0140494999999987 13.0112294300000002 2.4924843600000002 Au
atom 21.5588846499999995 13.0762330299999991 2.4208067400000002 Au
atom 24.5181114700000009 13.2673851799999998 1.9526084100000001 Au
atom 27.0958375499999988 13.0689189199999998 2.1473101300000002 Au
atom 1.8398903400000000 13.0808984499999994 2.2334794499999999 Au
atom 4.8888280699999997 13.3207336099999996 2.2891191000000002 Au
atom 8.8589724299999997 15.6484236100000000 2.0796016599999998 Au
atom 11.7123376700000001 15.5359808600000004 2.0338312200000002 Au
atom 14.4771853099999994 15.6977466799999998 2.4082366700000000 Au
atom 17.6142265699999996 15.6376564899999995 1.9944378100000000 Au
atom 20.2146805200000017 15.5379944699999992 2.3635155000000001 Au
atom 23.0491905599999996 15.5756861000000004 2.5544425899999998 Au
atom 25.8987312100000011 15.7588919599999997 2.3383176200000002 Au
atom 0.6491174199999999 15.6454307700000008 2.5187443599999999 Au
atom 3.2213085200000000 15.7706685600000007 2.4814088999999999 Au
atom 6.0237634000000000 15.7015644699999992 2.4286052699999998 Au
atom 7.6659594799999997 18.1664114400000010 2.4514670999999999 Au
atom 10.5292226299999996 18.1916033800000001 2.6517424100000002 Au
atom 13.4041682499999997 18.2899644600000002 2.3261448300000001 Au
atom 16.0350444699999990 17.9629874799999989 2.5972241800000000 Au
atom 18.8822480199999987 17.9813983800000017 2.8573202499999999 Au
atom 21.6873639800000007 18.0457980400000011 2.8508463300000000 Au
atom 24.5159264400000012 18.1232280400000008 2.9211592999999998 Au
atom 27.3760478899999988 18.2228624100000012 2.3585312900000002 Au
atom 1.9500029100000000 18.0962508299999989 2.1329473900000000 Au
atom 4.6801344800000004 18.0063938000000014 2.5837418099999998 Au
atom 8.8539307199999993 20.5613371100000002 2.7480465100000000 Au
atom 11.6906196199999997 20.7378929599999999 2.6758078699999999 Au
atom 14.6090067900000005 20.7505769899999990 2.8199099200000002 Au
atom 17.4351313700000006 20.5925733199999996 3.2890944100000001 Au
atom 20.2136847899999985 20.4345365399999999 2.8800671800000002 Au
atom 22.7900374200000009 20.5997762599999987 3.0038878200000001 Au
atom 25.9220585999999997 20.6073303599999988 2.5864071599999998 Au
atom 0.4953754800000000 20.6635482599999989 2.7769002800000000 Au
atom 3.1718845000000000 20.6237808700000009 2.5075308100000000 Au
atom 5.9319078699999999 20.5105567399999984 2.5437626899999999 Au
atom 7.4906607699999999 22.9711978099999996 2.6161751600000001 Au
atom 10.1268904699999993 23.0908552100000009 2.8613310200000002 Au
atom 13.0691674899999999 23.2061934200000017 3.1064491699999999 Au
atom 15.9061638599999995 23.1721545999999989 2.9960583100000000 Au
atom 18.8417339199999994 23.1082512000000015 3.1720177899999999 Au
atom 21.6132345800000003 23.0784162399999992 3.0279476100000000 Au
atom 24.5747773299999999 23.0991320000000009 2.8485420299999999 Au
atom 27.4382664399999996 23.1988376699999996 2.6498931500000000 Au
atom 2.0283015500000001 22.9958732300000008 2.8901438399999999 Au
atom 4.7109427400000001 22.8559318800000000 2.9692642400000002 Au
atom 8.7407418799999999 25.6226222700000008 2.7225488300000000 Au
atom 11.7730811499999994 25.4733546500000010 2.8643404000000001 Au
atom 14.4593226900000005 25.6161121700000010 3.0804882700000000 Au
atom 17.3761480800000001 25.5594127299999982 2.9608123200000001 Au
atom 20.1400304299999995 25.5192388500000007 3.1226455600000000 Au
atom 22.9698525199999999 25.6282215399999984 3.1262912100000002 Au
atom 25.7290294899999985 25.5463265899999996 2.8961609699999999 Au
atom 0.5704098300000000 25.5219853999999984 2.6365035699999999 Au
atom 3.2506404199999999 25.5991903699999988 2.9398849500000002 Au
atom 6.1329295799999999 25.6609832299999994 2.6455377300000000 Au
atom 7.5738906200000002 27.9977336200000018 2.7069277299999999 Au
atom 10.5063396600000001 28.1458824099999987 3.0242545600000001 Au
atom 13.0072731400000006 28.0687430000000013 3.1263269199999999 Au
atom 16.0217671400000015 28.1096673000000017 2.8826696599999999 Au
atom 18.6998591300000001 28.1649707499999984 3.1164008299999999 Au
atom 21.7105583499999995 28.2114338899999986 3.1158668800000000 Au
atom 24.4889825200000004 28.2754197400000002 2.7439167699999998 Au
atom 27.5345979900000017 28.1468697299999988 2.9669329100000001 Au
atom 1.9673855899999999 28.1996257700000008 2.8495421599999999 Au
atom 4.8790622700000004 27.7762282700000007 2.5969315900000001 Au
atom 8.6398874200000009 30.5807527999999991 2.8060414599999999 Au
atom 11.6311713500000007 30.4010357999999989 3.1724099300000002 Au
atom 14.4072406599999994 30.3922755199999983 2.9203952800000001 Au
atom 17.3531132300000017 30.4422349399999987 2.4944504200000002 Au
atom 20.0326403199999987 30.3235866200000004 2.8301642100000000 Au
atom 23.0904387000000000 30.4039467600000002 2.5027344899999999 Au
atom 25.8272906800000008 30.4232704299999988 2.8562485999999998 Au
atom 0.4732307900000000 30.5329269100000005 2.7400812499999998 Au
atom 3.5328779099999998 30.4285145099999994 2.5727830599999999 Au
atom 6.1456739200000001 30.5443694100000016 2.1775109300000000 Au
atom 7.6029682100000002 32.9787890200000007 2.4620462299999999 Au
atom 10.0224915100000000 32.9022747200000012 3.1023954599999999 Au
atom 13.1939120899999995 33.0515507699999986 2.8196624300000002 Au
atom 15.8020034000000003 32.9194752699999995 2.6865961399999998 Au
atom 18.9261489099999984 33.0449058800000017 2.7416053499999999 Au
atom 21.7243609500000012 33.0242075999999969 2.5373660199999999 Au
atom 24.2387681400000012 32.9696362800000031 2.7589665900000000 Au
atom 27.2636534899999994 32.8668210200000033 2.6406789800000001 Au
atom 2.0834972600000001 32.9621731800000006 2.6109216399999999 Au
atom 4.8749312900000001 32.9102626999999970 2.8076476900000000 Au
atom 8.9451287199999996 35.7781123999999977 2.6494786700000001 Au
atom 11.7295889700000000 35.2749348500000011 2.6258241000000000 Au
atom 14.4844086700000005 35.3716338799999974 2.7729323300000002 Au
atom 17.3167548300000007 35.3980550599999972 2.6675207799999998 Au
atom 20.4547313899999992 35.4098733499999980 2.5386987200000002 Au
atom 22.9137046200000007 35.5627041199999994 2.4837688999999998 Au
atom 25.8390713199999986 35.3662913100000011 2.7528543100000000 Au
atom 0.3579745800000000 35.2116657400000008 2.3143853299999999 Au
atom 3.2192703800000002 35.1639378699999980 2.4821812500000000 Au
atom 6.1896604699999997 35.3581955499999978 2.5348212399999999 Au
atom 7.4977847899999999 37.9137980400000032 2.6677726499999999 Au
atom 10.4040006799999993 38.1550742900000017 2.5643825300000000 Au
atom 13.1386870800000004 37.8965073399999994 2.6698909999999998 Au
atom 15.8848274600000003 37.7585857899999979 2.7339125399999999 Au
atom 18.9604641200000010 37.6835124500000020 2.7949003800000001 Au
atom 21.6625249099999984 37.5703728800000007 2.8661850000000002 Au
atom 24.2959956599999991 37.9257466399999998 2.8659740100000000 Au
atom 27.1215777799999991 37.7478287599999973 2.7051388799999998 Au
atom 1.9236403799999999 37.8754051700000005 2.7612923800000000 Au
atom 4.7265066500000001 37.6811049299999965 2.4816445699999998 Au
atom 8.9983744399999992 0.8709764800000001 2.8832118100000002 Au
atom 11.5869110200000005 0.9344852700000000 2.8472564600000001 Au
atom 14.6132302700000007 1.0864079400000000 2.6302232000000001 Au
atom 17.3562753799999996 0.8847499900000000 2.7560026199999998 Au
atom 20.2613468400000016 0.8936347900000000 2.8646278299999999 Au
atom 23.0604566999999996 0.9320278100000000 2.9443701700000000 Au
atom 25.6985105699999998 0.7494939000000000 2.9758626900000000 Au
atom 0.4815642600000000 0.9056287500000000 2.6065377399999998 Au
atom 3.2137184099999998 0.9614504900000000 2.5128143999999999 Au
atom 6.0592021100000002 0.9593700300000000 2.8937502600000000 Au
atom 7.3985131300000004 3.4222471699999999 2.5796767100000002 Au
atom 10.4792837500000005 3.4740025100000000 2.3941531899999999 Au
atom 13.1759499899999994 3.1643043999999998 2.5402813399999999 Au
atom 16.0099601199999988 3.3824011999999999 2.6796509799999999 Au
atom 18.5833497399999992 3.2792380500000000 2.7240907999999999 Au
atom 21.6226334800000011 3.1615833599999998 2.6133893600000002 Au
atom 24.3794491700000009 3.2186704700000002 2.8064261699999999 Au
atom 27.3499158300000005 3.2234015999999999 2.5921815600000002 Au
atom 1.6943404700000000 3.2807721999999999 2.6109881399999999 Au
atom 4.6514042599999996 3.4013722300000002 2.7258966600000001 Au
atom 9.0640938400000000 5.8050015100000003 2.5727270400000002 Au
atom 11.8423228100000006 6.1413586100000002 2.6270365500000001 Au
atom 14.5277576300000000 5.8010819299999996 2.6083045299999998 Au
atom 17.3098875499999991 5.9190244600000002 2.8835062800000002 Au
atom 20.2531648599999983 5.8452938300000001 2.8781437099999998 Au
atom 22.7942532200000016 5.9079767099999998 2.9059290299999998 Au
atom 25.6816830500000002 5.7100380700000004 2.9661089299999999 Au
atom 0.4569627900000000 5.8248135300000001 2.7398590899999999 Au
atom 3.1220408100000001 5.7386926400000000 2.6135185200000000 Au
atom 5.9805113499999996 5.8369277000000004 2.7849806500000001 Au
atom 7.6388919800000004 8.5614828099999993 2.5974017100000002 Au
atom 10.5800993600000002 8.3847490800000006 2.3158777900000000 Au
atom 13.1500441299999995 8.3389925599999994 2.4756738199999999 Au
atom 15.9383392100000005 8.1488046700000005 2.6980727000000000 Au
atom 18.7538465899999984 8.3158657599999994 2.5923137000000001 Au
atom 21.6827705399999999 8.2937817299999992 2.5098762799999998 Au
atom 24.2666571299999987 8.2048473299999998 2.4807532499999998 Au
atom 27.2437836900000008 8.2031238799999997 2.4452034800000000 Au
atom 1.8642884799999999 8.2892624599999998 2.7255446100000000 Au
atom 4.6499307200000004 8.2109785100000003 2.6092032199999999 Au
atom 8.8426860600000001 10.6891370299999995 2.3391394000000001 Au
atom 11.8875239300000004 10.6397306700000005 2.1673231099999999 Au
atom 14.5372792299999993 10.7485506399999995 2.2485975400000000 Au
atom 17.5824932800000013 10.4792994799999999 2.2708686199999999 Au
atom 20.3279598099999994 10.7353807700000008 2.6281961900000002 Au
atom 23.0007808199999992 10.6965924399999999 2.4018411199999998 Au
atom 25.5946999800000015 10.6847874800000007 2.2596277900000001 Au
atom 0.2591451000000000 10.8110428499999998 2.3242908099999999 Au
atom 3.2596425899999999 10.8561429799999996 2.3356275000000002 Au
atom 6.0380637400000001 10.7204165000000007 2.2492763899999999 Au
atom 7.4089552599999999 13.3605610499999994 5.6185825899999999 Cl
atom 7.4602136500000000 15.9953096899999991 8.3932813599999996 Cl
atom 7.6295391800000001 13.3207049400000006 8.1691398199999998 Na
atom 7.2245236500000001 16.0247540199999996 5.4209750699999999 Na
atom 7.4938272200000000 18.8794763000000003 5.7293043299999997 Cl
atom 7.3033079599999997 21.6802800799999993 8.6100706799999998 Cl
atom 7.3595770099999998 18.7703337599999998 8.4145023600000002 Na
atom 7.4185913000000001 21.5771736700000005 6.1363046700000003 Na
atom 7.0797294600000003 24.5907318000000004 5.9918208899999996 Cl
atom 7.3636721300000003 27.4158747399999996 8.6096382699999996 Cl
atom 7.5854172899999996 24.5946805700000013 8.4731831300000007 Na
atom 7.5067780300000004 27.1628818400000007 5.7212468200000002 Na
atom 7.3528746900000002 30.2105753399999983 5.7212406400000004 Cl
atom 7.1876944099999998 32.9864003300000022 8.7426520399999994 Cl
atom 7.2517821199999997 30.1451567400000009 8.5341498900000001 Na
atom 7.1288618300000000 33.0562629699999988 5.9795992299999998 Na
atom 7.3157688800000003 36.0805100199999984 5.6551446500000004 Cl
atom 7.1865874300000003 38.8494040599999977 8.3574576799999996 Cl
atom 7.1771880399999999 36.0764499200000017 8.3042301199999997 Na
atom 7.4778217600000003 38.6298987199999999 5.6662993899999998 Na
atom 7.1687324099999996 2.1274559800000001 5.4201440800000000 Cl
atom 7.4687274500000003 4.6949261699999996 8.6722909000000001 Cl
atom 7.3160467699999998 2.4250878999999999 8.1021665800000005 Na
atom 7.3999526199999996 4.7064487699999997 5.8037479699999999 Na
atom 7.5762693800000003 7.6224274200000002 5.7597736299999998 Cl
atom 7.4057490799999997 10.6639213799999997 8.6591078600000007 Cl
atom 7.2260610200000004 7.6622848000000001 8.1576424599999999 Na
atom 7.1166814699999996 10.5308508599999993 5.9805075299999997 Na
atom 10.3741174500000000 13.1396838700000007 5.7570594799999997 Na
atom 12.8486824700000000 12.9255978400000000 5.4504038000000001 Cl
atom 10.0791487400000008 15.8812980499999998 7.8969828900000003 Na
atom 13.0294923100000002 16.1122630999999998 8.3868951200000001 Cl
atom 13.1329629099999998 13.2166585199999993 8.3579163800000007 Na
atom 10.2432581599999999 13.5292884200000003 8.3923292499999995 Cl
atom 12.8448120899999996 15.8785787200000001 5.5766690199999998 Na
atom 10.0396114000000001 15.9819027600000005 5.4712031899999998 Cl
atom 10.2907410600000002 18.9708618800000011 5.8135930900000004 Na
atom 12.9231645099999994 18.6862158600000008 5.7819470099999997 Cl
atom 10.0930001800000007 21.8184404500000007 8.9342369300000009 Na
atom 12.9684260099999999 21.5932834299999996 8.6367477899999994 Cl
atom 13.1337073300000000 18.9975333500000012 8.3665752100000006 Na
atom 9.9855955299999994 18.8120601000000001 8.6786314900000008 Cl
atom 12.8238495599999993 21.9171709499999992 5.9200590599999998 Na
atom 10.1791747699999995 21.8211124000000005 5.7418515699999997 Cl
atom 10.1448470099999994 24.6936909100000008 6.2665413399999998 Na
atom 13.0157311799999995 24.7038586299999992 5.9449541699999999 Cl
atom 10.2587130500000008 27.4152527799999994 8.5749495499999995 Na
atom 12.8429012999999994 27.3790788800000016 8.7176983900000007 Cl
atom 12.9702810900000003 24.4708683899999997 8.5264619899999996 Na
atom 9.9751298399999992 24.5433656199999994 8.7754116399999997 Cl
atom 12.8364410499999995 27.5256540700000016 5.7663671299999999 Na
atom 10.1588832700000005 27.4319246099999994 6.0209531600000004 Cl
atom 10.2258588300000000 30.2192233600000009 5.9524987200000004 Na
atom 12.7500624800000004 30.2342272100000002 5.9480891299999996 Cl
atom 10.0702539400000006 33.3657072700000015 8.3751831299999999 Na
atom 12.8793476200000008 33.1551970900000015 8.7027890600000006 Cl
atom 12.9231631500000006 30.2379001999999986 8.7737997500000002 Na
atom 10.2105658899999998 30.3065109100000001 8.7681074999999993 Cl
atom 13.2545027399999995 33.1080301300000031 6.1793152100000004 Na
atom 10.1412244099999995 33.1925925899999967 6.0699261800000004 Cl
atom 10.1972462900000007 35.9638634100000019 6.1091869399999998 Na
atom 13.0913870699999997 35.8389252699999972 5.9830256400000001 Cl
atom 10.1938513600000000 38.8298986200000016 8.3341034999999994 Na
atom 13.1505675600000007 38.7769954099999978 8.4947173100000004 Cl
atom 13.0208429900000002 35.9077760699999970 8.5211230499999999 Na
atom 10.1437337999999997 36.0685785100000018 8.6338290099999995 Cl
atom 13.1768931699999996 38.6122275900000034 5.8766302699999997 Na
atom 10.3507339700000003 38.4687582700000021 5.7884038100000001 Cl
atom 10.2553946899999993 1.9042101899999999 5.9019321199999997 Na
atom 13.0156988899999995 2.0745640200000000 5.8120714400000004 Cl
atom 10.2733226000000002 4.7626602399999998 8.3429740199999998 Na
atom 12.7985171799999993 4.7926950899999996 8.4112641799999999 Cl
atom 12.9966636599999994 1.9710946300000001 8.3401702600000007 Na
atom 10.2125027399999997 2.0214424100000001 8.4709715899999996 Cl
atom 13.3217865100000008 4.8244723699999996 5.6913285199999999 Na
atom 10.1514715899999999 4.6264271399999997 5.7036087799999997 Cl
atom 10.1289366199999993 7.5489351899999999 5.6836726899999999 Na
atom 13.1563140300000008 7.4604415199999998 5.5663309700000001 Cl
atom 10.1752412600000000 10.1774772700000007 8.3509548799999997 Na
atom 12.9923505699999993 10.5340887599999995 8.1883672199999999 Cl
atom 12.9996618700000006 7.5429205799999997 8.3086599900000007 Na
atom 10.2466704400000008 7.4798655600000004 8.5262047499999998 Cl
atom 12.9326583799999995 10.4172995999999998 5.5519635300000001 Na
atom 10.2930686100000006 10.2085443399999996 5.6979272099999996 Cl
atom 15.8675752899999996 13.0520174099999995 5.5176294700000001 Na
atom 18.7181150000000009 12.9331078500000007 5.6134440300000001 Cl
atom 15.7888529700000007 16.0165982699999994 8.2161492900000006 Na
atom 18.5628003300000017 15.9155095099999997 8.1727182500000009 Cl
atom 18.4185101799999984 13.1449397200000000 7.9231547100000004 Na
atom 15.7359390799999996 13.4435008299999996 8.5228523099999993 Cl
atom 18.6023939200000008 15.7172970900000006 5.2023641200000004 Na
atom 15.7428488600000005 16.1055284500000013 5.4903454800000002 Cl
atom 15.8119679400000006 18.9871800200000003 6.0322807500000000 Na
atom 18.5828502899999997 19.0658573900000015 5.8301730000000003 Cl
atom 15.8628496699999992 21.8060803999999990 8.6666999499999999 Na
atom 18.6107898200000008 21.6558942600000002 9.0025964700000003 Cl
atom 18.8219770900000007 19.0050229600000016 8.3995726299999998 Na
atom 15.8082455900000003 18.8211807299999982 8.6685279099999999 Cl
atom 18.6236327199999998 21.6518549100000008 5.9629871100000003 Na
atom 16.0622983999999995 21.7513316900000007 5.9225834199999996 Cl
atom 15.7874941799999995 24.6310103200000015 6.1765824599999997 Na
atom 18.7477100099999987 24.7421320300000005 5.9419749900000003 Cl
atom 15.7780419999999992 27.4347640000000013 8.7699563200000004 Na
atom 18.5888063599999995 27.3922233300000002 8.9571411399999992 Cl
atom 18.7176014600000009 24.4669258399999983 8.7216246599999998 Na
atom 15.5518702700000002 24.6975747800000001 8.9526140800000000 Cl
atom 18.4993156700000014 27.3471731200000008 6.1346350999999997 Na
atom 16.0236391699999992 27.1792837499999997 5.8473190099999997 Cl
atom 15.6648521600000006 30.1406786900000014 6.2710260599999996 Na
atom 18.5567026800000008 30.1605989200000018 5.8836624899999999 Cl
atom 15.6708313500000003 33.0696765499999970 8.6620297599999994 Na
atom 18.7601775400000008 32.9142328699999993 8.7068310400000009 Cl
atom 18.9206665799999989 30.2896072899999993 8.5978806199999998 Na
atom 15.8245983599999995 30.1882043099999997 8.8967906600000006 Cl
atom 18.8238544400000016 33.1150055000000023 5.9852572500000001 Na
atom 15.8247467200000003 32.7714592299999978 5.8637398899999997 Cl
atom 15.7649583399999997 35.7294796700000035 5.8542347299999999 Na
atom 18.6853591799999990 35.9830072900000033 5.6422701300000000 Cl
atom 15.9060238999999992 38.6003800900000016 8.4721881700000008 Na
atom 18.8971255300000003 38.5777906900000005 8.6387276199999992 Cl
atom 18.7039047600000004 36.2706758799999989 8.4442741899999998 Na
atom 15.8082437999999996 35.6789673399999998 8.6240642300000001 Cl
atom 18.8067124700000008 38.8453677400000004 6.0118070200000000 Na