#===============================================================================
# Created using the Atomic Simulation Environment (ASE)

# Tue Dec 23 21:42:42 2025

#=======================================================
lattice_vector 28.1999999999999993 0.0000000000000000 0.0000000000000000 
lattice_vector 0.0000000000000000 39.4799999999999969 0.0000000000000000 
lattice_vector 0.0000000000000000 0.0000000000000000 62.3296083400000001 
atom 7.6774792300000003 14.8124655399999998 -0.1839323100000000 Au
atom 10.4318456200000007 14.7673128499999997 -0.1117924300000000 Au
atom 13.2267136399999998 14.8953788300000003 -0.1977610400000000 Au
atom 16.0702216100000008 14.8976003499999994 -0.0893836800000000 Au
atom 18.9542474699999985 14.7826887199999994 -0.2437555000000000 Au
atom 21.7738274899999986 14.7857955899999993 -0.0948099900000000 Au
atom 24.5289767800000007 14.8063020000000005 0.0197336500000000 Au
atom 27.2461635000000015 14.8810591900000002 -0.0651163600000000 Au
atom 1.9074525300000000 14.8222129500000008 -0.0505730300000000 Au
atom 4.7670896799999998 14.7654525499999991 -0.1295047100000000 Au
atom 9.1006624699999996 17.3045059499999994 -0.1588559500000000 Au
atom 11.8315884899999997 17.3388617099999998 -0.1719784100000000 Au
atom 14.6821828900000000 17.3528817900000014 0.0399601500000000 Au
atom 17.6032046999999991 17.2566385500000017 -0.0070985300000000 Au
atom 20.4113303799999990 17.2731825199999989 -0.0759370700000000 Au
atom 23.0890543299999997 17.3163800099999996 0.0721881900000000 Au
atom 25.9452275700000001 17.3105798100000001 -0.0298532000000000 Au
atom 0.5820895500000000 17.2641504400000017 -0.0765112700000000 Au
atom 3.3509911899999998 17.2679458600000011 0.0097931900000000 Au
atom 6.1911386200000003 17.2398850699999997 -0.1598684700000000 Au
atom 7.6159243600000002 19.8146728799999998 0.0237793200000000 Au
atom 10.3885373399999992 19.8685269799999986 0.0954542500000000 Au
atom 13.2529566100000000 19.8432483899999994 0.0688062000000000 Au
atom 16.0206607599999984 19.8533958599999991 -0.1608759100000000 Au
atom 18.8931487000000011 19.7858316099999989 0.0602769900000000 Au
atom 21.7180987399999985 19.7736645300000013 0.0965197300000000 Au
atom 24.5045040999999983 19.7597346099999989 -0.0494740500000000 Au
atom 27.4278088000000011 19.7717217900000009 -0.0425114900000000 Au
atom 2.0070183199999998 19.7585075500000009 0.1889675400000000 Au
atom 4.8400242300000000 19.9174986899999986 -0.2062313400000000 Au
atom 8.9355619999999991 22.3208191700000000 -0.0753163000000000 Au
atom 11.8419787299999992 22.2950884800000004 -0.0482860300000000 Au
atom 14.6174226600000008 22.2705460200000012 0.2018108000000000 Au
atom 17.4206857100000008 22.2453966299999983 -0.0709722800000000 Au
atom 20.1740217999999984 22.1838272900000000 0.5370101100000000 Au
atom 23.0939307300000003 22.2513941899999992 0.1089634500000000 Au
atom 25.8955876099999998 22.2760922599999986 0.1562298700000000 Au
atom 0.5838755100000000 22.2372104600000000 0.0792430000000000 Au
atom 3.3210910700000000 22.2433063400000002 0.1710271200000000 Au
atom 6.1759637999999999 22.3738500100000017 0.1157738200000000 Au
atom 7.6166464800000000 24.8670163700000018 0.0676034300000000 Au
atom 10.3534570899999991 24.7998050600000006 0.2594389900000000 Au
atom 13.1735868099999998 24.6603218800000015 0.3638018700000000 Au
atom 16.0671788699999993 24.7157257900000005 0.1095165500000000 Au
atom 18.7671257000000011 24.6424424299999991 0.2556139600000000 Au
atom 21.5792740700000003 24.6211823800000005 0.5095937900000000 Au
atom 24.3952730699999982 24.6794354399999989 0.2284861700000000 Au
atom 27.3031501500000005 24.6922865899999984 0.0069001300000000 Au
atom 1.9079327200000000 24.7342041200000011 0.2554299900000000 Au
atom 4.7595269099999999 24.8321613899999996 0.0541547800000000 Au
atom 8.9279309700000002 27.2844188599999988 0.0478188300000000 Au
atom 11.7778415499999998 27.1277805699999988 0.1508064200000000 Au
atom 14.5414137500000002 27.1459437000000001 0.2702690900000000 Au
atom 17.3874650099999997 27.2003260000000004 0.2178427100000000 Au
atom 20.2820319100000006 27.2244985799999988 0.1809105100000000 Au
atom 22.9918057100000013 27.0865386500000014 0.1980566200000000 Au
atom 25.8342093499999983 27.2130723199999984 -0.1019637300000000 Au
atom 0.4723521200000000 27.2074992400000006 0.0530129300000000 Au
atom 3.3170441199999998 27.2299545000000016 0.1370886900000000 Au
atom 6.0535365399999996 27.3253527100000007 -0.0892046000000000 Au
atom 7.5595275700000002 29.7539767899999994 -0.0172137600000000 Au
atom 10.3800171999999993 29.6982875600000007 0.1818768800000000 Au
atom 13.1351410600000005 29.5304268500000013 0.0276408400000000 Au
atom 15.9290776699999999 29.6382767099999995 0.1365608300000000 Au
atom 18.8025877699999988 29.6986917400000010 0.1367311900000000 Au
atom 21.7870423600000009 29.6785307600000010 -0.1187025500000000 Au
atom 24.4551575399999983 29.6622692599999986 -0.1019528300000000 Au
atom 27.2459677000000013 29.6671735400000003 -0.1067448900000000 Au
atom 1.8152752700000001 29.7481431799999996 0.1663848900000000 Au
atom 4.6200400799999999 29.8006734299999998 -0.0120506400000000 Au
atom 9.0295723100000007 32.1438576500000011 -0.0309205100000000 Au
atom 11.8039657299999998 32.2161233699999983 0.0991293200000000 Au
atom 14.5218746900000006 32.1036072599999969 -0.0970977700000000 Au
atom 17.3034703800000003 32.0668489600000015 -0.0070736800000000 Au
atom 20.2321507999999994 32.0559653700000027 -0.1012472300000000 Au
atom 23.0902088799999987 32.1870235800000017 -0.2855245500000000 Au
atom 25.8002487400000007 32.2183700100000010 -0.2339503000000000 Au
atom 0.4150988200000000 32.1729062599999978 -0.1513644600000000 Au
atom 3.2815368700000001 32.1728805799999975 -0.1454387700000000 Au
atom 6.1477946299999999 32.1449605099999971 -0.0142677200000000 Au
atom 7.5056120899999996 34.5973285999999973 0.0177919600000000 Au
atom 10.3502450499999998 34.6631849999999986 -0.3472848800000000 Au
atom 13.1870765799999994 34.5998907000000031 0.0435551200000000 Au
atom 15.9890584100000002 34.5022527100000005 0.0960422200000000 Au
atom 18.8469754700000003 34.5431611899999993 -0.0947756800000000 Au
atom 21.6422032299999998 34.6725059600000023 -0.2023508300000000 Au
atom 24.3835495000000009 34.6688964800000008 -0.0821118900000000 Au
atom 27.1563751899999986 34.6974983599999973 -0.5158494400000000 Au
atom 1.8616477300000001 34.6377027400000017 -0.3419353900000000 Au
atom 4.6433908500000003 34.6053308299999998 -0.0418474300000000 Au
atom 8.9019157900000003 37.0130649000000034 -0.0566609800000000 Au
atom 11.7007066300000009 37.0033140099999969 0.2397709100000000 Au
atom 14.5659666399999992 37.0608104499999982 0.0771945300000000 Au
atom 17.3535018299999990 37.0143199199999984 -0.0186548000000000 Au
atom 20.2179319500000005 37.0587113899999991 -0.0740628200000000 Au
atom 23.0032470099999991 37.1598979400000005 -0.2979615900000000 Au
atom 25.8305812099999983 37.0794651100000010 -0.2487442600000000 Au
atom 0.4218973700000000 37.1079145699999984 -0.4828607800000000 Au
atom 3.3081752299999998 37.1018355200000016 -0.4246721100000000 Au
atom 6.1130765000000000 37.1064429600000025 0.0688520200000000 Au
atom 7.5552708099999997 0.0343798800000000 0.0737667100000000 Au
atom 10.3072527399999991 -0.0095140900000000 0.1538205600000000 Au
atom 13.1365592200000005 -0.0017991200000000 0.0781474400000000 Au
atom 15.9757215299999995 0.0362211100000000 -0.0632842000000000 Au
atom 18.8489335500000017 -0.0035416300000000 0.0403595700000000 Au
atom 21.6341650299999984 0.0869733100000000 -0.0715391900000000 Au
atom 24.3906619999999990 0.1386255700000000 -0.2355558500000000 Au
atom 27.2904105399999999 0.0484007100000000 -0.1458204300000000 Au
atom 1.9602668900000000 0.0668607900000000 -0.2789634000000000 Au
atom 4.7949402699999997 0.0576899500000000 0.1153609200000000 Au
atom 8.9254382499999991 2.5096486200000001 0.2614237800000000 Au
atom 11.7367610100000004 2.4408279899999998 -0.0732008000000000 Au
atom 14.5389078900000008 2.4846479399999999 0.0376971300000000 Au
atom 17.3052408500000006 2.5389624099999999 0.0668369900000000 Au
atom 20.2102131900000010 2.6257283700000000 0.0759208200000000 Au
atom 23.0254726400000003 2.6215004899999998 -0.1747881300000000 Au
atom 25.9180949600000012 2.5804468900000002 -0.1918901200000000 Au
atom 0.5522350499999999 2.4969853000000000 -0.0434751200000000 Au
atom 3.3352069499999999 2.5719194200000000 0.1644564100000000 Au
atom 6.1570512400000004 2.5339982299999999 0.2076576300000000 Au
atom 7.6371004400000002 4.9102139100000004 0.3921566000000000 Au
atom 10.4791951300000008 4.9279213100000003 0.2932510100000000 Au
atom 13.2153604799999993 4.9385107499999998 0.2474972900000000 Au
atom 16.0394842100000012 4.9793656899999998 0.2095875700000000 Au
atom 18.7723877899999998 5.0465818100000002 0.2271391800000000 Au
atom 21.5920880599999983 5.0318407900000004 0.1120360600000000 Au
atom 24.5771194699999995 4.9700981400000002 -0.1258734900000000 Au
atom 27.3609497300000015 5.0251155799999996 0.1035851300000000 Au
atom 1.9787098700000001 5.0130714500000000 -0.0637769100000000 Au
atom 4.7889048599999997 4.9719278899999999 0.0797399500000000 Au
atom 8.9076450900000008 7.3008122999999996 -0.1617065100000000 Au
atom 11.7532205899999997 7.4661828400000001 0.0997198200000000 Au
atom 14.6248708999999995 7.4604354900000001 0.0448353700000000 Au
atom 17.3596201699999995 7.5515964200000001 0.1527256200000000 Au
atom 20.1364234300000007 7.3843028000000004 0.0559298700000000 Au
atom 23.0727359599999993 7.4329065999999999 -0.1240881900000000 Au
atom 25.8801924200000002 7.3879653799999998 -0.0487419800000000 Au
atom 0.5234297900000000 7.4676097099999996 0.1801498300000000 Au
atom 3.2878853000000001 7.4362109500000004 -0.0667562700000000 Au
atom 6.1416465599999999 7.4476588899999996 -0.0693325300000000 Au
atom 7.5786689300000001 9.8231624499999999 -0.1288657800000000 Au
atom 10.3149783300000006 9.8407335899999993 0.2087521100000000 Au
atom 13.1251955500000008 9.8624143800000006 0.3324536500000000 Au
atom 15.9427573200000001 9.9674583899999991 0.0856723100000000 Au
atom 18.8792819799999982 9.8928951699999992 0.0214999100000000 Au
atom 21.6287262899999995 9.8724693099999996 0.1736233400000000 Au
atom 24.4540349200000016 9.8760261600000003 -0.1403474000000000 Au
atom 27.2115434100000009 9.8942401100000001 -0.0181742000000000 Au
atom 1.9229593199999999 9.9433900499999996 0.1638444800000000 Au
atom 4.6846046100000001 9.9023548600000009 -0.1101142900000000 Au
atom 9.0933795899999996 12.3259981100000005 -0.1265825600000000 Au
atom 11.8355335200000003 12.3142538800000008 0.1367255900000000 Au
atom 14.6141794600000008 12.4328983500000003 -0.1182457700000000 Au
atom 17.3665484399999990 12.3904005099999992 -0.0020629100000000 Au
atom 20.2933237599999998 12.3234951499999994 0.1049306700000000 Au
atom 23.0222382799999998 12.3667324700000005 -0.0470018500000000 Au
atom 25.8341324599999993 12.3687919399999995 -0.0436880200000000 Au
atom 0.3948782700000000 12.3888271799999998 -0.2222592300000000 Au
atom 3.1700027700000000 12.3793947099999997 -0.3820359800000000 Au
atom 6.2285021100000000 12.3545230999999998 -0.2519550000000000 Au
atom 7.4881466999999997 13.3072816599999992 2.5070552500000001 Au
atom 10.3360717900000001 13.2510942699999994 2.4336796500000002 Au
atom 13.1740114399999992 13.2789486300000004 2.5868275399999998 Au
atom 16.0085061599999996 13.1902826300000005 2.6177138000000002 Au
atom 18.8058874699999983 13.2392585599999997 2.5225853900000001 Au
atom 21.6149082999999997 13.3072886599999993 2.5272589100000000 Au
atom 24.4267240900000004 13.3531837899999992 2.6886225600000002 Au
atom 27.2489817800000012 13.2688217200000000 2.4215504600000002 Au
atom 1.8763494599999999 13.1600080599999991 2.4472902699999999 Au
atom 4.7090598600000000 13.1807094700000000 2.3239787000000001 Au
atom 8.9525969199999995 15.7835453999999995 2.4396925899999999 Au
atom 11.8507187900000002 15.8268623099999992 2.2856745599999999 Au
atom 14.6425241699999997 15.6922183799999999 2.6050653399999999 Au
atom 17.4570339399999988 15.6817300399999997 2.5125382699999999 Au
atom 20.2151577700000011 15.7411047199999992 2.3188652300000001 Au
atom 23.0898452100000000 15.7178135099999992 2.5463748700000002 Au
atom 25.9027436900000012 15.7372900599999994 2.5814758800000002 Au
atom 0.4682892100000000 15.6894978900000002 2.5344501600000000 Au
atom 3.3182295300000000 15.7012170500000003 2.5728655699999998 Au
atom 6.1524498000000003 15.7744760300000006 2.3587241400000001 Au
atom 7.5706931600000003 18.2823819199999988 2.5768513300000002 Au
atom 10.3591706299999995 18.2752404400000010 2.6124220199999999 Au
atom 13.1977010799999999 18.2056560999999988 2.6310188800000001 Au
atom 15.9759354899999995 18.2069121699999990 2.4110213900000002 Au
atom 18.7748871000000008 18.1644564499999994 2.6441728400000000 Au
atom 21.6108152400000009 18.2469247400000008 2.6023686300000000 Au
atom 24.5398785599999982 18.2051492000000010 2.6218884999999998 Au
atom 27.3776216599999991 18.2803471000000002 2.4028540100000000 Au
atom 1.9136852099999999 18.0263092500000006 2.6969188900000001 Au
atom 4.7893200900000004 18.2876859600000010 2.3088815199999999 Au
atom 9.0103086000000001 20.6977988900000014 2.6347596000000002 Au
atom 11.7944607099999992 20.5972816600000002 2.7428819199999999 Au
atom 14.6063750500000005 20.7040960500000004 2.6691845700000001 Au
atom 17.4368141100000003 20.7355100300000004 2.5078450000000001 Au
atom 20.1801538600000008 20.5914148700000013 3.0413992300000001 Au
atom 23.1405533900000009 20.6528782200000016 2.6435584799999998 Au
atom 25.9753451700000006 20.7056541400000000 2.7218752600000000 Au
atom 0.6317308700000001 20.6579510400000004 2.7975139000000002 Au
atom 3.3645313200000002 20.6286541499999991 2.6767567500000000 Au
atom 6.1814755100000003 20.6909215700000004 2.5404825899999999 Au
atom 7.7015890100000002 23.1445242700000016 2.5567346600000000 Au
atom 10.4723677100000003 23.0936699999999995 2.5245685700000000 Au
atom 13.1786141600000004 23.0110713500000017 2.8483355399999999 Au
atom 16.0423124500000007 23.1120786199999984 2.7266862900000000 Au
atom 18.8658137100000012 23.0929062800000011 2.9874296299999998 Au
atom 21.8157347600000016 23.1068723899999995 2.9775959200000002 Au
atom 24.5818886200000009 23.1285378199999982 2.8822171499999998 Au
atom 27.3725828100000008 23.0873333199999990 2.5837378599999998 Au
atom 1.9632780299999999 23.0756128700000005 2.9263507799999999 Au
atom 4.7768375199999999 23.2679892099999996 2.6592575400000000 Au
atom 9.0273507599999991 25.6551726199999983 2.7386226599999999 Au
atom 11.8632414199999996 25.5212382300000016 3.0810208499999998 Au
atom 14.6589974600000001 25.5863403799999993 2.9310607700000002 Au
atom 17.3561864200000002 25.5506450899999997 2.7468559400000001 Au
atom 20.1941875000000017 25.5384814400000018 2.9074227499999998 Au
atom 23.0757758899999992 25.6589079200000008 2.9775099599999999 Au
atom 25.9091216499999994 25.6629518200000000 2.5162236400000002 Au
atom 0.4744739100000000 25.5788466300000010 2.6920259700000000 Au
atom 3.3412683699999999 25.6434327899999985 2.7723539100000001 Au
atom 6.1961215899999997 25.6414715300000005 2.6588445500000000 Au
atom 7.5127603399999998 28.0745163600000005 2.5551105399999998 Au
atom 10.4194893099999994 28.0861428500000017 2.7685539800000001 Au
atom 13.2346302900000001 28.0445500099999983 2.6364133500000002 Au
atom 16.0894416699999994 28.0375794599999999 2.9002890500000000 Au
atom 18.7926646899999987 28.0113075100000017 2.6329023700000000 Au
atom 21.6075893500000014 28.1567451899999988 2.6869915099999999 Au
atom 24.3849667399999994 28.1225930800000015 2.5695056400000000 Au
atom 27.1246827400000008 28.1611724899999984 2.5602056399999999 Au
atom 1.8884909299999999 28.1301651600000007 2.5896615800000000 Au
atom 4.7027106400000003 28.1493612300000002 2.5855157300000000 Au
atom 8.9856759799999999 30.6403921399999994 2.7954735400000001 Au
atom 11.7445218400000009 30.5549973600000015 2.8677428200000001 Au
atom 14.5542801399999995 30.4923795599999998 2.6211887699999998 Au
atom 17.4118588000000010 30.4985700699999995 2.7136142900000002 Au
atom 20.1967998500000014 30.5892975699999994 2.6997175400000000 Au
atom 22.9297711100000008 30.6275702099999982 2.6400150999999998 Au
atom 25.7774614000000000 30.5642605100000004 2.4520046199999999 Au
atom 0.4083696300000000 30.5624972700000015 2.5928089399999998 Au
atom 3.2976277700000001 30.5798754499999994 2.5939369499999998 Au
atom 6.1420105600000001 30.5131324200000016 2.5510652500000002 Au
atom 7.4828021700000003 33.0542768400000000 2.4888008500000001 Au
atom 10.3561927499999999 33.0410171400000010 2.5599234300000000 Au
atom 13.1855501499999992 33.0428514099999973 2.7316388200000001 Au
atom 15.9821490199999996 32.9298317599999990 2.6660347299999998 Au
atom 18.8354518099999986 33.0485407800000033 2.4945218400000000 Au
atom 21.5744028400000012 33.1093452499999970 2.2415729500000001 Au
atom 24.3749934199999991 33.0421738399999967 2.5437222400000001 Au
atom 27.1637898200000016 33.1292307000000008 2.4212927799999999 Au
atom 1.8763620800000000 33.0365980300000004 2.2771645399999998 Au
atom 4.7044626999999997 32.9100859300000010 2.5691512099999998 Au
atom 8.9750750499999992 35.4673252300000001 2.3917308199999998 Au
atom 11.7656013399999999 35.3950975200000002 2.5732154600000001 Au
atom 14.6021733499999993 35.4329234000000000 2.6335862500000000 Au
atom 17.4385183999999995 35.4078330700000024 2.7444001999999998 Au
atom 20.2427841499999985 35.5068542799999989 2.6095804100000000 Au
atom 23.0026028199999999 35.5637650999999977 2.3460233399999999 Au
atom 25.8318051000000004 35.5130867100000032 2.3668640999999999 Au
atom 0.4500605900000000 35.4799438699999996 2.2966771300000000 Au
atom 3.2892080300000002 35.5564581200000021 2.2419261399999999 Au
atom 5.9618320999999996 35.3865907500000034 2.4759105799999999 Au
atom 7.5051618299999996 37.8994199999999992 2.6558587800000000 Au
atom 10.2903528800000004 37.9645622900000035 2.8388395100000001 Au
atom 13.1907490000000003 37.8891485400000008 2.6677863400000001 Au
atom 15.9297896600000009 37.8852197699999991 2.6117982600000000 Au
atom 18.8642286299999995 37.9064435900000021 2.5547332300000001 Au
atom 21.6671112900000011 37.9570846700000004 2.4124986700000002 Au
atom 24.4818124899999994 37.9521135199999975 2.4044171699999999 Au
atom 27.3454092799999984 37.9599025699999970 2.2638384100000000 Au
atom 1.9194781900000000 38.0269035999999971 2.1318060999999999 Au
atom 4.6825532499999998 37.8802846700000018 2.6875726200000001 Au
atom 8.8587390599999996 0.9240522799999999 2.7596825200000001 Au
atom 11.7068559699999994 0.8927858800000000 2.6195951700000002 Au
atom 14.4642421100000007 0.8256283700000000 2.6069610100000000 Au
atom 17.3957953200000013 0.8676573000000000 2.5307330200000000 Au
atom 20.1440797200000006 0.9332616700000000 2.5735475800000001 Au
atom 22.9381859500000012 0.9802641800000000 2.4442338399999999 Au
atom 25.8663368799999986 0.8890836900000000 2.3612786899999998 Au
atom 0.5008001300000000 0.8660715600000000 2.4750156500000000 Au
atom 3.1910357100000000 0.9421469700000000 2.5559077800000001 Au
atom 6.0456487900000004 0.8180834400000000 2.7167736400000000 Au
atom 7.4551183800000000 3.3711722599999998 2.9193763700000002 Au
atom 10.3640389699999993 3.3531141199999999 2.8656920600000002 Au
atom 13.0871025599999999 3.3096844200000000 2.6076677300000002 Au
atom 15.9191281799999995 3.3342976200000001 2.6814455300000000 Au
atom 18.6986430199999987 3.3998355400000002 2.6998181699999999 Au
atom 21.5969384899999994 3.3956953799999998 2.6481633499999999 Au
atom 24.4774490000000000 3.4013613000000000 2.4983752799999999 Au
atom 27.1596872299999994 3.3077103600000002 2.3757826600000000 Au
atom 1.7765206000000000 3.4454547600000001 2.5568800700000001 Au
atom 4.6258837399999999 3.3154607700000001 2.8189105600000000 Au
atom 8.9132444999999993 5.8161299599999996 2.9252162099999999 Au
atom 11.7274259399999998 5.7454721400000004 2.8840558900000000 Au
atom 14.5379741199999994 5.9092449699999996 2.6633408599999999 Au
atom 17.4094954999999985 5.9398034300000004 2.8414769400000002 Au
atom 20.2484952199999988 5.8750024999999999 2.7133734700000001 Au
atom 23.0079389899999995 5.9372069900000000 2.5036507600000002 Au
atom 25.7399698299999997 5.9336233700000003 2.6283077399999999 Au
atom 0.3398015700000000 5.8527729800000001 2.8160496600000000 Au
atom 3.1400812999999999 5.7989159600000004 2.5402221599999999 Au
atom 6.0517983099999997 5.8477516999999999 2.7219313500000002 Au
atom 7.6063781199999996 8.2293429400000004 2.6574654400000002 Au
atom 10.3141509700000000 8.2239817100000003 2.5242175800000002 Au
atom 13.1648296200000008 8.2891096500000003 2.9001607699999998 Au
atom 15.9042774100000006 8.3217784399999992 2.6506893200000001 Au
atom 18.7674682100000005 8.3079529099999991 2.6988568200000000 Au
atom 21.6071027700000009 8.3336536999999993 2.6051266300000000 Au
atom 24.2926129700000004 8.4119372299999995 2.2895008200000002 Au
atom 27.2171227299999998 8.3693978199999997 2.7572410800000000 Au
atom 1.8953016000000000 8.2939203599999995 2.7211423500000000 Au
atom 4.7712417699999996 8.3440321799999992 2.4132447600000000 Au
atom 8.8646315300000005 10.7159095299999994 2.5831852700000000 Au
atom 11.6601005499999992 10.7681593600000003 2.9515499400000000 Au
atom 14.5527139099999996 10.8154962999999995 2.7332459500000001 Au
atom 17.5101468500000017 10.7635048199999996 2.7927904600000000 Au
atom 20.2424708100000004 10.7921638600000005 2.8148130999999998 Au
atom 23.0966039300000006 10.9101827300000007 2.5621355800000001 Au
atom 25.7636159400000011 10.9166780200000009 2.6646426499999998 Au
atom 0.3525024800000000 10.8327881399999999 2.6518734899999998 Au
atom 3.3133529799999999 10.7400852600000007 2.7936575399999999 Au
atom 6.1322702199999997 10.8216432499999993 2.5258413599999998 Au
atom 7.1874162100000003 12.7454452499999995 5.4967445000000001 Cl
atom 7.1175323800000001 15.5170561300000003 8.6120489800000009 Cl
atom 7.1901872100000004 12.7880748600000000 8.2774248999999998 Na
atom 7.2427169400000002 15.6492636100000002 5.7511842399999997 Na
atom 7.0468880800000004 18.5459308000000007 5.6732306699999997 Cl
atom 7.2954300300000003 21.2817566199999995 8.5576002100000004 Cl
atom 7.1465010700000002 18.4235511299999999 8.2853171799999998 Na
atom 7.2225364299999999 21.2127720099999983 5.9049937699999999 Na
atom 7.2793234499999997 24.0036835999999987 5.4870371799999997 Cl
atom 7.2880522000000001 26.9512383100000008 8.5025787800000003 Cl
atom 7.2846364000000001 24.0776091200000018 8.3113164400000006 Na
atom 7.3070633500000000 26.9399382400000000 5.7552976400000002 Na
atom 7.4477542400000001 29.7094356899999994 5.6392726000000000 Cl
atom 7.2678625300000004 32.5009397700000022 8.5142735100000007 Cl
atom 7.2932556599999998 29.9067009500000012 8.2593593199999997 Na
atom 7.4949197999999999 32.4732392599999997 5.7703149600000003 Na
atom 7.3838892200000004 35.3397960900000001 5.7956572499999996 Cl
atom 7.2507179300000004 38.2376640900000027 8.7375552299999999 Cl
atom 7.3086535599999998 35.1738169600000035 8.3725731400000001 Na
atom 7.4106356000000000 38.1584597499999987 5.9173121599999998 Na
atom 7.4730005700000000 1.4051207800000001 5.8109799300000002 Cl
atom 7.1995519000000003 4.3100749399999998 8.7305421499999998 Cl
atom 7.2570598100000003 1.5558550200000001 8.4489745700000007 Na
atom 7.5337501600000003 4.2129248099999996 5.8910982699999996 Na
atom 7.5366878200000000 7.0781914600000002 5.8864773599999998 Cl
atom 7.3798822700000004 10.0324308799999997 8.5340513100000006 Cl
atom 7.3541241399999997 7.1248436499999999 8.6521429500000000 Na
atom 7.3790113499999999 9.9951307000000007 5.8042237200000004 Na
atom 10.2287076999999993 12.5345205899999996 5.6772070799999996 Na
atom 12.8528923000000006 12.8532837000000004 5.7568412400000000 Cl
atom 9.9783544000000006 15.5869168100000000 8.3813631599999994 Na
atom 12.8232216700000006 15.5627506100000002 8.4857319300000000 Cl
atom 12.8777194099999992 12.7699165099999998 8.3820414900000006 Na
atom 10.0489922200000006 12.8452287500000004 8.5416457000000001 Cl
atom 12.7985682300000008 15.5497444799999993 5.5100006700000002 Na
atom 9.9646128800000007 15.7575030799999993 5.7747842499999997 Cl
atom 9.9718980300000002 18.4027228500000000 5.6911242199999998 Na
atom 12.7303778899999998 18.2973559700000017 5.5899073599999998 Cl
atom 10.0343273899999996 21.2849820600000008 8.2964437100000001 Na
atom 12.7672989900000005 21.2329122300000002 8.5912063900000000 Cl
atom 12.5946431000000008 18.5007825799999992 8.4076482600000002 Na
atom 9.9054268200000006 18.4703259300000013 8.5896841700000000 Cl
atom 12.9764595299999996 21.3313255300000009 5.8968751800000003 Na
atom 10.0992447100000007 21.1583986199999998 5.5900908100000004 Cl
atom 9.9853480500000007 24.0217862800000006 5.7874109999999996 Na
atom 13.0032612499999995 24.1353978200000014 5.7694514600000000 Cl
atom 10.0402392700000007 26.7281104099999993 8.3406225000000003 Na
atom 12.9064679200000008 26.7672825600000017 8.7132140899999992 Cl
atom 12.8975456800000003 24.1172059300000008 8.5402871099999995 Na
atom 10.0381993900000008 23.9056332699999992 8.6239045700000005 Cl
atom 13.0812740800000000 27.0108620500000001 5.9479974599999998 Na
atom 10.3317529799999992 26.8919207900000004 5.8220938200000001 Cl
atom 10.2970103500000008 29.7747108999999988 5.9697177400000001 Na
atom 13.1304883300000004 29.6727331099999994 5.7870301199999998 Cl
atom 10.2738151299999991 32.5068196200000017 8.5844098599999992 Na
atom 12.9056463499999996 32.4230943000000025 8.6214959699999998 Cl
atom 13.0084947100000008 29.6324620799999998 8.5450436300000003 Na
atom 10.1853259000000005 29.5635122800000012 8.6866337999999992 Cl
atom 13.0256069199999995 32.3673146300000028 5.9399627199999996 Na
atom 10.2517762300000008 32.4674191499999978 5.9814530299999999 Cl
atom 10.1271723399999996 35.3391444399999983 5.8353914099999997 Na
atom 12.8220035800000005 35.3601484200000016 5.7858869500000001 Cl
atom 9.9548794199999993 37.9780225200000032 8.6534387099999996 Na
atom 12.9383172999999996 38.1438107299999984 8.5892432000000003 Cl
atom 12.9417345299999997 35.3476650899999996 8.4088504200000003 Na
atom 10.0676900499999995 35.3348240999999987 8.6548075600000001 Cl
atom 12.8804547800000009 38.2072600099999988 5.8784941000000002 Na
atom 10.1222535699999998 38.0925550999999984 5.8926962100000004 Cl
atom 10.2681799500000004 1.4293616300000000 5.9910690400000002 Na
atom 12.9286068400000005 1.4610490800000000 5.7025731100000003 Cl
atom 10.2921994399999992 4.4496047699999997 8.5776087499999996 Na
atom 13.0329269599999993 4.2682665599999998 8.7731383199999993 Cl
atom 12.9937868200000004 1.5648498099999999 8.4913092799999994 Na
atom 10.1724780799999994 1.4398973399999999 8.7717592700000004 Cl
atom 13.0460290600000004 4.3768020700000001 5.8494954400000001 Na
atom 10.2125735599999992 4.3135130300000002 5.9309221900000004 Cl
atom 10.2199478199999998 7.1361896500000004 5.9369254299999996 Na
atom 13.0929621699999998 7.1138833500000000 5.8327695799999999 Cl
atom 10.0909487799999997 10.0312450099999992 8.4971478099999995 Na
atom 12.8570704500000002 9.9152407999999994 8.6375424600000006 Cl
atom 13.1776639499999995 7.1353281500000003 8.5309988800000003 Na
atom 10.3207999000000008 7.2202523699999999 8.8184179999999994 Cl
atom 13.0643272899999996 9.7942934899999994 5.9075383700000001 Na
atom 10.3120648599999996 9.8106471000000006 5.7730619599999997 Cl
atom 15.7594702000000009 12.7918935000000005 5.7112361500000004 Na
atom 18.5960034000000007 12.5494146900000008 5.6347149400000003 Cl
atom 15.5584161000000005 15.5644659099999991 8.2888457500000001 Na
atom 18.5418634000000004 15.6647751900000003 8.4213626200000000 Cl
atom 18.6176435600000012 12.9304171100000005 8.2770643300000000 Na
atom 15.7752495899999996 12.9913277800000007 8.4969680400000005 Cl
atom 18.4418285600000011 15.6103311999999992 5.6270560700000001 Na
atom 15.5983550100000006 15.6045614799999992 5.4931695600000001 Cl
atom 15.3794373199999992 18.4034916899999992 5.7663478200000000 Na
atom 18.2164213199999985 18.2889315500000009 5.7813126800000001 Cl
atom 15.7178190699999991 21.1269724699999983 8.5557168400000005 Na
atom 18.4155900800000012 21.0748235000000008 8.3680328100000008 Cl
atom 18.3712104399999987 18.2407262800000005 8.3533333800000005 Na
atom 15.4648501799999991 18.1621968500000008 8.5676057300000004 Cl
atom 18.4875985100000015 21.1826235999999994 5.6710312900000002 Na
atom 15.5950891200000008 21.0673810900000014 5.7813280899999997 Cl
atom 15.8165184300000004 23.9872692699999988 5.8660769999999998 Na
atom 18.6506993299999984 24.0369794600000013 5.8449787899999999 Cl
atom 15.6868136600000003 26.7943509300000002 8.4589627600000004 Na
atom 18.5558398900000014 26.7926473200000004 8.6081411400000007 Cl
atom 18.6263834700000004 23.8738216500000000 8.6223344999999991 Na
atom 15.7281727199999999 23.8471798899999996 8.5141483600000001 Cl
atom 18.7367672799999987 26.6895912899999992 5.9236831299999997 Na
atom 15.9514126800000007 26.7749166500000015 5.7892654700000001 Cl
atom 15.8016229300000006 29.6312790399999990 5.8361951400000001 Na
atom 18.5154966600000002 29.5799926000000006 5.6787070200000000 Cl
atom 15.6603656800000000 32.6210028200000011 8.4631468400000003 Na
atom 18.6354665699999984 32.3836286700000002 8.6180184200000003 Cl
atom 18.5854663400000000 29.5891175400000002 8.3994871900000003 Na
atom 15.8582995100000002 29.4563821799999985 8.6279338600000006 Cl
atom 18.6039712500000007 32.5360597999999968 5.7387370500000001 Na
atom 15.8121178600000007 32.6345321299999966 5.6648649500000001 Cl
atom 15.7381701700000001 35.4500533699999991 5.7383222199999997 Na
atom 18.7580804999999984 35.2669149999999973 5.7725385500000002 Cl
atom 15.7500244100000000 38.2189529699999966 8.3825525699999996 Na
atom 18.6323267900000005 38.0489114599999994 8.4610229700000001 Cl
atom 18.6708864400000003 35.2665993600000007 8.3489265499999998 Na
atom 15.6062334699999994 35.4013411199999979 8.3724123899999991 Cl
atom 18.6895947900000010 38.1681438000000028 5.6544022299999996 Na