#===============================================================================
# Created using the Atomic Simulation Environment (ASE)

# Sat Nov  1 21:48:36 2025

#=======================================================
lattice_vector 28.1999999999999993 0.0000000000000000 0.0000000000000000 
lattice_vector 0.0000000000000000 39.4799999999999969 0.0000000000000000 
lattice_vector 0.0000000000000000 0.0000000000000000 62.3296083400000001 
atom 7.5122085500000004 14.7125495199999996 0.0481142500000000 Au
atom 10.3555102399999992 14.8568056199999994 -0.1163723200000000 Au
atom 12.9319607899999998 14.7514085599999998 0.0749535200000000 Au
atom 15.9209290200000009 14.9286880300000000 -0.0050190000000000 Au
atom 18.8555646599999989 14.8354901100000003 0.3523872600000000 Au
atom 21.8062876400000007 14.6379366199999996 0.0162119800000000 Au
atom 24.2920243099999986 14.7099432700000001 0.1432936100000000 Au
atom 26.9555489000000001 14.7656529899999995 0.0286824000000000 Au
atom 1.8354144699999999 14.6948116100000004 0.0454990400000000 Au
atom 4.6939528399999997 14.7150119600000000 -0.0269176200000000 Au
atom 8.9429270499999998 17.4638007299999991 0.0350192300000000 Au
atom 11.8705891599999998 17.3544701600000018 -0.1499070900000000 Au
atom 14.4636394900000003 17.3265796799999983 -0.0540377700000000 Au
atom 17.5503482899999987 17.2976694199999983 0.1219305900000000 Au
atom 20.1792966800000002 17.2252689699999983 0.1539503600000000 Au
atom 23.1371489500000003 17.2842206000000012 0.1014371600000000 Au
atom 25.8867738100000011 17.1653956699999988 0.0897248200000000 Au
atom 0.5220480800000000 17.1948644100000010 -0.0375114900000000 Au
atom 3.4172704100000000 17.2323093800000002 -0.0854971900000000 Au
atom 6.2111089499999999 17.2332333200000001 0.2803367200000000 Au
atom 7.4985126800000002 19.6843088100000010 0.2500494100000000 Au
atom 10.4729845499999996 19.8884045900000004 0.0575762000000000 Au
atom 13.2754536099999996 19.7627890700000002 0.0507404000000000 Au
atom 16.0052419000000015 19.8727760199999999 0.0123664300000000 Au
atom 18.8211399999999998 19.7882499299999992 -0.0380580700000000 Au
atom 21.6715718899999992 19.6927237099999992 -0.0123410800000000 Au
atom 24.6206392600000008 19.8495217400000001 0.2126040100000000 Au
atom 27.3565870000000011 19.7399110700000016 -0.0444636000000000 Au
atom 1.8129402999999999 19.8496584399999989 0.3069220700000000 Au
atom 4.7458076000000000 19.7344292199999991 -0.1113511000000000 Au
atom 8.8873004000000009 22.2464644299999996 0.0662415200000000 Au
atom 11.7862945999999997 22.2776174599999983 0.1454388700000000 Au
atom 14.4875460199999999 22.3296043100000006 0.0004064700000000 Au
atom 17.5790630400000012 22.3126487699999991 0.1712307200000000 Au
atom 20.1288334400000011 22.1700290799999991 -0.0196636000000000 Au
atom 23.0729912199999987 22.2286888199999986 0.3278070900000000 Au
atom 25.8375313800000015 22.2073506000000016 -0.0296296800000000 Au
atom 0.5129261500000000 22.2082234599999992 0.0172670900000000 Au
atom 3.4594249000000001 22.3103560200000004 0.1469247900000000 Au
atom 6.2019215799999996 22.2119141599999992 0.0730596900000000 Au
atom 7.4763915299999999 24.7869836899999996 0.3007469400000000 Au
atom 10.2705356699999992 24.6842749099999992 0.0350031300000000 Au
atom 13.2519655200000006 24.5903093900000016 0.1671879100000000 Au
atom 15.9896648799999994 24.5755124400000007 -0.0737281800000000 Au
atom 18.7802174700000002 24.7408475500000016 0.1480529900000000 Au
atom 21.5625922299999999 24.8632217000000004 0.1432850000000000 Au
atom 24.4176880400000016 24.7328376799999994 0.0912263100000000 Au
atom 27.0364051399999994 24.6039941099999986 0.2353266800000000 Au
atom 1.8802249900000001 24.7624290299999998 0.0555146100000000 Au
atom 4.5274025399999998 24.4141694800000018 0.3146044600000000 Au
atom 8.9285649399999993 26.8803719600000015 0.1156409000000000 Au
atom 11.7600391999999996 27.0038880500000005 0.2413739700000000 Au
atom 14.5020635900000006 26.9943837500000008 0.0596065100000000 Au
atom 17.2652372300000003 27.1467570699999996 0.0830222200000000 Au
atom 20.1588666100000005 27.1723998800000004 0.0034355200000000 Au
atom 23.2267241400000017 27.0467672499999985 0.0707075400000000 Au
atom 25.8755644400000016 27.2200957899999985 0.1440051500000000 Au
atom 0.6294976200000000 27.2036593800000013 0.0943997000000000 Au
atom 3.2212310600000000 27.1185885800000008 0.1862503400000000 Au
atom 6.1066007500000001 27.2354962200000017 -0.1573632000000000 Au
atom 7.4211238000000002 29.5884873800000001 -0.2627378500000000 Au
atom 10.2337817999999992 29.6563821800000014 0.0017234400000000 Au
atom 13.1897103599999994 29.6207357400000006 -0.1030879300000000 Au
atom 16.0189401899999986 29.6051300499999996 0.2862152400000000 Au
atom 18.7788355200000012 29.6679297800000015 0.2348666500000000 Au
atom 21.5203243200000003 29.7226916500000016 -0.1241357200000000 Au
atom 24.3323031199999988 29.7568097999999992 0.0365891600000000 Au
atom 27.0722323299999985 29.5806296499999988 -0.0280329400000000 Au
atom 1.8534079000000001 29.8302683600000016 -0.0048693300000000 Au
atom 4.6555792900000004 29.6575860899999988 0.1941106000000000 Au
atom 8.9489361600000006 32.0500224900000035 0.0969321600000000 Au
atom 11.6857875599999996 31.9997800499999983 -0.0142521600000000 Au
atom 14.4325427600000005 32.0798168399999994 0.0546518300000000 Au
atom 17.3345071500000003 32.0002847900000020 -0.0576762500000000 Au
atom 20.2750607699999996 32.1009485299999966 0.1067761600000000 Au
atom 23.0957523299999998 32.1065995299999969 0.0000261700000000 Au
atom 25.8140703500000015 32.0437146200000029 -0.0239752300000000 Au
atom 0.3776741500000000 32.1276395699999995 -0.0563444300000000 Au
atom 3.3593362600000001 31.8982496900000001 -0.0628001300000000 Au
atom 6.1623329299999998 32.0219060599999992 0.1068793500000000 Au
atom 7.6744623599999997 34.5907691499999999 -0.0656225500000000 Au
atom 10.5585537200000008 34.5749789300000003 0.0431655800000000 Au
atom 13.0125966399999999 34.5242745299999996 -0.0062450100000000 Au
atom 15.9034316199999992 34.5016220099999984 0.0386045000000000 Au
atom 18.8151121600000018 34.4090203800000012 0.0920956400000000 Au
atom 21.6123638900000010 34.5633093799999997 0.1068137600000000 Au
atom 24.5177947600000010 34.6279303100000035 0.0149213400000000 Au
atom 27.0830454699999983 34.7887702000000019 -0.0485809900000000 Au
atom 1.9354739599999999 34.4310403799999989 0.3069142200000000 Au
atom 4.6343547000000003 34.4750959599999973 0.0529958800000000 Au
atom 8.9698389499999998 36.9481790500000002 0.1270836400000000 Au
atom 11.8075471000000007 37.0961212500000030 0.0933247500000000 Au
atom 14.6513987100000005 37.0251431299999965 0.0363179900000000 Au
atom 17.4256850800000009 36.9417178500000034 0.3209170800000000 Au
atom 20.2285143100000013 37.1292938500000034 -0.0871067100000000 Au
atom 23.0093945099999999 37.1195955199999972 0.0216491800000000 Au
atom 25.7698928000000009 36.8706255499999997 0.0812435800000000 Au
atom 0.4229018800000000 37.0925075600000014 0.1159071600000000 Au
atom 3.3155267099999999 37.0337774099999990 -0.0532703000000000 Au
atom 6.0667592399999997 37.0810822199999990 0.0234231500000000 Au
atom 7.5086830700000000 -0.0004933200000000 -0.0387962000000000 Au
atom 10.4856471100000004 -0.0417519000000000 0.2462531300000000 Au
atom 13.0857185200000004 0.0685361800000000 -0.0763456400000000 Au
atom 15.8443172600000004 -0.1164191100000000 -0.0492441900000000 Au
atom 18.8436501499999984 0.0276087000000000 0.2043203000000000 Au
atom 21.4616687599999985 0.0534835700000000 0.1717293100000000 Au
atom 24.6294691499999985 0.1676387500000000 -0.0146435600000000 Au
atom 27.2497602299999997 -0.0727610800000000 0.0799231200000000 Au
atom 1.8729161100000000 -0.1397689700000000 0.1665068000000000 Au
atom 4.6823936499999999 0.0435616500000000 0.0653277000000000 Au
atom 8.8201033899999999 2.4132606000000001 0.1522951100000000 Au
atom 11.6820285500000001 2.5141902699999998 0.1845746400000000 Au
atom 14.4134665799999997 2.3365885199999998 0.0464324900000000 Au
atom 17.2265781000000011 2.5916811399999999 0.1151949800000000 Au
atom 20.3426068800000017 2.2685243399999999 0.1202692200000000 Au
atom 23.0075794299999998 2.4805242000000001 0.1293477500000000 Au
atom 25.7361348200000002 2.4073378100000000 -0.1113259300000000 Au
atom 0.6420800500000000 2.4346080899999998 0.2268957500000000 Au
atom 3.1694653900000000 2.5115037400000002 0.0759814200000000 Au
atom 6.0730562900000002 2.5709748100000001 0.1289012100000000 Au
atom 7.6796973299999998 4.7764721600000000 0.1353074900000000 Au
atom 10.3648424400000003 5.0212178900000000 0.1874284900000000 Au
atom 13.0265353099999999 4.9819749800000004 0.1304050500000000 Au
atom 15.9939616900000008 4.8827086900000003 0.1018013300000000 Au
atom 18.6141470200000008 4.9188432999999998 0.3029035400000000 Au
atom 21.6105507699999997 4.9238141799999999 0.1108321700000000 Au
atom 24.3931044399999983 4.7763139299999997 0.0976068500000000 Au
atom 27.1782910700000002 4.9478389399999996 0.2200459600000000 Au
atom 1.8325049600000001 4.9662645300000001 -0.0956255600000000 Au
atom 4.6036863500000003 4.9141735700000000 -0.0309025600000000 Au
atom 8.9167494999999999 7.5630808900000002 0.1900520400000000 Au
atom 11.9852395800000000 7.2473378300000002 -0.0603957500000000 Au
atom 14.4752021899999992 7.4877075000000000 0.0944673800000000 Au
atom 17.3548276299999991 7.2997275100000003 0.0861474200000000 Au
atom 20.1704028400000013 7.3101593899999999 0.1337966600000000 Au
atom 22.9989909799999985 7.3583107600000002 0.2079956000000000 Au
atom 25.6943884099999984 7.3593506299999998 0.0616150400000000 Au
atom 0.3358004800000000 7.6211363199999997 -0.0267739600000000 Au
atom 3.3656279599999999 7.3927658599999999 -0.0031674400000000 Au
atom 6.0615344200000001 7.3319781300000004 0.1909179300000000 Au
atom 7.4436528199999996 9.9219973800000005 0.0791313400000000 Au
atom 10.2400753400000006 10.0950869200000000 -0.0131696800000000 Au
atom 13.1955567200000008 10.0187571299999991 0.0323845400000000 Au
atom 15.7939198399999992 9.7372915399999993 0.0275091600000000 Au
atom 18.8870697599999993 9.8577042200000005 0.0774731400000000 Au
atom 21.6003878799999995 9.8849869600000009 -0.0892518400000000 Au
atom 24.4858874799999988 9.8691874199999994 0.1505860600000000 Au
atom 27.0628299900000009 9.8300370699999995 -0.1392727800000000 Au
atom 1.8085742899999999 9.8811325300000004 -0.1812625400000000 Au
atom 4.7284280000000001 10.0007175999999998 0.1635273700000000 Au
atom 9.0728939499999992 12.2467022100000005 -0.0155476300000000 Au
atom 11.7849195200000008 12.3954102000000006 0.0431683900000000 Au
atom 14.6136880199999997 12.3755830499999995 -0.0873982400000000 Au
atom 17.2982706899999990 12.3184801999999998 -0.0655226800000000 Au
atom 20.1111491200000003 12.3719751799999997 -0.0547608500000000 Au
atom 23.0730548999999989 12.4736049500000004 0.1354899300000000 Au
atom 25.8013934399999982 12.4250637499999996 0.0171376200000000 Au
atom 0.4531430000000000 12.3438466800000004 0.0579892600000000 Au
atom 3.2667694500000000 12.4024589600000006 -0.0391452000000000 Au
atom 6.2188502799999998 12.4707440599999995 0.0128637500000000 Au
atom 7.6165592400000000 13.0580811699999995 2.6443661399999998 Au
atom 10.4412577399999993 13.1786866200000006 2.7963747300000001 Au
atom 13.0572835600000001 13.0199662699999994 2.6682322500000000 Au
atom 15.8876048999999995 13.1433952499999993 2.6440686200000001 Au
atom 18.8858920200000000 13.1087848699999991 2.6603879899999998 Au
atom 21.6536156899999988 13.1864456499999996 2.5260974300000001 Au
atom 24.3642374599999982 13.0983800400000003 2.6307517499999999 Au
atom 27.2246451799999996 13.1137452700000008 2.7364666299999998 Au
atom 1.8833710400000001 13.3149256400000002 2.5480894300000001 Au
atom 4.7510658499999998 13.2825692300000000 2.5705431999999999 Au
atom 8.8963657499999993 15.6231238700000006 2.5858362100000001 Au
atom 11.9256518200000006 15.6926015400000001 2.5862823300000000 Au
atom 14.3229248899999995 15.5549706299999997 2.5824058399999998 Au
atom 17.2562367700000010 15.7497479899999995 2.5211427899999999 Au
atom 20.2237292900000014 15.6509362500000009 2.5229888599999999 Au
atom 23.0044490699999997 15.4099041299999993 2.8348854700000001 Au
atom 25.8682402399999987 15.7016487999999992 2.6055441899999998 Au
atom 0.3750110900000000 15.6835022399999993 2.4971023200000002 Au
atom 3.0148435000000000 15.6505244399999999 2.5999069900000000 Au
atom 6.0895649000000001 15.3833653800000008 2.6558511199999999 Au
atom 7.5100107400000002 18.1621805000000016 2.5124946900000000 Au
atom 10.4640458800000005 17.9908504799999989 2.6371495500000002 Au
atom 13.1207629600000004 18.2112915199999996 2.6401793599999999 Au
atom 15.9634910300000001 18.1657448899999991 2.6741303900000002 Au
atom 18.8789144700000016 17.9110792699999983 2.6414488000000000 Au
atom 21.6950732299999984 18.0011717199999985 2.7564101900000000 Au
atom 24.1968590399999997 18.2041438299999996 2.6604197200000002 Au
atom 27.3369494400000015 18.0442990600000002 2.5498495600000002 Au
atom 2.0399070199999998 17.9958403400000009 2.7837075900000001 Au
atom 4.6059681599999998 18.0741125999999994 2.4858106400000000 Au
atom 8.9718777299999992 20.5217605200000008 2.7664402600000000 Au
atom 11.6995062000000001 20.4229628400000003 2.6982995500000002 Au
atom 14.5958895000000002 20.6178258499999991 2.7229071500000002 Au
atom 17.4928342100000016 20.6456107499999995 2.7523547599999998 Au
atom 20.1224921399999985 20.6148522599999993 2.6389706400000001 Au
atom 23.0035368499999997 20.4514674800000016 2.8465876600000000 Au
atom 25.9243619400000007 20.4309213199999995 2.7568362700000000 Au
atom 0.6398916900000000 20.4818742699999987 2.8288584600000002 Au
atom 3.3924548400000001 20.4107590300000012 2.7690347599999998 Au
atom 6.2625298899999997 20.4446504199999985 2.9237887200000001 Au
atom 7.3983643399999997 22.9955336000000017 2.8113895400000000 Au
atom 10.2661410800000006 23.1503951599999986 2.6929786800000000 Au
atom 13.0948739599999993 22.9343177099999984 2.6748556400000001 Au
atom 16.0161051100000016 23.0295312699999997 2.5636480100000001 Au
atom 18.8471811699999989 23.1406363199999987 2.6603262499999998 Au
atom 21.5489764000000008 23.0200123699999999 2.7257503399999998 Au
atom 24.3615674400000017 23.0692562000000017 2.7313624999999999 Au
atom 27.1063404599999984 23.0314018000000011 2.6273412899999999 Au
atom 1.7914256399999999 23.0067099800000001 2.7983047399999998 Au
atom 4.7531063800000002 23.0521476499999984 2.6273683700000001 Au
atom 8.7933252999999993 25.5937253899999995 2.7148343800000001 Au
atom 11.6801058100000006 25.4881541300000016 2.8336512900000002 Au
atom 14.4403989700000004 25.4852323399999996 2.7458516500000001 Au
atom 17.3999034600000009 25.5876646799999996 2.8897943800000001 Au
atom 20.2591904599999992 25.4156248100000006 2.8044477500000000 Au
atom 22.7632412299999984 25.5666262999999994 2.7002283000000000 Au
atom 25.6558901400000003 25.4025761000000010 2.7069898200000000 Au
atom 0.4503025800000000 25.5163613600000012 2.6394825499999999 Au
atom 3.3107156099999999 25.4800500499999991 2.7104060500000000 Au
atom 6.0629475800000003 25.5052560899999996 2.6626668800000002 Au
atom 7.7109467699999996 27.8768937600000015 2.6584998700000000 Au
atom 10.1934193999999998 28.0586404099999989 2.5568657400000001 Au
atom 13.2882985300000005 28.1603805300000012 2.5917564899999999 Au
atom 16.1264726600000010 27.9349086399999997 2.6182913100000000 Au
atom 18.6711241299999990 28.0179763900000012 2.6282484500000001 Au
atom 21.7168296400000003 27.9897009799999985 2.9171363200000000 Au
atom 24.4346414199999984 28.2168569100000006 2.4912551800000000 Au
atom 27.1136072100000014 27.9267411999999986 2.5526429500000001 Au
atom 1.9855338499999999 27.9775451699999991 2.6960210000000000 Au
atom 4.7895077199999996 27.8371185600000004 2.7316659099999998 Au
atom 9.0167029799999998 30.3563813399999987 2.6683903600000001 Au
atom 11.8000335599999993 30.2975587399999995 2.8770311099999999 Au
atom 14.4843462899999995 30.4471146899999994 2.5951387800000001 Au
atom 17.3767066899999989 30.5016781600000009 2.7299783799999999 Au
atom 20.2348582300000004 30.6187717299999989 2.6853278100000000 Au
atom 22.9615543399999993 30.5982262499999997 2.7447276199999999 Au
atom 25.7797130800000005 30.4780288000000006 2.6486028099999999 Au
atom 0.4336676800000000 30.7414713000000006 2.5705360599999998 Au
atom 3.3074630400000000 30.5167117300000008 2.4014337200000000 Au
atom 6.3955755099999996 30.5805797300000002 2.4873397200000000 Au
atom 7.3518659499999996 33.0585219900000027 2.6126692600000001 Au
atom 10.3132607299999997 32.9837318599999989 2.7458124100000001 Au
atom 13.1879165900000004 32.9760788399999996 2.6683678600000000 Au
atom 15.8947089300000002 32.8549788099999986 2.7947392899999999 Au
atom 18.8189783000000013 33.0216681100000002 2.5010501600000001 Au
atom 21.7206919999999997 32.8263824100000008 2.7757566200000001 Au
atom 24.5812490799999992 32.9650949500000010 2.5245285800000001 Au
atom 27.1442315299999990 32.9520193899999967 2.6878237800000000 Au
atom 1.9645783800000001 32.9552424299999984 2.5758394800000000 Au
atom 4.8278343399999999 32.8948755799999972 2.4810953400000000 Au
atom 9.0125448099999996 35.3689885900000007 2.6524183300000002 Au
atom 11.8498739499999992 35.3241378000000026 2.6640450300000000 Au
atom 14.4138020000000004 35.3985487699999979 2.4662065200000001 Au
atom 17.3794572500000015 35.5219880200000020 2.6520770599999999 Au
atom 20.0655619499999993 35.4802000399999997 2.6096300499999998 Au
atom 22.9279522600000014 35.4932050600000011 2.5169212700000001 Au
atom 25.8966124800000017 35.4421975200000006 2.5088145700000002 Au
atom 0.2774022500000000 35.4889301600000024 2.7932397500000001 Au
atom 3.4005890200000000 35.4043842900000030 2.6619917900000001 Au
atom 6.2301365400000002 35.3150866000000008 2.7084174200000000 Au
atom 7.5001911000000003 37.9304556299999973 2.6870507699999999 Au
atom 10.5201607799999994 37.8711175800000035 2.7884658600000001 Au
atom 13.0631478800000007 37.8124539100000021 2.6526286300000002 Au
atom 15.9368147499999999 37.9070765499999993 2.5096014200000001 Au
atom 18.7035295300000008 37.8087982799999978 2.4499742400000000 Au
atom 21.6028684099999992 37.8812674599999966 2.5193636300000000 Au
atom 24.4230597299999985 37.9789253900000006 2.5384376400000002 Au
atom 27.0375566599999999 37.7831242399999994 2.5417281599999999 Au
atom 1.9256960299999999 37.7471508200000017 2.5167179300000000 Au
atom 4.5972073299999998 37.7967866600000022 2.5986018199999998 Au
atom 8.9276742400000000 0.8664291000000000 2.8116677499999998 Au
atom 11.8652793499999998 0.8570380600000000 2.6776468200000001 Au
atom 14.5308314900000006 0.7715370300000000 2.7518818999999999 Au
atom 17.3847344600000007 0.8672772500000000 2.6455243300000002 Au
atom 20.1054328799999986 0.6925405800000000 2.7071407000000001 Au
atom 23.0556162700000016 0.8950973100000000 2.7244515300000001 Au
atom 25.6857180900000017 0.7759253800000000 2.7536162499999999 Au
atom 0.4455331500000000 0.8681641100000000 2.8782427700000000 Au
atom 3.3819299500000000 0.8566489500000000 2.6331361499999999 Au
atom 6.0195034900000000 0.8762548400000000 2.6151218799999998 Au
atom 7.4961139299999999 3.3824593100000002 2.7568735800000002 Au
atom 10.4656102900000008 3.2949853199999999 2.7571155300000001 Au
atom 13.0138306700000008 3.2063449500000001 2.5622590500000002 Au
atom 15.9533760699999991 3.3856558600000000 2.5763903799999999 Au
atom 18.7856828500000006 3.3752126900000001 2.4250111099999998 Au
atom 21.6580165200000003 3.2750853200000001 2.8670309800000000 Au
atom 24.3412286500000015 3.4310579699999999 2.8389756700000000 Au
atom 27.2417102000000000 3.2938850999999998 2.6912878000000000 Au
atom 1.8613675599999999 3.4266012799999999 2.5766377500000002 Au
atom 4.6568247100000004 3.1606290700000002 2.5986732899999998 Au
atom 8.8397126700000008 5.8072916399999999 2.7352957199999999 Au
atom 11.6938656699999992 5.8580795600000002 2.6756240000000000 Au
atom 14.4562690400000005 5.6578096899999997 2.7307391999999999 Au
atom 17.4320390600000010 5.7756282499999996 2.6025009500000000 Au
atom 20.1010515599999984 5.6075466799999996 2.6042286099999998 Au
atom 22.9511700900000015 5.8765399900000004 2.7298652900000002 Au
atom 25.8358370999999991 5.8078967099999996 2.6866252400000001 Au
atom 0.3515070000000000 5.7604107400000002 2.7344035299999998 Au
atom 3.3448447799999999 5.8749361799999997 2.7036881799999999 Au
atom 6.1514678399999996 5.7305924800000003 2.5877035799999999 Au
atom 7.6754925399999996 8.2750543299999997 2.7966325799999998 Au
atom 10.5081682000000001 8.2312813800000004 2.3761910700000000 Au
atom 13.0277206400000001 8.3246247499999999 2.6804071399999998 Au
atom 15.9149821800000009 8.2682432499999994 2.5563811300000001 Au
atom 18.8802677500000016 8.3498778100000006 2.8539423600000000 Au
atom 21.5166210699999993 8.1921350000000004 2.6214507600000001 Au
atom 24.3978953300000008 8.1003357299999994 2.9071590399999998 Au
atom 27.3176448900000004 8.1776981000000006 2.6593076700000000 Au
atom 1.7630798599999999 8.0149399599999995 2.7691149899999998 Au
atom 4.6000649200000003 8.2019412000000003 2.5746005099999998 Au
atom 8.9063538300000005 10.7125547200000000 2.7086246699999998 Au
atom 11.6439741500000000 10.8341684899999997 2.6646551600000001 Au
atom 14.4713701300000004 10.6997631099999992 2.7058444200000000 Au
atom 17.3033209300000017 10.7187895100000006 2.5947419100000002 Au
atom 20.0009424200000012 10.6071536900000005 2.8125584300000002 Au
atom 23.0692286499999994 10.7985517299999998 2.6499556800000001 Au
atom 25.6407143499999997 10.7878592900000001 2.7492945199999999 Au
atom 0.4490532600000000 10.8136516700000005 2.4751133200000002 Au
atom 3.2209444999999999 10.7956582799999996 2.5504204499999998 Au
atom 6.0453355999999996 10.6349582799999993 2.5766612599999998 Au
atom 7.5459834399999997 13.2910011800000003 5.7512593699999996 Cl
atom 7.4098049100000001 15.9850914300000007 8.6802792300000000 Cl
atom 7.6426037700000000 13.1955779799999995 8.2742526299999994 Na
atom 7.4698474099999999 16.0593351899999988 5.7541729799999999 Na
atom 7.4130911700000004 18.7018512799999996 5.7706833499999997 Cl
atom 7.5248928800000003 21.6978999299999984 8.5353959300000000 Cl
atom 7.5567458800000002 18.8616422200000002 8.4185541599999993 Na
atom 7.5298854300000002 21.6889467300000014 5.6969674000000001 Na
atom 7.4210366399999996 24.3725330100000015 5.7506012599999998 Cl
atom 7.5219651199999999 27.3136939199999986 8.6288959599999995 Cl
atom 7.5565704900000004 24.3459852900000016 8.4656282800000007 Na
atom 7.5066666299999998 27.2285931499999982 5.8302363599999998 Na
atom 7.3961493300000001 30.0251791700000012 5.4747741300000001 Cl
atom 7.5275439600000000 33.0250039200000032 8.3792675600000006 Cl
atom 7.4465769399999999 30.0632950699999988 8.3243577599999998 Na
atom 7.5116280099999999 33.0068058000000022 5.7835490800000002 Na
atom 7.4604078100000004 35.7713302599999992 5.6362110000000003 Cl
atom 7.5541866899999999 38.6789244200000013 8.7042151800000003 Cl
atom 7.4402010299999999 35.8117236300000030 8.2879202200000002 Na
atom 7.6254512999999999 38.5738603699999985 5.8855829399999999 Na
atom 7.5190221800000003 1.7758120300000000 5.6830506400000003 Cl
atom 7.4328905299999999 4.7834620699999997 8.5233951599999997 Cl
atom 7.5860494799999998 1.8280841699999999 8.2092810400000005 Na
atom 7.5373245300000002 4.8273501500000000 5.8737782200000002 Na
atom 7.4550817399999998 7.4492739300000004 5.5807725000000001 Cl
atom 7.4193780800000004 10.2584619200000002 8.4641840899999998 Cl
atom 7.4939548000000000 7.5977874400000003 8.4384248100000008 Na
atom 7.7123144300000002 10.2947565999999995 5.6489017600000002 Na
atom 10.1435607500000007 13.1225258500000006 5.8627793199999996 Na
atom 13.1003595700000002 13.0832585899999998 5.7564032200000002 Cl
atom 10.2172873800000001 16.0664121299999998 8.3153318299999999 Na
atom 13.1782522199999992 16.0378961300000000 8.7643762600000006 Cl
atom 13.2792064799999991 13.0694831300000001 8.4042891599999994 Na
atom 10.1994832599999992 13.0916696500000000 8.6869541699999999 Cl
atom 13.1781300899999998 16.1107315799999995 5.7065559199999996 Na
atom 10.2263882600000002 15.9541389000000002 5.6226453899999997 Cl
atom 10.1702973799999992 18.8130007200000016 5.9198992900000000 Na
atom 13.0861452400000005 18.9232701600000013 5.5753604799999996 Cl
atom 10.3011867400000003 21.5945175899999988 8.4201872200000007 Na
atom 13.0507239399999992 21.5333604899999997 8.5908882700000007 Cl
atom 13.0532416399999995 18.9791786100000017 8.4314087799999999 Na
atom 10.3364046700000003 18.7891840899999991 8.7982097100000001 Cl
atom 13.0707099200000005 21.6909163300000003 5.9247383100000004 Na
atom 10.3797289100000008 21.4654752500000008 5.9320531599999997 Cl
atom 10.4711043600000000 24.4141219900000017 5.8179060199999997 Na
atom 13.2413605899999993 24.4328992000000014 5.9156702799999996 Cl
atom 10.3921973399999992 27.3231462600000015 8.5287278000000004 Na
atom 13.1457943700000008 27.1330373300000005 8.6223193499999997 Cl
atom 13.0521883899999995 24.5200310299999984 8.2690795200000000 Na
atom 10.4211220900000008 24.4058304300000017 8.5724260300000008 Cl
atom 13.3375111900000007 27.1182672099999991 5.7840696400000002 Na
atom 10.3182030999999998 27.4676513100000008 5.6868385300000002 Cl
atom 10.4234671900000002 29.8639040099999988 5.8418322800000002 Na
atom 13.0218573699999993 30.0988603300000008 5.7307885900000004 Cl
atom 10.1769783000000000 32.8276886900000022 8.5258147900000001 Na
atom 13.0788675100000003 32.6874552100000031 8.4223619500000009 Cl
atom 13.1183405799999999 30.0970094199999991 8.2563966700000009 Na
atom 10.3217145499999994 30.1472724300000010 8.5417547999999996 Cl
atom 13.0299506500000000 32.8030511400000009 5.8252354400000002 Na
atom 10.2043613299999993 32.8941916899999995 5.8906972000000000 Cl
atom 10.2688270399999997 35.8142682200000024 5.7811843900000000 Na
atom 13.1143180099999999 35.7200553799999980 5.8732666599999996 Cl
atom 10.5258962199999999 38.3798292500000002 8.3175793400000000 Na
atom 13.1115396700000009 38.6614811299999985 8.4731757200000004 Cl
atom 13.2564109400000003 35.7301578699999993 8.3934404899999997 Na
atom 10.3103825400000009 35.9152622000000008 8.6211762600000004 Cl
atom 13.0681090599999994 38.6358036999999968 5.7892228399999999 Na
atom 10.3914405700000003 38.3129243599999967 5.6654210000000003 Cl
atom 10.3468928499999997 1.8270624400000000 5.6949242499999997 Na
atom 13.2782437899999994 1.8691852300000000 5.8320790899999997 Cl
atom 10.3024759699999997 4.7740235499999999 8.2489550699999992 Na
atom 12.9950477200000005 4.5880620199999997 8.5186648799999993 Cl
atom 13.2165002299999994 1.8424495000000001 8.3662521900000009 Na
atom 10.4764947599999996 2.0238896099999999 8.5278160599999993 Cl
atom 12.9697301399999994 4.6141842899999999 5.7448850399999998 Na
atom 10.0867216600000003 4.6399838000000004 5.5372083999999999 Cl
atom 10.2522310500000007 7.5780819700000004 5.9658298099999998 Na
atom 13.2223517299999997 7.3973214399999998 5.6674108600000004 Cl
atom 10.3474079000000003 10.1213984900000007 8.2214011199999995 Na
atom 13.1747097800000006 10.3211749800000003 8.7101252200000001 Cl
atom 13.1639014799999998 7.6818795800000004 8.3355739799999995 Na
atom 10.5471377900000007 7.5141368899999996 8.6222016400000001 Cl
atom 12.9755714900000001 10.1554146200000002 5.8307008900000001 Na
atom 10.3055570999999997 10.1880790799999996 5.7443505600000000 Cl
atom 15.9526876099999999 12.8982592599999997 5.9253817099999999 Na
atom 18.7510519600000016 13.1934942399999997 5.8246060499999999 Cl
atom 16.0472797100000015 16.0718068999999986 8.3974521699999993 Na
atom 18.6694287699999997 16.0345858499999991 8.5072630000000000 Cl
atom 18.7303874300000004 13.3436980700000003 8.3643767499999999 Na
atom 15.9827557000000002 13.3458558400000005 8.5721802300000007 Cl
atom 18.9526192100000017 15.9092356499999994 5.9222103400000004 Na
atom 16.0207821300000006 16.0877783100000009 5.7344789499999997 Cl
atom 15.8675281899999998 18.8181378799999983 5.8448119500000004 Na
atom 18.7588348899999993 18.6816850800000012 5.8018730500000002 Cl
atom 16.0432531699999998 21.5257087600000006 8.4669875700000006 Na
atom 18.6401419600000011 21.5706797899999998 8.5694490600000002 Cl
atom 18.6854616399999998 18.6871838200000013 8.3757988500000007 Na
atom 15.9434200199999996 18.9719005500000009 8.5104457599999996 Cl
atom 18.8209701500000008 21.7354020900000009 5.7883494200000003 Na
atom 15.9963462399999994 21.6905183299999997 5.8155837999999997 Cl
atom 15.8387902100000009 24.4647347599999989 5.9174297600000001 Na
atom 18.8685815099999985 24.5420851199999994 5.5952420800000002 Cl
atom 16.0807278899999986 27.2229435399999993 8.3603888200000007 Na
atom 18.6943350799999983 27.2003997300000009 8.6993499599999993 Cl
atom 18.7609381999999982 24.3473136799999992 8.3240826499999994 Na
atom 15.8571592300000006 24.5332013400000015 8.5491828900000009 Cl
atom 18.7396588999999985 27.3193150299999985 5.7813417400000002 Na
atom 16.1083277699999989 27.2490023900000011 5.6266443800000001 Cl
atom 16.0324198799999991 30.1798229000000013 5.8228650000000002 Na
atom 18.7879182900000004 29.8400206799999985 5.6083176100000003 Cl
atom 15.9305279500000001 32.8651309099999978 8.2324289600000000 Na
atom 18.7223880999999999 32.7939132200000003 8.4573527300000002 Cl
atom 18.8890658800000004 30.0199174999999983 8.1196942799999992 Na
atom 15.8492614900000000 30.0952930400000014 8.5223258200000007 Cl
atom 18.7521847199999989 32.9178260500000022 5.8807714999999998 Na
atom 15.9316395899999996 32.9538566100000025 6.0331495999999998 Cl
atom 16.0086670499999997 35.5324790399999983 5.9084831500000004 Na
atom 18.6930025300000011 35.7025341000000012 5.8441757100000000 Cl
atom 15.8202092699999994 38.4466881800000024 8.3904189799999997 Na
atom 18.7999786600000007 38.4352993999999981 8.6975321000000001 Cl
atom 18.6745296200000013 35.6338634499999998 8.3770752000000002 Na
atom 16.1289658500000002 35.8628029899999987 8.6618758299999996 Cl
atom 18.8169180800000007 38.5830235000000030 5.9792329400000002 Na