#===============================================================================
# Created using the Atomic Simulation Environment (ASE)

# Tue Dec 23 21:43:03 2025

#=======================================================
lattice_vector 28.1999999999999993 0.0000000000000000 0.0000000000000000 
lattice_vector 0.0000000000000000 39.4799999999999969 0.0000000000000000 
lattice_vector 0.0000000000000000 0.0000000000000000 62.3296083400000001 
atom 7.5229854600000001 14.7659069100000000 0.0140867400000000 Au
atom 10.3478142200000001 14.8192835499999997 0.0182001000000000 Au
atom 13.1206690600000009 14.7601837899999992 -0.0705412600000000 Au
atom 15.9674405600000000 14.8460762200000005 -0.0366928100000000 Au
atom 18.7832505000000012 14.8106968699999992 0.0545397900000000 Au
atom 21.5924402499999992 14.7983946000000000 0.0655244100000000 Au
atom 24.3760008500000005 14.8258715100000007 -0.0125455100000000 Au
atom 27.2587882899999983 14.8370001800000004 -0.0149553700000000 Au
atom 1.8871311799999999 14.8001298099999996 0.0337694000000000 Au
atom 4.6863883000000000 14.8423835900000007 -0.0027613700000000 Au
atom 8.9638412800000005 17.2569206500000014 0.0353277500000000 Au
atom 11.7738674799999998 17.3129974199999985 0.0360117200000000 Au
atom 14.5223731500000000 17.2836299099999984 -0.0254285000000000 Au
atom 17.3770420700000017 17.2872789400000002 -0.0791731100000000 Au
atom 20.1530235600000012 17.2863643399999987 0.0851261800000000 Au
atom 22.9439994700000014 17.2682622499999994 -0.0217896600000000 Au
atom 25.8205351699999994 17.2966597499999999 -0.0192407100000000 Au
atom 0.4717481200000000 17.2920159600000005 0.0873677900000000 Au
atom 3.2775672999999999 17.2730975499999992 0.0319685100000000 Au
atom 6.1616742499999999 17.2917321000000008 0.0314719200000000 Au
atom 7.5566228300000002 19.7115046499999984 0.1318541100000000 Au
atom 10.3333777799999993 19.7791085899999999 -0.0368986400000000 Au
atom 13.1539456300000008 19.7666412099999995 0.1659360700000000 Au
atom 15.9735234100000003 19.7123833799999986 -0.0369701000000000 Au
atom 18.7867029400000014 19.7371407199999993 0.0859690500000000 Au
atom 21.5885408199999986 19.7568633100000000 0.0573604600000000 Au
atom 24.3957216999999993 19.7322966099999988 0.1017680900000000 Au
atom 27.2540949200000000 19.7612662599999993 0.0407898600000000 Au
atom 1.9173721399999999 19.7340313800000011 0.1878250500000000 Au
atom 4.7317232200000001 19.7708720100000015 0.0513649800000000 Au
atom 8.8690154799999998 22.1976359400000014 0.0996317200000000 Au
atom 11.7314630599999994 22.2307348500000010 -0.0273554300000000 Au
atom 14.5865974499999993 22.2259384900000008 -0.0173215500000000 Au
atom 17.3790666300000005 22.1751495799999994 0.0528952900000000 Au
atom 20.1319518399999993 22.1903636400000011 -0.0089635300000000 Au
atom 23.0107285200000007 22.2264291299999996 0.1027885300000000 Au
atom 25.8265030499999995 22.1870394500000003 0.1115265100000000 Au
atom 0.4294603700000000 22.1988859800000000 0.0711744100000000 Au
atom 3.2933846700000000 22.2091059299999998 0.0424030300000000 Au
atom 6.0792044499999998 22.2356041799999993 0.1166814700000000 Au
atom 7.5203108299999997 24.6888141999999995 0.1288966600000000 Au
atom 10.3228213899999997 24.6486312699999992 0.1063633300000000 Au
atom 13.1527456500000000 24.7233059100000006 0.0255523600000000 Au
atom 15.9798832799999992 24.6622271899999994 0.0536537200000000 Au
atom 18.8072549100000010 24.6727945899999987 0.0702326300000000 Au
atom 21.5769547800000012 24.6358619700000006 0.0587862700000000 Au
atom 24.3964663100000010 24.6840692200000014 0.0933687200000000 Au
atom 27.2021629599999990 24.6289185000000010 0.0669253000000000 Au
atom 1.8878210499999999 24.6778705100000018 0.0615466300000000 Au
atom 4.7047286000000001 24.6825857999999982 0.1199639300000000 Au
atom 8.9326174900000002 27.1204268299999995 0.0337198100000000 Au
atom 11.7023191600000001 27.1253560799999995 -0.0183327800000000 Au
atom 14.6005214399999996 27.1332116700000014 -0.0861733100000000 Au
atom 17.3641330600000003 27.1160066800000017 0.1495946500000000 Au
atom 20.1755576099999985 27.1107760300000002 0.0807384700000000 Au
atom 22.9998090399999988 27.0862095300000014 0.0288945400000000 Au
atom 25.8183219999999984 27.1360889199999988 0.0529814000000000 Au
atom 0.4530733500000000 27.1446663299999997 0.1205438300000000 Au
atom 3.2887548199999999 27.1225725900000008 0.1199796500000000 Au
atom 6.1352202299999998 27.1501290100000006 0.0431433500000000 Au
atom 7.5401929100000000 29.6583756899999997 0.0973597000000000 Au
atom 10.3123720999999993 29.6081324700000010 0.0482913900000000 Au
atom 13.1507796300000006 29.6779476799999991 -0.0670719000000000 Au
atom 15.9657620100000006 29.6055394199999995 0.0048713200000000 Au
atom 18.7544120300000010 29.6064644399999999 0.0372826000000000 Au
atom 21.6441840899999995 29.5637062200000003 -0.0099872600000000 Au
atom 24.4016650599999991 29.6017059399999987 0.0546058700000000 Au
atom 27.2386001799999988 29.5891409699999990 0.0450921100000000 Au
atom 1.8921472500000001 29.5842065199999986 -0.0135910200000000 Au
atom 4.6985595000000000 29.5866555899999994 0.0142826500000000 Au
atom 8.9596451300000002 32.1140810400000021 0.0336172100000000 Au
atom 11.7394991300000004 32.1347527900000003 -0.0194252800000000 Au
atom 14.5528218500000008 32.1524257599999999 0.0306265300000000 Au
atom 17.3483729599999990 32.0491339399999973 0.0498592900000000 Au
atom 20.2265162099999998 32.0572056199999977 0.0176771500000000 Au
atom 23.0477761000000001 32.0529718599999995 -0.0253474700000000 Au
atom 25.8834046999999998 32.0805532299999996 0.0186231700000000 Au
atom 0.4887281800000000 32.0536926400000013 0.0404587900000000 Au
atom 3.3130887000000002 32.0551279600000001 0.0334391100000000 Au
atom 6.1096827999999999 32.0730255799999995 -0.1053650600000000 Au
atom 7.5053560900000003 34.5810937600000017 0.0655153100000000 Au
atom 10.3593350900000001 34.5509025300000019 0.0311308200000000 Au
atom 13.1416909099999994 34.6131921100000000 -0.1066452100000000 Au
atom 15.9769145500000000 34.5209777600000010 0.0461356000000000 Au
atom 18.8135811299999993 34.5176902400000003 -0.0220119500000000 Au
atom 21.6279101099999984 34.5540654799999984 0.0516389300000000 Au
atom 24.4641428999999988 34.5579236600000002 -0.0662702500000000 Au
atom 27.2892411999999993 34.5455967500000014 0.0167128200000000 Au
atom 1.9013769700000001 34.5304151799999985 -0.1375376600000000 Au
atom 4.7207353500000000 34.5472353199999986 0.0007956300000000 Au
atom 8.9186085100000003 37.0269445599999969 -0.0038314100000000 Au
atom 11.7399455300000000 36.9981296300000011 0.0377957600000000 Au
atom 14.5605261499999994 37.0094129100000018 0.0354817900000000 Au
atom 17.3807345600000005 37.0042355699999987 0.0568508000000000 Au
atom 20.2031306800000010 36.9917422400000007 0.0000306700000000 Au
atom 23.0478730200000008 37.0535452399999983 0.0393734100000000 Au
atom 25.8705181499999988 37.0311911200000026 0.0648421200000000 Au
atom 0.4675501000000000 37.0375416700000031 0.0997042600000000 Au
atom 3.3021668499999999 37.0004343199999965 0.0076816800000000 Au
atom 6.1203676800000002 37.0579779799999969 0.0433825200000000 Au
atom 7.4988117100000000 0.0218500700000000 0.0735504200000000 Au
atom 10.3381573600000003 -0.0204350900000000 0.0939845500000000 Au
atom 13.1806533100000003 -0.0041411100000000 0.0685009900000000 Au
atom 15.9624663400000006 0.0211864600000000 0.1630669500000000 Au
atom 18.7691896299999996 -0.0031119900000000 0.1489322300000000 Au
atom 21.6087047100000014 0.0075726100000000 0.0974402100000000 Au
atom 24.4184118400000010 0.0231570600000000 0.0596171400000000 Au
atom 27.2822454900000011 0.0202929300000000 0.0913311600000000 Au
atom 1.8569224799999999 0.0027148000000000 0.0089232600000000 Au
atom 4.6972683699999997 0.0389332800000000 0.0981642300000000 Au
atom 8.9416276099999994 2.4675240199999999 0.1202284500000000 Au
atom 11.7756724699999999 2.4939058799999998 0.0695538500000000 Au
atom 14.5607826399999993 2.4886893500000000 0.0302386100000000 Au
atom 17.3917190999999995 2.4823472000000000 0.0730921600000000 Au
atom 20.1980143599999984 2.4478749700000000 0.1078826900000000 Au
atom 22.9911583399999984 2.4765443600000001 0.0760158700000000 Au
atom 25.7877490300000005 2.4715620800000000 0.1116853600000000 Au
atom 0.4595047300000000 2.4860814400000000 0.1264579900000000 Au
atom 3.2882417199999998 2.4653936399999998 0.0014886000000000 Au
atom 6.1086650400000000 2.5123533800000000 0.0668645100000000 Au
atom 7.5251488899999996 4.9721531800000003 0.1361044600000000 Au
atom 10.3074896299999992 4.9316056799999997 0.1586973700000000 Au
atom 13.1470374499999991 4.9284063600000003 0.1161683400000000 Au
atom 15.9466873899999992 4.9237727900000001 0.1049734600000000 Au
atom 18.7831855200000000 4.9604376600000002 0.0887432100000000 Au
atom 21.5738103199999998 4.9544384499999996 0.1444173700000000 Au
atom 24.3798915500000000 4.9424672100000002 0.0737301600000000 Au
atom 27.2554674800000001 4.9388931100000004 0.0816008300000000 Au
atom 1.8641025099999999 4.9804210700000002 -0.0039108400000000 Au
atom 4.6503832500000000 4.9448390699999996 0.0775028500000000 Au
atom 8.9042942200000006 7.4041280000000000 0.0267017900000000 Au
atom 11.7237154500000003 7.3831620899999999 0.0391691600000000 Au
atom 14.5529426599999994 7.4373932600000003 0.0632533400000000 Au
atom 17.3581046599999986 7.4082900299999999 0.0642920800000000 Au
atom 20.2164299300000003 7.4203923400000003 0.1153033500000000 Au
atom 23.0148492000000005 7.3711735300000001 0.0842764200000000 Au
atom 25.8639867800000012 7.3798742199999996 0.0501833800000000 Au
atom 0.4694118600000000 7.4144433500000000 0.0969632400000000 Au
atom 3.2556413300000000 7.4288188499999999 -0.0176450100000000 Au
atom 6.0851378299999999 7.3886018399999998 0.0523065100000000 Au
atom 7.5005583500000004 9.8705679199999992 0.0057903700000000 Au
atom 10.3287895100000000 9.8396747599999994 0.0160524900000000 Au
atom 13.1377301299999996 9.8666196700000004 0.0684347600000000 Au
atom 15.9672471599999994 9.8887601699999994 -0.0516287400000000 Au
atom 18.7700014000000017 9.8818083199999993 0.1072387100000000 Au
atom 21.5935834299999989 9.8754821600000007 0.0069202400000000 Au
atom 24.4537705299999999 9.8068520299999999 0.0564063100000000 Au
atom 27.2677663000000017 9.8840270799999992 0.1303403900000000 Au
atom 1.8613074400000000 9.8613910300000001 0.0994031200000000 Au
atom 4.6914511799999996 9.8768130000000003 0.0520149000000000 Au
atom 8.9267828100000006 12.3052560799999995 -0.0307641900000000 Au
atom 11.7308302100000006 12.2759892900000001 -0.0058839100000000 Au
atom 14.5847203400000005 12.3375247500000000 -0.0014955700000000 Au
atom 17.3542713599999985 12.3711768899999992 -0.0115534200000000 Au
atom 20.2211804999999991 12.3538945899999995 0.0288348600000000 Au
atom 23.0330393499999992 12.2984387500000008 0.0338409100000000 Au
atom 25.8186684200000016 12.3311006600000006 0.0817635800000000 Au
atom 0.4250743900000000 12.3610508299999999 -0.0166003000000000 Au
atom 3.2571524699999999 12.3505400800000000 -0.0119609600000000 Au
atom 6.0854370800000002 12.3001291599999991 0.0107473300000000 Au
atom 7.4639025900000000 13.2218865700000006 2.6369361900000001 Au
atom 10.2717333199999992 13.2055575300000001 2.5636861600000000 Au
atom 13.1338826199999996 13.1745971700000002 2.6503586200000000 Au
atom 15.9595442599999995 13.2178580500000002 2.5484075200000000 Au
atom 18.7549795599999989 13.2106436699999996 2.7211561999999998 Au
atom 21.5923820000000006 13.1746183899999991 2.6234023600000000 Au
atom 24.3968050299999994 13.1887188099999992 2.6534870300000000 Au
atom 27.2184860200000003 13.1940836400000006 2.6539127599999999 Au
atom 1.8144132900000001 13.2183795100000001 2.6915858300000002 Au
atom 4.6869333199999996 13.2615015300000003 2.5203365700000000 Au
atom 8.9041943600000000 15.6804613899999996 2.5896441700000001 Au
atom 11.7193144500000006 15.6469379199999992 2.5666279699999999 Au
atom 14.5385191000000003 15.6831368300000005 2.5107087500000000 Au
atom 17.3740554200000012 15.7147828900000004 2.5807044800000001 Au
atom 20.1567724699999999 15.6510324500000007 2.6254520000000001 Au
atom 23.0049787999999999 15.6835957399999995 2.6578136300000001 Au
atom 25.8374293799999997 15.6315093699999998 2.5944824600000000 Au
atom 0.4331531100000000 15.6391363699999992 2.6328315299999998 Au
atom 3.2684692000000002 15.6733515099999998 2.6733332700000001 Au
atom 6.0700042800000000 15.6889047399999999 2.6530582100000002 Au
atom 7.5458524699999998 18.0908314899999993 2.7558702500000001 Au
atom 10.3322589699999998 18.1188575900000011 2.6206163600000001 Au
atom 13.1560091999999997 18.1032855599999998 2.7295455700000000 Au
atom 15.9478208400000003 18.1019347900000014 2.5516154700000002 Au
atom 18.7279461299999994 18.1193471399999986 2.7186786900000000 Au
atom 21.5713423199999994 18.1138805400000003 2.6808477700000002 Au
atom 24.4110495599999986 18.0697740499999995 2.6799153699999998 Au
atom 27.2297374999999988 18.0919121999999994 2.6711806000000000 Au
atom 1.8437335100000001 18.0961650799999987 2.7527557400000000 Au
atom 4.6589931199999999 18.1175977599999989 2.6088007599999998 Au
atom 8.9347211299999998 20.5663195799999983 2.6851625200000000 Au
atom 11.7422097399999998 20.6077171600000000 2.5950494700000002 Au
atom 14.5653477200000001 20.5691555199999989 2.5624814800000002 Au
atom 17.3692535300000017 20.6033290899999990 2.6167617399999998 Au
atom 20.1910628999999986 20.5732182399999992 2.7077570999999998 Au
atom 23.0149396999999993 20.5823133300000016 2.7471302600000000 Au
atom 25.8022171900000004 20.5445845899999995 2.7173323500000000 Au
atom 0.4231838100000000 20.5685964800000001 2.7490114000000001 Au
atom 3.2453476600000002 20.5495612799999989 2.7644741000000002 Au
atom 6.1244949999999996 20.5232674599999996 2.6972326700000000 Au
atom 7.5192332999999998 23.0634625100000008 2.6871729000000002 Au
atom 10.3657194700000002 23.0838529299999990 2.6905991000000000 Au
atom 13.1601128700000007 22.9972473800000010 2.2271573700000000 Au
atom 15.9789913099999996 23.0712869400000002 2.5979313099999999 Au
atom 18.8165402200000003 23.0510853199999985 2.6026976600000000 Au
atom 21.5927146599999986 23.0574893600000017 2.6286665299999998 Au
atom 24.4288231099999997 23.0812105099999982 2.6868451499999999 Au
atom 27.2570630600000001 23.0031962000000014 2.7757015699999998 Au
atom 1.9071440900000001 23.0189264300000005 2.6056078500000002 Au
atom 4.6935355500000000 23.0301638400000002 2.7612488900000001 Au
atom 8.8978676700000001 25.5117105500000001 2.7416957499999999 Au
atom 11.6862414000000001 25.6072474999999997 2.6186793000000002 Au
atom 14.6111546600000004 25.6476078700000016 2.4979442500000002 Au
atom 17.3547451099999996 25.5818545200000003 2.6541693099999999 Au
atom 20.2041829600000007 25.5773981600000013 2.7250277500000002 Au
atom 22.9968030900000002 25.5458773299999997 2.6132354800000002 Au
atom 25.8512091800000015 25.5178603399999986 2.6620989499999999 Au
atom 0.4573249900000000 25.4663370399999991 2.6892132700000002 Au
atom 3.2942278200000001 25.5047881099999998 2.7205481699999998 Au
atom 6.1066753800000004 25.5212314800000009 2.7728692000000001 Au
atom 7.4817112600000000 27.9964867999999996 2.5705467199999998 Au
atom 10.3192801500000009 28.0666784500000013 2.6617827799999998 Au
atom 13.1431146900000009 28.0750765099999988 2.2578144400000002 Au
atom 15.9239868100000006 28.0481678599999995 2.7330026500000000 Au
atom 18.7754502599999995 28.0596411699999990 2.6603220900000002 Au
atom 21.6272778300000006 28.0309092799999995 2.6865282599999998 Au
atom 24.4394670900000008 28.0305972200000006 2.6859425199999998 Au
atom 27.2705807399999998 27.9960874400000002 2.7420246800000001 Au
atom 1.8552258500000001 27.9718121800000006 2.6406267300000001 Au
atom 4.6896572100000000 27.9693734700000007 2.7184373599999998 Au
atom 8.9039672799999998 30.4632886700000007 2.6606715099999998 Au
atom 11.7012734700000003 30.5002378800000002 2.6700869200000001 Au
atom 14.5390627899999991 30.5031834699999997 2.6443124500000001 Au
atom 17.3689829200000005 30.4934502999999992 2.6756577300000002 Au
atom 20.2249188900000014 30.4842685099999997 2.6138664800000000 Au
atom 23.0422803899999984 30.5066551600000011 2.6112925100000002 Au
atom 25.8597579700000004 30.5009657099999991 2.6855956800000000 Au
atom 0.4459762300000000 30.4279594700000011 2.6380398999999999 Au
atom 3.2940853500000000 30.4364984199999995 2.5759010400000002 Au
atom 6.0595087000000003 30.4781764600000002 2.5674967600000000 Au
atom 7.5054690500000003 32.9400297899999970 2.5659597900000000 Au
atom 10.3303771199999996 32.9528919600000023 2.6423130499999998 Au
atom 13.1456395300000004 32.9805049599999975 2.5782415300000001 Au
atom 15.9187647800000001 32.9509070000000008 2.6899108699999998 Au
atom 18.7710384200000000 32.9397172500000011 2.5418375900000001 Au
atom 21.6144100600000009 32.9421537799999982 2.6710902600000002 Au
atom 24.4194017499999987 32.9428118100000020 2.5452259599999998 Au
atom 27.2707585600000009 32.9754791200000028 2.6838113099999998 Au
atom 1.8779276700000000 32.9188681899999978 2.5588002300000001 Au
atom 4.7159878700000002 32.8829677100000026 2.6471328399999998 Au
atom 8.9388017299999998 35.3932635999999974 2.6061471900000002 Au
atom 11.7589125899999996 35.3875165700000025 2.6344874400000000 Au
atom 14.5511206699999995 35.4138894199999967 2.6601180400000000 Au
atom 17.3642110699999996 35.3757232199999976 2.6143746200000000 Au
atom 20.2170575300000017 35.3714048000000005 2.5994935300000002 Au
atom 23.0101215000000003 35.3899229599999998 2.5590426100000001 Au
atom 25.8523519099999994 35.4084918400000035 2.6707060000000000 Au
atom 0.5032910900000001 35.3839256099999986 2.6143110799999998 Au
atom 3.2819969599999999 35.3419570200000024 2.5500734199999999 Au
atom 6.0920403099999998 35.3903458899999990 2.6808796300000002 Au
atom 7.5294581200000001 37.8349020899999999 2.6659838599999999 Au
atom 10.3578752400000003 37.8525625999999988 2.6672242800000001 Au
atom 13.1411719700000003 37.8840778699999987 2.6605488500000001 Au
atom 15.9270888199999998 37.8582212900000030 2.7206768200000000 Au
atom 18.7547418499999985 37.8367377000000005 2.7140278900000001 Au
atom 21.5998841699999993 37.8243402100000026 2.6712742199999999 Au
atom 24.4335533200000015 37.8501903200000029 2.6305943100000002 Au
atom 27.2906248100000006 37.8340869399999988 2.7042707699999999 Au
atom 1.9257848900000001 37.8571671999999992 2.6099710400000000 Au
atom 4.7104316199999996 37.8394531699999987 2.7300678800000000 Au
atom 8.9064039800000003 0.7880279000000000 2.7069557999999998 Au
atom 11.7287716100000008 0.8607768400000000 2.6954245399999999 Au
atom 14.5488870800000001 0.8491086700000000 2.6782190300000002 Au
atom 17.3623721899999985 0.8694604600000000 2.7338827900000000 Au
atom 20.1352355400000000 0.8343639800000000 2.7011790100000002 Au
atom 23.0098149700000008 0.8620718100000000 2.7284485300000001 Au
atom 25.8739202299999995 0.8255558200000001 2.6899811699999998 Au
atom 0.4798434900000000 0.8378826300000000 2.7011565000000002 Au
atom 3.3120274900000002 0.8339656800000000 2.6811599400000001 Au
atom 6.1057221799999999 0.7987686899999999 2.7252329700000000 Au
atom 7.4974701899999996 3.3056380800000000 2.7120904100000001 Au
atom 10.3092899899999999 3.3241816800000001 2.6712073900000002 Au
atom 13.1296957200000008 3.3344338499999999 2.6452146600000002 Au
atom 15.9710145099999998 3.3262431600000002 2.6551969899999999 Au
atom 18.7546586099999999 3.3342145099999998 2.7681313200000002 Au
atom 21.5788770499999991 3.3024178599999998 2.6633156499999999 Au
atom 24.3986401199999996 3.3196601999999999 2.7230456200000002 Au
atom 27.2673504899999983 3.3178090600000001 2.7308893300000001 Au
atom 1.8948848599999999 3.3411569700000001 2.6501629599999998 Au
atom 4.6986001899999996 3.3038485799999999 2.6438903400000000 Au
atom 8.9013757200000008 5.8408341899999998 2.7013510900000002 Au
atom 11.7339051500000000 5.7895513799999998 2.7617255900000002 Au
atom 14.5594531800000002 5.8109062600000003 2.7428664899999999 Au
atom 17.3452548499999999 5.8203342700000000 2.7380034499999999 Au
atom 20.1562266500000007 5.7893869300000000 2.7446517500000001 Au
atom 23.0130261300000001 5.8034223599999999 2.7721092199999999 Au
atom 25.8390979600000001 5.7527226599999999 2.6617851799999999 Au
atom 0.4927465400000000 5.8262416200000002 2.6493146799999998 Au
atom 3.2884892699999999 5.8138020800000003 2.6481954200000000 Au
atom 6.0818571199999996 5.8192015399999999 2.7713430699999999 Au
atom 7.4800486499999996 8.2813746199999994 2.6975594500000000 Au
atom 10.2787248699999996 8.2525581799999994 2.6202162300000000 Au
atom 13.1072489399999998 8.2983150200000004 2.6789080099999998 Au
atom 15.9342979099999997 8.3252398599999999 2.6749641700000000 Au
atom 18.7697336700000008 8.3183425799999995 2.7292069900000002 Au
atom 21.6091275699999983 8.2535296200000001 2.6508042299999999 Au
atom 24.4109811199999989 8.2083252899999994 2.7002677099999999 Au
atom 27.2592714899999997 8.2857353200000006 2.6640004799999999 Au
atom 1.9212879599999999 8.2822139999999997 2.7339281600000001 Au
atom 4.6927536300000003 8.2823956899999995 2.6235627099999999 Au
atom 8.8935336599999992 10.7801553800000001 2.6695760100000001 Au
atom 11.7301382200000006 10.7289870199999999 2.6613160300000001 Au
atom 14.5635203700000009 10.7497529800000002 2.6016580800000000 Au
atom 17.3676892100000018 10.7565820399999996 2.5767600900000001 Au
atom 20.2144294100000010 10.7643844000000009 2.6258246900000000 Au
atom 23.0024261299999999 10.6999138299999998 2.5981276599999998 Au
atom 25.7984516900000003 10.6782679199999997 2.6921271800000000 Au
atom 0.4153896400000000 10.7667666299999993 2.6549092100000000 Au
atom 3.2783505900000001 10.7581832199999994 2.6744720200000001 Au
atom 6.0737625199999998 10.7499661700000004 2.6293456900000001 Au
atom 7.4124708799999999 13.1184279799999999 5.7578525200000001 Cl
atom 7.4743890200000003 15.9447116100000006 8.5426733699999993 Cl
atom 7.5355227100000004 13.1564921199999993 8.3706430199999993 Na
atom 7.4356830000000000 15.9073337699999993 5.7991581200000004 Na
atom 7.2818072799999998 18.6418725499999987 5.6323884399999997 Cl
atom 7.1475721099999996 21.4245653300000001 8.5406143100000005 Cl
atom 7.3392893800000003 18.7002097300000010 8.3177491400000001 Na
atom 7.2558338600000001 21.5692489499999986 5.7049263699999999 Na
atom 7.1946941100000004 24.4977841800000000 5.8629861800000000 Cl
atom 7.0457359600000000 27.3857329100000015 8.5542408299999995 Cl
atom 7.1888690200000003 24.3985523099999995 8.4496690900000004 Na
atom 7.0719623499999997 27.3276127299999985 5.7254381900000002 Na
atom 7.2341665700000002 30.3251117900000011 5.7757341400000000 Cl
atom 7.4918418000000004 32.9616297500000002 8.6589850700000000 Cl
atom 7.4001259700000004 30.2444974299999991 8.4024018599999994 Na
atom 7.4555103999999996 33.0268094400000010 5.8375543499999996 Na
atom 7.4598142500000000 35.8105593900000017 5.7141024700000003 Cl
atom 7.4824412499999999 38.5830675600000035 8.5971905999999993 Cl
atom 7.4174141799999997 35.7730478499999975 8.4423720000000007 Na
atom 7.3967938100000001 38.6530167900000023 5.8185390600000000 Na
atom 7.4195061300000003 1.9352485100000001 5.7528962899999998 Cl
atom 7.5324596499999998 4.7270908499999997 8.6948699099999995 Cl
atom 7.5227122099999999 1.9343764999999999 8.4725041999999995 Na
atom 7.4772381200000000 4.6532454500000000 5.9040515500000001 Na
atom 7.4254081500000000 7.4213213900000001 5.7088951400000001 Cl
atom 7.4314213799999997 10.2933106300000006 8.5695917799999997 Cl
atom 7.5112057800000001 7.4821605399999997 8.3981585100000000 Na
atom 7.4615894200000001 10.2381628500000001 5.8197848499999996 Na
atom 10.1876733599999998 13.0614924499999994 5.7809688799999996 Na
atom 13.0953411200000005 13.0616800899999994 5.6673722900000003 Cl
atom 10.3402044300000000 16.0409122099999983 8.2498769900000006 Na
atom 13.1205883300000004 15.9964793400000005 8.4797703799999997 Cl
atom 13.0964194599999999 13.0639523200000003 8.2827769399999998 Na
atom 10.3027981200000003 13.1331505400000008 8.4897828400000002 Cl
atom 13.1142277800000002 15.8149211100000002 5.7198185500000003 Na
atom 10.1655606200000008 15.8824535299999994 5.6021783999999997 Cl
atom 10.1375686799999993 18.7841575399999989 5.6620188000000002 Na
atom 13.0414143399999993 18.5646912300000011 5.6080447500000004 Cl
atom 9.9911215400000000 21.6287450499999991 8.1967511200000001 Na
atom 13.2451311399999998 21.4823998399999994 8.6248395200000001 Cl
atom 13.0797613100000003 18.8440849800000017 8.3534693099999995 Na
atom 10.2506196900000006 18.7818365999999983 8.3127234800000007 Cl
atom 13.2761100800000005 21.3095384099999983 5.1852105300000000 Na
atom 9.9698558199999994 21.6236621599999985 5.6318577999999997 Cl
atom 9.8849743199999995 24.6784051300000016 5.6776867500000003 Na
atom 13.6123121800000000 24.2250315100000009 5.4393763499999999 Cl
atom 9.8994724999999999 27.2116490499999983 8.0219724200000009 Na
atom 12.2677849800000001 26.5197704899999991 8.1459559099999996 Cl
atom 13.0566861200000002 24.0640935499999991 8.0862859399999998 Na
atom 9.7316465399999998 24.1595991900000016 8.4346800000000002 Cl
atom 13.3260071900000003 27.6111771700000013 5.3502862899999997 Na
atom 9.6080463900000002 27.5746936699999985 5.5371415700000002 Cl
atom 10.1898703299999998 30.2528121699999986 5.7827106099999996 Na
atom 13.1763983899999992 30.1128166399999984 6.0199582800000000 Cl
atom 10.2711276100000006 32.9654865999999984 8.3855171700000000 Na
atom 13.1384145199999995 33.1049393500000022 8.6405951499999993 Cl
atom 13.1462485099999995 30.3112336900000017 8.5922883399999996 Na
atom 10.2831132899999993 30.1121094099999986 8.5060534800000003 Cl
atom 13.0927412000000007 32.9728769700000015 5.9120648700000000 Na
atom 10.2369874700000008 32.9871658499999967 5.6754726800000004 Cl
atom 10.2939403499999997 35.8447364800000017 5.8047855500000001 Na
atom 13.1175452600000000 35.7977659000000017 5.6890289799999998 Cl
atom 10.2835802500000000 38.5919091800000018 8.3832495100000006 Na
atom 13.1273461099999995 38.6095350000000010 8.6194815600000005 Cl
atom 13.0863555100000006 35.8674868700000005 8.3388467800000008 Na
atom 10.2719645800000006 35.8116872100000023 8.5307493700000006 Cl
atom 13.1235609899999996 38.6400753300000019 5.8208245300000003 Na
atom 10.2768187799999993 38.6134366200000017 5.7085569500000002 Cl
atom 10.2982237399999992 1.8777354799999999 5.7432967599999998 Na
atom 13.1412666599999994 1.9432909199999999 5.7830656400000002 Cl
atom 10.3299861400000008 4.6231234099999998 8.4549967699999993 Na
atom 13.0624956099999991 4.7183070599999999 8.6731210300000008 Cl
atom 13.1262065200000002 1.9310054200000000 8.4099072199999991 Na
atom 10.3139263999999997 1.8654732000000001 8.5203903699999994 Cl
atom 13.0916675100000006 4.7196914999999997 5.8809620599999999 Na
atom 10.2660319300000005 4.6926688099999998 5.7782889099999997 Cl
atom 10.2815199699999997 7.4836087899999999 5.8442893199999997 Na
atom 13.0710931400000003 7.5507980000000003 5.7070797200000003 Cl
atom 10.1903931300000004 10.3530813500000001 8.3609823799999994 Na
atom 13.0985888399999997 10.3599174600000001 8.5463358800000009 Cl
atom 13.0512039899999994 7.5546891000000000 8.4423528900000004 Na
atom 10.2483128600000004 7.5557206900000002 8.5998058499999992 Cl
atom 13.1714550100000007 10.2828090999999997 5.7746124300000004 Na
atom 10.2592769300000004 10.2979597500000004 5.7077003199999998 Cl
atom 15.9752605299999999 13.0679532700000003 5.7992682300000000 Na
atom 18.8712238100000000 13.1022718800000000 5.7425410599999998 Cl
atom 15.9612508700000006 15.9428167599999995 8.2164712600000005 Na
atom 18.7551029000000007 16.0081734699999991 8.5025757399999993 Cl
atom 18.7856867899999997 13.1718288000000001 8.3580662900000000 Na
atom 15.9696748799999995 13.1177149899999996 8.5625013299999999 Cl
atom 18.8748819899999987 15.9351246999999994 5.7626522299999996 Na
atom 16.0343538300000006 15.7833431900000001 5.6271233799999996 Cl
atom 16.1732229600000004 18.6382244200000002 5.5700679299999996 Na
atom 18.9523749200000005 18.7125507000000013 5.6796079300000004 Cl
atom 16.0760816099999992 21.4358122999999985 8.1132990100000004 Na
atom 18.7510622900000001 21.6826441400000007 8.3527078400000008 Cl
atom 18.6897931600000007 18.8059336700000017 8.2883145900000006 Na
atom 15.8560629700000000 18.8987352100000017 8.3996084999999994 Cl
atom 19.0524953799999999 21.5194181700000016 5.5956849499999999 Na
atom 16.1758885300000017 21.5072887799999997 5.4600807299999996 Cl
atom 16.3830138299999994 24.4994088000000012 5.7802276700000004 Na
atom 18.9617840000000015 24.4960558699999993 5.6961553599999997 Cl
atom 16.2781113899999994 27.3360827300000011 8.3666844099999995 Na
atom 18.9241589899999987 27.2167117999999988 8.5184509500000001 Cl
atom 18.8170615999999988 24.4073041099999983 8.3606902600000002 Na
atom 15.8670243299999996 24.3191767600000013 8.5222416600000006 Cl
atom 19.0004692499999983 27.4133864699999990 5.6432732000000003 Na
atom 16.1808543500000006 27.3546549600000013 5.8177165200000003 Cl
atom 16.0626161699999983 30.3346972199999989 5.9088580799999999 Na
atom 18.8173874699999999 30.1893160499999986 5.7839425599999998 Cl
atom 16.0540795699999990 33.0239055500000021 8.4345111999999993 Na
atom 18.8613194499999999 32.9609028699999982 8.5005447400000005 Cl
atom 18.8668632100000018 30.2125117600000017 8.3967671199999998 Na
atom 15.8899661499999993 30.1525813000000014 8.6611132400000006 Cl
atom 18.8350137900000014 33.0120826599999972 5.7614115300000002 Na
atom 15.9564495300000004 33.0358205400000031 5.7131758599999998 Cl
atom 15.9723014699999997 35.8451764900000001 5.7409503099999997 Na
atom 18.8245925300000003 35.7711625299999980 5.6788309799999999 Cl
atom 15.9317220299999995 38.5702029400000015 8.4014704800000004 Na
atom 18.7981294699999992 38.5741888800000012 8.6884563900000007 Cl
atom 18.8294834299999998 35.7979065000000034 8.3567833199999999 Na
atom 15.9798976100000001 35.7884047800000005 8.5455795499999994 Cl
atom 18.7815283800000010 38.6213295599999995 5.9222086400000000 Na
atom 15.9788317400000004 38.6160271999999978 5.6930103200000000 Cl