#===============================================================================
# Created using the Atomic Simulation Environment (ASE)

# Tue Dec 23 22:26:46 2025

#=======================================================
lattice_vector 28.1999999999999993 0.0000000000000000 0.0000000000000000 
lattice_vector 0.0000000000000000 39.4799999999999969 0.0000000000000000 
lattice_vector 0.0000000000000000 0.0000000000000000 62.3296083400000001 
atom 7.3096387700000003 14.8717488800000002 0.0380467400000000 Au
atom 10.2962596400000006 14.7956656599999992 0.0251415500000000 Au
atom 12.9131488099999991 14.7533584599999994 -0.0504376200000000 Au
atom 15.8594170800000001 14.7256129799999993 0.1830572100000000 Au
atom 18.8266350299999985 14.7888957600000008 0.2172650300000000 Au
atom 21.4690403100000005 14.8350063500000005 0.0447124800000000 Au
atom 24.4115319399999997 14.8627364800000006 0.0274341200000000 Au
atom 27.0089241800000011 14.9659089299999994 0.0964902300000000 Au
atom 1.8174651500000001 14.7642113399999992 -0.0495737200000000 Au
atom 4.7075518199999999 14.8822106499999993 -0.0182447100000000 Au
atom 8.9783078599999993 17.1828846599999991 -0.0128638000000000 Au
atom 11.9398053999999991 17.2721200800000005 -0.0112535000000000 Au
atom 14.6132383499999996 17.2721188300000001 -0.0573377400000000 Au
atom 17.4133197499999994 17.1350994499999985 -0.0499104900000000 Au
atom 20.3534751999999983 17.2073816099999988 0.0511520100000000 Au
atom 23.1048590000000011 17.2114273000000004 0.0761988400000000 Au
atom 25.9365971699999989 17.1688829399999996 -0.0141344300000000 Au
atom 0.3983128300000000 17.2784218600000017 0.3174644700000000 Au
atom 3.1645344600000000 17.1740539100000014 -0.0821216000000000 Au
atom 6.1671189799999997 17.3402726600000001 0.1569248500000000 Au
atom 7.3375849799999999 19.6118201899999995 0.1598946300000000 Au
atom 10.2956252799999994 19.7971019499999983 -0.0645672800000000 Au
atom 13.0265592100000003 19.5405648700000008 0.1928851000000000 Au
atom 16.1003707799999987 19.8000485899999994 0.0336093500000000 Au
atom 18.7788542000000014 19.7728659299999983 0.1543565400000000 Au
atom 21.6985890200000000 19.7178765600000006 -0.0464183400000000 Au
atom 24.4435828300000004 19.7748550600000002 0.1524863300000000 Au
atom 27.2665516799999992 19.8007556099999995 0.0728379900000000 Au
atom 1.9288271600000000 19.8219418199999993 0.3087420200000000 Au
atom 4.6572001099999998 19.5939480400000008 0.1713344200000000 Au
atom 8.8164409700000004 22.1231745800000006 -0.0238539800000000 Au
atom 11.8487988499999997 22.2792624299999993 0.2382045200000000 Au
atom 14.5051162199999997 22.3776388399999995 -0.1284941800000000 Au
atom 17.3961198699999997 22.2478795100000006 0.2524445400000000 Au
atom 20.2091319100000000 22.2319270399999986 0.1219241000000000 Au
atom 23.1116941800000006 22.2641134299999983 0.1211352500000000 Au
atom 25.6394596300000011 22.1707642699999994 0.0060379500000000 Au
atom 0.4573407700000000 22.3424986600000004 0.0579240900000000 Au
atom 3.2878288900000001 22.0001908099999994 0.0875694100000000 Au
atom 6.0881230600000000 22.1586258500000000 0.0361486100000000 Au
atom 7.6103947300000003 24.6260458699999987 0.2094000400000000 Au
atom 10.2063742699999995 24.6625286999999993 0.0386542100000000 Au
atom 13.1927586100000003 24.7968641800000000 0.1230205900000000 Au
atom 15.9212757800000002 24.5834856700000017 0.1856697900000000 Au
atom 18.6909740100000015 24.7041099899999992 -0.0870004800000000 Au
atom 21.6298073399999993 24.5421542799999983 0.3027337800000000 Au
atom 24.4772952799999999 24.6464857799999990 0.1145755000000000 Au
atom 27.4790728999999985 24.7291123900000009 0.2025857400000000 Au
atom 1.8737127700000000 24.6629747100000003 0.0282985100000000 Au
atom 4.6715982299999999 24.6143999399999984 -0.0587917600000000 Au
atom 9.0141963199999999 27.1105870399999986 0.1911195800000000 Au
atom 11.7393758800000008 27.1560943399999992 0.1271286400000000 Au
atom 14.6141632300000008 27.2330829299999984 0.1331591400000000 Au
atom 17.3550541699999989 26.9500648699999985 0.0341925400000000 Au
atom 20.0908444499999987 27.2336353899999999 -0.0039017500000000 Au
atom 23.2218205299999987 27.0837723500000003 0.2052676500000000 Au
atom 25.7873456499999989 27.2079127999999990 0.0837844800000000 Au
atom 0.4440733400000000 27.1302434499999983 -0.0701795700000000 Au
atom 3.2992707700000001 27.2443806299999984 0.0948373600000000 Au
atom 6.2102406600000002 27.0121656899999998 0.0456925800000000 Au
atom 7.4978387900000003 29.6092932699999984 0.0581362600000000 Au
atom 10.2647133400000001 29.6243425800000004 0.1252694600000000 Au
atom 13.1800162099999998 29.7082082499999984 0.0648333900000000 Au
atom 16.1346291400000013 29.4766744400000000 0.2076078000000000 Au
atom 18.7131740899999990 29.6288036499999983 0.0695264100000000 Au
atom 21.5404894400000018 29.4723354700000009 0.0637936200000000 Au
atom 24.3611543700000013 29.5891635000000015 -0.0681277700000000 Au
atom 27.2806785400000003 29.5999582799999992 0.0330577900000000 Au
atom 1.8120789300000000 29.5720500000000008 0.0044038000000000 Au
atom 4.5703968899999996 29.6056063599999995 0.3127160600000000 Au
atom 8.8930593499999997 32.1474690399999972 -0.0243731600000000 Au
atom 11.7332595600000005 32.0532110299999999 -0.1200267200000000 Au
atom 14.4390280200000003 32.2784171200000003 -0.0610331900000000 Au
atom 17.6063255299999994 32.1388371899999967 -0.0305433400000000 Au
atom 20.1001991400000009 32.2131546299999982 0.0274126800000000 Au
atom 23.0722590600000004 32.1428459500000017 0.0569875400000000 Au
atom 25.8089727700000005 32.0018489099999996 0.0164224900000000 Au
atom 0.6423912600000000 32.1483643299999997 0.1758771300000000 Au
atom 3.3718781500000001 32.1337453900000014 0.0428863800000000 Au
atom 6.1616709399999996 32.1626255999999984 0.0225113900000000 Au
atom 7.4248786600000001 34.5961296500000017 -0.1273304000000000 Au
atom 10.2861437400000000 34.4989080100000010 -0.0186904400000000 Au
atom 13.3342540899999999 34.6230738400000035 0.0182887400000000 Au
atom 16.0740738900000011 34.5852050499999990 0.1699658900000000 Au
atom 18.8485928899999990 34.5783334799999977 0.0631380400000000 Au
atom 21.6360222799999988 34.3996119500000006 0.1189708300000000 Au
atom 24.5212591400000015 34.5115521299999983 -0.1045927000000000 Au
atom 27.0958218500000001 34.6013821199999967 0.0697632200000000 Au
atom 1.9974425700000000 34.5616397499999977 0.0751393000000000 Au
atom 4.5516444099999998 34.4531783199999992 -0.0837340500000000 Au
atom 8.9078815099999993 37.0507372100000012 -0.0597849900000000 Au
atom 11.6648748799999993 36.8409489599999986 0.1139890100000000 Au
atom 14.4826404600000007 37.0283423799999980 0.1521397500000000 Au
atom 17.3255170000000014 37.0068735400000008 0.1138838000000000 Au
atom 20.2681775000000002 36.9081047900000030 -0.0056207500000000 Au
atom 23.1028829000000009 37.1148635500000026 0.0283195900000000 Au
atom 25.8978379499999996 37.1606746900000005 0.1878289900000000 Au
atom 0.5423648000000000 36.9214035099999975 0.1868750700000000 Au
atom 3.2065467100000000 37.2230589699999967 0.0987229400000000 Au
atom 6.0751014300000001 36.7931683600000028 0.0122727700000000 Au
atom 7.4271622199999996 0.0673689200000000 0.0907866200000000 Au
atom 10.3620275599999996 0.1507093700000000 0.0952117300000000 Au
atom 13.0152126900000003 -0.0047693900000000 -0.0467701600000000 Au
atom 16.0283837399999989 0.1966641300000000 0.1722887200000000 Au
atom 18.7635816099999992 0.0842174200000000 -0.0568634300000000 Au
atom 21.6127629200000015 0.0565689900000000 0.0994079200000000 Au
atom 24.5130999500000009 -0.0161244500000000 -0.0681784200000000 Au
atom 27.1032869400000003 -0.1521592000000000 0.1561337700000000 Au
atom 1.9081961300000001 -0.0239332300000000 0.0447391900000000 Au
atom 4.6989223200000003 -0.0109351600000000 0.1121771800000000 Au
atom 9.1312483699999998 2.5329766000000000 0.1434462800000000 Au
atom 11.8186125400000002 2.3876613199999999 0.1192987500000000 Au
atom 14.3566323600000008 2.5401801399999999 0.0411852600000000 Au
atom 17.3180937800000017 2.4324253599999999 0.0430980700000000 Au
atom 20.2952303699999987 2.4252275399999998 0.0338684200000000 Au
atom 22.9989400800000006 2.4625384499999998 0.0542693900000000 Au
atom 25.6996560900000013 2.5369079700000001 0.0968473100000000 Au
atom 0.4030351900000000 2.5431765500000001 0.1234657600000000 Au
atom 3.1883504999999999 2.5628294299999999 0.0651496600000000 Au
atom 6.0174463999999999 2.4373342899999999 0.1126268500000000 Au
atom 7.6111115800000002 4.8393564900000001 0.0335607000000000 Au
atom 10.4264489699999992 5.0401481099999996 0.1708786100000000 Au
atom 12.9723659799999993 5.0095343899999998 0.1767067700000000 Au
atom 16.0249411399999993 4.9016734399999997 0.0510916400000000 Au
atom 18.8079416799999990 4.8577353900000002 0.0427277000000000 Au
atom 21.5714845299999993 5.0056054400000001 0.0813978800000000 Au
atom 24.3399048200000010 5.1549769699999999 0.1071724200000000 Au
atom 27.2397769799999985 5.1625920299999999 0.0952281700000000 Au
atom 1.7795194200000000 4.8832034699999998 0.2432083500000000 Au
atom 4.6143069199999998 5.0430157500000004 0.1167642900000000 Au
atom 9.0225507100000009 7.2745404100000002 -0.1428874000000000 Au
atom 11.7841760699999991 7.5092648899999999 0.0860372000000000 Au
atom 14.7903003599999998 7.4310960000000001 -0.0028050200000000 Au
atom 17.4067659699999986 7.3701024899999998 0.3405364700000000 Au
atom 20.3383968300000006 7.3479438400000001 -0.0531023900000000 Au
atom 22.9624436199999984 7.4387228199999997 0.0664108500000000 Au
atom 25.7733383399999987 7.3584139200000003 -0.0801870700000000 Au
atom 0.3875696300000000 7.2497599099999999 0.0400024400000000 Au
atom 3.3311061600000000 7.5625857800000000 0.1964120200000000 Au
atom 6.0489945699999996 7.4655804799999999 0.0263821700000000 Au
atom 7.6136998399999998 9.8883511399999993 0.0491041100000000 Au
atom 10.3377587000000002 9.9782410400000003 0.0477943300000000 Au
atom 13.1835925199999995 9.9247535199999994 -0.0169599500000000 Au
atom 15.9344471300000006 10.0157929200000009 -0.2461915000000000 Au
atom 18.6729850800000001 9.7447839700000003 0.0213870700000000 Au
atom 21.4510294100000003 9.9830971099999992 0.1673693800000000 Au
atom 24.4754968099999992 9.9123081800000001 -0.0440818100000000 Au
atom 27.1892200899999992 10.0599910000000001 -0.0589020300000000 Au
atom 1.8604933400000001 9.8529386700000003 0.2040117800000000 Au
atom 4.6746428900000003 9.8675458099999993 -0.0354220000000000 Au
atom 8.7925179500000006 12.3702455300000000 0.0632988400000000 Au
atom 11.6623105200000001 12.4104269699999996 -0.0355679000000000 Au
atom 14.6016858900000006 12.1611606600000002 0.0707655300000000 Au
atom 17.2863956700000010 12.3076157100000003 0.0337102100000000 Au
atom 20.2323713100000013 12.2811011800000003 -0.0620844300000000 Au
atom 22.9619848399999995 12.4231483899999997 -0.1240029400000000 Au
atom 25.7331114099999994 12.1666252600000000 0.2503969900000000 Au
atom 0.4695539400000000 12.3435691100000007 0.0492973100000000 Au
atom 3.1958892400000001 12.4255545900000008 0.0169276700000000 Au
atom 6.0039523099999998 12.2215445700000007 0.0840227000000000 Au
atom 7.4986664400000000 13.0321304599999994 2.6417125700000001 Au
atom 10.3333589099999994 13.2030620400000007 2.5292724999999998 Au
atom 13.1385561800000001 13.2337683399999992 2.5579243100000002 Au
atom 15.9853438800000003 13.1556482199999998 2.4637369200000001 Au
atom 18.8908947199999986 13.0187774100000002 2.6153140499999998 Au
atom 21.6853487899999990 13.1497106299999995 2.4193250000000002 Au
atom 24.3828022500000010 13.2471072700000008 2.7613896699999998 Au
atom 27.2720880799999996 13.1867147700000000 2.5620830200000002 Au
atom 1.6966962100000000 13.1876064300000007 2.8701535300000001 Au
atom 4.5446457999999996 13.1731009199999995 2.5528514200000001 Au
atom 9.1046752800000004 15.5606716499999997 2.5793872300000000 Au
atom 11.7960160900000002 15.8041191600000008 2.6085870099999999 Au
atom 14.4390328900000000 15.7844887800000002 2.4716773200000000 Au
atom 17.3235946100000007 15.4616766499999994 2.7382237400000000 Au
atom 20.2686959000000009 15.6661637999999996 2.5801515300000002 Au
atom 22.8934373800000017 15.5135268400000008 2.5856463500000002 Au
atom 25.8219859300000003 15.6995812699999995 2.5087188100000000 Au
atom 0.3699984500000000 15.6567749799999998 2.6564032800000001 Au
atom 3.3529561399999999 15.6441241499999997 2.6985458900000001 Au
atom 5.9600690800000002 15.6290039000000007 2.6358136000000001 Au
atom 7.5746982000000003 18.2594984899999986 2.7583722399999999 Au
atom 10.4316348600000008 18.2334384199999988 2.6473547200000001 Au
atom 13.2387263700000002 18.2224641799999993 2.7101806599999998 Au
atom 15.9973051200000000 18.1509161200000015 2.6039723100000001 Au
atom 18.8721217500000016 18.0756025200000003 2.8980579799999999 Au
atom 21.6525158600000012 18.0546073500000013 2.5748237800000000 Au
atom 24.4995589299999992 18.2083523700000001 2.6799010000000001 Au
atom 27.1796691899999985 18.0181960799999992 2.6005361400000000 Au
atom 1.7782154100000001 18.2261588400000001 2.5648319000000002 Au
atom 4.7830509799999996 17.8633807500000010 2.5634703299999999 Au
atom 8.8637637500000004 20.6113158699999985 2.8127013800000000 Au
atom 11.7267890700000006 20.5316490199999997 2.6177667900000001 Au
atom 14.4524455300000003 20.4512547399999995 2.7818350100000000 Au
atom 17.2453109200000014 20.3518730599999991 2.5358252900000000 Au
atom 20.3135760599999990 20.5725572300000010 2.9220698299999999 Au
atom 23.0346511900000017 20.6465757600000011 2.8325057000000000 Au
atom 25.8583150000000010 20.5049392399999988 2.8861966200000002 Au
atom 0.2473342700000000 20.6840265300000006 2.7675639500000000 Au
atom 3.3747995400000002 20.4470418800000004 2.7181580400000001 Au
atom 6.0555856300000004 20.5545622799999990 2.7217307900000001 Au
atom 7.3782876699999997 23.1696829400000013 2.7466095500000001 Au
atom 10.3940004800000008 22.9762287600000015 2.4936159000000000 Au
atom 13.3428654499999997 23.0987070400000007 2.8691557300000001 Au
atom 16.0507695999999989 23.1957272900000007 2.8276453099999999 Au
atom 18.7729594300000002 23.2163947399999984 2.8319415200000000 Au
atom 21.5712710299999983 23.0839742900000005 2.7743109300000000 Au
atom 24.4893715999999984 23.1285088799999983 2.7357841299999999 Au
atom 27.1708862400000015 23.0919683999999990 2.6843653900000000 Au
atom 1.9340782000000001 23.0913347000000009 2.6698936199999999 Au
atom 4.5940042400000003 23.0894807100000001 2.7619927700000000 Au
atom 8.8176859099999998 25.4622526799999989 2.7247789299999998 Au
atom 11.6925040199999994 25.6021632200000013 2.5832593600000000 Au
atom 14.5855242799999996 25.4462110599999995 2.6487832999999998 Au
atom 17.3694019699999984 25.5733270099999999 2.8703211000000000 Au
atom 20.2356938299999989 25.5284150200000006 2.7330584199999999 Au
atom 22.9107736899999992 25.5718742299999988 2.6781589499999998 Au
atom 25.9229196299999991 25.6232354800000017 2.7404930900000002 Au
atom 0.5397486100000000 25.6145858400000002 2.7627172899999999 Au
atom 3.0749589500000001 25.5558470699999987 2.9401332099999999 Au
atom 6.1595127999999999 25.4182150600000014 2.6502767899999999 Au
atom 7.3901266100000003 28.0280549800000003 2.6604139500000001 Au
atom 10.3993616800000002 27.9008432599999985 2.8776235200000002 Au
atom 13.2754207500000003 27.9133370200000002 2.6149801199999998 Au
atom 16.1013535099999991 27.9110270400000005 2.7023781800000002 Au
atom 18.8201506099999989 28.0401396799999993 2.5775254500000000 Au
atom 21.4362787600000004 27.9209253400000001 2.6675906100000000 Au
atom 24.4485359399999993 27.9148497599999992 2.5833520299999999 Au
atom 27.2869518900000010 28.1406944500000016 2.6752514100000000 Au
atom 1.6656174699999999 28.0121497200000000 2.3206454800000000 Au
atom 4.7226314800000004 28.1378237800000015 2.8990830000000001 Au
atom 8.9778144399999995 30.4702950199999982 2.7568292900000002 Au
atom 11.7733564000000008 30.4476818999999992 2.5933182100000001 Au
atom 14.5315489200000005 30.4089457199999984 2.7936152399999998 Au
atom 17.4853841199999991 30.5329350200000000 2.7344283500000000 Au
atom 20.0218648500000000 30.5198456799999995 2.4726085200000001 Au
atom 22.9852263299999997 30.4667739900000001 2.5501367799999999 Au
atom 25.8266175699999998 30.3444684699999989 2.5799953599999998 Au
atom 0.3158789300000000 30.5991702699999983 2.6296781700000000 Au
atom 3.2477240500000000 30.5998665000000010 2.7565156499999999 Au
atom 6.1168680200000001 30.4975418800000000 2.4751178700000001 Au
atom 7.5213120599999996 32.9971129700000034 2.5117458899999998 Au
atom 10.3343337900000005 32.9470500899999976 2.6948593199999999 Au
atom 13.0061158399999997 32.9323731799999990 2.3922881800000000 Au
atom 15.9081387900000006 32.7965219900000022 2.7173706200000001 Au
atom 18.8280668899999988 32.8330620400000015 2.5093731099999999 Au
atom 21.5879407900000011 32.9974542499999970 2.6771479100000000 Au
atom 24.6105820599999987 33.0285025499999989 2.6353937699999999 Au
atom 27.1581455600000012 33.0292813599999988 2.7867906100000002 Au
atom 1.8441656700000000 33.0548964799999965 2.6508984600000001 Au
atom 4.7049670199999998 32.8145646899999974 2.7655487800000000 Au
atom 8.8326204700000002 35.2558942100000010 2.5955149400000002 Au
atom 11.7090235699999994 35.4836258899999990 2.6058278900000000 Au
atom 14.4915732500000001 35.4916841699999992 2.6941580300000001 Au
atom 17.1688554599999996 35.5372186499999998 2.7536758200000002 Au
atom 20.3313675700000012 35.3216209400000025 2.8234323200000002 Au
atom 23.0377870499999986 35.2006699800000007 2.5471429300000001 Au
atom 25.9545120999999988 35.4818542800000003 2.7445672399999999 Au
atom 0.4667394000000000 35.3004850900000022 2.5740843400000002 Au
atom 3.2466220600000000 35.4530005299999971 2.6484853300000002 Au
atom 6.2020077599999999 35.4434654000000009 2.5559965899999999 Au
atom 7.3776476200000003 37.8727318800000035 2.7578143000000002 Au
atom 10.2966802499999996 37.8696258399999977 2.7691078199999999 Au
atom 13.2408979000000002 37.8141896500000030 2.5554847900000000 Au
atom 15.9492717600000002 37.9158598799999993 2.6792993599999999 Au
atom 18.8229864999999990 37.8318331500000014 2.4385688999999999 Au
atom 21.6617172899999986 37.9527324199999967 2.7415657100000002 Au
atom 24.4183287100000008 37.8393072499999974 2.7365713800000000 Au
atom 27.1809069500000007 37.8615139699999972 2.7710715399999999 Au
atom 1.7679701400000001 37.8592183399999982 2.6349331500000002 Au
atom 4.6725062199999998 37.8712805500000016 2.8177857999999998 Au
atom 8.9743972599999999 0.8053195900000000 2.8562732300000002 Au
atom 11.8497879000000008 0.8879147800000000 2.7614507499999998 Au
atom 14.5517608200000002 0.8154150600000000 2.8359195599999998 Au
atom 17.3886819999999993 0.8206554200000000 2.6593493900000000 Au
atom 20.1873707399999986 0.7318966600000000 2.6521651700000000 Au
atom 23.1421971800000001 0.9067458700000000 2.6715164599999999 Au
atom 25.8136690599999987 0.7069923400000000 2.8320446600000002 Au
atom 0.4022962900000000 1.0290498200000000 2.6597982099999999 Au
atom 3.2432858000000002 0.7657248100000000 2.6715037200000000 Au
atom 5.9927817200000000 0.7611103200000000 2.6834327500000001 Au
atom 7.3921309400000004 3.2730890499999998 2.8467178299999998 Au
atom 10.3943298199999994 3.1863444799999998 2.8153311799999998 Au
atom 13.1171556400000000 3.4161422899999998 2.6815580300000001 Au
atom 16.0031242200000001 3.3173382999999999 2.6036806100000001 Au
atom 18.8097849699999990 3.3147912700000002 2.6611338800000000 Au
atom 21.5990828700000002 3.1685850200000001 2.6674028500000002 Au
atom 24.4272697799999996 3.0697644500000001 2.5371820800000000 Au
atom 27.2437813200000001 3.3922834499999999 2.8171137900000001 Au
atom 1.9109833100000000 3.2847750400000000 2.6700318799999998 Au
atom 4.6855564300000001 3.4465438700000002 2.6441240700000002 Au
atom 9.0010186500000007 5.7686949399999996 2.7682819500000000 Au
atom 11.6974440899999994 5.8348640999999999 2.8248877100000001 Au
atom 14.4416070800000007 5.6103721799999997 2.6731022900000001 Au
atom 17.3922413400000018 5.6332495400000004 2.6553623399999999 Au
atom 20.3372251900000016 5.8005714800000003 2.5244903100000000 Au
atom 22.9630325800000001 5.7912553999999998 2.7315690600000000 Au
atom 25.8525776000000000 5.7094358200000004 2.6338413900000002 Au
atom 0.2853424500000000 5.7582372499999996 2.8489854000000001 Au
atom 3.2059552700000000 5.6873336500000002 2.7853720599999998 Au
atom 6.1470184300000001 5.8903386099999997 2.7991336400000000 Au
atom 7.5589667699999996 8.4087765700000006 2.6610173499999998 Au
atom 10.3760699100000000 8.2633007200000002 2.6594653099999999 Au
atom 13.1375034300000006 8.3045894100000002 2.7249464600000000 Au
atom 16.0592486699999988 8.1351416600000004 2.7607228899999998 Au
atom 18.8154261900000002 8.3666531099999997 2.7373304699999998 Au
atom 21.5132042100000014 8.3206328999999997 2.5464771599999998 Au
atom 24.4311849999999993 8.2367619699999999 2.7537911799999999 Au
atom 27.3167705500000011 8.2062422000000002 2.5829466200000000 Au
atom 1.7726077300000000 8.2339147199999996 2.5768722799999999 Au
atom 4.5711451299999997 8.1464354300000004 2.6352769600000001 Au
atom 9.1051545699999998 10.7358476700000001 2.5511865100000000 Au
atom 11.5382764800000004 10.8645366299999999 2.6982155500000000 Au
atom 14.6824029700000001 10.6595419400000004 2.6105063799999999 Au
atom 17.4404021299999989 10.6858057500000001 2.6435794200000000 Au
atom 20.1351710900000000 10.7729329400000005 2.6962065100000001 Au
atom 23.1240043799999988 10.6525575799999999 2.5986917599999999 Au
atom 25.9514734300000001 10.5922568100000003 2.5657092300000000 Au
atom 0.3547004100000000 10.6221617800000008 2.6076002400000000 Au
atom 3.1680314699999998 10.6824629200000008 2.6641613099999999 Au
atom 6.1359961600000004 10.7006549399999997 2.5671298600000001 Au
atom 7.5064073300000000 13.2085299400000000 5.7639766200000002 Cl
atom 7.6152040200000002 16.2025330799999985 8.4603598699999996 Cl
atom 7.4845537200000001 13.1523684000000003 8.3583385499999991 Na
atom 7.4650924300000003 16.0269475700000008 5.9213847399999997 Na
atom 7.4515238999999998 18.9238634999999995 5.7164465199999999 Cl
atom 7.5933981499999996 21.6938617700000016 8.7590339299999993 Cl
atom 7.6141322999999996 18.6387467899999990 8.4346858400000002 Na
atom 7.5164040500000002 21.6893369199999988 5.7957542200000001 Na
atom 7.5103624900000003 24.5190842099999990 5.7537092000000003 Cl
atom 7.4880831900000002 27.2793044500000015 8.5890982000000005 Cl
atom 7.6253763899999996 24.4432295300000000 8.3891901099999995 Na
atom 7.6334874199999998 27.2558117600000003 5.8416355099999997 Na
atom 7.4735623200000001 29.9432015100000015 5.7880547199999999 Cl
atom 7.6624727500000001 32.8102123800000030 8.5185127499999993 Cl
atom 7.4061253799999998 30.1168632299999999 8.3689030599999992 Na
atom 7.3883999999999999 32.9485077100000012 5.6313470900000002 Na
atom 7.5714038500000003 35.8015156700000006 5.7576004100000002 Cl
atom 7.4577017999999997 38.5068595600000023 8.5157860299999992 Cl
atom 7.5479536100000004 35.8707441199999977 8.2367167600000002 Na
atom 7.5450201500000000 38.7497984299999985 5.9031859100000004 Na
atom 7.6923658799999997 2.1104302499999998 5.5985640800000001 Cl
atom 7.7746315800000003 4.6019030599999997 8.6073187699999991 Cl
atom 7.5842179800000000 1.9179046000000000 8.3224453399999998 Na
atom 7.4127958800000000 4.8873520499999996 5.6388865900000003 Na
atom 7.6481892599999997 7.3929108599999998 5.6494303300000004 Cl
atom 7.5859046299999999 10.4423968600000006 8.5652538200000006 Cl
atom 7.3187638100000001 7.5614284800000000 8.4765873999999997 Na
atom 7.5109325299999998 10.5909699600000007 5.8038518799999999 Na
atom 10.0559376999999994 13.1442688800000003 5.8361885899999999 Na
atom 13.0965868400000005 13.0454156000000001 5.7708142200000001 Cl
atom 10.2587018800000003 15.8861795499999996 8.2059378200000008 Na
atom 13.1906469600000005 15.8783026700000001 8.5466142499999993 Cl
atom 13.1004079999999998 13.0865090899999998 8.2467494200000004 Na
atom 10.4211562099999995 13.2903821700000009 8.5398267400000005 Cl
atom 13.0554697100000006 15.9471700999999992 5.7747678999999996 Na
atom 10.4194722800000008 15.8825473099999996 5.7875537399999999 Cl
atom 10.2233674800000003 18.8997980400000003 5.8250850200000004 Na
atom 13.0601496699999995 18.7851813400000012 5.7444901000000002 Cl
atom 10.5179766800000003 21.6099877099999986 8.3727193300000007 Na
atom 13.0547528300000000 21.6044017400000001 8.4306444900000006 Cl
atom 13.2423187299999991 18.8131654499999996 8.3943384900000009 Na
atom 10.2301596400000001 18.8578598699999986 8.7196053800000008 Cl
atom 13.2064518799999995 21.6973731000000001 5.8021168599999999 Na
atom 10.4308689000000001 21.4609431599999994 5.6338596499999998 Cl
atom 10.5148358700000006 24.5797066300000004 5.8149499999999996 Na
atom 12.8782013499999994 24.5624643599999999 5.6073200600000002 Cl
atom 10.3414445100000005 27.2869658500000014 8.3286140399999997 Na
atom 13.0103546699999999 27.2594028900000005 8.6095889499999991 Cl
atom 13.0042916000000002 24.5481733700000007 8.5364297199999992 Na
atom 10.0925918499999998 24.4513683200000003 8.4201183000000004 Cl
atom 13.2317783700000007 27.1915180800000016 5.9551728600000002 Na
atom 10.4006277899999997 27.3449375799999999 5.7763935100000001 Cl
atom 10.3449240200000006 30.0922076899999986 5.7225833499999998 Na
atom 13.1233263900000008 30.0374961300000010 5.8332563300000002 Cl
atom 10.0871657999999993 32.8639876599999994 8.6027557699999999 Na
atom 13.0267698700000008 32.8007355100000026 8.5997514499999994 Cl
atom 13.2410290499999999 30.1074911900000011 8.4622189100000007 Na
atom 10.3093299599999995 30.1019307100000013 8.3685251800000007 Cl
atom 12.8959005900000001 32.9013508099999967 5.8836914399999998 Na
atom 10.2638812500000007 32.7201144699999986 5.8295446799999997 Cl
atom 10.5252095699999995 35.7739980899999992 5.6458247400000001 Na
atom 13.2408802100000003 35.6761458100000013 5.5196769100000003 Cl
atom 10.0831163799999999 38.6591941900000009 8.4984990800000002 Na
atom 13.0854219599999997 38.4974922800000030 8.5065269899999993 Cl
atom 13.0477793799999997 35.7065155800000014 8.2304470700000003 Na
atom 10.3665681599999999 35.6300160400000010 8.5602910500000000 Cl
atom 13.0187778800000000 38.4975829400000009 6.0027832300000004 Na
atom 10.3660180499999992 38.5092359599999980 5.7820160899999999 Cl
atom 10.1578527300000001 1.7916000100000000 5.9284350200000002 Na
atom 13.2213715700000005 1.8997572700000001 5.5713630299999997 Cl
atom 10.2137164100000000 4.6037720999999996 8.2698048699999998 Na
atom 12.9890133799999994 4.6584468000000001 8.5772674999999996 Cl
atom 13.0791973899999991 1.9342542599999999 8.1404570599999992 Na
atom 10.2282928999999996 1.8845393600000000 8.4420427300000007 Cl
atom 13.1112698299999995 4.7552038699999999 6.0955138699999996 Na
atom 10.2887353099999999 4.7610899800000004 5.6694562299999998 Cl
atom 10.4374722999999996 7.5160390699999997 5.8920455299999999 Na
atom 13.0861928499999998 7.6237917900000003 5.5453132500000004 Cl
atom 10.1561293500000005 10.4422902299999993 8.5003064100000003 Na
atom 13.1840847799999992 10.3357611400000007 8.5529768300000004 Cl
atom 13.3447357600000007 7.5096530799999996 8.3241126899999998 Na
atom 10.1435662400000002 7.6129781699999999 8.5378744799999993 Cl
atom 13.4457125400000006 10.4391495600000006 5.8652176599999999 Na
atom 10.1952197099999999 10.2584431699999996 5.7660372100000004 Cl
atom 16.0822983599999993 13.1230257699999999 5.9035102100000003 Na
atom 18.7737482699999987 13.1032108500000000 5.7700961900000003 Cl
atom 15.9565532799999996 16.0348193399999985 8.4346125300000008 Na
atom 18.6033828800000016 16.1110201900000014 8.5324533700000007 Cl
atom 18.8506698499999992 13.0653233300000000 8.3648918900000009 Na
atom 15.9930908600000006 13.1774092899999999 8.5152501300000001 Cl
atom 18.8907553999999998 15.8715209599999998 5.7841842799999998 Na
atom 15.8929779399999997 16.0485464600000007 5.7905227000000004 Cl
atom 15.8927294700000008 18.8279758800000003 5.9990250999999999 Na
atom 18.6867278500000005 18.8175609500000007 5.5614876500000001 Cl
atom 15.9302298600000007 21.6046065899999995 8.4576779999999996 Na
atom 18.8744490499999991 21.6813354400000016 8.6877012899999997 Cl
atom 18.6210690200000002 18.8995982900000001 8.5514932600000009 Na
atom 16.0454551099999989 18.9388990499999998 8.5794624899999992 Cl
atom 18.6196096900000008 21.7764365799999986 5.6698088899999997 Na
atom 15.9020992700000008 21.7250201999999994 5.6537439400000000 Cl
atom 16.0831380199999998 24.5563857900000002 5.7309662699999997 Na
atom 18.7628531599999988 24.5582242000000015 5.7316357900000003 Cl
atom 15.9616948599999997 27.0465621600000006 8.3851085300000001 Na
atom 18.8774989600000005 27.2973660100000011 8.7254149400000003 Cl
atom 18.7428704300000000 24.4330461700000008 8.3791465400000007 Na
atom 15.8488338399999993 24.4609641499999988 8.5285194099999995 Cl
atom 18.8094504399999991 27.1551948600000017 5.7873678599999998 Na
atom 15.7177452399999993 27.4119210299999985 5.5829679800000003 Cl
atom 15.9748272999999994 30.0151219199999986 5.8503358900000002 Na
atom 18.8314439600000014 29.9527134799999999 5.7243721900000004 Cl
atom 15.9533962299999992 32.8927782399999984 8.3540414900000002 Na
atom 18.7182693700000016 32.9044450100000034 8.3274816000000005 Cl
atom 18.7030497599999990 30.1563859600000015 8.4536916600000005 Na
atom 15.9392899799999999 29.9107041600000017 8.5497627699999992 Cl
atom 18.7141185300000004 32.9155475800000019 5.7162561199999997 Na
atom 16.0026742999999989 32.8086000500000026 5.6226432199999996 Cl
atom 15.9852032800000003 35.5627765699999969 5.6425096799999999 Na
atom 18.7221340900000008 35.7526789100000002 5.8250530700000001 Cl
atom 16.1565837300000013 38.5885068199999992 8.4018391200000000 Na
atom 18.7435027000000005 38.6583392000000003 8.4413064900000006 Cl
atom 18.8497668500000017 35.7165322199999977 8.4664172600000001 Na
atom 15.8459487899999996 35.6457462999999990 8.4652027099999998 Cl
atom 18.7807442100000017 38.4661065199999967 5.7748603799999998 Na
atom 15.8563826999999993 38.4008930700000022 5.7412970000000003 Cl