#===============================================================================
# Created using the Atomic Simulation Environment (ASE)

# Tue Dec 23 21:42:31 2025

#=======================================================
lattice_vector 28.1999999999999993 0.0000000000000000 0.0000000000000000 
lattice_vector 0.0000000000000000 39.4799999999999969 0.0000000000000000 
lattice_vector 0.0000000000000000 0.0000000000000000 62.3296083400000001 
atom 7.5060289899999999 14.8069518799999997 0.0475145100000000 Au
atom 10.3257281699999997 14.8386987700000006 -0.0342908500000000 Au
atom 13.1349803099999995 14.8221459200000005 0.0597469100000000 Au
atom 15.9664267599999992 14.8285279699999997 -0.0022108200000000 Au
atom 18.7959743099999983 14.8202576300000004 0.0578797000000000 Au
atom 21.6162518299999995 14.8145182700000007 -0.0108183600000000 Au
atom 24.4136348699999992 14.8099881500000006 0.0524355300000000 Au
atom 27.2457428499999992 14.8170055600000001 -0.0035466800000000 Au
atom 1.8756644700000000 14.8157950100000004 0.0593453700000000 Au
atom 4.6860062600000001 14.8203226200000007 -0.0190077800000000 Au
atom 8.9024822500000003 17.2853333300000003 0.0335534800000000 Au
atom 11.7289142700000006 17.2980859000000002 0.0379442100000000 Au
atom 14.5509130199999994 17.2966043499999991 0.0192429500000000 Au
atom 17.3806849700000008 17.2976048300000009 0.0378263300000000 Au
atom 20.2004364400000007 17.2861173299999997 0.0102480500000000 Au
atom 23.0200164200000010 17.2855559599999999 0.0516006500000000 Au
atom 25.8261854500000005 17.2804689499999995 0.0383062400000000 Au
atom 0.4519058700000000 17.2935872300000000 0.0404455700000000 Au
atom 3.2635791599999999 17.2997719699999983 0.0418799600000000 Au
atom 6.0927133900000001 17.2844038500000003 0.0332010800000000 Au
atom 7.5096163799999998 19.7619258199999983 0.1048422100000000 Au
atom 10.3262482400000000 19.7742570899999990 0.0413508200000000 Au
atom 13.1336001099999997 19.7450469899999987 0.0901268700000000 Au
atom 15.9689702899999997 19.7592532600000013 0.0397599100000000 Au
atom 18.7768184500000004 19.7736317799999988 0.1016811100000000 Au
atom 21.5964346300000010 19.7614461699999993 0.0594509500000000 Au
atom 24.4105524100000011 19.7500786499999990 0.1122446400000000 Au
atom 27.2455889199999994 19.7621369300000005 0.0631988100000000 Au
atom 1.8741412900000001 19.7589155100000013 0.1128070300000000 Au
atom 4.6861224799999999 19.7650079199999986 0.0560361900000000 Au
atom 8.9066837299999992 22.2288795700000001 0.0797330800000000 Au
atom 11.7420377499999997 22.2333695400000018 0.0633901800000000 Au
atom 14.5488424399999996 22.2354756199999990 0.0621537100000000 Au
atom 17.3617484900000001 22.2332828099999986 0.0620574100000000 Au
atom 20.1947530700000009 22.2199771699999999 0.0722237700000000 Au
atom 23.0168317699999996 22.2219127599999986 0.0803425100000000 Au
atom 25.8302485799999992 22.2295180399999985 0.1010140200000000 Au
atom 0.4549157700000000 22.2158980300000017 0.0726197100000000 Au
atom 3.2694441300000001 22.2185350399999990 0.0839319400000000 Au
atom 6.1054568099999997 22.2218365099999993 0.0777272000000000 Au
atom 7.5104744900000000 24.6949834199999998 0.1105769700000000 Au
atom 10.3311362800000008 24.6991951999999984 0.0867880200000000 Au
atom 13.1470510800000007 24.6964444100000016 0.0976823100000000 Au
atom 15.9567606499999997 24.6991254799999993 0.1147674300000000 Au
atom 18.7779454500000007 24.6767754799999999 0.1100450400000000 Au
atom 21.6068694900000011 24.6887991699999994 0.1030988300000000 Au
atom 24.4381120900000006 24.6993837200000002 0.0954085300000000 Au
atom 27.2597809700000013 24.6866659199999994 0.1034577500000000 Au
atom 1.8710179899999999 24.6928085599999996 0.1048846100000000 Au
atom 4.6860179700000000 24.6975651099999993 0.1067546600000000 Au
atom 8.9264393200000001 27.1473844600000014 0.0695670500000000 Au
atom 11.7205092999999998 27.1445766400000004 0.0677743300000000 Au
atom 14.5597292700000001 27.1567633300000004 0.0598003500000000 Au
atom 17.3774447999999992 27.1558281900000011 0.0413135500000000 Au
atom 20.2067105100000006 27.1412237199999993 0.0761914500000000 Au
atom 23.0115512399999993 27.1607341399999989 0.0559205500000000 Au
atom 25.8399071999999990 27.1488669300000005 0.0792149500000000 Au
atom 0.4419036500000000 27.1579509899999998 0.0656046000000000 Au
atom 3.2782005000000001 27.1502824199999999 0.0556597300000000 Au
atom 6.0981759300000000 27.1396350999999996 0.0593072800000000 Au
atom 7.4943665199999998 29.6146782600000016 0.0096061500000000 Au
atom 10.3370315599999998 29.6163171399999996 0.0566619100000000 Au
atom 13.1524719300000008 29.6252390500000011 0.0150018000000000 Au
atom 15.9754060300000003 29.6173962499999988 0.0771983900000000 Au
atom 18.7901050400000003 29.6260589900000006 0.0232130100000000 Au
atom 21.6047648199999998 29.6151409799999996 0.0577415700000000 Au
atom 24.4372922099999990 29.6295778200000015 0.0040566200000000 Au
atom 27.2364315700000006 29.6099908700000007 0.0578476600000000 Au
atom 1.8572276599999999 29.6252009500000000 0.0173767400000000 Au
atom 4.6901411399999997 29.6273709799999985 0.0543233800000000 Au
atom 8.9125423500000007 32.0811707499999983 0.0008626000000000 Au
atom 11.7193541799999998 32.0888835200000031 0.0263143700000000 Au
atom 14.5467517100000006 32.0833422299999995 -0.0001724800000000 Au
atom 17.3727141100000004 32.0855362799999995 0.0214029600000000 Au
atom 20.1910293199999984 32.0849519000000001 0.0152468100000000 Au
atom 23.0048258799999985 32.0917049800000029 0.0237313600000000 Au
atom 25.8404252099999994 32.0975056899999984 0.0184310500000000 Au
atom 0.4520334300000000 32.0914766200000017 0.0244730500000000 Au
atom 3.2896193600000001 32.0705436300000031 0.0138415700000000 Au
atom 6.0933121000000003 32.0907673000000031 0.0195479000000000 Au
atom 7.5153444499999997 34.5530724899999981 -0.0062793000000000 Au
atom 10.3246283999999999 34.5499208999999965 0.0694625600000000 Au
atom 13.1530263499999993 34.5616142800000006 -0.0065159300000000 Au
atom 15.9723928599999994 34.5516305900000020 0.0498513200000000 Au
atom 18.7793822599999984 34.5698561800000022 -0.0106649200000000 Au
atom 21.5951358700000000 34.5715717699999985 0.0624652200000000 Au
atom 24.4202359300000005 34.5683003400000004 -0.0052602700000000 Au
atom 27.2538468300000005 34.5682743300000013 0.0670165600000000 Au
atom 1.8615466700000001 34.5662914799999967 -0.0152161300000000 Au
atom 4.6760358300000000 34.5506274099999970 0.0520754200000000 Au
atom 8.9212430000000005 37.0204428500000020 0.0380577400000000 Au
atom 11.7354852399999992 37.0162147400000023 0.0315798900000000 Au
atom 14.5621871699999996 37.0314568000000008 0.0314649700000000 Au
atom 17.3655174599999995 37.0361326000000020 0.0408968600000000 Au
atom 20.1793012099999984 37.0417777600000022 0.0451661900000000 Au
atom 23.0135065700000006 37.0293996400000012 0.0461948600000000 Au
atom 25.8493314000000005 37.0362015700000029 0.0458947300000000 Au
atom 0.4572512200000000 37.0345199699999981 0.0567482500000000 Au
atom 3.2724879400000000 37.0279896199999996 0.0177415100000000 Au
atom 6.0934260800000004 37.0455472900000018 0.0373495000000000 Au
atom 7.5196583700000001 0.0243985900000000 0.0577325500000000 Au
atom 10.3192204899999993 0.0179968500000000 0.1175735600000000 Au
atom 13.1533136299999995 0.0188897700000000 0.0561224100000000 Au
atom 15.9651480299999999 0.0137173700000000 0.1290098800000000 Au
atom 18.7813861700000011 0.0133891500000000 0.0650228000000000 Au
atom 21.6182161800000010 0.0173361400000000 0.1263666100000000 Au
atom 24.4291470199999985 0.0130206200000000 0.0495592400000000 Au
atom 27.2568462899999986 0.0166858300000000 0.1305163800000000 Au
atom 1.8580358800000001 0.0215581700000000 0.0579291800000000 Au
atom 4.6866077199999996 0.0225736900000000 0.1026271400000000 Au
atom 8.9104828999999999 2.4854983599999998 0.0910987000000000 Au
atom 11.7322936299999991 2.4850365600000002 0.0802641100000000 Au
atom 14.5356803100000000 2.4785951900000001 0.0885650900000000 Au
atom 17.3628805100000001 2.4742386199999999 0.0856212800000000 Au
atom 20.1891114000000016 2.4930139200000001 0.0945775400000000 Au
atom 23.0294882299999983 2.4764012200000001 0.0912799400000000 Au
atom 25.8316117200000015 2.4755439799999999 0.0800201000000000 Au
atom 0.4593769800000000 2.4809049000000001 0.0942890500000000 Au
atom 3.2784803400000002 2.4827950799999998 0.0850893900000000 Au
atom 6.0870135400000001 2.4887404700000002 0.0863619100000000 Au
atom 7.5111233799999999 4.9489891200000002 0.0935203200000000 Au
atom 10.3479611800000004 4.9578377099999997 0.1052965500000000 Au
atom 13.1363790700000003 4.9582851899999998 0.1063907500000000 Au
atom 15.9596408800000003 4.9469674200000000 0.1108352700000000 Au
atom 18.7835255600000011 4.9563435199999999 0.0944035900000000 Au
atom 21.5982159200000012 4.9463104500000004 0.1077787600000000 Au
atom 24.4177518300000003 4.9529866299999998 0.1112001300000000 Au
atom 27.2332132300000005 4.9427968599999996 0.1055013700000000 Au
atom 1.8613986300000001 4.9509465300000004 0.0890904400000000 Au
atom 4.6821197899999998 4.9700966400000004 0.1011365200000000 Au
atom 8.9309480400000005 7.4086991199999996 0.0573279400000000 Au
atom 11.7371742599999997 7.4062606899999999 0.0575843400000000 Au
atom 14.5399089600000000 7.4253111699999996 0.0711460300000000 Au
atom 17.3726188000000015 7.4186162700000002 0.0598469600000000 Au
atom 20.1947935299999983 7.4164729600000001 0.0716198100000000 Au
atom 23.0306459200000013 7.4186043100000001 0.0722881900000000 Au
atom 25.8388494299999998 7.4049450900000000 0.0698022800000000 Au
atom 0.4692562800000000 7.4249444499999999 0.0495011700000000 Au
atom 3.2844846200000002 7.4156798300000002 0.0605812700000000 Au
atom 6.1027186899999997 7.4017675000000001 0.0616145600000000 Au
atom 7.5197576000000002 9.8811169000000003 0.0491045600000000 Au
atom 10.3319825099999996 9.8997616599999994 0.0002569000000000 Au
atom 13.1561710900000008 9.8596944700000009 0.0707841800000000 Au
atom 15.9566981400000003 9.8823711500000009 0.0104090200000000 Au
atom 18.7809372900000007 9.8736971499999999 0.0444460500000000 Au
atom 21.6107305700000012 9.8836360699999997 0.0109136600000000 Au
atom 24.4363458300000005 9.8958881800000000 0.0678406000000000 Au
atom 27.2383429300000017 9.9061179300000006 0.0037530300000000 Au
atom 1.8575803200000001 9.8701229000000001 0.0613433700000000 Au
atom 4.6873515000000001 9.8900104399999993 0.0030202500000000 Au
atom 8.9198601899999996 12.3404126900000009 -0.0040421200000000 Au
atom 11.7491688399999994 12.3442912099999997 0.0060118500000000 Au
atom 14.5582280599999994 12.3499056599999992 0.0300025200000000 Au
atom 17.3907420500000001 12.3585817500000008 0.0129699400000000 Au
atom 20.1979648699999998 12.3484292700000005 0.0125908100000000 Au
atom 23.0202434700000005 12.3433159999999997 0.0120756800000000 Au
atom 25.8287452100000010 12.3414553100000006 0.0035393400000000 Au
atom 0.4695012800000000 12.3506815200000002 0.0139543400000000 Au
atom 3.2801250000000000 12.3554302600000003 -0.0108310400000000 Au
atom 6.1088423900000004 12.3451188199999997 0.0069394400000000 Au
atom 7.5031322999999999 13.1785315399999998 2.6828163200000001 Au
atom 10.3146245000000008 13.1982216900000005 2.5719115000000001 Au
atom 13.1362288100000004 13.1844098600000006 2.6648258299999998 Au
atom 15.9727168200000005 13.1884974300000000 2.5677469799999999 Au
atom 18.7989669799999994 13.1928057299999999 2.6801625699999998 Au
atom 21.6110467899999996 13.1736968999999995 2.5628960500000000 Au
atom 24.4321486999999991 13.1757605800000004 2.6640300400000001 Au
atom 27.2413931500000004 13.1897028899999995 2.5442817299999998 Au
atom 1.8731076900000001 13.1859166400000003 2.6622865999999998 Au
atom 4.6847517800000000 13.1771482700000000 2.5403153399999998 Au
atom 8.9084600700000003 15.6502894099999992 2.6438326299999999 Au
atom 11.7189645900000006 15.6468238700000004 2.6266526099999998 Au
atom 14.5346544099999999 15.6409804399999999 2.6287481000000001 Au
atom 17.3476268100000013 15.6477982000000004 2.6286644300000002 Au
atom 20.2086188600000014 15.6657232499999992 2.6210476599999999 Au
atom 23.0077222799999994 15.6458540599999996 2.6347167499999999 Au
atom 25.8186205000000015 15.6486842700000004 2.6353678800000000 Au
atom 0.4660723400000000 15.6342002099999995 2.6294465800000002 Au
atom 3.2871467000000001 15.6409050700000005 2.6421249200000001 Au
atom 6.0957548700000004 15.6470638599999994 2.6175507200000001 Au
atom 7.5045169700000001 18.1013734100000008 2.6979561699999999 Au
atom 10.3305813900000008 18.1333128300000013 2.5938789700000000 Au
atom 13.1455030500000003 18.0954725900000000 2.6889533499999998 Au
atom 15.9556818499999995 18.1245059499999996 2.5875695400000001 Au
atom 18.7872578499999996 18.0835394299999983 2.6960977100000001 Au
atom 21.6035311700000001 18.1157481400000009 2.6133150600000001 Au
atom 24.4340903999999988 18.0888143200000009 2.7019643300000000 Au
atom 27.2459748799999986 18.1088831500000005 2.6172904600000000 Au
atom 1.8592529600000001 18.0960999800000018 2.7066234300000001 Au
atom 4.6956877500000003 18.1175005400000018 2.6225332899999998 Au
atom 8.9185073199999998 20.5828242699999997 2.7143677799999999 Au
atom 11.7320243200000007 20.5784906999999997 2.7049816899999999 Au
atom 14.5484257699999997 20.5921503399999999 2.6920241100000002 Au
atom 17.3927029100000006 20.5837157399999988 2.7194468600000001 Au
atom 20.2018153799999993 20.5668995300000006 2.6992585500000001 Au
atom 23.0113014599999985 20.5764086400000004 2.7024427900000001 Au
atom 25.8203251099999989 20.5722425700000002 2.7189055400000002 Au
atom 0.4612365100000000 20.5699371000000006 2.7137122100000002 Au
atom 3.3007137100000001 20.5799986500000003 2.7369593299999999 Au
atom 6.1036852100000001 20.5799130400000010 2.7214480999999999 Au
atom 7.5116114800000000 23.0408002699999983 2.6769024600000000 Au
atom 10.3361709200000007 23.0692042099999988 2.6909187499999998 Au
atom 13.1411394799999997 23.0323434899999988 2.6737368400000001 Au
atom 15.9590687599999992 23.0570177299999983 2.6858435100000002 Au
atom 18.7825212000000015 23.0415714999999999 2.6746893400000000 Au
atom 21.5986524700000011 23.0539383200000003 2.6817929899999999 Au
atom 24.4172764800000017 23.0576482200000008 2.6918824799999999 Au
atom 27.2461667100000007 23.0461430900000011 2.6749094900000001 Au
atom 1.8720220200000000 23.0434954500000018 2.6798668200000000 Au
atom 4.6974478299999998 23.0678292499999991 2.6857271599999999 Au
atom 8.9190865499999994 25.5231659499999992 2.7133199399999999 Au
atom 11.7462116099999996 25.5194521600000002 2.7173878199999999 Au
atom 14.5571394400000003 25.5263140499999999 2.7121192500000002 Au
atom 17.3764090399999986 25.5357646799999998 2.7127174100000002 Au
atom 20.2006778099999984 25.5289050899999985 2.7090441799999998 Au
atom 23.0072666300000002 25.5483765299999988 2.7009462300000000 Au
atom 25.8305717199999982 25.5343113399999986 2.7250586800000001 Au
atom 0.4617923200000000 25.5237456400000013 2.7217140199999998 Au
atom 3.2869438600000001 25.5300394200000014 2.7057533600000001 Au
atom 6.1018325000000004 25.5222065200000010 2.7207065400000001 Au
atom 7.4946958099999996 27.9989793599999999 2.6094266600000000 Au
atom 10.3213209700000004 28.0059895999999995 2.7097023500000001 Au
atom 13.1483940300000004 27.9958579000000007 2.6167370499999998 Au
atom 15.9629900700000000 27.9967199700000009 2.7124607400000000 Au
atom 18.7867818200000016 28.0034098399999998 2.6217147199999999 Au
atom 21.6144024299999984 28.0203427400000002 2.7176989300000001 Au
atom 24.4321854000000016 27.9993789000000000 2.6111043700000001 Au
atom 27.2542086700000006 28.0131735100000014 2.7016333499999998 Au
atom 1.8529063699999999 27.9908130100000001 2.6138469199999999 Au
atom 4.6790475699999998 27.9996962300000014 2.6913667299999999 Au
atom 8.9068468999999997 30.4574213600000014 2.6544719200000002 Au
atom 11.7306224700000001 30.4578838000000012 2.6507561900000001 Au
atom 14.5547722099999994 30.4625312800000003 2.6594810400000002 Au
atom 17.3684658399999989 30.4652163199999997 2.6518915500000002 Au
atom 20.1935924600000014 30.4631927800000000 2.6356933499999999 Au
atom 23.0284425299999995 30.4597170499999983 2.6431178700000002 Au
atom 25.8407092600000006 30.4722902100000006 2.6412091200000001 Au
atom 0.4549768200000000 30.4698487000000000 2.6524999299999998 Au
atom 3.2689729100000000 30.4539025099999989 2.6440932199999998 Au
atom 6.0818860800000003 30.4570959799999983 2.6344206200000002 Au
atom 7.5038491799999996 32.9193717799999988 2.5592517300000002 Au
atom 10.3212104500000006 32.9175229499999986 2.6650229900000002 Au
atom 13.1528346400000000 32.9304701900000012 2.5611014999999999 Au
atom 15.9633000200000001 32.9177183700000029 2.6669941399999999 Au
atom 18.7910857799999995 32.9426047800000035 2.5884426000000000 Au
atom 21.5964147599999983 32.9310055300000002 2.6602844200000000 Au
atom 24.4086073100000007 32.9249393300000008 2.5518828800000000 Au
atom 27.2362345800000014 32.9425409500000015 2.6646968499999999 Au
atom 1.8672729500000000 32.9152918799999981 2.5580386499999999 Au
atom 4.6927222400000002 32.9228298000000024 2.6603171400000001 Au
atom 8.9157402700000006 35.3778291400000029 2.6492347600000001 Au
atom 11.7351389200000007 35.3809995800000010 2.6392296900000001 Au
atom 14.5417678800000001 35.3812431799999985 2.6452787799999999 Au
atom 17.3890643900000015 35.3864991000000018 2.6429060700000000 Au
atom 20.1942231800000016 35.3796680499999994 2.6466737299999998 Au
atom 23.0122669500000008 35.4052365100000017 2.6404583300000000 Au
atom 25.8237397699999995 35.3812090600000033 2.6411355799999998 Au
atom 0.4541608300000000 35.3687927100000010 2.6492189900000001 Au
atom 3.2781822799999998 35.3764808600000009 2.6350913299999998 Au
atom 6.1017727400000004 35.3895654100000030 2.6466954399999998 Au
atom 7.5012755699999998 37.8449952699999983 2.6179707699999999 Au
atom 10.3151581300000004 37.8250211800000002 2.6962879900000001 Au
atom 13.1310668699999997 37.8475785199999990 2.6228393799999998 Au
atom 15.9792746399999999 37.8246547899999968 2.7006794200000002 Au
atom 18.7973551100000016 37.8521290600000029 2.6248366600000002 Au
atom 21.5980834199999983 37.8460945599999974 2.6878543399999999 Au
atom 24.4336890500000017 37.8421284200000017 2.6165271500000000 Au
atom 27.2305903700000016 37.8327923299999966 2.7084244100000001 Au
atom 1.8550650000000000 37.8632823900000020 2.6135341200000002 Au
atom 4.6814659100000000 37.8310445400000006 2.6914048699999999 Au
atom 8.9258293500000008 0.8236941100000000 2.7193972999999998 Au
atom 11.7350505300000005 0.8206926700000000 2.7326440299999999 Au
atom 14.5496452600000001 0.8485252599999999 2.7207785499999999 Au
atom 17.3716507500000006 0.8287827500000000 2.7091979300000002 Au
atom 20.2066338200000004 0.8265535400000000 2.7148606300000000 Au
atom 23.0191983299999983 0.8298020900000000 2.7018125999999998 Au
atom 25.8327972000000017 0.8371352900000000 2.7136906600000001 Au
atom 0.4611274100000000 0.8495831900000000 2.7222336600000001 Au
atom 3.2888777700000000 0.8320705500000000 2.7081238999999999 Au
atom 6.0915796000000002 0.8379101200000000 2.7144810000000001 Au
atom 7.4902248699999996 3.3214275299999998 2.6941073000000002 Au
atom 10.3364859300000003 3.2986637800000000 2.6812085500000000 Au
atom 13.1482194400000001 3.3191482799999998 2.6945049999999999 Au
atom 15.9728979399999993 3.3083803100000000 2.6751350199999999 Au
atom 18.7814072400000001 3.3183181400000001 2.6943899600000001 Au
atom 21.5861611800000013 3.3052748699999999 2.6964377300000000 Au
atom 24.4276242299999993 3.3219395700000001 2.7045947799999999 Au
atom 27.2402419299999998 3.3050690899999999 2.6731504500000001 Au
atom 1.8670823100000000 3.3254839600000001 2.6894740000000001 Au
atom 4.6790196200000000 3.2947443000000001 2.6828624900000002 Au
atom 8.9014220900000005 5.7961122400000002 2.7230131000000002 Au
atom 11.7358570600000007 5.8030012600000003 2.7128217100000001 Au
atom 14.5530194799999997 5.7922367100000001 2.7188320099999999 Au
atom 17.3763080000000016 5.7971727800000004 2.7252297400000001 Au
atom 20.1883496600000001 5.7831241899999997 2.7329858699999998 Au
atom 23.0156146300000017 5.7892847800000000 2.7265481700000000 Au
atom 25.8365318500000001 5.7719846700000002 2.7140135200000000 Au
atom 0.4484589800000000 5.8030401899999999 2.7223332500000001 Au
atom 3.2722362199999999 5.8054554300000003 2.7254977199999999 Au
atom 6.0931004399999997 5.7877476699999999 2.7290615100000002 Au
atom 7.5051076500000002 8.2673263099999996 2.6891200199999998 Au
atom 10.3088058599999997 8.2544776500000001 2.6263674799999999 Au
atom 13.1596945099999996 8.2633413999999998 2.7068325600000001 Au
atom 15.9680787500000001 8.2477100700000001 2.6338216999999999 Au
atom 18.7977509000000005 8.2621912799999997 2.7009661000000000 Au
atom 21.5971322599999986 8.2538680699999993 2.6279594799999999 Au
atom 24.4055775900000000 8.2614407700000001 2.6965347500000001 Au
atom 27.2415956399999999 8.2445328199999999 2.6228265199999998 Au
atom 1.8542856299999999 8.2658471500000008 2.6891886899999999 Au
atom 4.6923046099999999 8.2596646400000004 2.6148731100000000 Au
atom 8.8962389999999996 10.7198890500000008 2.6419573900000000 Au
atom 11.7368081699999998 10.7170475199999995 2.6300961599999999 Au
atom 14.5687548400000004 10.7258785700000008 2.6634954199999998 Au
atom 17.3820302200000008 10.7248131699999991 2.6468964800000001 Au
atom 20.1872724199999993 10.7193325099999992 2.6462800899999999 Au
atom 23.0121674600000006 10.7285249000000000 2.6484673399999998 Au
atom 25.8352905200000009 10.7193907399999997 2.6563283100000001 Au
atom 0.4631749000000000 10.7223753199999994 2.6396420400000000 Au
atom 3.2860768600000001 10.7214072300000005 2.6384572799999999 Au
atom 6.1032896399999998 10.7164074700000000 2.6465296800000000 Au
atom 7.5209630000000001 13.1508353400000004 5.6913980400000002 Cl
atom 7.5143008000000000 15.9847047999999994 8.5727243899999994 Cl
atom 7.5268472700000002 13.1848299799999999 8.3436380299999993 Na
atom 7.4984373099999999 16.0017262500000008 5.7746326999999997 Na
atom 7.5124974000000000 18.8319717900000008 5.7310638300000001 Cl
atom 7.5164964100000002 21.6196388699999993 8.5615021900000006 Cl
atom 7.5029239399999996 18.8110045700000015 8.3866990900000005 Na
atom 7.4744801699999996 21.6449732700000013 5.7960553299999997 Na
atom 7.5083538299999999 24.4253173100000005 5.7517845999999997 Cl
atom 7.4909855199999997 27.2809665599999995 8.5864059600000004 Cl
atom 7.4744457899999999 24.4297747200000011 8.3959519300000007 Na
atom 7.4908617000000000 27.2548591800000004 5.7989182100000001 Na
atom 7.4937996599999996 30.0796304499999998 5.7116283100000000 Cl
atom 7.4929464399999999 32.9068387900000019 8.5378934300000004 Cl
atom 7.4929634600000004 30.1021585199999997 8.3856587999999999 Na
atom 7.4900771900000001 32.8875861699999987 5.8030042300000000 Na
atom 7.5198062800000001 35.7132256499999983 5.7396764100000004 Cl
atom 7.5134310600000003 38.5379800899999978 8.5574106400000005 Cl
atom 7.5084305599999999 35.7097474999999989 8.3734020499999993 Na
atom 7.4876164899999997 38.5697296100000031 5.8061698200000000 Na
atom 7.4862299400000003 1.8688948700000001 5.7859372000000002 Cl
atom 7.4796253799999999 4.7063362599999996 8.5817921899999998 Cl
atom 7.4673793499999999 1.8881692100000000 8.4217908099999992 Na
atom 7.4878807700000003 4.7426668300000001 5.8294783499999996 Na
atom 7.5096698399999999 7.5489549900000004 5.7188199199999996 Cl
atom 7.4932968500000001 10.3861822299999993 8.5748410100000001 Cl
atom 7.4943875300000000 7.5511159100000000 8.3849971500000002 Na
atom 7.5175328900000000 10.3535609300000004 5.7828064399999999 Na
atom 10.3539670499999996 13.1539407100000005 5.8105110499999997 Na
atom 13.1683872999999991 13.2068778099999999 5.7571679299999996 Cl
atom 10.3327024200000004 15.9857209299999994 8.3417759599999997 Na
atom 13.1280658500000005 15.9911326400000000 8.5613729500000009 Cl
atom 13.1212929999999997 13.1799256400000004 8.3672307200000002 Na
atom 10.3180697299999995 13.1471973200000001 8.5222996700000007 Cl
atom 13.1184324199999995 16.0025564699999983 5.7688521499999998 Na
atom 10.2883822200000008 16.0024277700000006 5.7321081300000003 Cl
atom 10.3054675499999995 18.8348702199999991 5.7801758799999998 Na
atom 13.1443085499999999 18.7705153100000004 5.6867522800000003 Cl
atom 10.2113213300000005 21.6516906400000018 8.3181659400000001 Na
atom 12.8640711299999992 21.5426258900000001 8.0879587900000001 Cl
atom 13.1303599000000002 18.7564831699999992 8.3030105600000006 Na
atom 10.3075427099999999 18.8033138899999983 8.5916849899999992 Cl
atom 13.0410650199999996 21.5641459100000006 5.5580631900000004 Na
atom 10.2976526600000007 21.6412693199999993 5.7447932100000001 Cl
atom 10.3055220100000007 24.4403017899999995 5.8148311200000000 Na
atom 13.1407574000000000 24.4598538000000012 5.7350905799999996 Cl
atom 10.3178494700000005 27.2661538000000014 8.4146730099999996 Na
atom 13.1670164599999993 27.2530740999999992 8.5746426299999996 Cl
atom 13.0641140799999995 24.4984459000000001 8.3326893099999992 Na
atom 10.2997577800000002 24.4432426199999995 8.6174478699999995 Cl
atom 13.1598223799999996 27.2249475300000014 5.7986529999999998 Na
atom 10.3132660699999992 27.2241635399999993 5.7413585200000004 Cl
atom 10.3385900900000003 30.0683575099999985 5.7978142799999999 Na
atom 13.1360320500000007 30.0787839199999993 5.7501382400000001 Cl
atom 10.3063107899999995 32.8677369700000028 8.3610945599999997 Na
atom 13.1480262600000000 32.9089085299999979 8.5976608700000003 Cl
atom 13.1575889000000004 30.0573589900000009 8.3862867399999992 Na
atom 10.3320810900000009 30.0762210799999998 8.5686398399999995 Cl
atom 13.1620211900000008 32.8991230099999967 5.8319982599999998 Na
atom 10.3434775600000002 32.9035564599999972 5.7551429699999996 Cl
atom 10.3090415499999999 35.7511595200000016 5.7964246599999996 Na
atom 13.1316175200000007 35.7414552199999989 5.7465754499999999 Cl
atom 10.3236729900000004 38.5586542400000027 8.3980677999999997 Na
atom 13.1059072600000004 38.5587542700000014 8.5652342400000006 Cl
atom 13.1180483700000003 35.7322382099999984 8.3880334399999992 Na
atom 10.2998469700000008 35.7186299500000004 8.5468314099999994 Cl
atom 13.1317635999999993 38.5601659900000016 5.8217510099999998 Na
atom 10.3007359199999993 38.5658385600000031 5.7630297600000002 Cl
atom 10.2903133199999992 1.8723141400000001 5.8326020200000004 Na
atom 13.1222624099999994 1.9166958000000001 5.7783975600000002 Cl
atom 10.2962043600000008 4.6981225799999997 8.3606490299999994 Na
atom 13.1419338900000007 4.7240286600000001 8.5723399600000008 Cl
atom 13.1217411899999998 1.8818666500000001 8.4135758500000009 Na
atom 10.2829042000000008 1.8734917799999999 8.6132244700000005 Cl
atom 13.1272979099999993 4.7029471699999998 5.8345273600000001 Na
atom 10.3268894600000003 4.6943667700000002 5.7378963799999996 Cl
atom 10.3385330199999999 7.4818217000000002 5.8057268999999998 Na
atom 13.1531971500000004 7.5175158199999998 5.7308241899999999 Cl
atom 10.3296829399999996 10.3204926799999992 8.3742289299999992 Na
atom 13.1393509599999998 10.3324228900000001 8.5915794999999999 Cl
atom 13.1150676399999995 7.5089782800000000 8.3872330999999996 Na
atom 10.3277072600000004 7.5291832000000003 8.5629389699999994 Cl
atom 13.1015881400000005 10.3588592500000001 5.8013851599999997 Na
atom 10.3373475100000007 10.3369935900000005 5.7341096100000000 Cl
atom 15.9715349900000003 13.1817897100000003 5.8306147499999996 Na
atom 18.7885093900000015 13.1751545500000002 5.7374589800000004 Cl
atom 15.9612021599999991 15.9528591300000002 8.3620857999999991 Na
atom 18.7755397399999993 15.9926585200000009 8.5499561199999992 Cl
atom 18.7676259899999991 13.1597677399999995 8.3630792100000004 Na
atom 15.9646716800000004 13.2088075200000006 8.5616303800000004 Cl
atom 18.7895930100000008 15.9775090800000008 5.7726127500000004 Na
atom 16.0230236400000017 15.9895935599999994 5.7227659800000001 Cl
atom 15.9851226700000009 18.7994529099999994 5.7796467900000001 Na
atom 18.7634688099999991 18.7502970200000014 5.6926413699999996 Cl
atom 15.5738191100000005 21.8150044200000011 8.1347278900000006 Na
atom 19.2299307900000009 21.5757374199999994 7.4726135700000000 Cl
atom 18.7879622600000005 18.7703406100000016 8.3066216199999996 Na
atom 15.9108525800000002 18.6953827799999992 8.4875729399999997 Cl
atom 18.7321001500000008 21.6261181299999983 5.0245327499999997 Na
atom 15.8991680800000008 21.6259799900000012 5.5946806499999999 Cl
atom 15.9686690200000001 24.4894904199999992 5.7666515599999997 Na
atom 18.6872716600000004 24.4691600999999999 5.6628926599999998 Cl
atom 15.9356895999999999 27.3049221099999997 8.3953791300000002 Na
atom 18.7696164799999998 27.2825366600000017 8.5833375000000007 Cl
atom 18.7791645100000011 24.5360722200000012 8.2649935299999999 Na
atom 15.9665378199999992 24.4956590900000002 8.5254431099999994 Cl
atom 18.7681230399999990 27.2539835600000018 5.8126460000000000 Na
atom 15.9903056299999999 27.2730027200000009 5.7411724599999996 Cl
atom 15.9935775099999997 30.1026221800000009 5.7567230499999997 Na
atom 18.7874579799999992 30.0755793599999990 5.7408655900000003 Cl
atom 15.9704656499999995 32.9077403900000007 8.4041242799999996 Na
atom 18.7454820600000005 32.9365674000000013 8.5876512199999997 Cl
atom 18.7458190199999990 30.0909057799999999 8.3910455099999997 Na
atom 15.9622852099999992 30.1233286100000015 8.5719433800000004 Cl
atom 18.8235235199999984 32.8832576699999990 5.8426309900000000 Na
atom 15.9600540399999993 32.9268009999999975 5.7629659200000001 Cl
atom 15.9311963999999993 35.7138586700000005 5.8024185099999999 Na
atom 18.7634886700000010 35.7410492300000016 5.7192896900000001 Cl
atom 15.9812410499999995 38.5420716300000024 8.3944782999999994 Na
atom 18.7558763800000001 38.5466802400000006 8.5653483200000000 Cl
atom 18.7852767000000007 35.7409048000000027 8.3456418499999998 Na
atom 15.9586772400000001 35.7232100100000025 8.5896218999999991 Cl
atom 18.7456676400000006 38.5602466899999996 5.8068550800000001 Na
atom 15.9402535699999994 38.5680697900000027 5.7533184799999999 Cl