#===============================================================================
# Created using the Atomic Simulation Environment (ASE)

# Tue Dec 23 21:42:18 2025

#=======================================================
lattice_vector 28.1999999999999993 0.0000000000000000 0.0000000000000000 
lattice_vector 0.0000000000000000 39.4799999999999969 0.0000000000000000 
lattice_vector 0.0000000000000000 0.0000000000000000 62.3296083400000001 
atom 7.5117117699999998 14.8188297999999996 0.0342878700000000 Au
atom 10.3242513900000006 14.8204161100000000 -0.0107501100000000 Au
atom 13.1432566000000008 14.8192031899999996 0.0435899200000000 Au
atom 15.9661791700000002 14.8257582499999998 -0.0121614300000000 Au
atom 18.7958496599999982 14.8199622400000006 0.0447166300000000 Au
atom 21.6153032100000004 14.8334500600000005 -0.0060012900000000 Au
atom 24.4331353600000014 14.8180394300000007 0.0577724400000000 Au
atom 27.2538726400000009 14.8293797600000001 -0.0149285500000000 Au
atom 1.8672664699999999 14.8135195000000000 0.0597525000000000 Au
atom 4.6876550500000000 14.8460838299999995 -0.0266053100000000 Au
atom 8.9216212800000001 17.2980402700000013 0.0384485500000000 Au
atom 11.7376681999999999 17.2834031999999986 0.0465036900000000 Au
atom 14.5698568399999999 17.2986802299999987 0.0400918100000000 Au
atom 17.3963993600000002 17.2882363199999993 0.0275558000000000 Au
atom 20.1893550099999999 17.2774390199999992 0.0278205700000000 Au
atom 23.0070819700000015 17.2876391200000015 0.0314409400000000 Au
atom 25.8264075400000017 17.2802746599999999 0.0525225600000000 Au
atom 0.4516408200000000 17.2838701400000012 0.0468362300000000 Au
atom 3.2711106999999999 17.2823491699999998 0.0443012700000000 Au
atom 6.1024911599999996 17.3032367399999991 0.0363631600000000 Au
atom 7.5088161900000001 19.7522293200000014 0.0972277100000000 Au
atom 10.3167156200000001 19.7622427400000014 0.0595554200000000 Au
atom 13.1475477000000005 19.7452910199999998 0.0961432900000000 Au
atom 15.9687420499999995 19.7673065799999996 0.0364857800000000 Au
atom 18.7885160499999984 19.7562862099999990 0.0986887700000000 Au
atom 21.6203238700000000 19.7616270500000013 0.0466161700000000 Au
atom 24.4240871999999989 19.7542065800000017 0.1049040800000000 Au
atom 27.2303293500000017 19.7582575899999995 0.0679312100000000 Au
atom 1.8691000700000000 19.7504114900000012 0.1364943200000000 Au
atom 4.6972016300000003 19.7602399999999996 0.0707758300000000 Au
atom 8.9266190000000005 22.2261035500000013 0.0876675500000000 Au
atom 11.7357213799999993 22.2229063300000007 0.0716904800000000 Au
atom 14.5551056400000007 22.2118498100000004 0.0750440100000000 Au
atom 17.3695731400000000 22.2266492199999988 0.0683633100000000 Au
atom 20.1894758100000011 22.2196256199999986 0.0909323700000000 Au
atom 23.0064344600000013 22.2120532399999995 0.0886669700000000 Au
atom 25.8207229200000015 22.2141949300000014 0.0843569900000000 Au
atom 0.4571006300000000 22.2106305800000001 0.0870936200000000 Au
atom 3.2906598499999999 22.2106135699999996 0.0745943700000000 Au
atom 6.0944250599999998 22.2154813199999985 0.0818249100000000 Au
atom 7.5043885100000001 24.6959248799999997 0.1080049200000000 Au
atom 10.3178774299999994 24.6922182200000009 0.0980616500000000 Au
atom 13.1334278799999993 24.6882258999999991 0.0844839900000000 Au
atom 15.9691314599999998 24.6762740899999997 0.1026277700000000 Au
atom 18.7836175800000014 24.6972520099999997 0.1025758600000000 Au
atom 21.6056631400000008 24.6818715799999993 0.1101215900000000 Au
atom 24.4190852700000001 24.6829619300000012 0.0879171400000000 Au
atom 27.2473334099999995 24.6742250699999985 0.1009346800000000 Au
atom 1.8749183199999999 24.6754710000000017 0.0991203800000000 Au
atom 4.6766885499999997 24.7074565799999988 0.1025994600000000 Au
atom 8.9216833100000006 27.1532316999999992 0.0615463000000000 Au
atom 11.7398323799999993 27.1527296100000015 0.0685732600000000 Au
atom 14.5518836399999998 27.1534928600000001 0.0679360000000000 Au
atom 17.3567314800000005 27.1409840699999982 0.0589941200000000 Au
atom 20.1903436599999999 27.1850159600000012 0.0673185000000000 Au
atom 23.0036615699999984 27.1563268499999992 0.0647663100000000 Au
atom 25.8270437599999987 27.1580842400000009 0.0691547500000000 Au
atom 0.4395976300000000 27.1513733200000011 0.0611796700000000 Au
atom 3.2794420999999998 27.1371854500000005 0.0639378800000000 Au
atom 6.0951648000000000 27.1575524600000016 0.0475239300000000 Au
atom 7.5076224399999996 29.6331961399999990 0.0209749400000000 Au
atom 10.3157632400000008 29.6322370799999995 0.0552006700000000 Au
atom 13.1498168599999996 29.6359232100000014 0.0050922400000000 Au
atom 15.9679829600000005 29.6307279200000018 0.0485035300000000 Au
atom 18.7866433999999991 29.6250295199999982 0.0229889200000000 Au
atom 21.6193215000000016 29.6055410300000013 0.0813968500000000 Au
atom 24.4244030300000006 29.6276786100000002 0.0095709200000000 Au
atom 27.2374038399999989 29.6161675899999999 0.0583274700000000 Au
atom 1.8806918699999999 29.6234380699999988 0.0101447800000000 Au
atom 4.6776501699999997 29.6140242200000010 0.0716513200000000 Au
atom 8.9300529999999991 32.0883274199999988 0.0080497800000000 Au
atom 11.7265585899999998 32.0728544799999966 0.0134899200000000 Au
atom 14.5634580899999992 32.0823507699999979 0.0135354200000000 Au
atom 17.3747465000000005 32.0907812299999975 0.0224385600000000 Au
atom 20.2050593399999983 32.0930887100000035 0.0226832700000000 Au
atom 23.0091314800000006 32.0740185299999965 -0.0010047100000000 Au
atom 25.8305597300000009 32.0964979900000031 0.0211737800000000 Au
atom 0.4464950600000000 32.0867696899999970 0.0040112500000000 Au
atom 3.2756739700000002 32.1022428300000016 0.0082321900000000 Au
atom 6.0931177200000004 32.0861127499999981 0.0138521100000000 Au
atom 7.5152204400000002 34.5608232100000023 0.0004973600000000 Au
atom 10.3348070300000003 34.5492680300000004 0.0633001300000000 Au
atom 13.1482963700000006 34.5629151199999995 -0.0274977800000000 Au
atom 15.9814684200000006 34.5511918999999992 0.0727965000000000 Au
atom 18.8019876199999985 34.5581935299999969 -0.0135943700000000 Au
atom 21.5944696900000004 34.5677215300000000 0.0590532600000000 Au
atom 24.4283099999999997 34.5757807600000007 -0.0150767300000000 Au
atom 27.2308201300000015 34.5578641600000012 0.0572981100000000 Au
atom 1.8622264500000001 34.5846687299999971 0.0137227700000000 Au
atom 4.6889599700000000 34.5529345599999971 0.0525325000000000 Au
atom 8.9064094800000007 37.0316327800000025 0.0277857200000000 Au
atom 11.7423180899999995 37.0321292499999970 0.0305202700000000 Au
atom 14.5584340500000007 37.0349496199999990 0.0464427200000000 Au
atom 17.3785444899999995 37.0378344399999975 0.0500888700000000 Au
atom 20.1938798000000013 37.0250457100000006 0.0368649500000000 Au
atom 23.0149933199999985 37.0211249199999983 0.0381545900000000 Au
atom 25.8310492300000014 37.0427991000000034 0.0646799600000000 Au
atom 0.4391249400000000 37.0137220700000000 0.0359940800000000 Au
atom 3.2779099600000001 37.0383439900000013 0.0237052700000000 Au
atom 6.0916277599999997 37.0369888399999994 0.0349652100000000 Au
atom 7.5009250300000003 0.0341637300000000 0.0745423300000000 Au
atom 10.3211458199999999 0.0122755400000000 0.1052428100000000 Au
atom 13.1411233200000002 0.0197796900000000 0.0536794900000000 Au
atom 15.9587346300000004 0.0225488200000000 0.1119512600000000 Au
atom 18.7718343099999991 0.0221332000000000 0.0634921600000000 Au
atom 21.6102808199999998 0.0074442600000000 0.1232882500000000 Au
atom 24.4347278199999991 0.0139214700000000 0.0704252000000000 Au
atom 27.2528741100000005 0.0226165500000000 0.1252078800000000 Au
atom 1.8648159799999999 0.0244815400000000 0.0569338500000000 Au
atom 4.6833510000000000 0.0128655500000000 0.0970477300000000 Au
atom 8.9157228699999997 2.4882164400000000 0.0800364200000000 Au
atom 11.7343719400000008 2.4771836199999999 0.0797607700000000 Au
atom 14.5625919699999997 2.4804728500000000 0.0860027900000000 Au
atom 17.3641182900000004 2.4886698699999998 0.0945816500000000 Au
atom 20.1807535599999994 2.4760895600000001 0.0696955500000000 Au
atom 23.0133383699999996 2.4851752199999999 0.0902365200000000 Au
atom 25.8342715299999988 2.4778088000000000 0.0880330600000000 Au
atom 0.4615733800000000 2.4896872299999999 0.1005467800000000 Au
atom 3.2808800599999999 2.4843486900000000 0.0745226900000000 Au
atom 6.0788399499999999 2.4866609600000000 0.0795235300000000 Au
atom 7.4954644000000004 4.9428022299999999 0.0948197100000000 Au
atom 10.3293989800000006 4.9477038799999997 0.0992529300000000 Au
atom 13.1570324400000001 4.9266349299999996 0.0938948000000000 Au
atom 15.9677232399999998 4.9301671300000001 0.1013716500000000 Au
atom 18.7870255999999998 4.9522214000000000 0.1072098300000000 Au
atom 21.6057178800000003 4.9499456799999999 0.1090842400000000 Au
atom 24.4322467500000009 4.9468017700000004 0.1000773300000000 Au
atom 27.2377153099999987 4.9471402199999996 0.1096513800000000 Au
atom 1.8612666700000000 4.9403933799999997 0.0954771400000000 Au
atom 4.6974473600000000 4.9493751100000001 0.1076313700000000 Au
atom 8.9018669199999998 7.4057325499999997 0.0615993600000000 Au
atom 11.7459538200000004 7.4004063000000002 0.0578470500000000 Au
atom 14.5641832499999992 7.4042695199999997 0.0509188200000000 Au
atom 17.3774276199999989 7.4149323599999999 0.0729111600000000 Au
atom 20.1952457999999986 7.4126130999999997 0.0767671000000000 Au
atom 23.0214591099999986 7.4167345600000001 0.0654592900000000 Au
atom 25.8311941599999990 7.4113154699999999 0.0764581600000000 Au
atom 0.4580615600000000 7.4047018400000004 0.0734376000000000 Au
atom 3.2682272100000000 7.4075085899999999 0.0562576100000000 Au
atom 6.0899801299999998 7.4174396900000001 0.0614108300000000 Au
atom 7.5134541800000001 9.8823069900000000 0.0504164500000000 Au
atom 10.3148716799999995 9.8756212600000008 0.0042241300000000 Au
atom 13.1562938599999999 9.8655182299999993 0.0552378800000000 Au
atom 15.9682630499999991 9.8792829999999991 0.0246739900000000 Au
atom 18.7780064600000003 9.8822095700000006 0.0622735900000000 Au
atom 21.6048978399999996 9.8773879000000004 0.0075429900000000 Au
atom 24.4286698999999992 9.8772453200000001 0.0638132000000000 Au
atom 27.2432301700000004 9.8743767899999995 0.0151784000000000 Au
atom 1.8638109000000000 9.8642650100000004 0.0615385900000000 Au
atom 4.6808579200000002 9.8726356699999993 0.0076118200000000 Au
atom 8.9227128100000002 12.3455171799999999 0.0036579100000000 Au
atom 11.7414867600000008 12.3468038000000000 0.0108321900000000 Au
atom 14.5639023499999993 12.3548620200000006 0.0121230900000000 Au
atom 17.3740198200000009 12.3511957900000002 0.0000602200000000 Au
atom 20.1745849899999996 12.3687135300000008 0.0157100400000000 Au
atom 23.0064025000000001 12.3445201400000002 0.0243564400000000 Au
atom 25.8355630000000005 12.3493059699999996 0.0065106100000000 Au
atom 0.4479858200000000 12.3507058999999995 0.0192092200000000 Au
atom 3.2669801500000002 12.3404695400000008 -0.0038663400000000 Au
atom 6.0956654900000000 12.3466925100000005 0.0073653600000000 Au
atom 7.5047073700000002 13.1724130200000005 2.6547395200000001 Au
atom 10.3297855399999996 13.1804227399999991 2.5634771700000001 Au
atom 13.1323332500000003 13.1736965399999999 2.6578511200000001 Au
atom 15.9669852599999995 13.1944794299999995 2.5574393199999998 Au
atom 18.7955053599999999 13.1881999099999998 2.6713116900000000 Au
atom 21.6114581299999990 13.1863083600000000 2.5706929999999999 Au
atom 24.4317621500000008 13.1755997199999992 2.6603428700000000 Au
atom 27.2403648199999999 13.1786032199999994 2.5709606900000002 Au
atom 1.8743126999999999 13.1774071999999993 2.6800190399999999 Au
atom 4.6834610500000000 13.1890310300000007 2.5450758699999998 Au
atom 8.8983566599999993 15.6435053899999996 2.6451768800000002 Au
atom 11.7359711699999991 15.6372412000000001 2.6413774399999999 Au
atom 14.5546974400000000 15.6331898000000002 2.6166024900000000 Au
atom 17.3833401999999992 15.6480692399999999 2.6404965699999998 Au
atom 20.1933973800000004 15.6457436600000008 2.6459232199999998 Au
atom 23.0126887499999988 15.6414846399999998 2.6396592499999998 Au
atom 25.8333215199999984 15.6401646400000001 2.6349198500000002 Au
atom 0.4520028000000000 15.6392292699999995 2.6401165299999998 Au
atom 3.2729878000000001 15.6513780300000001 2.6432008300000001 Au
atom 6.1075309000000004 15.6388157400000001 2.6426449800000000 Au
atom 7.5093808900000001 18.1017111399999990 2.7015707700000000 Au
atom 10.3154812099999997 18.1093170699999995 2.6026097699999999 Au
atom 13.1418126399999995 18.1020261100000006 2.6858053900000001 Au
atom 15.9822835899999998 18.1068415099999989 2.5993146999999999 Au
atom 18.7890183600000000 18.0985859299999987 2.6723960500000001 Au
atom 21.6061666000000017 18.1193042099999992 2.6117524799999998 Au
atom 24.4304509900000006 18.1040446000000017 2.6991601500000000 Au
atom 27.2290849199999982 18.1178880699999993 2.6203025700000002 Au
atom 1.8601546200000001 18.0931151899999989 2.6954842999999999 Au
atom 4.6838516300000004 18.1308690100000014 2.6152606700000001 Au
atom 8.9325645799999993 20.5700473499999994 2.7040008000000002 Au
atom 11.7267095799999996 20.5788446500000006 2.7037928199999999 Au
atom 14.5652013700000005 20.5702739000000001 2.6886276800000002 Au
atom 17.3833727200000006 20.5716270899999998 2.7062930500000002 Au
atom 20.1969314599999983 20.5774334400000001 2.7088633000000000 Au
atom 23.0151942399999996 20.5720057099999991 2.7077038899999999 Au
atom 25.8439259600000000 20.5753001399999995 2.7162932400000002 Au
atom 0.4554720500000000 20.5767882799999988 2.7297186500000001 Au
atom 3.2636456100000002 20.5833447099999987 2.7281897200000000 Au
atom 6.1111142300000001 20.5792868099999993 2.7143635599999998 Au
atom 7.5075945500000003 23.0238911900000005 2.6733646400000000 Au
atom 10.3351986300000007 23.0665283099999989 2.6777793299999999 Au
atom 13.1443887000000004 23.0338196400000008 2.6858526399999998 Au
atom 15.9802143999999995 23.0649734500000001 2.6802481199999999 Au
atom 18.7897627199999988 23.0500944700000012 2.6630223499999999 Au
atom 21.6056029500000015 23.0647919299999984 2.6941134600000001 Au
atom 24.4170110399999984 23.0297149800000014 2.6851317699999999 Au
atom 27.2613887000000013 23.0671773100000017 2.6954763000000002 Au
atom 1.8687664900000001 23.0559162499999992 2.6875484500000000 Au
atom 4.6780794700000001 23.0579360300000005 2.6827885800000000 Au
atom 8.9199229399999993 25.5267800499999993 2.7205625699999998 Au
atom 11.7372935799999993 25.5310902400000010 2.7126396599999998 Au
atom 14.5610868500000006 25.5299981000000002 2.7203083399999999 Au
atom 17.3673642999999984 25.5328364500000013 2.7054449800000002 Au
atom 20.2035939499999984 25.5355375100000010 2.7287612200000000 Au
atom 23.0178601699999987 25.5249201700000015 2.7141440299999999 Au
atom 25.8371726899999992 25.5214062699999999 2.7242602800000002 Au
atom 0.4374626500000000 25.5327236100000015 2.7043661299999999 Au
atom 3.2897347500000000 25.5468149999999987 2.7180229800000002 Au
atom 6.0824245899999996 25.5101694799999983 2.7073186800000002 Au
atom 7.5027618499999997 27.9857009199999993 2.6198296399999998 Au
atom 10.3335792600000005 27.9936308700000005 2.6969435800000001 Au
atom 13.1504293099999998 27.9969335999999984 2.6130722600000000 Au
atom 15.9577499899999999 28.0034563600000013 2.7046073000000002 Au
atom 18.7752015900000018 27.9879103299999983 2.6213053199999998 Au
atom 21.6050278300000009 27.9951481199999996 2.7051781199999998 Au
atom 24.4321334300000004 27.9994481200000003 2.6223433100000002 Au
atom 27.2363577200000009 28.0147472300000011 2.6938393000000000 Au
atom 1.8624450299999999 28.0192444400000014 2.6146187200000002 Au
atom 4.6881041799999998 28.0133396300000008 2.6995571599999999 Au
atom 8.9306358100000001 30.4459307499999987 2.6468495600000002 Au
atom 11.7329990899999999 30.4572640899999989 2.6540755699999998 Au
atom 14.5512511300000007 30.4500482099999985 2.6411553400000001 Au
atom 17.3750272300000006 30.4551641000000011 2.6572331500000002 Au
atom 20.2133575199999989 30.4646905399999994 2.6645059999999998 Au
atom 23.0106582999999993 30.4663831599999995 2.6429255399999998 Au
atom 25.8333707100000005 30.4488985700000008 2.6515638099999999 Au
atom 0.4449799300000000 30.4511723299999986 2.6508802299999998 Au
atom 3.2795250199999999 30.4588637999999996 2.6403854199999999 Au
atom 6.0827154400000003 30.4623374799999986 2.6481092500000001 Au
atom 7.5040022799999999 32.9187845499999980 2.5701161699999999 Au
atom 10.3309150800000005 32.9263235800000018 2.6660434500000001 Au
atom 13.1416514899999992 32.9230898499999967 2.5610441700000002 Au
atom 15.9628599100000006 32.9392598399999983 2.6907309700000002 Au
atom 18.7703363500000009 32.9238844099999994 2.5808758699999998 Au
atom 21.5946093099999992 32.9338245200000017 2.6526885500000001 Au
atom 24.4262283499999988 32.9371140599999990 2.5701773000000001 Au
atom 27.2583302500000002 32.9163806099999974 2.6595904400000001 Au
atom 1.8577911899999999 32.9252162800000008 2.5601007899999999 Au
atom 4.6872326600000003 32.9146818400000001 2.6753802100000001 Au
atom 8.9148656499999994 35.3851066799999998 2.6546233199999998 Au
atom 11.7402892100000003 35.3943912900000015 2.6433922200000000 Au
atom 14.5595583299999998 35.3723593799999989 2.6363456599999999 Au
atom 17.3698117100000005 35.3951499900000002 2.6439827600000001 Au
atom 20.1756973100000003 35.3835873900000024 2.6598321399999998 Au
atom 23.0229858800000002 35.3812532399999995 2.6535737899999998 Au
atom 25.8415818699999988 35.3946554999999989 2.6459010200000002 Au
atom 0.4652307300000000 35.3756268799999987 2.6399997200000000 Au
atom 3.2732278600000000 35.3734283100000013 2.6425492500000001 Au
atom 6.0864667800000003 35.3867189799999977 2.6478052200000000 Au
atom 7.4925812000000001 37.8506493300000031 2.6112483700000002 Au
atom 10.3278837299999999 37.8308227699999975 2.7144413799999998 Au
atom 13.1559913300000009 37.8421551500000035 2.6077219100000000 Au
atom 15.9666200400000005 37.8390466399999994 2.7031438600000000 Au
atom 18.7881974700000001 37.8493852799999999 2.6129068400000000 Au
atom 21.6180063400000009 37.8306638500000005 2.6956923800000001 Au
atom 24.4199221800000004 37.8503453800000003 2.6192845800000000 Au
atom 27.2533884099999995 37.8437596099999993 2.7024116500000002 Au
atom 1.8713715099999999 37.8572367100000022 2.6037599500000002 Au
atom 4.6873471699999998 37.8451014899999976 2.7055016599999999 Au
atom 8.9224110000000003 0.8369176600000000 2.7170982700000001 Au
atom 11.7249269599999995 0.8232973500000000 2.7137944500000000 Au
atom 14.5485373300000003 0.8414010500000000 2.7229371499999999 Au
atom 17.3847805999999991 0.8379560000000000 2.7217939300000000 Au
atom 20.1884347200000001 0.8453646500000001 2.7197474599999998 Au
atom 23.0272326000000014 0.8402490400000000 2.7301531699999999 Au
atom 25.8401188300000015 0.8432668500000000 2.7163367900000002 Au
atom 0.4572002600000000 0.8191789000000000 2.7214718699999998 Au
atom 3.2731025100000002 0.8577311100000000 2.7161728200000002 Au
atom 6.1065344399999999 0.8481595700000000 2.7051311600000001 Au
atom 7.5091251899999998 3.3099251399999998 2.7033663500000000 Au
atom 10.3434463500000007 3.2914772100000000 2.6981215100000000 Au
atom 13.1468440399999995 3.3438909400000001 2.7031968599999998 Au
atom 15.9680472899999994 3.3036435800000001 2.6950778799999999 Au
atom 18.7926781299999988 3.3501987000000000 2.6874067300000002 Au
atom 21.6183976800000011 3.3095262900000000 2.6851727200000002 Au
atom 24.4178284999999988 3.3362246600000001 2.6905182200000000 Au
atom 27.2498994900000007 3.3021570100000002 2.6745412499999999 Au
atom 1.8629550500000001 3.3290817800000001 2.6883970900000000 Au
atom 4.6642529100000001 3.2945029899999998 2.6860768199999998 Au
atom 8.9160268899999995 5.7886582100000004 2.7254596300000000 Au
atom 11.7453369199999997 5.7931220300000001 2.7307882600000002 Au
atom 14.5525529500000008 5.7948814100000003 2.7192573900000001 Au
atom 17.3782370200000003 5.7834168699999999 2.7280305500000002 Au
atom 20.1937188100000000 5.7950525800000001 2.7165520000000001 Au
atom 23.0155756700000005 5.7885112699999999 2.7215139900000000 Au
atom 25.8339556700000017 5.7881493800000001 2.7410314300000000 Au
atom 0.4516625400000000 5.7835611199999999 2.7156893300000000 Au
atom 3.2772705700000002 5.7784868400000002 2.7062926300000001 Au
atom 6.1005585099999999 5.7829344499999999 2.6963825099999998 Au
atom 7.5046802799999996 8.2685502500000005 2.7003570300000002 Au
atom 10.3267848400000002 8.2618199899999993 2.6184149500000000 Au
atom 13.1317361600000009 8.2601404299999999 2.7158801200000000 Au
atom 15.9641272200000000 8.2480990999999992 2.6245126600000002 Au
atom 18.7823678899999997 8.2625914999999992 2.7057207900000000 Au
atom 21.5954559800000006 8.2557430000000007 2.6329610099999998 Au
atom 24.4168994899999987 8.2677443600000000 2.7016610900000000 Au
atom 27.2447176300000002 8.2356949099999994 2.6034990400000000 Au
atom 1.8594908900000000 8.2681985900000008 2.6971068800000002 Au
atom 4.6806683500000004 8.2440322399999992 2.6175210400000002 Au
atom 8.9155834899999995 10.7372600100000000 2.6329623700000000 Au
atom 11.7391616800000005 10.7309507199999992 2.6316437800000001 Au
atom 14.5335974399999994 10.7202381399999993 2.6495361499999999 Au
atom 17.3824815900000011 10.7158745999999994 2.6372506800000002 Au
atom 20.2035426300000012 10.7184164699999993 2.6556797799999998 Au
atom 23.0169549899999986 10.7265109299999999 2.6587511400000001 Au
atom 25.8430142300000014 10.7254199400000001 2.6307774300000002 Au
atom 0.4629530600000000 10.7191297700000003 2.6465858600000001 Au
atom 3.2805576099999998 10.7223204699999997 2.6486012699999999 Au
atom 6.0996359499999997 10.7140816700000006 2.6351311900000001 Au
atom 7.5186810900000003 13.1785999999999994 5.6704234099999997 Cl
atom 7.4463951499999999 16.0178684300000000 8.4976113299999998 Cl
atom 7.4383267699999998 13.1058305799999992 8.2615168000000008 Na
atom 7.4129921500000000 16.0267042500000017 5.7117554799999999 Na
atom 7.5025589999999998 18.8404695099999984 5.7315668500000001 Cl
atom 7.5162418999999998 21.5961169800000015 8.5900721099999995 Cl
atom 7.4647716900000001 18.8375471200000000 8.3654198799999993 Na
atom 7.4647373400000001 21.6363691399999993 5.7909237300000003 Na
atom 7.5030742100000003 24.4355412799999989 5.7871134399999997 Cl
atom 7.4824878600000000 27.2839896400000015 8.5838016800000005 Cl
atom 7.4654606399999999 24.4667069800000014 8.4041809199999999 Na
atom 7.4801268900000002 27.2222977499999992 5.8177922899999999 Na
atom 7.5182197600000000 30.0736392200000004 5.7249095700000003 Cl
atom 7.4895605800000000 32.9010718800000035 8.5503334899999999 Cl
atom 7.4741374799999996 30.0862418399999996 8.3811762900000009 Na
atom 7.5246345200000002 32.9049484000000021 5.7878435899999996 Na
atom 7.4784407000000002 35.7448046000000019 5.7428907100000002 Cl
atom 7.5029778800000004 38.5573287200000010 8.5958314799999993 Cl
atom 7.5260056000000004 35.7250201399999980 8.3889574099999997 Na
atom 7.4880997899999997 38.5725295299999971 5.8232252400000002 Na
atom 7.4715751299999997 1.9273079600000000 5.7370523799999997 Cl
atom 7.4948722900000000 4.7157156999999996 8.6034560100000004 Cl
atom 7.4740978699999996 1.8904967699999999 8.3953863900000005 Na
atom 7.4859466200000000 4.7074987699999999 5.8169844499999996 Na
atom 7.5154044600000001 7.5440429099999999 5.7182849200000003 Cl
atom 7.4773791300000001 10.3654219500000000 8.5750590199999994 Cl
atom 7.4935530799999999 7.5141983899999998 8.3749140600000000 Na
atom 7.4918865099999996 10.3531151999999995 5.7857659600000000 Na
atom 10.3144911500000003 13.1050034400000008 5.6990864700000001 Na
atom 13.1330404499999993 13.1917124399999999 5.6979566400000001 Cl
atom 10.2430296199999997 16.0435680900000008 7.9829352699999996 Na
atom 13.2469773199999992 16.0017727200000017 8.4317497499999998 Cl
atom 13.1746184100000008 13.0831590400000000 8.2204564399999995 Na
atom 10.3027132899999998 13.0220982799999998 8.3557153000000000 Cl
atom 13.1854991300000002 15.9746115700000004 5.6847912699999998 Na
atom 10.3395286199999994 16.0185777700000003 5.4549076699999999 Cl
atom 10.3335915800000002 18.8930314899999985 5.7137577400000001 Na
atom 13.1548104699999993 18.8260681000000005 5.6740424999999997 Cl
atom 10.2653550599999992 21.6760070800000015 8.3367006299999993 Na
atom 13.1272664799999994 21.6482290500000012 8.5380560499999998 Cl
atom 13.1174279400000007 18.8569611299999984 8.1688184100000001 Na
atom 10.3398917000000008 18.8086401899999984 8.5496386700000002 Cl
atom 13.1301416599999996 21.6491206200000015 5.7676430800000000 Na
atom 10.3308918100000007 21.6176457699999993 5.7687564900000003 Cl
atom 10.3002038599999999 24.4671002299999998 5.8320911300000002 Na
atom 13.0992488599999994 24.4443087400000003 5.7078081000000003 Cl
atom 10.3143876799999994 27.2761087000000018 8.3676154500000006 Na
atom 13.1443284299999998 27.2980844800000000 8.6200581100000004 Cl
atom 12.9661814900000003 24.4939407899999999 8.2802654400000009 Na
atom 10.2999796099999994 24.4675126600000006 8.6314458700000003 Cl
atom 13.1418709200000006 27.2422150400000014 5.8100630899999999 Na
atom 10.3285962900000001 27.2385814099999983 5.7458162100000001 Cl
atom 10.3239280999999998 30.0541140800000015 5.8124111999999997 Na
atom 13.1313285200000003 30.0855678799999993 5.7466284200000004 Cl
atom 10.2856149299999995 32.9083616100000000 8.3674139699999994 Na
atom 13.1413065299999996 32.9039587600000019 8.5356959999999997 Cl
atom 13.1543659999999996 30.0741258299999998 8.3608862300000002 Na
atom 10.2944215600000000 30.0870462399999994 8.5485711200000001 Cl
atom 13.0902673200000006 32.9070837100000020 5.8074390899999999 Na
atom 10.2961305400000001 32.9261971999999972 5.7455949300000002 Cl
atom 10.3222838699999997 35.7465712799999977 5.7899472500000000 Na
atom 13.1044409900000005 35.7620956299999975 5.7495468299999999 Cl
atom 10.2777128199999996 38.5308073699999980 8.3760691800000000 Na
atom 13.0906921399999998 38.5436337100000017 8.6081844099999998 Cl
atom 13.1231164000000007 35.7297461900000002 8.3839683600000008 Na
atom 10.3085625699999994 35.7238133600000012 8.5904148599999992 Cl
atom 13.1442219999999992 38.5826969700000006 5.8171666100000001 Na
atom 10.3017389399999999 38.5535626599999972 5.6959777599999999 Cl
atom 10.3068034199999996 1.8794732100000000 5.8082283199999996 Na
atom 13.1273974899999999 1.8954059100000000 5.7599123499999996 Cl
atom 10.3177633400000008 4.6815928400000004 8.4012586400000000 Na
atom 13.1380606699999998 4.7164658099999999 8.5727444300000002 Cl
atom 13.1200570299999999 1.9034034500000001 8.3899128399999992 Na
atom 10.3078494500000009 1.9117989900000001 8.5587572699999992 Cl
atom 13.1065272400000001 4.7330908300000001 5.8104880000000003 Na
atom 10.3078762400000006 4.7063265599999999 5.7843894000000002 Cl
atom 10.3149302499999997 7.5225198000000004 5.8191388300000000 Na
atom 13.1209753700000000 7.5308364799999996 5.7411771500000004 Cl
atom 10.3005633900000007 10.3033971500000003 8.4460358600000003 Na
atom 13.1145329200000003 10.3348955000000000 8.5705129000000007 Cl
atom 13.1301314199999997 7.5320095800000004 8.4050212000000002 Na
atom 10.3310555399999995 7.5405582100000004 8.5813395000000003 Cl
atom 13.1184508500000003 10.3272661800000005 5.7707898300000000 Na
atom 10.3181527600000003 10.3469114799999993 5.7228665699999999 Cl
atom 15.9822602600000003 13.1443302800000001 5.7597375000000000 Na
atom 18.7786885199999993 13.1869514999999993 5.7188719700000004 Cl
atom 16.0010748599999992 15.9385769899999996 8.3213432300000001 Na
atom 18.7268824699999996 16.0229205400000012 8.5716294899999994 Cl
atom 18.7758553100000007 13.1424448500000004 8.3425096799999992 Na
atom 15.9321931100000000 13.1702573500000000 8.5643425999999998 Cl
atom 18.7715400099999989 16.0095481500000005 5.7667480600000003 Na
atom 15.9744822600000003 16.0299079199999994 5.7173951199999999 Cl
atom 15.9630659999999995 18.8024820300000002 5.7742811400000003 Na
atom 18.7841308299999987 18.8101493700000013 5.7204114600000002 Cl
atom 15.9949892400000007 21.5889996500000017 8.1928341400000004 Na
atom 18.9421733799999998 21.4573264600000009 8.3539972700000007 Cl
atom 18.8418550899999993 18.7531536900000013 8.3093979699999991 Na
atom 15.9630849399999999 18.8089509200000009 8.5709271200000003 Cl
atom 18.8003323100000017 21.6072759900000015 5.7334077600000004 Na
atom 15.9610784900000002 21.5847918099999987 5.7584095000000000 Cl
atom 15.9891979699999993 24.4480805699999983 5.5544308300000003 Na
atom 18.7730938400000014 24.4066957199999983 5.6836501400000001 Cl
atom 15.9595229700000001 27.3879586099999983 8.3467470099999996 Na
atom 18.8293973699999988 27.2949640000000002 8.4414485500000005 Cl
atom 19.0549664599999993 24.5838834400000010 8.2110425100000004 Na
atom 15.4382734700000004 24.8161777500000014 7.9394366400000003 Cl
atom 18.7811166000000007 27.3000852099999989 5.7527095900000003 Na
atom 15.9469519700000006 27.3051871900000016 5.6831770700000002 Cl
atom 15.9492571999999999 30.0640983499999983 5.7440178099999999 Na
atom 18.7769569300000008 30.0610448699999999 5.7273889000000002 Cl
atom 15.9560366400000007 32.9186683599999981 8.3355542899999993 Na
atom 18.7461233500000013 32.9097505200000029 8.5340310699999993 Cl
atom 18.7431621700000015 30.1027121800000010 8.4208013200000007 Na
atom 15.9315061900000003 30.0969179699999998 8.5704027499999995 Cl
atom 18.7690119200000005 32.8840864800000006 5.7743967300000003 Na
atom 15.9447183900000002 32.9153135600000013 5.7200342900000001 Cl
atom 15.9588592400000007 35.7498080599999994 5.7895921100000001 Na
atom 18.7839103600000001 35.7445330799999965 5.7585835899999998 Cl
atom 15.9450961200000005 38.5237659399999970 8.3808773500000004 Na
atom 18.7669280600000015 38.5306541699999983 8.5830689699999994 Cl
atom 18.7800995499999992 35.7082139099999978 8.3726759400000006 Na
atom 15.9769786099999997 35.7157299300000020 8.5391101799999998 Cl
atom 18.7687698300000001 38.5834022200000035 5.8276378500000003 Na
atom 15.9544187599999994 38.5533197000000030 5.7301856700000000 Cl