#===============================================================================
# Created using the Atomic Simulation Environment (ASE)

# Tue Dec 23 22:27:01 2025

#=======================================================
lattice_vector 28.1999999999999993 0.0000000000000000 0.0000000000000000 
lattice_vector 0.0000000000000000 39.4799999999999969 0.0000000000000000 
lattice_vector 0.0000000000000000 0.0000000000000000 62.3296083400000001 
atom 7.6053749399999999 14.8875914100000006 -0.3141230100000000 Au
atom 10.2516672500000006 14.5428902000000004 -0.3461417900000000 Au
atom 13.3332514500000006 14.7839389400000005 0.0493427100000000 Au
atom 15.9027311099999995 14.7834464299999997 -0.0268068500000000 Au
atom 18.7140322599999998 14.8627146900000007 -0.0219950700000000 Au
atom 21.5207231400000012 14.8536815999999998 -0.0175294000000000 Au
atom 24.2765307200000002 14.9664341899999993 -0.0223576200000000 Au
atom 27.2398253500000003 14.7703271100000002 0.0358458000000000 Au
atom 1.6717523500000000 14.9298004800000008 0.0038236100000000 Au
atom 4.7273681400000003 14.9452339100000007 -0.0626271000000000 Au
atom 8.9276561200000000 17.4554211799999983 -0.1236604100000000 Au
atom 11.6457914299999992 17.2162414999999989 -0.2376265900000000 Au
atom 14.5719030000000007 17.2455136600000003 -0.1285865700000000 Au
atom 17.5401672799999986 17.1260298999999989 0.0202178800000000 Au
atom 19.8126881899999994 17.5853373600000005 0.0056318500000000 Au
atom 23.0825095699999991 17.2989969799999983 0.0989976400000000 Au
atom 25.8607124699999993 17.2866849599999988 0.0214176100000000 Au
atom 0.5585640500000000 17.2705008800000002 0.2344181800000000 Au
atom 3.2346098699999999 17.1670352199999989 0.1083569100000000 Au
atom 6.0135574800000002 17.3200898999999993 -0.2118750000000000 Au
atom 7.3799682999999998 19.7849457599999994 0.1572725700000000 Au
atom 10.2043560200000005 19.7521919399999994 -0.3101073400000000 Au
atom 13.1940877400000005 19.6686040899999988 -0.0065398200000000 Au
atom 15.7933422399999994 19.7981045400000006 -0.1589644000000000 Au
atom 18.8044071200000005 19.8425732199999985 -0.0454755100000000 Au
atom 21.5530957299999990 19.7369821999999999 -0.0948040700000000 Au
atom 24.5521156100000013 19.9344661999999992 0.0563189900000000 Au
atom 27.3882893900000006 19.6763939999999984 0.2384170100000000 Au
atom 1.7665939399999999 19.6283734699999997 0.1293173500000000 Au
atom 4.6025123099999998 19.8487965600000003 0.0286891900000000 Au
atom 8.9136403299999998 22.1398200299999992 -0.0519556600000000 Au
atom 11.7166288999999999 22.2401418200000016 0.1568188300000000 Au
atom 14.4394998599999997 22.2158159600000005 -0.1671610600000000 Au
atom 17.3529974799999991 22.1771162100000012 -0.0291101700000000 Au
atom 20.0626059000000012 21.9729269400000007 -0.0540138000000000 Au
atom 22.9969356400000002 22.0997053699999988 -0.0656698100000000 Au
atom 25.7796747800000006 22.2060308299999996 0.2261977300000000 Au
atom 0.4441774400000000 22.1862601700000006 -0.0085837300000000 Au
atom 3.3121492500000000 22.0347837599999998 0.2447095900000000 Au
atom 6.0221128799999999 22.1594054999999983 0.0859973400000000 Au
atom 7.5088513299999997 24.5223008799999995 -0.0873981700000000 Au
atom 10.2488124099999993 24.7210519799999986 0.1351066600000000 Au
atom 13.2418270600000003 24.7768030000000010 0.2058447300000000 Au
atom 16.1105191499999982 24.5969705500000018 0.0548439200000000 Au
atom 18.7561210799999998 24.6977135799999985 -0.0177843300000000 Au
atom 21.7602266399999991 24.7837938099999988 0.0361830800000000 Au
atom 24.3308787799999990 24.5382229400000007 -0.0184081100000000 Au
atom 27.0823406099999993 24.7207455100000004 0.3173575800000000 Au
atom 2.0001288700000002 24.7033473199999989 0.0455668600000000 Au
atom 4.6082919200000001 24.6417093899999990 0.2671868300000000 Au
atom 8.9789064799999991 27.2371480099999985 0.0865597200000000 Au
atom 11.8662891100000003 27.1767700900000015 -0.1148478600000000 Au
atom 14.5201183199999999 27.1978353499999983 -0.0604972300000000 Au
atom 17.2470102499999989 27.1860162099999982 0.1980449800000000 Au
atom 20.1490430600000003 27.0293618400000000 0.2450319800000000 Au
atom 23.0128849200000012 27.2017729000000017 0.2016849300000000 Au
atom 25.7143452100000012 27.0592085599999983 -0.0939043800000000 Au
atom 0.4767876300000000 27.1541590699999986 0.0694946300000000 Au
atom 3.2605625400000000 26.9884692199999989 0.0166553800000000 Au
atom 5.9235431299999997 27.0335847499999993 0.0279968200000000 Au
atom 7.4213605200000003 29.7336681399999989 -0.1095211600000000 Au
atom 10.2518221700000005 29.4868227300000001 0.0448238800000000 Au
atom 13.0366598499999995 29.6998229299999998 0.0415303500000000 Au
atom 16.0590339299999982 29.6536560300000005 0.0470319100000000 Au
atom 18.7106479800000010 29.6372561200000000 0.0774068700000000 Au
atom 21.5469968999999999 29.6444968799999984 0.0040219800000000 Au
atom 24.5403958600000003 29.5908979400000014 -0.0483306600000000 Au
atom 27.1131417900000002 29.5687967000000000 -0.1453688300000000 Au
atom 1.8269556199999999 29.5884240900000002 -0.0824673900000000 Au
atom 4.7278230399999996 29.7698778799999992 0.0426840700000000 Au
atom 8.8583500500000003 31.9849620799999990 -0.2160903600000000 Au
atom 11.6386408899999996 32.1040553300000013 -0.0042058500000000 Au
atom 14.6632032700000003 31.9938409300000011 0.2122344700000000 Au
atom 17.4492674299999990 31.9466694999999987 -0.1400911900000000 Au
atom 20.2825323799999993 32.0476172099999985 -0.0883518900000000 Au
atom 22.8800560100000006 32.0939101299999976 -0.1364012000000000 Au
atom 25.8236362499999998 31.9391136899999992 -0.0438084900000000 Au
atom 0.4416058500000000 31.8924659300000002 -0.0686461400000000 Au
atom 3.2228585100000000 32.0723284199999981 0.0907886100000000 Au
atom 6.1219384200000002 32.1534763900000016 -0.1196399300000000 Au
atom 7.4135705300000003 34.4193617299999985 -0.1143279900000000 Au
atom 10.2638877500000003 34.4762911199999991 -0.0904007400000000 Au
atom 13.1224249900000007 34.3805783999999974 0.0654900700000000 Au
atom 15.8894873600000004 34.4517956199999986 0.2107082200000000 Au
atom 18.8241917699999988 34.4542405799999969 -0.1951322500000000 Au
atom 21.6001230799999995 34.6022524999999987 -0.0093857900000000 Au
atom 24.6035022800000007 34.5327985300000009 0.0436424400000000 Au
atom 27.2907583900000006 34.5121648100000016 0.0101804200000000 Au
atom 1.7604982000000000 34.6073232299999987 -0.0287582800000000 Au
atom 4.7128486799999996 34.6043607200000025 -0.2020858800000000 Au
atom 9.0185084900000003 37.0821491100000031 0.1321583000000000 Au
atom 11.9016936300000005 36.9917868599999977 -0.0481032800000000 Au
atom 14.5852983500000004 37.1717558599999975 -0.0698264000000000 Au
atom 17.3579694300000007 37.0191958899999989 -0.0706551300000000 Au
atom 20.2494698799999995 37.1005407099999971 0.0067603600000000 Au
atom 22.7891832000000001 37.0016526799999994 0.0936165000000000 Au
atom 25.8223962399999998 37.0560021200000023 -0.0038592600000000 Au
atom 0.5551393200000000 36.9248020699999984 -0.1298253600000000 Au
atom 3.2140445299999998 36.9190119300000035 0.2047762700000000 Au
atom 6.1238071200000004 36.8473377999999983 0.0220527400000000 Au
atom 7.4786590000000004 0.1047169900000000 0.2010209900000000 Au
atom 10.2491382400000006 0.0618186800000000 0.2920350600000000 Au
atom 12.9968773100000003 -0.1538313700000000 0.2397842800000000 Au
atom 15.9416006100000001 0.1876370700000000 0.0177776300000000 Au
atom 18.8636341600000002 0.0376890000000000 0.1039849100000000 Au
atom 21.5287194500000005 0.0766946000000000 0.1526159500000000 Au
atom 24.3542371899999992 0.0268889700000000 0.0003473800000000 Au
atom 27.3578525799999994 -0.2510306900000000 0.1182630200000000 Au
atom 1.8363858300000000 0.2205954100000000 0.1767807200000000 Au
atom 4.5724051000000001 0.0017002100000000 0.1537500200000000 Au
atom 8.8285877100000008 2.4033596500000001 0.0273350300000000 Au
atom 11.7623607600000000 2.5984415500000000 0.3159361200000000 Au
atom 14.3779600399999996 2.5010723300000000 0.2457828300000000 Au
atom 17.2819796699999984 2.4157159600000000 -0.0959884500000000 Au
atom 20.3752572500000007 2.4776073799999998 -0.1284837400000000 Au
atom 22.8470921199999992 2.4270747600000000 0.1610087100000000 Au
atom 26.0448949200000008 2.3475008599999998 0.2042196100000000 Au
atom 0.6093322000000000 2.5332310699999998 -0.1139347100000000 Au
atom 3.2419643300000001 2.5509378500000000 0.0013315700000000 Au
atom 6.1378751500000002 2.4745808600000001 -0.0326661100000000 Au
atom 7.6179294300000002 5.0763595199999996 0.1732905800000000 Au
atom 10.2838786199999994 4.9246878699999996 -0.0700100200000000 Au
atom 13.1536886499999994 5.0715848000000001 -0.0832358200000000 Au
atom 15.8419749599999999 5.0226071799999996 0.1086714100000000 Au
atom 18.7393283900000007 4.9230999500000001 0.2048749300000000 Au
atom 21.5692610400000007 4.9112517799999997 0.3372352800000000 Au
atom 24.3996423299999989 5.0535699799999998 0.0284966300000000 Au
atom 27.1698336299999994 4.9344381600000000 0.1262207200000000 Au
atom 1.7294957799999999 4.9226642099999998 0.2267202800000000 Au
atom 4.7076607499999996 4.8809335400000000 0.1883808400000000 Au
atom 8.8487339899999995 7.2738443500000001 0.0750287200000000 Au
atom 11.8759279499999995 7.5293949400000004 -0.0252545700000000 Au
atom 14.5276469600000002 7.2972215599999997 0.0793010700000000 Au
atom 17.4996563700000003 7.4048530299999999 0.0672438900000000 Au
atom 20.2434665000000003 7.3250095200000001 -0.0878809200000000 Au
atom 23.1164798900000008 7.2314347699999999 0.0633973400000000 Au
atom 25.5994452999999993 7.5544358500000000 0.0133389500000000 Au
atom 0.5104333700000000 7.4529784599999997 0.1220701800000000 Au
atom 3.2682473800000000 7.3577029300000003 0.2152281500000000 Au
atom 6.0110705700000002 7.2411338900000004 0.0249092800000000 Au
atom 7.5656314499999997 10.0613583500000008 0.0294825600000000 Au
atom 10.2208946500000000 9.6969593500000002 0.0174274800000000 Au
atom 13.1481306300000007 9.7334631500000004 -0.0399900700000000 Au
atom 16.0821304199999986 9.8300232899999997 0.0308343500000000 Au
atom 18.7120626500000000 9.7739922499999992 -0.0179946500000000 Au
atom 21.4856280899999987 9.8938649400000003 -0.0033896200000000 Au
atom 24.4624617300000011 9.8903330000000000 0.2368531900000000 Au
atom 27.1595842099999984 9.7592703299999997 0.3372875100000000 Au
atom 1.9393423999999999 9.9420315000000006 0.0933111800000000 Au
atom 4.9188228100000000 9.9833851199999994 0.1257377400000000 Au
atom 8.9134288399999999 12.2558842400000003 -0.0396740400000000 Au
atom 11.9200843200000008 12.1910384999999994 -0.2624518900000000 Au
atom 14.5915702700000001 12.2231531300000000 -0.0304143300000000 Au
atom 17.4069831499999985 12.4413905099999997 -0.0607394100000000 Au
atom 20.1991444800000011 12.3382409400000004 -0.1962842600000000 Au
atom 23.0390816100000002 12.4381294100000002 -0.1011320300000000 Au
atom 25.6619278999999985 12.2105454800000004 -0.0587370400000000 Au
atom 0.3977791900000000 12.4555228000000007 -0.1873511400000000 Au
atom 3.1823462800000000 12.3510654800000008 0.1364891900000000 Au
atom 6.0673679700000003 12.3109176999999992 0.1169304100000000 Au
atom 7.3840913800000001 13.2456397999999993 2.4487271700000002 Au
atom 10.3536805800000007 13.3714937900000006 2.3768675799999999 Au
atom 13.0539643800000000 13.1950514499999993 2.4771013700000002 Au
atom 15.8851989000000007 13.3067375200000004 2.6777271900000001 Au
atom 18.7093330599999987 13.0930007100000001 2.5758864300000002 Au
atom 21.5023104600000003 13.3000111899999993 2.6144353200000001 Au
atom 24.2754892499999997 13.2435092099999991 2.5436467399999998 Au
atom 27.0480686000000006 13.0268990900000006 2.5224321199999999 Au
atom 1.6313961800000001 13.3499289900000004 2.7875895399999999 Au
atom 4.6314547199999998 12.9622891199999994 2.6328512200000000 Au
atom 8.9402758500000008 15.9579731000000002 2.5540059799999999 Au
atom 11.6766739000000008 15.6393160000000009 2.4559213999999998 Au
atom 14.5084716399999998 15.7173064399999998 2.8107956999999999 Au
atom 17.2698647299999983 15.5135854799999997 2.6183131099999999 Au
atom 20.3137066399999995 15.5739045800000007 2.3883586299999999 Au
atom 22.9454007400000002 15.7348956999999992 2.6013105599999999 Au
atom 25.7792944700000000 15.7470348599999994 2.5468580099999998 Au
atom 0.4723427000000000 15.5408994299999996 2.8063622700000002 Au
atom 3.2294248900000002 15.8646373399999998 2.7213723500000002 Au
atom 6.1277927800000001 15.4682094299999999 2.3369164100000002 Au
atom 7.4034440600000000 17.9302908300000006 2.8643080500000000 Au
atom 10.4507417999999994 18.3763828999999994 2.3137389100000001 Au
atom 13.2066984900000008 18.0428396999999983 2.6104704800000000 Au
atom 15.9312817800000008 18.1998279200000006 2.3216774999999998 Au
atom 18.8695610599999988 18.0600211199999983 2.5007088400000002 Au
atom 21.7319732899999991 18.0895386999999985 2.5245517899999999 Au
atom 24.3751911499999991 18.1948359099999983 2.9852232500000002 Au
atom 27.3059234000000011 18.1163842200000005 2.7941714100000001 Au
atom 1.9562552000000000 17.9305599700000009 2.6538337099999998 Au
atom 4.7739417099999999 18.2108612600000015 2.6844106100000000 Au
atom 9.1279213699999993 20.4718349099999983 2.7528983800000000 Au
atom 11.7331955299999997 20.6340212500000000 2.6342675000000000 Au
atom 14.4561226299999994 20.4724525499999999 2.5416346999999999 Au
atom 17.4267653500000002 20.5050693099999997 2.5539883799999998 Au
atom 20.1932921999999984 20.5110401499999995 2.5327808900000002 Au
atom 22.9010871199999997 20.4464302700000005 2.7251516100000002 Au
atom 25.9855236699999992 20.6246804099999999 2.5736024899999999 Au
atom 0.4892357600000000 20.6451720999999999 2.6879300399999999 Au
atom 3.2622172100000002 20.5705009499999996 2.6545491100000000 Au
atom 6.2415763999999996 20.6241820000000011 2.8755154799999998 Au
atom 7.5955044500000000 23.2469434799999988 2.6600883199999998 Au
atom 10.3318074200000005 23.1559197599999997 2.9038194200000000 Au
atom 13.0598577500000008 23.1268212400000017 2.6846174600000001 Au
atom 15.8798445000000008 23.0802688099999997 2.4833721700000000 Au
atom 18.9578186200000012 23.1157670800000012 2.6241645999999998 Au
atom 21.5575020200000012 23.1319930999999990 2.6125311800000000 Au
atom 24.6004609199999997 23.1447283800000001 2.7870359599999999 Au
atom 27.4759162500000009 23.0228885900000009 2.8152231099999998 Au
atom 1.8374337199999999 22.9132113900000007 2.5558427500000001 Au
atom 4.7170632699999997 23.1048887299999990 2.7407121600000002 Au
atom 8.8826399899999995 25.5317519399999995 2.5175266299999999 Au
atom 11.5848625900000002 25.6684538499999988 2.6954016200000002 Au
atom 14.7117644999999992 25.4806554600000013 2.5972266300000002 Au
atom 17.2863940800000009 25.3940388800000001 2.8458396200000000 Au
atom 20.2586938500000002 25.5456672699999991 2.6675848000000002 Au
atom 23.0760038799999982 25.5894674699999989 2.7713603299999998 Au
atom 25.8222786999999983 25.5959463099999986 2.4320310100000002 Au
atom 0.6202840200000000 25.5567610400000014 2.5213363499999999 Au
atom 3.2449853599999998 25.5767555599999987 2.6146018899999999 Au
atom 6.0817861200000003 25.6779743499999995 2.9315107999999999 Au
atom 7.4123542699999998 27.8637274700000006 2.5380467100000002 Au
atom 10.5870749499999999 27.8746140199999992 2.5430223900000000 Au
atom 13.2315840999999992 28.1267262199999983 2.5666471999999998 Au
atom 16.0923050500000002 28.0186827100000002 2.8947452600000001 Au
atom 18.9983244000000013 28.0335373799999985 2.6130566800000001 Au
atom 21.4315535299999986 27.9355064499999983 2.7570469800000001 Au
atom 24.4892390000000013 28.1239646599999986 2.7603259800000002 Au
atom 27.2485529699999987 28.0763148300000012 2.8001647799999998 Au
atom 1.9478056100000001 28.1793561799999992 2.7127255500000000 Au
atom 4.7286945700000000 28.0590519200000017 2.8083453999999999 Au
atom 8.8988046999999995 30.5998615200000010 2.7080349799999999 Au
atom 11.8520984100000000 30.4876614199999985 2.7750594400000002 Au
atom 14.5078370799999998 30.5415164799999985 2.5608030300000002 Au
atom 17.4203689799999992 30.4877755700000002 2.7006066199999998 Au
atom 20.2899681899999997 30.4625603200000015 2.7554659699999999 Au
atom 23.0439072600000010 30.5263894499999999 2.5417429100000000 Au
atom 25.6865880900000008 30.6098640899999985 2.7033282000000001 Au
atom 0.4228334700000000 30.6183582799999989 2.4672817100000000 Au
atom 3.1811998300000002 30.6271085300000010 2.7099760300000000 Au
atom 6.0909181200000004 30.4971504499999995 2.7768151500000000 Au
atom 7.5961523199999998 32.9786268200000023 2.7537236599999999 Au
atom 10.2831131500000001 33.0545132000000024 2.3321164200000002 Au
atom 13.0736618599999996 33.0245986999999985 2.5682437700000000 Au
atom 15.9587717700000002 32.9757086999999984 2.5836691500000000 Au
atom 18.6512340600000002 32.8712070199999999 2.5519677100000000 Au
atom 21.5660468999999999 33.0833668100000011 2.5065430300000000 Au
atom 24.4335296399999997 32.8077263200000004 2.6363637700000000 Au
atom 27.2104889800000009 32.8863672100000031 2.5169246799999998 Au
atom 1.9534717900000000 32.8819973000000019 2.5926617400000000 Au
atom 4.6285764000000000 33.2352131499999999 2.6428327899999999 Au
atom 8.9939786799999997 35.6280803900000009 2.5882907500000001 Au
atom 11.8114759399999993 35.3306102100000032 2.6404318400000002 Au
atom 14.4699126099999997 35.2658010600000011 2.5688481200000002 Au
atom 17.3816076200000005 35.4105149800000021 2.5092497499999999 Au
atom 20.1407182400000018 35.3480084099999985 2.7306505699999999 Au
atom 22.8734841600000003 35.4815301800000000 2.6690217899999999 Au
atom 25.7682097600000013 35.6102758299999991 2.8056946100000002 Au
atom 0.5358303700000000 35.2670042299999977 2.4317520199999998 Au
atom 3.3101844100000002 35.5467323800000017 2.6102221000000001 Au
atom 6.1760130999999996 35.4987383699999981 2.5468869800000000 Au
atom 7.7016396499999997 38.0357968000000000 2.6828252099999998 Au
atom 10.2413211600000000 37.9435220399999977 2.6216451500000000 Au
atom 13.2348362500000007 37.8438183600000002 2.5137843900000001 Au
atom 15.9073628399999993 37.7628059899999968 2.7995792200000000 Au
atom 18.7137311799999999 37.8802290200000016 2.6948994399999999 Au
atom 21.6353991500000014 37.6961464700000022 2.6819469400000000 Au
atom 24.2405940700000002 37.8433711500000030 2.6211768100000001 Au
atom 27.2739491600000008 37.8711425799999972 2.7034490500000001 Au
atom 1.8734243399999999 37.9377453900000035 2.5171069099999999 Au
atom 4.5079771099999997 37.8981320800000034 2.7882444799999999 Au
atom 9.0194226200000003 0.8634533000000000 2.7771976999999999 Au
atom 11.6658219899999995 0.9132554000000001 2.7079682900000002 Au
atom 14.4618552699999992 0.8362152000000000 2.7831868100000001 Au
atom 17.4693461399999990 0.6666516500000000 2.6943107099999999 Au
atom 20.1422940399999995 0.9054400500000001 2.7195541400000001 Au
atom 22.9256576800000005 0.8719275500000000 2.9026407900000000 Au
atom 25.8310909700000018 0.8272542700000000 3.0923084099999998 Au
atom 0.4719237900000000 0.8508355300000000 2.6064701200000000 Au
atom 3.1801393500000001 1.0624721500000001 2.4825057699999999 Au
atom 5.8760144700000003 0.7552186000000000 2.8249698400000001 Au
atom 7.4814472099999998 3.4090894899999999 2.6748042100000000 Au
atom 10.3358878399999998 3.3214725600000001 2.5313901900000002 Au
atom 13.1229544300000001 3.4297742000000002 2.7185245800000000 Au
atom 15.8086071100000005 3.4326035099999999 2.6697803000000002 Au
atom 18.7548952799999995 3.2769116299999999 2.4973398599999999 Au
atom 21.4655085700000008 3.3251293999999998 2.7499864900000000 Au
atom 24.2503062299999996 3.1624118100000000 2.7309163700000001 Au
atom 27.3933133899999994 3.3242602799999998 2.5731824599999999 Au
atom 1.9836632599999999 3.2393776299999999 2.4397495100000000 Au
atom 4.5949637799999996 3.2579628399999998 2.7238942300000000 Au
atom 9.1849111099999998 5.7336681299999999 2.5776145399999999 Au
atom 11.6961625799999993 5.6981146400000000 2.8339053900000000 Au
atom 14.5782117000000007 5.8688826699999996 2.7308224100000000 Au
atom 17.5121072600000005 5.8957447299999997 2.5523093600000002 Au
atom 20.2507066800000004 5.9077407300000004 2.7897076699999999 Au
atom 23.0207832500000009 5.8171488000000000 2.7693693000000001 Au
atom 25.9260264800000009 5.6760385700000002 2.8613378799999998 Au
atom 0.5703519200000000 5.7767155099999998 2.8069569900000002 Au
atom 3.3362027900000002 5.8861050099999996 2.6747071400000002 Au
atom 5.9702327899999998 5.7734474899999997 2.6499291999999999 Au
atom 7.5457547800000002 8.4984464800000001 2.7182251900000001 Au
atom 10.3882659999999998 8.1906952900000007 2.5416495100000001 Au
atom 13.1816776200000003 8.0990460700000000 2.6102746799999998 Au
atom 15.8911419299999999 8.3969461699999997 2.8295790099999998 Au
atom 18.8780543799999982 8.3894742099999995 2.5621762600000002 Au
atom 21.6505439300000013 8.1817135099999998 2.5316022500000002 Au
atom 24.3989693199999991 8.2123555400000008 2.7556343999999999 Au
atom 27.2801045500000008 8.2044945400000007 2.6486875799999998 Au
atom 2.0235874800000002 8.2813848100000005 2.4673629400000001 Au
atom 4.8274109100000002 8.1202095300000003 2.8442138199999998 Au
atom 9.0155844399999996 10.5213373600000004 2.6028266100000002 Au
atom 11.6287625499999994 10.7272801199999996 2.6993714299999998 Au
atom 14.5366289700000006 10.8458269699999992 2.5467413900000002 Au
atom 17.3379927999999985 10.8683594400000008 2.7927726000000002 Au
atom 20.1446364899999999 10.6692666999999997 2.6440354699999999 Au
atom 23.1003194000000001 10.7561494900000003 2.6934381200000002 Au
atom 25.7550940200000014 10.6712417700000000 2.6877136600000000 Au
atom 0.4718587300000000 10.5708531200000007 2.7086192200000001 Au
atom 3.4906341699999999 10.8345306899999994 2.6113582399999999 Au
atom 6.3229649800000001 10.6458540799999994 2.5872118700000000 Au
atom 7.5073465099999996 13.1168699699999998 5.8676287599999997 Cl
atom 7.6831482700000002 16.0466870700000008 8.6147679099999994 Cl
atom 7.4557653799999999 13.2179971799999993 8.5077636900000009 Na
atom 7.6057218899999999 16.0370724600000010 6.0828655400000002 Na
atom 7.5184703600000002 18.6012594600000014 5.6996815999999999 Cl
atom 7.5103158199999998 21.7976020400000010 8.8144904999999998 Cl
atom 7.5447715000000004 18.6934828499999988 8.3253200799999991 Na
atom 7.4088717099999997 21.4657800999999999 5.7337625299999999 Na
atom 7.7693224000000001 24.3509181800000007 5.8096857799999997 Cl
atom 7.7211331200000002 27.2900023099999984 8.4601156900000003 Cl
atom 7.5027418199999998 24.5002342999999989 8.3665065799999994 Na
atom 7.6750605299999997 27.2291445500000009 5.8071127699999998 Na
atom 7.3678678900000003 30.1528616999999990 5.8162004999999999 Cl
atom 7.3175493999999999 32.9054138199999997 8.6359326799999998 Cl
atom 7.4200982299999998 30.0244278400000013 8.5499842499999996 Na
atom 7.4027848399999998 33.0961124600000005 5.9846225500000001 Na
atom 7.3811849599999997 35.7834200599999974 5.7849202200000001 Cl
atom 7.7245964200000001 38.4968111499999992 8.7303938100000007 Cl
atom 7.4651573600000001 35.6407937199999978 8.4429972000000006 Na
atom 7.4029565200000000 38.6388697900000011 5.8696523300000001 Na
atom 7.6313127700000001 1.9271720999999999 5.8305505300000000 Cl
atom 7.5344610200000002 4.7352945200000001 8.7344554799999994 Cl
atom 7.5532370100000001 1.9989258100000000 8.4339456399999992 Na
atom 7.3998601800000001 4.8005193300000002 5.7716042200000004 Na
atom 7.4954265600000003 7.4214363700000003 5.8300476000000003 Cl
atom 7.3709488500000004 10.1075115499999999 8.6225373399999992 Cl
atom 7.1571292499999997 7.2625285899999996 8.3864133499999998 Na
atom 7.5263643800000004 10.2825185200000000 6.0810097399999998 Na
atom 10.3937232099999992 12.9736487500000006 5.9546853899999999 Na
atom 12.9978620500000002 13.1949666099999998 5.9725560900000003 Cl
atom 10.3339848700000001 15.8712901300000002 8.1204467400000002 Na
atom 13.2964344499999996 15.8077675299999996 8.7223059299999992 Cl
atom 13.0548017600000001 13.1791446499999996 8.4321772100000008 Na
atom 10.3798156200000005 13.2331188199999996 9.0372954900000000 Cl
atom 13.2559100799999996 16.0058507699999986 5.6506122999999997 Na
atom 10.3500026900000002 15.9657370499999995 5.8891174499999996 Cl
atom 10.2218687700000004 18.9010964799999996 6.0343938200000000 Na
atom 12.8174755299999994 18.5517573700000007 5.5943828699999996 Cl
atom 10.2703346100000008 21.5873860399999984 8.3826463499999999 Na
atom 13.2030188200000005 21.3932483699999985 8.3481068500000006 Cl
atom 13.0873430899999992 18.8365043099999987 8.3256213700000004 Na
atom 10.3365174700000004 18.6087663899999995 8.5372488099999995 Cl
atom 13.0149712100000006 21.5504390299999997 5.7202616099999997 Na
atom 10.1816881299999995 21.5047229199999990 5.8842142099999997 Cl
atom 10.3229327600000005 24.3754787600000000 5.7461875400000002 Na
atom 13.1187564699999992 24.3547712800000014 5.7157239999999998 Cl
atom 10.3639446399999997 27.3959860299999995 8.5509086300000003 Na
atom 12.9643105799999994 27.4912413099999995 8.7384218300000001 Cl
atom 13.0616608700000008 24.3025060500000016 8.2559760299999994 Na
atom 10.4056787600000007 24.3409290899999995 8.5913748499999993 Cl
atom 13.1404758600000005 27.3011865399999998 6.0057980799999999 Na
atom 10.5778924100000005 27.1260092899999989 5.6802980099999996 Cl
atom 10.5291001200000007 29.8687808299999986 5.8465958400000000 Na
atom 13.2770621000000002 29.8929171099999991 5.8570287199999997 Cl
atom 10.3176303100000002 32.9425499299999984 8.3589157099999998 Na
atom 13.0608982299999994 32.9535093599999982 8.5422173000000008 Cl
atom 13.3671256100000004 29.9912785500000005 8.6850612700000003 Na
atom 10.3170381100000004 30.1872802299999989 8.8078700500000000 Cl
atom 13.0886513900000008 33.0119063300000022 5.9095038200000003 Na
atom 10.3177547199999999 33.0075990699999977 5.7343710799999998 Cl
atom 10.1501935700000008 35.6950713399999984 5.8946220499999997 Na
atom 13.4194878400000004 35.7909040799999971 5.7538495300000001 Cl
atom 10.3179675300000007 38.6557721599999979 8.3871575699999994 Na
atom 12.9939739400000001 38.6347523900000027 8.5425365600000003 Cl
atom 13.3897011199999998 36.0401480199999966 8.6066183299999999 Na
atom 10.3501271500000005 35.9223398500000002 8.8889249299999999 Cl
atom 13.1519784099999999 38.5475715199999982 5.7080424599999997 Na
atom 10.2468468599999998 38.5853571999999971 5.6161735200000003 Cl
atom 10.3499383399999996 1.6951647900000000 5.9157952500000004 Na
atom 13.2573273300000007 1.9229511100000001 5.7738830400000003 Cl
atom 10.3718979999999998 4.7387584100000000 8.5211625800000004 Na
atom 13.1048664699999993 4.6957529100000004 8.7585730099999992 Cl
atom 12.9438329000000003 1.9409733600000001 8.4720893000000004 Na
atom 10.2902649200000003 1.9596541000000001 8.5678488700000006 Cl
atom 13.0703034500000008 4.8875115899999999 5.9406892100000004 Na
atom 10.2033903000000006 4.7313636099999998 5.8297645400000002 Cl
atom 10.3673079799999996 7.5274989600000000 5.8461980499999999 Na
atom 13.0416481399999995 7.3545666299999999 5.8045136900000003 Cl
atom 10.2714068800000007 10.2644701900000008 8.5414354899999996 Na
atom 13.5309859499999998 10.4649252799999992 8.5712453600000007 Cl
atom 13.2959591699999997 7.3547139899999996 8.5194498099999993 Na
atom 10.1562652199999999 7.4466492999999998 8.6285859200000008 Cl
atom 13.0885797600000000 10.4326530200000001 5.9162285700000004 Na
atom 10.2124763200000004 10.1995152099999995 5.8800472800000003 Cl
atom 15.8814903699999999 13.1293475100000006 5.8283495099999998 Na
atom 18.7456295399999995 13.0409049699999997 5.7236530300000004 Cl
atom 15.8673387100000003 15.8863515399999997 8.2540868900000000 Na
atom 18.7104036600000008 15.9014191500000006 8.3810613000000007 Cl
atom 18.9817468200000015 13.1754936499999999 8.1606505800000004 Na
atom 15.8839206799999992 13.0452250700000008 8.4993892599999992 Cl
atom 18.9101569400000002 16.0145475600000005 5.6320235800000003 Na
atom 16.0079075400000015 15.9402119899999999 5.3869259200000004 Cl
atom 15.8991254600000005 18.7569311600000006 5.7035289100000002 Na
atom 18.6750630700000002 18.7478426499999991 5.6163204200000001 Cl
atom 15.9693296100000008 21.5833708599999987 8.5333933000000002 Na
atom 18.9025819000000013 21.9056276600000004 8.8102487800000002 Cl
atom 18.6256483199999998 18.7102466499999984 8.2763665000000000 Na
atom 15.8658409000000002 19.0008363200000012 8.4448843199999999 Cl
atom 18.7325992700000015 21.4287833899999995 5.9070149100000000 Na
atom 15.7938197099999993 21.5522725999999984 5.7716753900000004 Cl
atom 15.9078900300000008 24.3705600199999992 5.7484241699999998 Na
atom 18.6653954700000000 24.4949502800000012 5.8651318500000000 Cl
atom 15.9379405700000003 27.4338773799999984 8.6135243999999993 Na
atom 18.9379011999999989 27.1608362999999997 8.8109818900000008 Cl
atom 18.8782431200000005 24.3370105099999989 8.5719522700000006 Na
atom 15.8706563700000007 24.5644026300000000 8.7547343899999994 Cl
atom 18.7805686999999999 27.2488834500000010 6.0307053300000000 Na
atom 16.1703620800000003 27.3344986600000013 6.1149855999999998 Cl
atom 16.0542306000000004 29.8520266599999999 5.8290063999999999 Na
atom 18.5443546899999987 29.9034077499999995 5.9392788799999998 Cl
atom 15.6759651400000006 32.9784200499999969 8.6156124399999996 Na
atom 18.6003502300000001 32.9510966400000029 8.5758922599999998 Cl
atom 18.8027794499999992 30.0551481500000008 8.6719423399999993 Na
atom 16.0108730500000007 30.2507325099999989 8.7119859900000005 Cl
atom 18.7430273499999984 32.7617862099999968 5.8638791899999996 Na
atom 15.9785047200000001 32.9827531500000006 5.8512719500000001 Cl
atom 15.9838611600000000 35.7983264200000022 5.9214467300000004 Na
atom 18.7347671099999999 35.6929998199999972 5.6810362899999998 Cl
atom 15.9435434899999997 38.4459085800000011 8.3548832900000001 Na
atom 18.8855226499999986 38.3757408800000022 8.6982088300000004 Cl
atom 18.7149339599999998 35.7096780999999979 8.3264147899999994 Na
atom 15.8514399499999996 35.8369130199999972 8.8429844299999996 Cl
atom 18.7853167899999995 38.4688787500000018 5.7108917200000002 Na