#===============================================================================
# Created using the Atomic Simulation Environment (ASE)

# Tue Dec 23 21:42:38 2025

#=======================================================
lattice_vector 28.1999999999999993 0.0000000000000000 0.0000000000000000 
lattice_vector 0.0000000000000000 39.4799999999999969 0.0000000000000000 
lattice_vector 0.0000000000000000 0.0000000000000000 62.3296083400000001 
atom 7.5443506400000002 14.8501542999999998 -0.2780960200000000 Au
atom 10.2793229999999998 14.9012938899999998 0.0889353300000000 Au
atom 13.1054957200000004 14.8833074199999995 0.1647330800000000 Au
atom 15.9756905400000004 14.8246376099999999 0.0633712000000000 Au
atom 18.8563812000000013 14.8805664600000007 -0.3401847800000000 Au
atom 21.6603130600000000 14.8960080599999998 -0.3134439000000000 Au
atom 24.5293135999999983 14.9224595999999998 -0.3376420300000000 Au
atom 27.3873986299999999 14.9095239500000005 -0.4189948700000000 Au
atom 1.8220877200000001 14.8720738400000005 -0.1694927500000000 Au
atom 4.7282025499999998 14.8187067799999994 -0.1558935800000000 Au
atom 8.9574773400000005 17.3470462300000001 -0.0012925000000000 Au
atom 11.8052422600000000 17.3635912599999997 -0.0049195200000000 Au
atom 14.6354630199999995 17.2671444600000008 -0.2202141400000000 Au
atom 17.4735422100000015 17.3105635100000015 -0.1767481500000000 Au
atom 20.2408432699999992 17.3844700799999998 -0.4703383300000000 Au
atom 23.0625141000000013 17.3365778199999987 -0.1410740600000000 Au
atom 25.9462416900000008 17.4320017199999988 -0.1050703000000000 Au
atom 0.4944298200000000 17.3571926599999991 0.0804584300000000 Au
atom 3.2682499800000002 17.3031988299999995 0.0611853800000000 Au
atom 6.0940378099999997 17.2343395199999989 -0.1745832900000000 Au
atom 7.5224845800000004 19.7678218000000001 -0.0321526000000000 Au
atom 10.3453557299999996 19.7794548600000013 -0.1478578600000000 Au
atom 13.3222122800000005 19.7472842200000009 -0.0813474500000000 Au
atom 16.0704603900000009 19.7848472400000013 -0.1767507500000000 Au
atom 18.8222494500000010 19.9325316299999997 -0.2512642800000000 Au
atom 21.6436036300000012 19.8816234200000004 -0.0249420200000000 Au
atom 24.4147251300000008 19.8080601600000001 0.2842906900000000 Au
atom 27.2644050500000006 19.8908931500000001 0.2808777700000000 Au
atom 1.8954241400000000 19.8258136699999987 0.3380392200000000 Au
atom 4.6510895300000001 19.7126696099999990 -0.0205565400000000 Au
atom 8.9346945000000009 22.2129721599999996 -0.1695021400000000 Au
atom 11.8125231100000008 22.0767217299999992 -0.0876911200000000 Au
atom 14.6303953399999997 22.2858157599999984 -0.0829247800000000 Au
atom 17.4461372499999996 22.2689941900000008 0.2027496000000000 Au
atom 20.2061661800000003 22.4408362600000011 0.1477696800000000 Au
atom 23.0137927500000004 22.3107531700000017 0.4142985300000000 Au
atom 25.7344467200000011 22.2931303199999995 0.2888407100000000 Au
atom 0.3856579800000000 22.3052690200000008 0.4411656600000000 Au
atom 3.3520808500000001 22.2703549400000007 0.3079387100000000 Au
atom 6.1386792699999999 22.2840979899999994 0.1399778800000000 Au
atom 7.5650978400000000 24.6390134900000000 -0.0545246400000000 Au
atom 10.5199180400000003 24.6112641699999983 -0.0700974700000000 Au
atom 13.2383745499999996 24.7892077600000000 0.0833343000000000 Au
atom 16.0038595199999989 24.7753541400000010 0.2218665300000000 Au
atom 18.8124647299999985 24.7404638000000006 0.5669909200000000 Au
atom 21.6140157899999998 24.7382494100000017 0.5324155300000000 Au
atom 24.4521176400000009 24.7622839900000002 0.4471883600000000 Au
atom 27.2618165499999989 24.7955108899999992 0.2349385200000000 Au
atom 1.8786634400000000 24.6807576299999987 0.4260211600000000 Au
atom 4.7046121000000003 24.7315053599999999 0.0382854100000000 Au
atom 8.9764120500000004 27.0928954699999984 -0.2415713800000000 Au
atom 11.7021084999999996 27.2030313100000001 -0.2494436300000000 Au
atom 14.6508551499999999 27.1580071499999995 -0.0613546400000000 Au
atom 17.4173489000000004 27.1752667499999987 0.2177150200000000 Au
atom 20.2671566399999996 27.2133938300000011 0.2331222400000000 Au
atom 23.0395193800000015 27.2266115100000015 0.0711406200000000 Au
atom 25.8088931700000010 27.2138205900000010 0.0837724400000000 Au
atom 0.5212603000000000 27.1140993100000003 0.2215844100000000 Au
atom 3.3369566499999999 27.1064905100000004 0.2280053000000000 Au
atom 6.2000526000000002 27.1304216300000007 -0.1042749900000000 Au
atom 7.4972857700000004 29.6493737999999993 -0.1178809600000000 Au
atom 10.2705058699999991 29.6228235700000013 -0.1716898100000000 Au
atom 13.2377076200000001 29.6638823500000015 -0.2488584700000000 Au
atom 16.0742155699999998 29.6542381699999993 -0.1262391700000000 Au
atom 18.8419262699999983 29.6617306700000007 -0.1427687000000000 Au
atom 21.6534007399999986 29.6967785999999982 -0.0065641000000000 Au
atom 24.4702073800000015 29.7379013800000003 0.2378041800000000 Au
atom 27.3089064999999991 29.7156781400000014 -0.1738566800000000 Au
atom 1.8650157500000000 29.5109135800000004 0.1039671600000000 Au
atom 4.6574773900000004 29.5923738999999983 -0.0677990400000000 Au
atom 8.8591816199999993 32.0800127500000016 -0.1725543800000000 Au
atom 11.6846211400000008 32.0631386700000007 -0.1342595100000000 Au
atom 14.5625732800000005 32.1502851899999982 -0.2269779900000000 Au
atom 17.3356643699999999 32.1394857700000003 -0.1488518800000000 Au
atom 20.3030262899999983 32.1763221799999997 0.0892294100000000 Au
atom 22.9973306199999996 32.1299844699999966 0.2913943700000000 Au
atom 25.8335014500000000 32.2154789499999978 -0.1416661500000000 Au
atom 0.4940307800000000 32.1737808399999992 0.1413940500000000 Au
atom 3.2807615499999998 31.9820193400000008 0.0972914800000000 Au
atom 6.1435575499999997 32.1120717100000022 0.1167239600000000 Au
atom 7.5527017399999998 34.5938257099999973 -0.1904894200000000 Au
atom 10.3369205300000004 34.6019735100000005 -0.0782835700000000 Au
atom 13.1793755200000007 34.6331539600000013 -0.2534549900000000 Au
atom 16.0492737900000009 34.5627948799999984 -0.2322238300000000 Au
atom 18.7822276499999994 34.6437824200000009 0.0059957300000000 Au
atom 21.5498889300000016 34.5672935799999976 0.1423402000000000 Au
atom 24.3777591300000012 34.6672993199999979 0.1469707100000000 Au
atom 27.1706831400000013 34.6496750499999990 0.0958416700000000 Au
atom 1.8663426700000001 34.6588474599999969 -0.1104131400000000 Au
atom 4.6902514899999996 34.5719983400000004 -0.2175655400000000 Au
atom 8.8734518900000001 36.9765823099999977 -0.0182391500000000 Au
atom 11.7456030800000004 37.0379959200000002 -0.1293920200000000 Au
atom 14.5116359399999997 37.0456783699999974 -0.1088911700000000 Au
atom 17.2669001000000009 37.0027888400000009 0.1212608000000000 Au
atom 20.1674684299999996 37.0694951799999970 0.1121672700000000 Au
atom 22.9060822600000016 37.0162014100000007 0.0776923000000000 Au
atom 25.8495879200000012 37.1166932599999981 -0.1560424300000000 Au
atom 0.4900496100000000 37.0860375600000012 -0.1342199400000000 Au
atom 3.2820469100000000 37.1535574099999977 -0.1506407500000000 Au
atom 6.0907101600000004 37.2097312499999973 -0.1236781900000000 Au
atom 7.5220595000000001 0.0996015000000000 -0.0351176300000000 Au
atom 10.2477054800000005 0.0295422400000000 -0.0811236600000000 Au
atom 13.1741471499999996 0.0567212700000000 -0.1384423100000000 Au
atom 16.0100973300000007 0.0121162300000000 0.1582837200000000 Au
atom 18.7996449100000014 0.0577100300000000 0.1563548600000000 Au
atom 21.6351425000000006 -0.0013058200000000 0.2141563800000000 Au
atom 24.4623046200000012 0.1351326400000000 -0.0657641600000000 Au
atom 27.2837304200000013 0.1200125700000000 -0.0493833700000000 Au
atom 1.8851082800000001 0.1051435900000000 -0.2762034200000000 Au
atom 4.5971078900000002 0.0832326200000000 0.2009749700000000 Au
atom 8.8385822800000007 2.5817160700000001 -0.0910807100000000 Au
atom 11.7314805999999994 2.5117751400000001 -0.0055854600000000 Au
atom 14.4822192899999997 2.4545814500000001 0.2231502700000000 Au
atom 17.3298924300000010 2.4772983000000002 -0.0228499800000000 Au
atom 20.1846786199999997 2.5113151299999998 -0.0256855700000000 Au
atom 23.0568301300000016 2.4904391600000002 0.3365725200000000 Au
atom 25.9060488800000002 2.5223298299999999 0.0014199100000000 Au
atom 0.4966738900000000 2.6172467300000002 -0.0128689700000000 Au
atom 3.2685466100000000 2.5114033899999999 0.3634656200000000 Au
atom 6.0586922899999998 2.5085939700000002 0.2900388300000000 Au
atom 7.6492260400000003 4.9029150300000000 0.3289447000000000 Au
atom 10.4624832699999999 4.9513609399999998 0.0789104300000000 Au
atom 13.2904262099999997 5.0688565800000003 0.1085987600000000 Au
atom 16.0592668600000010 4.9745218199999997 0.3002592300000000 Au
atom 18.8413159700000001 5.1072560400000002 0.2188919000000000 Au
atom 21.5741171999999999 4.9709722200000002 0.1850442700000000 Au
atom 24.4932239100000011 4.9380210599999996 0.3697646900000000 Au
atom 27.2335479099999986 5.0371266400000003 -0.0434903400000000 Au
atom 1.8320933500000001 5.1123129100000000 0.4031749800000000 Au
atom 4.6973430000000000 4.9866816800000002 0.3117494200000000 Au
atom 8.9509752500000008 7.4711282700000003 0.1380418300000000 Au
atom 11.7403201399999997 7.4792042800000003 0.1834886700000000 Au
atom 14.5428133299999995 7.5024844100000001 0.1494526700000000 Au
atom 17.2827560899999995 7.5193427100000001 0.2365418400000000 Au
atom 20.1780455200000013 7.4408634500000002 0.0585991600000000 Au
atom 23.1029997800000011 7.4792097100000001 0.0034599700000000 Au
atom 25.8363106400000007 7.4615947599999997 0.2168282900000000 Au
atom 0.4446501200000000 7.4509645100000004 -0.0726634400000000 Au
atom 3.3862631900000002 7.4545790600000004 0.0969295500000000 Au
atom 6.1310703999999996 7.4448681600000004 0.1302849800000000 Au
atom 7.5569228900000001 9.9342276199999997 0.0725082100000000 Au
atom 10.3440938100000004 9.9423518200000007 0.0730260200000000 Au
atom 13.1494272399999996 9.9062067999999996 0.2329844300000000 Au
atom 15.9538777799999991 9.9819342599999992 0.0691391900000000 Au
atom 18.7957960300000018 9.9285306400000000 0.0260935000000000 Au
atom 21.6987614399999984 9.8827004200000008 -0.2024676600000000 Au
atom 24.5654995400000011 9.9158340200000001 -0.0211542800000000 Au
atom 27.3039458699999997 9.9349259599999993 0.1084834900000000 Au
atom 1.9080061200000000 9.8003042800000006 0.0072846700000000 Au
atom 4.7563870100000001 9.9179589900000007 -0.0736443900000000 Au
atom 8.9529359300000007 12.3921112600000001 -0.0620551600000000 Au
atom 11.7914298100000003 12.3990561199999991 0.3405508200000000 Au
atom 14.5911693400000004 12.4192937699999995 0.2422157000000000 Au
atom 17.4341124900000004 12.4764684900000002 -0.0951020300000000 Au
atom 20.1776032900000004 12.3560025000000007 -0.1560496500000000 Au
atom 23.0064672299999984 12.3771856200000006 -0.3265335200000000 Au
atom 25.8983956599999985 12.4193864000000005 -0.3468400000000000 Au
atom 0.5532153800000000 12.3694824000000008 -0.2487226900000000 Au
atom 3.2842207399999999 12.3701192399999993 -0.1727671500000000 Au
atom 6.1607791100000000 12.4023962599999997 -0.1112060800000000 Au
atom 7.5365542699999999 13.3327315599999991 2.4960097499999998 Au
atom 10.2734921200000002 13.2418227500000008 2.7464062100000000 Au
atom 13.1159593000000001 13.2620024500000007 2.9692424599999998 Au
atom 16.0139018899999996 13.2378179500000002 2.7015621099999998 Au
atom 18.8832886500000008 13.2054548799999996 2.3616483599999998 Au
atom 21.7011336300000011 13.2293449100000000 2.2477886800000002 Au
atom 24.4716425499999986 13.2838615499999992 2.2704270300000000 Au
atom 27.2823543099999988 13.2568890400000008 2.2132032599999998 Au
atom 1.8516263100000001 13.2334461599999997 2.4386407800000001 Au
atom 4.7238932199999999 13.1736529299999994 2.4009703899999999 Au
atom 8.8497042300000004 15.7381317900000006 2.5842192499999999 Au
atom 11.7255993400000005 15.7693575999999993 2.7008255299999999 Au
atom 14.6165895300000006 15.7469749500000002 2.6311204099999999 Au
atom 17.5292944499999983 15.7316705700000004 2.6698916700000002 Au
atom 20.3043786500000003 15.7008510999999995 2.4378915499999998 Au
atom 23.1525245700000006 15.7545227800000003 2.3652700499999999 Au
atom 25.9217849399999984 15.6654598699999994 2.2017708599999999 Au
atom 0.5222867600000000 15.7331208799999995 2.4433691899999999 Au
atom 3.3208384000000000 15.6575506600000001 2.4153854199999998 Au
atom 6.1504555700000001 15.6521999699999999 2.5186143300000001 Au
atom 7.6321202100000001 18.1275069500000008 2.6052651199999999 Au
atom 10.3922444200000008 18.1645688300000003 2.5149972900000002 Au
atom 13.2353360999999996 18.2670062299999998 2.5487202700000000 Au
atom 16.0413928699999992 18.0686419799999989 2.4801049900000001 Au
atom 18.9098866699999988 18.1365775400000011 2.3728733599999998 Au
atom 21.6574047800000002 18.1230963900000006 2.4134289299999998 Au
atom 24.5488974900000017 18.2115077800000016 2.6084036400000001 Au
atom 27.3471001999999999 18.1089558799999999 2.6301398300000001 Au
atom 1.9220256499999999 18.1286282099999987 2.8285596200000001 Au
atom 4.7929999199999997 18.0716099399999983 2.4997275100000000 Au
atom 8.9460200400000005 20.6526023300000006 2.7087764900000000 Au
atom 11.7479152100000004 20.6023870699999989 2.5852604600000002 Au
atom 14.6779283300000003 20.6168401400000008 2.5533220000000001 Au
atom 17.4382627700000015 20.5170522800000015 2.4961885100000001 Au
atom 20.2018060000000013 20.6974645499999994 2.5412992700000001 Au
atom 23.0427539500000016 20.6305608099999986 2.8799042799999999 Au
atom 25.8952720899999989 20.7161005399999993 2.8774277499999998 Au
atom 0.4293297900000000 20.5727972900000005 2.9143453500000001 Au
atom 3.2830778299999999 20.5794923999999995 2.7762103300000001 Au
atom 6.0877635500000000 20.5746410200000014 2.5411237700000000 Au
atom 7.5264851100000003 23.0824426900000006 2.6127111200000002 Au
atom 10.3656917699999997 23.1120888700000009 2.4262405600000001 Au
atom 13.1914848100000004 23.0283830499999986 2.5649503400000002 Au
atom 16.0182933299999988 23.0907032299999990 2.7978947800000000 Au
atom 18.8306592700000017 23.0835788800000010 3.0730269600000000 Au
atom 21.7316633099999983 23.1724298299999987 2.9285775900000002 Au
atom 24.4421314199999991 23.1724848399999992 3.0254448300000001 Au
atom 27.2073341400000004 23.2019585200000016 2.8930747600000002 Au
atom 1.7886123199999999 23.0780291400000017 3.0365157400000000 Au
atom 4.7385664800000002 23.1047630099999992 2.8652465399999998 Au
atom 8.9788636099999994 25.5151363300000007 2.5216295299999998 Au
atom 11.7998847500000004 25.5503742299999992 2.6418237900000001 Au
atom 14.5122941300000008 25.5881945100000010 2.7737611499999999 Au
atom 17.3844150500000012 25.6564362800000012 3.0068317800000002 Au
atom 20.2544899299999983 25.7055609599999997 3.0973177299999999 Au
atom 23.1235424099999989 25.6502523899999986 3.1025394899999998 Au
atom 26.0143102599999985 25.6685017000000002 2.9772269699999998 Au
atom 0.5265564500000000 25.6281282600000004 3.0358393200000000 Au
atom 3.3795991900000000 25.5805493700000000 2.8854186799999999 Au
atom 6.1571369999999996 25.5562275600000000 2.5545655699999998 Au
atom 7.5966220099999999 28.0320102899999988 2.5818227999999999 Au
atom 10.3880500700000002 28.0572374300000007 2.3513184200000001 Au
atom 13.1835664700000006 27.9993147899999997 2.4172593000000000 Au
atom 15.9040762400000002 28.0239490300000007 2.6103492500000001 Au
atom 18.7419794400000015 28.0753059500000006 2.8049166600000000 Au
atom 21.6349563099999997 28.0860233500000014 2.6202397300000002 Au
atom 24.4697201900000003 28.0439900800000004 2.7072555000000000 Au
atom 27.3453240099999988 28.1263548800000009 2.7218360399999999 Au
atom 1.9280751100000000 28.0568877100000016 2.9544995799999998 Au
atom 4.7464187300000003 28.0974389299999991 2.6125765099999998 Au
atom 8.9053905699999998 30.5169605200000014 2.5438369600000001 Au
atom 11.8569185200000007 30.4466723100000003 2.2461004600000001 Au
atom 14.6563076999999993 30.4200179700000000 2.4911805899999999 Au
atom 17.3432135699999996 30.5037062200000015 2.5701658200000002 Au
atom 20.1148940899999999 30.4559524500000016 2.5813234500000002 Au
atom 22.9883599200000006 30.5014167799999996 2.8665107200000000 Au
atom 25.8509601499999988 30.5336459200000014 2.5812402600000000 Au
atom 0.5243167300000000 30.4655305900000002 2.6516825800000001 Au
atom 3.3906748499999999 30.5765679100000014 2.7464542500000002 Au
atom 6.1488264299999997 30.5504731599999992 2.6234703200000000 Au
atom 7.4958907899999998 33.0075422199999977 2.4441529100000001 Au
atom 10.3837376399999997 32.9331547000000029 2.4011418899999999 Au
atom 13.1677853999999996 32.8522199900000018 2.4098974399999999 Au
atom 15.8692718199999998 32.8558595200000028 2.2738250600000001 Au
atom 18.6535159899999989 32.9601790999999977 2.4618673599999998 Au
atom 21.5493391400000007 32.9861065899999986 2.8383420699999999 Au
atom 24.4094790199999991 33.0011652900000030 2.5708478000000001 Au
atom 27.2100647500000008 32.9732983800000028 2.5412957700000001 Au
atom 1.8646260900000000 33.0822550700000022 2.6537535800000001 Au
atom 4.6504506499999998 33.0470522500000001 2.7002944000000002 Au
atom 8.9938821200000003 35.4004484299999973 2.5591479000000001 Au
atom 11.8094306499999995 35.4021068799999981 2.4314543799999999 Au
atom 14.5359011500000008 35.3533722399999988 2.3787058800000001 Au
atom 17.3449276200000000 35.3903289000000001 2.6336678800000000 Au
atom 20.0925376900000003 35.3536432200000021 2.7123412199999999 Au
atom 22.9034989899999992 35.4648568100000006 2.7262160700000000 Au
atom 25.7897622800000015 35.4800903200000022 2.6604721900000001 Au
atom 0.3744136000000000 35.4449176899999969 2.5062687399999999 Au
atom 3.2272810100000000 35.4841416300000034 2.2831700300000000 Au
atom 6.1019548099999996 35.4879341299999993 2.5090070099999999 Au
atom 7.5126374000000000 37.9048578199999966 2.5619607200000001 Au
atom 10.3699184500000001 37.7941580900000034 2.6023514799999998 Au
atom 13.1741196899999995 37.8654844599999976 2.4631834800000001 Au
atom 15.8987208899999999 37.8431994000000032 2.7150017200000001 Au
atom 18.7267220200000004 38.0103809499999983 2.6029853200000002 Au
atom 21.5308364099999991 37.7925284399999981 2.8783719799999998 Au
atom 24.3921877699999996 37.8747300100000004 2.5053069600000000 Au
atom 27.1265664700000002 37.9251023699999976 2.4932855300000001 Au
atom 1.7092736399999999 37.9249894800000007 2.4153134500000002 Au
atom 4.6574442800000000 37.9346717299999980 2.7201115699999998 Au
atom 8.9273521400000000 0.8702023800000001 2.4884718000000001 Au
atom 11.7525254700000001 0.8302222600000000 2.4831639900000000 Au
atom 14.5636950699999996 0.8296171300000000 2.7277325800000001 Au
atom 17.3462727600000015 0.9176189800000000 2.7633145200000002 Au
atom 20.2761301799999991 0.9755788399999999 2.6291960500000000 Au
atom 22.9257162900000004 0.8689832700000000 2.8435984599999999 Au
atom 25.7716511600000011 0.8875223300000000 2.5466220000000002 Au
atom 0.4626869300000000 0.8916286400000000 2.4329171999999999 Au
atom 3.3106629100000000 0.8689877300000000 2.8395433300000001 Au
atom 6.1703547099999998 0.8512062200000000 2.7195133199999999 Au
atom 7.4757484200000004 3.2413067199999999 2.8838237599999998 Au
atom 10.3110085500000004 3.3700825800000000 2.4162693700000002 Au
atom 13.1051944400000000 3.2915641600000001 2.7382571100000002 Au
atom 15.9148337400000006 3.3687778399999999 2.7532791699999999 Au
atom 18.7409403499999989 3.2322556100000002 2.5407001800000000 Au
atom 21.5863786100000006 3.3323435600000000 2.6743951799999999 Au
atom 24.3401281400000009 3.3281763500000001 2.8706344700000002 Au
atom 27.3026006800000012 3.4135932000000002 2.5592653599999999 Au
atom 1.8501902900000000 3.2351201100000000 2.8883304100000000 Au
atom 4.6738811699999996 3.3278653500000002 3.0254461400000001 Au
atom 8.9707292800000005 5.7441547300000000 2.8318292000000000 Au
atom 11.7053920100000006 5.7939717100000001 2.7204539500000000 Au
atom 14.5079836199999992 5.8944714899999999 2.6748002999999998 Au
atom 17.3315353799999983 5.7599425100000001 2.8431550500000000 Au
atom 20.1905568600000009 5.7615486999999996 2.7989208699999999 Au
atom 22.9783350900000016 5.8528871300000000 2.6454004300000000 Au
atom 25.8416107299999993 5.8743491499999996 3.0387507899999999 Au
atom 0.4314979100000000 5.8379284800000004 2.7370120800000000 Au
atom 3.3111276900000002 5.7968924700000004 2.9006147499999999 Au
atom 6.1878983800000000 5.8201590999999997 2.7990813900000000 Au
atom 7.5430876600000003 8.2410273400000005 2.6823399000000001 Au
atom 10.3267485200000007 8.1908401600000005 2.9271103100000002 Au
atom 13.1613728200000004 8.3122093699999997 2.7853867399999999 Au
atom 15.9594378799999994 8.3688851100000008 2.8134425699999999 Au
atom 18.7498563599999990 8.2913841200000000 2.6589730299999998 Au
atom 21.6402767300000001 8.3632979800000005 2.5043164500000001 Au
atom 24.5114610699999993 8.3552940000000007 2.6676742000000000 Au
atom 27.2855464199999993 8.2378937000000008 2.7286508899999999 Au
atom 1.8157510600000000 8.3516336199999994 2.6835045100000001 Au
atom 4.7324397500000002 8.2578604599999998 2.5687187300000001 Au
atom 8.9454784800000002 10.8354675199999999 2.5700685399999998 Au
atom 11.7438417800000003 10.7179987499999996 2.9087267300000001 Au
atom 14.5426783400000001 10.8215513100000003 2.7443496800000000 Au
atom 17.4475179900000015 10.8129492200000001 2.5620795599999999 Au
atom 20.1603324599999993 10.7335321599999993 2.5024561300000001 Au
atom 22.9920487899999983 10.7996181300000007 2.4052969000000002 Au
atom 25.9158555399999990 10.7930172899999999 2.6375494900000001 Au
atom 0.4887634000000000 10.7770244799999997 2.5735075699999999 Au
atom 3.3085359099999998 10.7634060199999997 2.5013222300000000 Au
atom 6.1480264399999998 10.8286587099999991 2.6254415500000001 Au
atom 7.3015919599999997 13.0796492499999992 5.6279243200000000 Cl
atom 7.3657560899999996 15.7930607399999996 8.3050114900000001 Cl
atom 7.2705196000000001 12.9395492799999996 8.1850638100000008 Na
atom 7.3002494799999997 15.7593902099999994 5.6054582300000000 Na
atom 7.3229762599999999 18.6343959900000016 5.4613428600000002 Cl
atom 7.3684770000000004 21.3928101300000009 8.4916696100000006 Cl
atom 7.4629964199999996 18.5460339400000009 8.1453447400000005 Na
atom 7.3386179000000000 21.4874365999999988 5.7582976300000004 Na
atom 7.3586658800000002 24.0920877800000000 5.5015678200000000 Cl
atom 7.2952616800000003 26.9574767299999998 8.5533394000000005 Cl
atom 7.3122409199999998 24.1613483299999992 8.3966331000000007 Na
atom 7.2846836799999997 26.8239083100000002 5.6944206599999996 Na
atom 7.2269484200000003 29.6530741000000013 5.6176773500000001 Cl
atom 7.3051899799999997 32.6207439300000033 8.3801043499999999 Cl
atom 7.3125359999999997 29.7580851499999994 8.2134574100000002 Na
atom 7.3667737700000000 32.6120011200000022 5.6132740900000000 Na
atom 7.4593657300000000 35.4483036800000022 5.5907330000000002 Cl
atom 7.4226936099999996 38.4578632099999993 8.5917079600000008 Cl
atom 7.3685584400000002 35.5260106899999997 8.3358578199999993 Na
atom 7.5304851599999996 38.1188919700000000 5.8148836599999996 Na
atom 7.4366717299999996 1.5453371000000000 5.8454786800000003 Cl
atom 7.3296941599999998 4.3568696100000004 8.7575750899999996 Cl
atom 7.3510912399999997 1.6219388299999999 8.4518555600000003 Na
atom 7.3294430000000004 4.4577845500000004 5.9465954099999996 Na
atom 7.3561569200000001 7.2046404800000001 5.8454368800000003 Cl
atom 7.4157159999999998 10.2037833599999992 8.4152573000000004 Cl
atom 7.4370301599999999 7.2632299600000003 8.4775078700000002 Na
atom 7.4222235400000001 10.1107380399999993 5.7148404399999997 Na
atom 10.1504363499999997 12.7588596299999999 5.8477810100000003 Na
atom 12.9815895500000007 12.7798256299999995 5.7061646799999997 Cl
atom 10.1312936699999998 15.7836864600000002 8.2194104800000005 Na
atom 12.9537011999999994 15.6818797100000005 8.4744121700000008 Cl
atom 12.9073647200000003 12.8065036600000006 8.5720509299999996 Na
atom 10.2029701900000003 12.9875135799999999 8.5671974399999993 Cl
atom 12.9467994999999991 15.7567575299999998 5.6313709699999999 Na
atom 10.2714813399999993 15.6119830099999994 5.6555636700000003 Cl
atom 10.2419994899999995 18.5115358900000011 5.6230855200000001 Na
atom 13.0374700600000004 18.4239478000000005 5.6621656900000001 Cl
atom 10.1830199799999992 21.2693131300000005 8.1996833400000000 Na
atom 12.9079235000000008 21.4800433800000015 8.5796545099999992 Cl
atom 13.0904311500000006 18.3097978200000000 8.4538008300000005 Na
atom 10.1962435899999999 18.5400468200000006 8.6355515700000005 Cl
atom 12.9507409399999993 21.3165879400000016 5.6336805500000002 Na
atom 10.1616616999999998 21.4707909699999995 5.5832364099999996 Cl
atom 10.2729285499999996 24.1661904199999995 5.8756138499999997 Na
atom 13.0827174500000005 24.2245110500000003 5.7432211400000002 Cl
atom 10.0260639600000001 27.0190083100000003 8.3215082400000000 Na
atom 12.7910802599999993 27.0341188999999993 8.6194717999999995 Cl
atom 13.0028834199999999 24.1898358000000009 8.2889725100000007 Na
atom 10.1250926799999998 24.2452952999999987 8.4603946299999997 Cl
atom 12.9644544899999996 26.9233486199999987 5.7143929599999996 Na
atom 9.9974643800000003 26.9556332500000018 5.6905781199999996 Cl
atom 10.1226241500000000 29.6861167899999998 5.6418880600000003 Na
atom 13.0013946100000002 29.8530739899999986 5.5851681900000001 Cl
atom 10.1924534999999992 32.6155028599999994 8.3126054200000006 Na
atom 12.9568582200000009 32.5793142300000014 8.4294841100000006 Cl
atom 12.8346285200000008 29.8920669900000000 8.1591626399999999 Na
atom 10.0762287599999993 29.6819808899999984 8.4489292999999996 Cl
atom 13.0474491799999992 32.6432880500000024 5.5126073000000000 Na
atom 10.0754859299999993 32.4571280899999977 5.6300216599999997 Cl
atom 10.3562767200000003 35.3695673699999986 5.9190015200000001 Na
atom 13.0604949900000005 35.4486449400000012 5.6968803699999997 Cl
atom 10.3368851300000006 38.4339449100000010 8.3871178299999993 Na
atom 12.9986719399999995 38.2890367600000019 8.4952849300000004 Cl
atom 13.0284090100000007 35.2361417500000016 8.5140480299999997 Na
atom 10.2851819800000008 35.3728477499999983 8.6857053400000002 Cl
atom 13.0759915099999997 38.3525983299999993 5.7388566100000000 Na
atom 10.1336017199999997 38.3812449599999965 5.5954578599999998 Cl
atom 10.2964920699999993 1.6099308200000000 5.7637841200000004 Na
atom 13.0729048399999996 1.7469597100000001 5.8937108499999997 Cl
atom 10.3890780700000001 4.3367636999999997 8.3781429700000007 Na
atom 13.2125306600000005 4.3204975599999997 8.8053690699999994 Cl
atom 13.1189725700000004 1.5470741600000000 8.4906259700000000 Na
atom 10.3437077800000008 1.6602561800000000 8.6933932600000006 Cl
atom 13.0442299500000001 4.4409362699999999 6.1082481599999996 Na
atom 10.1033419099999993 4.3549971999999997 5.7563333300000004 Cl
atom 10.1336174400000001 7.2789899699999996 5.9914304300000003 Na
atom 12.9313842200000000 7.2487967500000003 5.9546339399999999 Cl
atom 10.2149404799999992 10.0921636899999996 8.3885853000000008 Na
atom 13.0411415900000005 9.9796762500000007 8.7150775199999995 Cl
atom 13.0853594100000006 7.2386431900000003 8.5901326200000003 Na
atom 10.2828859099999992 7.1779749300000004 8.6353160199999994 Cl
atom 13.0156580099999992 9.9952578299999999 5.8785297500000002 Na
atom 10.0733620699999999 9.9757104900000009 5.8275635799999996 Cl
atom 15.6637894600000003 12.6244070199999996 5.8170724500000004 Na
atom 18.6782308000000015 12.8350939200000003 5.5597498200000004 Cl
atom 15.8226477200000009 15.5220968999999993 8.4525059700000007 Na
atom 18.5751285999999993 15.5010091100000000 8.4009633099999999 Cl
atom 18.7471995299999996 12.7643587200000006 8.2702010000000001 Na
atom 16.1081591800000012 12.7119073199999999 8.3967648199999996 Cl
atom 18.5593809999999984 15.5397110999999999 5.5201983500000003 Na
atom 15.5454255200000002 15.6081137299999995 5.6026317700000003 Cl
atom 15.7199098700000004 18.3254282900000014 5.8331215600000004 Na
atom 18.7813165799999986 18.2829017100000009 5.5468583999999996 Cl
atom 15.7673769200000002 21.1921221799999984 8.3111545800000002 Na
atom 18.7067443699999991 21.1410673100000004 8.7161239500000001 Cl
atom 18.5570928399999993 18.3485644400000005 8.3371952799999995 Na
atom 15.8451223900000002 18.3094219600000017 8.4070498899999997 Cl
atom 18.6296132000000014 21.2110510999999988 5.9616428199999998 Na
atom 15.8698773299999996 21.3153529000000006 5.7753161600000000 Cl
atom 15.8445568100000003 24.0785164499999986 5.9921633700000001 Na
atom 18.4994001499999996 24.1947853299999984 6.1899243999999998 Cl
atom 15.5201235999999998 27.1339918299999994 8.6294595800000007 Na
atom 18.5331737899999993 27.0193739199999996 8.8917773699999998 Cl
atom 18.3257325299999998 24.1190667500000018 8.8634345700000008 Na
atom 15.6889442700000004 24.2445377499999992 8.7359093500000000 Cl
atom 18.6171146999999984 26.9842645999999995 6.1845275700000002 Na
atom 15.8004990400000001 27.0870750600000001 5.9858820899999996 Cl
atom 15.7742952699999996 29.8992526199999986 5.7287077899999996 Na
atom 18.6776996599999983 29.7813635800000007 5.7565874900000003 Cl
atom 15.6178808900000003 32.5967269499999972 8.4132506300000003 Na
atom 18.6371316600000014 32.7023648500000021 8.5936322700000005 Cl
atom 18.4968192900000012 29.8668017600000013 8.3830701300000001 Na
atom 15.6726092399999999 29.9413226799999990 8.4811166700000005 Cl
atom 18.8365712599999995 32.6091672599999995 5.6423960700000002 Na
atom 16.0209908699999986 32.8118449600000019 5.6906265300000003 Cl
atom 15.9999469600000008 35.5015286000000003 5.8490568800000000 Na
atom 18.8741266500000009 35.4353261799999970 5.7723311800000001 Cl
atom 15.9577361599999996 38.2529362599999985 8.4245538700000004 Na
atom 18.6748781299999997 38.1739528700000008 8.5965755000000001 Cl
atom 18.7311775999999988 35.4483673100000019 8.3462273899999992 Na
atom 15.6766930700000007 35.4193441199999981 8.6335672599999995 Cl
atom 18.6898165399999989 38.2329005300000020 5.8591829799999999 Na