#===============================================================================
# Created using the Atomic Simulation Environment (ASE)

# Tue Dec 23 22:26:43 2025

#=======================================================
lattice_vector 28.1999999999999993 0.0000000000000000 0.0000000000000000 
lattice_vector 0.0000000000000000 39.4799999999999969 0.0000000000000000 
lattice_vector 0.0000000000000000 0.0000000000000000 62.3296083400000001 
atom 7.4767290800000001 14.7439253400000005 -0.1232594500000000 Au
atom 10.2658581000000009 14.8314075800000005 -0.5521225300000000 Au
atom 13.1068301300000005 14.6842999899999995 -0.5312912700000000 Au
atom 15.8359248699999995 14.8926450900000003 -0.3999998700000000 Au
atom 18.6445279399999997 14.8464139100000008 -0.3880754700000000 Au
atom 21.5837733699999994 14.8362042200000008 -0.4118241200000000 Au
atom 24.3742476900000007 14.7844522299999994 -0.1726983700000000 Au
atom 27.1562592599999988 14.7575002899999994 -0.3140063000000000 Au
atom 1.8510253299999999 14.7403557299999992 -0.1593984000000000 Au
atom 4.6163213100000000 14.7642933900000006 -0.1817146000000000 Au
atom 8.8488697100000007 17.2783295899999985 -0.3639850900000000 Au
atom 11.7366278600000005 17.3222222899999991 -0.1888658600000000 Au
atom 14.4845821800000003 17.3231306399999987 -0.1846667100000000 Au
atom 17.3261120099999992 17.3338895499999985 -0.5264854200000000 Au
atom 20.0348721400000009 17.2358006500000016 -0.3418379200000000 Au
atom 23.1600004499999983 17.3477980800000005 -0.2881903100000000 Au
atom 25.7307651399999990 17.2391519399999993 0.0495109300000000 Au
atom 0.3838945600000000 17.2665985000000006 0.0298255200000000 Au
atom 3.1590680099999999 17.2852661699999999 -0.2015165700000000 Au
atom 5.9657656000000001 17.1332647599999994 -0.0938048900000000 Au
atom 7.4035163800000001 19.8034984799999982 -0.2029156100000000 Au
atom 10.2845203200000004 19.8127385499999988 -0.3842471400000000 Au
atom 13.1014800600000001 19.7223621300000005 -0.1257623200000000 Au
atom 15.9043993900000000 19.7183313300000016 -0.0086720000000000 Au
atom 18.6811222699999995 19.7867760900000000 -0.3347920400000000 Au
atom 21.4827955899999985 19.7209982799999999 -0.0985933900000000 Au
atom 24.2639913599999986 19.7065627300000017 0.0551270200000000 Au
atom 27.0850086499999989 19.6942977399999997 -0.0914118700000000 Au
atom 1.8103539399999999 19.7393761499999982 0.1829335000000000 Au
atom 4.6855139100000001 19.7381655199999990 0.2121659100000000 Au
atom 8.9571619099999999 22.3765069399999987 0.0114477800000000 Au
atom 11.7698342300000007 22.2686390600000017 -0.1239689200000000 Au
atom 14.5077570700000003 22.2765190799999999 0.0399164500000000 Au
atom 17.2902279199999995 22.1906207900000005 0.0735179400000000 Au
atom 20.0891929299999994 22.2817174099999988 -0.0558803400000000 Au
atom 22.8781211300000002 22.2695580600000014 0.0692177000000000 Au
atom 25.7626958200000011 22.1986122700000017 -0.0889681300000000 Au
atom 0.4409091800000000 22.2438172200000004 -0.0983914500000000 Au
atom 3.2862576699999999 22.1805460100000005 -0.0554636600000000 Au
atom 6.1030712400000002 22.2350096300000004 0.1749387700000000 Au
atom 7.4673959200000004 24.7527779400000014 0.2137575600000000 Au
atom 10.3619106100000007 24.8309086599999986 0.1187460200000000 Au
atom 13.1498255600000000 24.7154986900000004 0.3410667700000000 Au
atom 15.8969491699999992 24.7844554300000013 0.1873976100000000 Au
atom 18.7541689299999987 24.7205550500000015 -0.0437082500000000 Au
atom 21.4982232300000007 24.7233295099999992 -0.1284640900000000 Au
atom 24.3708481399999997 24.5908684899999983 0.0982665300000000 Au
atom 27.2907266899999996 24.7654931900000008 -0.0927690800000000 Au
atom 1.8991369899999999 24.7210748000000002 0.0067599300000000 Au
atom 4.6837872999999997 24.7321904600000018 0.0502429000000000 Au
atom 8.8026168200000008 27.1985650800000016 0.0526264700000000 Au
atom 11.6409503799999996 27.2780362499999995 0.2701683200000000 Au
atom 14.4936546699999997 27.2048777299999998 0.0301488000000000 Au
atom 17.4802255200000012 27.5457236700000010 -0.0067336700000000 Au
atom 20.1106614700000002 27.2441360800000005 0.0272632900000000 Au
atom 22.9618651699999994 27.0568995500000007 -0.0164502300000000 Au
atom 25.7686118899999990 27.1211126600000014 0.1971063600000000 Au
atom 0.3792867400000000 27.1862551699999990 -0.0372055800000000 Au
atom 3.2361438499999999 27.2502670000000009 0.2293411700000000 Au
atom 5.9942541900000004 27.2731812100000006 0.3440994500000000 Au
atom 7.4101266900000002 29.8140959400000014 0.0125597100000000 Au
atom 10.2013423499999991 29.7359725300000015 -0.0948399600000000 Au
atom 12.9626297099999999 29.7177239499999999 0.0223117000000000 Au
atom 15.8481875199999998 29.7330574900000002 -0.1778212000000000 Au
atom 18.5168338500000011 29.4770548000000012 0.0299718800000000 Au
atom 21.6229670600000006 29.6492532500000010 -0.0545546700000000 Au
atom 24.4478661200000005 29.5209163900000000 -0.0363100800000000 Au
atom 25.9219893799999994 29.6973706600000007 0.1003399500000000 Au
atom 2.8963387599999999 29.6376864100000006 0.0417505000000000 Au
atom 4.5218869399999999 29.7080282800000006 0.1183440300000000 Au
atom 8.7011981200000008 32.2613110500000033 -0.0657039500000000 Au
atom 11.6038529300000004 32.1635770700000023 -0.3012911000000000 Au
atom 14.4260782600000006 32.1575933599999999 -0.2442324900000000 Au
atom 17.2766302100000004 32.0873893199999998 -0.2117304700000000 Au
atom 20.1595188699999994 32.0039809299999973 -0.3023506400000000 Au
atom 23.0773437399999999 32.0930665699999977 0.0582553200000000 Au
atom 25.7246064499999996 32.0998899000000009 0.1256397100000000 Au
atom 0.2946602000000000 32.1680672800000025 0.1073996800000000 Au
atom 3.1034512400000001 32.0825504199999969 -0.0515237700000000 Au
atom 5.9579701600000003 32.1703850900000035 -0.4064317900000000 Au
atom 7.3379597499999996 34.6567118999999977 -0.0222256100000000 Au
atom 10.1715996000000004 34.5877369600000009 -0.1613237700000000 Au
atom 13.0250644199999996 34.5996959000000004 -0.1724525800000000 Au
atom 15.8072806799999999 34.5563234399999999 -0.1119827200000000 Au
atom 18.5767423399999991 34.5085448399999990 -0.1937022100000000 Au
atom 21.4596344499999994 34.4440869599999999 0.0323073100000000 Au
atom 24.3950484400000001 34.5954087599999980 -0.1064308100000000 Au
atom 27.1475970500000017 34.5308686099999989 0.4670701000000000 Au
atom 1.6624367900000001 34.5975914699999976 0.2134381900000000 Au
atom 4.4685863699999997 34.5976226599999990 0.0255831800000000 Au
atom 8.8566665300000000 37.0855681500000003 -0.0047558900000000 Au
atom 11.7212595900000007 37.0898792699999973 -0.2950034600000000 Au
atom 14.4998740099999992 37.0025854800000005 -0.0415088900000000 Au
atom 17.2870056400000003 36.9467138600000027 0.0064214700000000 Au
atom 20.1323077200000000 36.9698150199999986 -0.0245604900000000 Au
atom 22.8805106800000004 37.0698282000000034 0.1501102700000000 Au
atom 25.6257951000000013 36.9232707800000028 0.3688281300000000 Au
atom 0.2851355100000000 37.0759194399999998 0.0518730800000000 Au
atom 3.1280628300000002 36.9871535400000013 0.0344073200000000 Au
atom 6.0140486299999996 37.0447769700000009 0.1002115800000000 Au
atom 7.4088311899999999 0.0549437800000000 0.0803263400000000 Au
atom 10.3359838100000001 0.0086135300000000 -0.0389851700000000 Au
atom 13.0602972400000006 0.0428991300000000 0.0852723000000000 Au
atom 15.8575615899999995 0.0091251200000000 0.1164347500000000 Au
atom 18.7462625299999992 0.0287834400000000 -0.1805484700000000 Au
atom 21.4674161800000007 0.0513939500000000 -0.2614676400000000 Au
atom 24.3411597399999984 -0.0229664700000000 0.4214841300000000 Au
atom 27.1659819800000015 -0.1357233000000000 0.1958538600000000 Au
atom 1.6785860500000001 -0.0468545300000000 -0.1736322900000000 Au
atom 4.5734931699999999 0.0118164900000000 -0.0500975200000000 Au
atom 8.8559666000000004 2.5079400600000001 0.1398733200000000 Au
atom 11.6692490800000002 2.5497387900000001 0.1760816700000000 Au
atom 14.4346531099999993 2.5006857000000000 0.0740640400000000 Au
atom 17.2302026300000009 2.2100328600000001 0.0479129600000000 Au
atom 20.0842110500000004 2.4027289500000002 0.0706203100000000 Au
atom 22.9846042600000011 2.4599597400000000 0.1018022000000000 Au
atom 25.6771672100000004 2.5593848399999999 0.2577897700000000 Au
atom 0.4435060400000000 2.3971339199999999 -0.0464672500000000 Au
atom 3.1112290499999999 2.4995951900000000 -0.2967205700000000 Au
atom 6.0852833200000003 2.5911056100000001 -0.0108327400000000 Au
atom 7.5229456600000004 5.0748332500000002 0.0941840900000000 Au
atom 10.2997689200000000 5.0252222099999999 0.0797406000000000 Au
atom 13.0886022099999995 4.9147698699999998 0.0948844200000000 Au
atom 15.8078945500000003 4.9666314199999997 -0.1748090800000000 Au
atom 18.7510163500000004 5.0670443900000004 -0.0316943600000000 Au
atom 21.6902529199999989 5.0298978400000003 0.2141041800000000 Au
atom 24.4400860000000009 4.8608103500000004 -0.0772713800000000 Au
atom 27.2263738900000014 4.8624612799999998 0.1568586200000000 Au
atom 1.8542046800000000 5.0452077600000003 0.0777363400000000 Au
atom 4.7174906200000004 5.0427825799999999 0.0879797300000000 Au
atom 8.9085878899999997 7.4684923000000003 0.2724465000000000 Au
atom 11.7675224400000005 7.4104105200000001 -0.1716351700000000 Au
atom 14.5308125300000004 7.4402228199999998 -0.1801808900000000 Au
atom 17.3585725400000008 7.3775579400000000 -0.1290716600000000 Au
atom 20.1369187899999993 7.3137644100000001 -0.1572592100000000 Au
atom 22.9270736100000008 7.3154342600000000 -0.0266569400000000 Au
atom 25.7208746999999995 7.3052792300000000 -0.0902725900000000 Au
atom 0.3018152700000000 7.3530123900000000 -0.0540677000000000 Au
atom 3.2216609100000002 7.4587341800000004 -0.1084726300000000 Au
atom 6.0596865299999996 7.4148432299999998 -0.0938714100000000 Au
atom 7.5052200600000001 9.7182048800000000 0.0163159900000000 Au
atom 10.2698897000000002 9.8232375199999993 -0.0707731700000000 Au
atom 13.0700695000000007 9.8844927499999997 -0.0056738800000000 Au
atom 15.9133529100000004 10.1174368799999996 0.0173435900000000 Au
atom 18.7651380100000011 9.9387634499999997 -0.0049416500000000 Au
atom 21.5533880999999994 9.8269235399999992 -0.3259011000000000 Au
atom 24.3165795699999983 9.8640216299999999 -0.0130833600000000 Au
atom 27.1343026499999986 9.8216512700000003 -0.2082991200000000 Au
atom 1.8098891100000001 9.8532750700000005 -0.1441498000000000 Au
atom 4.5707393300000003 9.9220067000000007 -0.0084424100000000 Au
atom 8.8753118999999998 12.2313551300000007 -0.4398982400000000 Au
atom 11.6389530400000005 12.2428348000000007 -0.3905744700000000 Au
atom 14.5939048600000003 12.1687861099999992 -0.3300425100000000 Au
atom 17.3218929000000017 12.3847590499999995 -0.1309929400000000 Au
atom 20.1455406500000009 12.3873181599999995 -0.2304188500000000 Au
atom 22.9559056599999991 12.3625509400000002 -0.3071120200000000 Au
atom 25.8483556599999993 12.3024476800000002 -0.3364820600000000 Au
atom 0.3551441100000000 12.3325976300000004 0.1000915300000000 Au
atom 3.1823308799999999 12.3319875299999993 -0.0303592400000000 Au
atom 5.9140171099999996 12.4414938300000006 -0.1638583000000000 Au
atom 7.5412150400000000 13.1147574900000006 2.5193748500000002 Au
atom 10.2127030899999998 13.1969301199999993 1.8871701599999999 Au
atom 13.1061460000000007 13.1685394200000001 2.1341356000000000 Au
atom 16.0579604200000006 13.2154926100000001 2.2748628000000002 Au
atom 18.7881866399999993 13.2777272800000006 2.3902165399999999 Au
atom 21.5738106999999992 13.3361858400000006 2.3353521900000000 Au
atom 24.4023336099999995 13.2517038100000004 2.3135703300000001 Au
atom 27.2479468099999984 13.2466626400000003 2.6547812099999999 Au
atom 1.8380024300000000 13.2206773500000008 2.7084878400000001 Au
atom 4.6429422899999997 13.1324716800000001 2.3847705299999999 Au
atom 8.8337965000000001 15.6677099900000005 2.3200882699999998 Au
atom 11.6735259100000004 15.6552035400000005 2.2179450500000000 Au
atom 14.4340338399999997 15.6462016800000008 2.2242697800000002 Au
atom 17.2987565799999992 15.7351561899999997 2.0207552400000002 Au
atom 20.0805563700000000 15.7382840599999998 2.3350933700000001 Au
atom 22.9848482800000014 15.6761497700000003 2.2104016500000001 Au
atom 25.7301931699999997 15.6286781799999996 2.6131704000000000 Au
atom 0.5047135800000000 15.7093540699999998 2.3610492600000001 Au
atom 3.3143645700000000 15.7353591099999992 2.3480277699999998 Au
atom 6.0731801499999998 15.5408701400000009 2.6527204599999998 Au
atom 7.4248963000000003 18.0834660700000001 2.2316553799999999 Au
atom 10.1174161900000001 18.0770713600000015 2.0604627000000000 Au
atom 13.1199861700000007 18.1443157299999989 2.4469549599999998 Au
atom 15.8660453700000001 18.0459102199999997 2.4036861500000000 Au
atom 18.8655174899999984 18.2223042900000003 2.1829998300000000 Au
atom 21.5597592200000001 18.0554076499999994 2.2579184699999999 Au
atom 24.3322775100000008 18.1460887600000014 2.7559887600000001 Au
atom 27.1491002399999992 18.1239143200000008 2.4659555300000000 Au
atom 1.7705996900000001 18.1154899299999990 2.7061918500000002 Au
atom 4.5737440100000004 17.9648328399999997 2.7072228400000000 Au
atom 8.8429564500000009 20.6552902299999985 2.4180953500000002 Au
atom 11.6646854900000001 20.5867542199999995 2.4282491500000001 Au
atom 14.4620076999999991 20.5717238100000017 2.3949622599999998 Au
atom 17.2787051600000012 20.4952624700000001 2.5518192800000001 Au
atom 20.0609213799999999 20.4756472900000013 2.5209262799999999 Au
atom 22.9531688199999984 20.6006673999999990 2.5244663400000000 Au
atom 25.7928026300000006 20.5332173100000013 2.5374599199999999 Au
atom 0.3472095400000000 20.6418984799999983 2.6165044700000002 Au
atom 3.3231649299999999 20.5880597799999983 2.6152617700000000 Au
atom 6.0677723600000002 20.5128500400000000 2.6788585500000002 Au
atom 7.4181570700000004 23.1327418700000003 2.8235557899999999 Au
atom 10.1848279599999998 23.1619866399999985 2.5396218300000002 Au
atom 12.9987405599999999 23.0898624300000002 2.7096630600000000 Au
atom 15.8640568999999996 23.1256574999999991 2.5719202900000000 Au
atom 18.7336331499999993 22.9506398099999984 2.6787466400000000 Au
atom 21.5591427700000011 23.0210554300000005 2.6281988799999998 Au
atom 24.3822268700000002 23.0877431100000017 2.6692675900000000 Au
atom 27.2044590900000003 23.1100941999999989 2.3735493700000001 Au
atom 1.7827056200000000 23.0242158699999990 2.4362806199999998 Au
atom 4.6387475000000000 23.0279327599999988 2.6525842200000000 Au
atom 8.7996848300000003 25.7021069799999999 2.8236773600000000 Au
atom 11.6629640600000002 25.5373536899999998 2.7326685099999999 Au
atom 14.5367959300000003 25.6476284200000002 2.7108357100000000 Au
atom 17.3019689200000002 25.5511901799999990 2.5810540999999998 Au
atom 20.2591789200000001 25.5020971299999992 2.5766830900000000 Au
atom 23.0313653000000009 25.4977635700000000 2.7892428599999999 Au
atom 25.8641672699999994 25.5317585099999995 2.5431201600000000 Au
atom 0.4678655700000000 25.5828238399999996 2.6823602900000001 Au
atom 3.2127101400000000 25.5000012500000004 2.8827577999999998 Au
atom 5.9982148899999999 25.5986315100000006 2.8552466900000000 Au
atom 7.7478021200000002 28.1228297500000011 2.7602148400000002 Au
atom 9.7956490200000008 28.1121597200000011 2.6622776400000001 Au
atom 13.0215352899999992 28.0582673100000015 2.7323709900000002 Au
atom 15.8783058100000005 28.1136333100000009 2.5037295099999999 Au
atom 18.7133470200000005 28.0198482499999990 2.6233041899999998 Au
atom 21.4390237200000016 27.9918470799999994 2.5514408600000000 Au
atom 24.3610526199999988 28.0197020200000004 2.6037155699999999 Au
atom 27.2703261700000006 28.0363424099999996 2.7531711200000002 Au
atom 1.7897491400000001 28.0894183700000006 2.5926025199999998 Au
atom 4.6223962299999997 28.0977974800000005 2.8867217400000000 Au
atom 8.8019430100000005 30.6016733199999997 2.5752920000000001 Au
atom 11.6206933100000001 30.5808465500000004 2.6191993199999999 Au
atom 14.4591572900000003 30.4794002500000012 2.5429990299999998 Au
atom 17.3041457500000000 30.5530441999999987 2.5234945600000001 Au
atom 20.1371311499999983 30.3858828099999982 2.4689734799999998 Au
atom 22.9803745799999994 30.3647545000000001 2.6887178100000000 Au
atom 27.7732272699999996 30.5085514199999999 2.7149555900000002 Au
atom -1.6957476899999999 30.5503802499999999 2.7270310699999998 Au
atom 3.0322477100000000 30.7610344900000001 2.7819536800000000 Au
atom 5.9438452100000001 30.6058835800000004 2.3936500600000001 Au
atom 7.4490716199999998 33.0043348499999993 2.5638800599999998 Au
atom 10.3431870400000001 32.9811084899999969 2.4768010500000002 Au
atom 13.1028887600000008 32.9896622799999975 2.3750230499999998 Au
atom 15.9003212499999993 32.9997148300000021 2.3439105699999998 Au
atom 18.7606167500000005 32.9160691700000001 2.4497637399999999 Au
atom 21.5831735100000017 32.9449681799999965 2.7641486999999998 Au
atom 24.3607406699999984 32.8834287800000027 2.6408664700000002 Au
atom 27.1809001200000004 32.9693803199999991 2.9859338200000001 Au
atom 1.8352034699999999 32.7573924399999967 2.7191572499999999 Au
atom 4.5810870899999996 33.0027890699999986 2.4124177599999999 Au
atom 8.9892148600000006 35.4913392500000029 2.6436914200000001 Au
atom 11.7800073699999999 35.4494210499999980 2.2327760099999998 Au
atom 14.5362369699999991 35.4002916099999965 2.5863212500000001 Au
atom 17.3065704599999997 35.3402575100000007 2.5521632300000001 Au
atom 20.1488616500000006 35.4408346000000023 2.4635939400000000 Au
atom 23.2794929400000008 35.3824251599999968 2.5804806100000000 Au
atom 25.4197041800000001 35.4001973299999975 2.8681550300000000 Au
atom 0.3347922100000000 35.4509437000000034 2.7050339200000000 Au
atom 3.1428451599999998 35.4199384899999998 2.6721791800000001 Au
atom 6.1086581200000003 35.4003073299999969 2.5927230899999998 Au
atom 7.4840025399999996 37.8969546300000033 2.6049932400000002 Au
atom 10.3203450500000002 37.8855890399999993 2.6212996000000000 Au
atom 13.1696535400000005 37.8638739200000032 2.4129135300000000 Au
atom 15.9848706299999996 37.8733861199999993 2.8258990200000000 Au
atom 18.7358046899999984 37.9069481499999981 2.5593418899999998 Au
atom 21.5282959600000012 37.9440408999999974 2.5205992799999999 Au
atom 24.2341656000000008 37.9141924500000016 2.8068594800000000 Au
atom 27.0753010900000000 37.9904776400000017 2.9116069499999999 Au
atom 1.7255917999999999 37.9347504300000011 2.8017164299999999 Au
atom 4.4930295600000001 37.8518509100000031 2.5853647400000002 Au
atom 8.7221522100000008 1.0504561600000000 2.6327171200000001 Au
atom 11.6705094799999998 0.8347439400000000 2.7230251100000000 Au
atom 14.6026567299999996 0.8767244600000000 2.6667582900000002 Au
atom 17.3992756799999988 0.9104930500000000 2.5692250200000002 Au
atom 20.1330173300000013 0.8443231300000000 2.6788712000000001 Au
atom 22.9040795499999987 0.9133209799999999 2.8554443900000002 Au
atom 25.7391381599999995 0.9321668300000000 3.0112035000000001 Au
atom 0.3901855900000000 0.9082462400000000 2.6012879700000000 Au
atom 3.1204872799999999 0.8444183500000000 2.3868468599999999 Au
atom 6.0146989299999998 0.8742655300000000 2.5759373800000001 Au
atom 7.5465324699999998 3.1736470300000001 2.6030463300000002 Au
atom 10.2979539199999994 3.3144331800000000 2.8207620499999999 Au
atom 12.8966013999999998 3.3055632199999998 2.7955340099999999 Au
atom 16.0933629600000003 3.3700750600000000 2.6642852499999998 Au
atom 18.6627913899999989 3.3943818499999998 2.6921222700000000 Au
atom 21.4973639500000004 3.2983199299999999 2.7581707899999999 Au
atom 24.3097151800000013 3.3952359099999998 2.6531789200000002 Au
atom 27.1869847299999989 3.4151004000000000 2.7849355600000001 Au
atom 1.8782746699999999 3.3543099800000000 2.5379587699999999 Au
atom 4.6871010999999996 3.2655210900000000 2.4939785500000000 Au
atom 8.8894091199999998 5.8557077900000003 2.8051635099999999 Au
atom 11.7519369499999993 5.8294263900000001 2.7213065500000000 Au
atom 14.4721232200000003 5.9564453999999998 2.7608902299999998 Au
atom 17.2825835999999988 5.8902497699999996 2.5331336300000000 Au
atom 20.0080217000000005 5.9112547600000003 2.5352735700000002 Au
atom 22.9045752500000006 5.8273729599999999 2.6168943100000002 Au
atom 25.6841940199999996 5.8290345300000004 2.5476065900000000 Au
atom 0.5858459200000000 6.0240740500000003 2.7390173500000001 Au
atom 3.0829346700000002 5.7898440200000003 2.6088433200000001 Au
atom 6.0346734399999997 5.7815594700000004 2.5806253400000001 Au
atom 7.4972178400000002 8.2434152600000008 2.7395537299999999 Au
atom 10.4197439599999999 8.3396829300000004 2.8914199699999998 Au
atom 12.8560527300000000 8.3170899400000007 2.4273202500000002 Au
atom 15.7145360200000006 8.2501070300000006 2.5314799799999999 Au
atom 18.7017069199999995 8.3267501599999996 2.6749052600000001 Au
atom 21.5577918799999999 8.3171921900000001 2.4257875499999999 Au
atom 24.3440478200000001 8.3619798700000008 2.5371312000000001 Au
atom 27.1610537900000004 8.2311084300000008 2.4058627200000000 Au
atom 1.6393890300000000 8.1483831200000001 2.5018289500000002 Au
atom 4.6163290500000000 8.1708774300000009 2.3924869200000001 Au
atom 8.8646826200000000 10.7299605699999994 2.5710714800000001 Au
atom 11.6843171199999993 10.8027551800000001 2.4465932100000001 Au
atom 14.5283675500000005 10.7639783300000005 2.4536891700000001 Au
atom 17.3328822799999998 10.7311677599999999 2.6805180599999998 Au
atom 20.3415881799999987 10.8386886199999992 2.5134145499999998 Au
atom 22.7573536499999989 10.7979064299999994 2.3564487299999999 Au
atom 25.8045379600000011 10.7640900300000002 2.3580513200000000 Au
atom 0.3562254100000000 10.7810213200000007 2.5375858899999999 Au
atom 3.2300144300000002 10.6869516999999998 2.6532900300000000 Au
atom 5.9779447299999999 10.7435812800000008 2.5667452700000002 Au
atom 7.9162461400000002 12.9171627200000003 5.6010823600000004 Cl
atom 8.0425529299999994 15.8760152699999999 8.3582173999999991 Cl
atom 7.7569637499999997 12.7614594100000005 8.3215554100000002 Na
atom 7.9833790400000000 15.7407580199999995 5.6294725000000003 Na
atom 7.9045905100000002 18.6782938200000004 5.6970277400000002 Cl
atom 8.0033621999999998 21.5608927399999999 8.6105511900000007 Cl
atom 7.8708188200000002 18.4457591100000009 8.3821338000000001 Na
atom 8.0213688199999993 21.4530405699999989 5.8139141299999997 Na
atom 7.9460371299999997 24.2761598499999991 5.6955173200000004 Cl
atom 8.0414880499999999 27.0236189099999997 8.6435824900000000 Cl
atom 7.8538011299999999 24.2260050299999996 8.4496949800000003 Na
atom 7.9460762300000001 27.0417833899999991 5.8510738499999997 Na
atom 7.9045005799999997 29.7714931699999994 6.0709014799999999 Cl
atom 8.4087744699999991 32.6626023900000035 8.4046090299999996 Cl
atom 8.0758050099999998 29.9102669600000013 7.9235188499999998 Na
atom 7.9179241300000003 32.6743855100000005 5.5730953500000000 Na
atom 8.0257682199999998 35.6129587200000017 5.6474637599999999 Cl
atom 7.3585910400000003 38.3524097999999967 8.2391886400000001 Cl
atom 7.9928031099999997 35.4590268700000024 7.9659078499999998 Na
atom 8.0379925700000001 38.3497475599999973 5.5869589299999998 Na
atom 7.9254754099999998 1.6390035300000001 5.9575469900000000 Cl
atom 7.9178226000000000 4.7325861500000004 8.4158223700000008 Cl
atom 7.8428874899999999 1.6857085999999999 7.9624731400000002 Na
atom 7.8591689000000002 4.5311999600000004 5.6087782900000001 Na
atom 8.0440334000000000 7.2176473000000003 5.5453305600000000 Cl
atom 8.0016587000000001 10.0263136399999997 8.1776094900000000 Cl
atom 7.8827760800000002 7.1944173200000003 8.1760478400000007 Na
atom 8.1041029099999999 9.9656252700000003 5.5062675199999997 Na
atom 10.7137530499999993 13.0821405700000000 5.3073553799999997 Na
atom 13.6864496199999994 13.0311082900000006 5.6778912999999998 Cl
atom 10.6937205300000002 15.9792733100000000 8.1075827799999995 Na
atom 13.6654530100000002 15.9850983899999992 8.0476683900000001 Cl
atom 13.6405953400000008 13.0867093400000005 7.7835330500000000 Na
atom 10.9783031700000002 13.2629817899999995 8.2861097699999995 Cl
atom 13.5067890399999992 16.0560442399999985 5.3415625100000002 Na
atom 10.6368265100000006 15.9523494899999996 5.2059673300000000 Cl
atom 10.6870409100000003 18.8552441000000002 5.4213603199999998 Na
atom 13.3740877200000003 18.8448989199999986 5.3999007900000002 Cl
atom 10.7767143999999995 21.2870733799999989 8.1798130199999992 Na
atom 13.4913858100000006 21.7391601299999984 8.3887037200000005 Cl
atom 13.5924261499999997 18.8650584200000004 8.0901576500000001 Na
atom 10.7297204199999996 18.5922312000000005 7.9960196899999998 Cl
atom 13.6479578700000008 21.6226223600000012 5.6313967500000004 Na
atom 10.8022961399999993 21.5784639700000014 5.4050612200000003 Cl
atom 10.8177772999999995 24.3258644100000012 5.5681615200000003 Na
atom 13.8533473100000002 24.4253563500000013 5.6660560899999997 Cl
atom 10.8129756900000000 27.0918066899999985 8.2338499800000005 Na
atom 13.5507695199999993 27.1731277599999999 8.6082012500000005 Cl
atom 13.6725604500000006 24.3004113199999985 8.4140518499999999 Na
atom 10.7767897099999992 24.2948437900000016 8.6133265399999992 Cl
atom 13.6705621500000003 27.0046889800000010 5.6647787799999998 Na
atom 10.6890267899999998 26.9935934400000015 5.4178387399999997 Cl
atom 10.7764725800000001 29.8297766499999994 5.6684118699999999 Na
atom 13.5284796699999994 29.7416562099999986 5.6209150799999996 Cl
atom 10.4255796400000005 32.6264909799999998 8.2306822999999998 Na
atom 13.4354742799999993 32.6812064499999977 8.2870236300000002 Cl
atom 13.6090981200000005 29.8882368700000001 8.4286525099999992 Na
atom 10.8985816399999997 29.8247039100000002 8.4923202799999995 Cl
atom 13.4908420299999996 32.8251496000000031 5.5446696500000003 Na
atom 10.6821083100000003 32.7282893699999988 5.7701991599999998 Cl
atom 10.7093959099999996 35.4649036200000012 5.5927940700000001 Na
atom 13.5337627400000002 35.5633907200000010 5.6391789299999999 Cl
atom 10.8767879799999996 38.4055939699999982 8.2631143999999992 Na
atom 13.3149817400000003 38.5235402799999989 8.5677483199999998 Cl
atom 13.2873328599999994 35.4786825899999982 8.3192766700000007 Na
atom 10.7409496299999994 35.3347897299999971 8.4371283500000001 Cl
atom 13.5348376300000002 38.4432028599999995 5.6199893400000001 Na
atom 10.7852881899999993 38.3771362900000028 5.2851948699999998 Cl
atom 10.7308223399999996 1.8590723700000000 5.7245819800000000 Na
atom 13.7332288299999998 1.8889389200000000 5.6872400699999996 Cl
atom 10.6837875699999998 4.5780695400000004 8.1448011299999994 Na
atom 13.6534722199999994 4.5240908900000001 8.6942404599999996 Cl
atom 13.5710290499999999 1.8358521299999999 8.4445227799999998 Na
atom 10.7285191700000002 1.5718308800000000 8.5084156400000008 Cl
atom 13.4625932800000001 4.6422219699999996 5.8140365200000002 Na
atom 10.6916300500000006 4.5467580099999996 6.0159420600000004 Cl
atom 10.8605124899999996 7.3872441999999996 6.0009841699999997 Na
atom 13.5335982099999992 7.5085714399999999 5.8042107999999999 Cl
atom 10.5637681200000006 10.3781860699999999 8.4896183500000006 Na
atom 13.7325494500000005 10.2546111199999999 8.5789082200000006 Cl
atom 13.5549788299999996 7.4414172599999997 8.4885912799999996 Na
atom 10.7181323299999995 7.3836626799999996 8.4230697699999997 Cl
atom 13.5474470999999994 10.3004037299999993 5.7185210000000000 Na
atom 10.6760703699999997 10.2704067299999995 5.7595201400000002 Cl
atom 16.5574922600000001 13.2268912499999995 5.2779964000000001 Na
atom 19.0711127299999994 13.1791192099999996 5.4163709899999999 Cl
atom 16.3749525300000016 15.8050309700000007 8.0052173500000006 Na
atom 19.2064157100000017 15.9147797200000003 8.1496142900000006 Cl
atom 19.3297712100000005 13.0696945600000003 8.1426315200000001 Na
atom 16.5241824999999984 13.2397268700000001 8.1655946000000004 Cl
atom 19.0585550800000014 15.9237852199999992 5.3851562099999999 Na
atom 16.3161645499999999 15.9846014099999998 5.2415972799999997 Cl
atom 16.2728948899999999 18.8102861899999994 5.5195672299999998 Na
atom 19.3000762399999992 18.7418922300000013 5.1626257100000004 Cl
atom 16.6475984699999984 21.5605140300000002 8.0992811699999994 Na
atom 19.1124610600000011 21.5694205299999986 8.3129568200000001 Cl
atom 19.2218158999999993 18.6284867900000002 8.2966405999999999 Na
atom 16.5360292499999986 18.8668332800000016 8.2620848000000002 Cl
atom 19.3180362700000003 21.4688812599999999 5.5441442299999997 Na
atom 16.3669425199999985 21.4824088099999990 5.3565386600000000 Cl
atom 16.7073178599999999 24.2764828799999997 5.8300348599999996 Na
atom 18.9273495199999999 24.1362509900000006 5.4410435599999998 Cl
atom 16.3302531000000002 27.1540938199999999 8.2383422100000008 Na
atom 19.2412932400000010 27.2768954999999984 8.4192297600000003 Cl
atom 19.3011779499999996 24.3055066500000017 8.2835944900000005 Na
atom 16.6034443500000002 24.2584462700000003 8.7283494299999997 Cl
atom 19.0295449599999991 27.3252197599999995 6.2582867400000000 Na
atom 16.7369593600000002 26.9503367099999984 5.4481383900000004 Cl
atom 16.3172841200000001 29.9642590499999990 5.4696774200000000 Na
atom 19.1480911499999991 29.9325684699999996 6.1128837400000000 Cl
atom 16.2322101699999983 32.9620788800000000 8.3058401300000000 Na
atom 19.3100847000000009 32.7386057300000033 8.3772977999999991 Cl
atom 19.0143245000000007 30.1030821999999993 8.0924384499999995 Na
atom 16.3015155199999988 30.0588443500000011 8.7001074000000003 Cl
atom 19.2033104500000000 32.9428387399999991 5.6479010799999996 Na
atom 16.4531152200000008 32.7988009800000029 5.5228411900000003 Cl
atom 16.4169155099999990 35.6212454599999973 5.6351020900000002 Na
atom 19.2281389900000015 35.2999226199999967 5.7977562400000000 Cl
atom 16.3010072000000008 38.2572141799999983 8.1517525000000006 Na
atom 19.1880925500000004 38.3143883899999977 8.7435346900000006 Cl
atom 19.1593466499999998 35.6225665500000019 8.2163439199999999 Na
atom 16.0861712200000007 35.7688797400000027 8.4528250200000006 Cl
atom 19.2371185900000015 38.4572301299999992 5.9668947899999996 Na