#===============================================================================
# Created using the Atomic Simulation Environment (ASE)

# Tue Dec 23 22:26:18 2025

#=======================================================
lattice_vector 28.1999999999999993 0.0000000000000000 0.0000000000000000 
lattice_vector 0.0000000000000000 39.4799999999999969 0.0000000000000000 
lattice_vector 0.0000000000000000 0.0000000000000000 62.3296083400000001 
atom 7.5242839999999998 14.7311873200000001 -0.6054497400000000 Au
atom 10.5996190000000006 14.7168865499999999 -0.3216761600000000 Au
atom 12.9206582999999995 14.6799369899999999 -0.2233690900000000 Au
atom 15.8780037200000006 14.7592792399999997 0.0410257700000000 Au
atom 18.7484122299999996 14.8022860800000000 -0.0505337000000000 Au
atom 21.6064287600000000 14.6663066799999999 -0.2124845100000000 Au
atom 24.3685491300000017 14.8390424099999994 -0.1123028800000000 Au
atom 27.2950185900000015 14.7148627600000008 -0.0126357700000000 Au
atom 1.9553149200000000 14.7213744200000001 0.1005385900000000 Au
atom 4.7952030199999998 14.7434394500000003 -0.0641199100000000 Au
atom 9.0401395999999998 17.2846413299999995 -0.4025231900000000 Au
atom 11.9186336199999996 17.3114544200000005 -0.1914411500000000 Au
atom 14.6430783699999996 17.2034025100000001 -0.1747058400000000 Au
atom 17.4617613100000000 17.2117791800000006 -0.1755621900000000 Au
atom 20.5908043800000016 17.2500162300000000 -0.2865391600000000 Au
atom 22.5946337200000009 17.2878637600000005 -0.1778608000000000 Au
atom 25.7969149199999990 17.3140667300000004 -0.1219130200000000 Au
atom 0.4099269900000000 17.1699817599999989 0.0287113400000000 Au
atom 3.3342101300000002 17.1633402599999982 0.1233646700000000 Au
atom 6.1163900900000003 17.2555950899999999 -0.2177231300000000 Au
atom 7.5321958400000000 19.6993636300000006 -0.3028966600000000 Au
atom 10.4297663299999996 19.7183650499999992 -0.4316000800000000 Au
atom 13.2632542200000003 19.7354967600000002 -0.3150610100000000 Au
atom 16.0018761699999992 19.6851543699999993 -0.1513492200000000 Au
atom 18.8294925699999993 19.7265861099999995 -0.3705451100000000 Au
atom 21.6744577700000001 19.7493588799999991 0.0178974000000000 Au
atom 24.4560179799999986 19.7637494199999999 0.1310237000000000 Au
atom 27.2269792899999992 19.7804834900000017 0.0010446400000000 Au
atom 1.8685184200000000 19.7208478499999984 0.1130622700000000 Au
atom 4.7041899300000001 19.6851775099999990 -0.1182927100000000 Au
atom 8.9298207900000008 22.1410421399999997 -0.2585205300000000 Au
atom 11.6656932999999992 22.1408508499999996 -0.1122603800000000 Au
atom 14.5378700100000007 22.2144243800000005 -0.0563338100000000 Au
atom 17.3568672900000003 22.1101917700000001 0.0905550200000000 Au
atom 20.1349903599999998 22.1995441699999994 0.2212679300000000 Au
atom 22.9559184099999989 22.2399017599999986 0.2351592400000000 Au
atom 25.8666927300000005 22.2140897799999983 0.1707583400000000 Au
atom 0.6800577600000000 22.1232996200000009 0.0799842700000000 Au
atom 2.8125731799999998 22.1376761199999983 -0.1735109500000000 Au
atom 5.9797593500000001 22.3050257599999995 -0.4140630100000000 Au
atom 7.4519451800000001 24.7191411499999987 -0.3041752100000000 Au
atom 10.2969520699999997 24.6165005999999984 -0.1320559900000000 Au
atom 13.0884761199999993 24.6539760799999996 -0.0538668200000000 Au
atom 15.8742295700000007 24.6229133100000013 0.0511910300000000 Au
atom 18.6380743899999999 24.6252846699999992 0.2729782200000000 Au
atom 21.4489160500000011 24.6654156200000010 0.2771101300000000 Au
atom 24.3220549300000002 24.6201493300000003 0.2616693400000000 Au
atom 27.4458545899999997 24.7130407699999992 -0.0107593000000000 Au
atom 1.5073229399999999 24.8382911600000007 0.1431365500000000 Au
atom 4.4699716299999999 24.6929336900000003 -0.2808178400000000 Au
atom 8.9093724800000000 27.1154752499999994 -0.3259003500000000 Au
atom 11.7358639000000000 27.1619193900000013 -0.1111454300000000 Au
atom 14.6264467699999994 27.3431099899999985 -0.1038680000000000 Au
atom 17.2593374500000003 27.2131011700000016 0.0985500100000000 Au
atom 19.9848974499999983 27.0541489000000013 0.2641828500000000 Au
atom 22.8087695600000018 27.0668235400000015 0.0091000600000000 Au
atom 25.5918783099999985 27.1829218600000004 -0.0377766300000000 Au
atom 0.2616312100000000 27.1732626000000010 0.0567864700000000 Au
atom 3.2000001899999999 27.1903389199999985 -0.0769376700000000 Au
atom 6.0088681700000004 27.1393173200000000 -0.1854247400000000 Au
atom 7.4985945500000000 29.5629963400000015 -0.2803273500000000 Au
atom 10.2682699199999998 29.6669237599999995 -0.3448149800000000 Au
atom 13.0934713299999999 29.6614806199999990 -0.0342289300000000 Au
atom 15.7496101999999993 29.3854386199999986 -0.0206387500000000 Au
atom 18.6708901800000007 29.5543335599999999 0.1134414000000000 Au
atom 21.4602389699999989 29.5060773599999990 0.1712983500000000 Au
atom 24.2683550600000011 29.5629490200000014 0.0974989800000000 Au
atom 27.1750127399999997 29.5918024600000003 0.1300910600000000 Au
atom 1.7257998000000001 29.7095639100000000 -0.0321066600000000 Au
atom 4.6124845199999998 29.6569003299999991 -0.0614273100000000 Au
atom 8.8463674099999992 32.1484329800000026 -0.2348814800000000 Au
atom 11.7109869199999999 32.1500857999999994 -0.2321041200000000 Au
atom 14.6059113499999995 32.1096870800000005 -0.1219176300000000 Au
atom 17.3336451999999994 32.0726343299999996 -0.0743119500000000 Au
atom 20.1217024799999997 32.0599370099999987 0.1500584500000000 Au
atom 22.9703635999999989 32.0829082300000010 0.1307468400000000 Au
atom 25.7584868100000008 31.9989725199999988 0.0398344400000000 Au
atom 0.3158748200000000 32.1184967700000001 0.1858954300000000 Au
atom 3.2025632000000002 32.2458924800000020 -0.1911926400000000 Au
atom 6.0065318500000000 32.1225115900000020 -0.1358859300000000 Au
atom 7.3689932200000001 34.6382601299999990 -0.0973624300000000 Au
atom 10.2588677399999995 34.5776362699999993 -0.3136447700000000 Au
atom 13.1373817699999993 34.6094748300000035 -0.2649869100000000 Au
atom 15.9321497799999996 34.6052292600000015 0.0321270900000000 Au
atom 18.6800657200000018 34.5343112600000026 0.2304120000000000 Au
atom 21.4839159600000009 34.4949252500000014 0.1331598300000000 Au
atom 24.3387127599999999 34.5126149100000035 0.2612550900000000 Au
atom 27.0831479299999991 34.5441986200000031 0.2455689100000000 Au
atom 1.7837152400000000 34.5042181700000015 0.0905324800000000 Au
atom 4.5133870600000003 34.6514923300000035 0.0487371200000000 Au
atom 8.8336807600000000 37.0479968200000016 -0.1587944700000000 Au
atom 11.6900768199999998 37.0234745500000031 -0.0534585300000000 Au
atom 14.4532412299999997 37.0183324999999996 0.1107124100000000 Au
atom 17.3135281700000014 36.9976747600000024 0.1422690900000000 Au
atom 20.0874974199999983 36.9924106799999990 -0.0030277000000000 Au
atom 22.8860588500000013 38.3318509599999970 0.2611914500000000 Au
atom 25.7022653900000009 36.9597169999999977 0.2314257200000000 Au
atom 0.2619206600000000 37.2405962599999967 -0.0132046900000000 Au
atom 3.1792715800000000 37.1123143000000013 -0.0850415500000000 Au
atom 6.0798214200000000 37.0645176499999991 0.0166123500000000 Au
atom 7.3972032499999996 0.0205786800000000 0.0146898400000000 Au
atom 10.2310808899999994 0.0442104000000000 0.2557158100000000 Au
atom 13.1472179400000009 0.1144105600000000 0.0696621800000000 Au
atom 15.9919353999999991 0.0114792300000000 0.0760120300000000 Au
atom 18.8801525800000007 0.1307748300000000 0.0352030900000000 Au
atom 21.5840490400000000 -1.4767192800000000 0.4522743700000000 Au
atom 24.4222361700000015 -0.0358734000000000 0.4444888000000000 Au
atom 27.2073592499999997 -0.0426114300000000 0.2094119200000000 Au
atom 1.7914183500000000 -0.0016632400000000 0.1916824000000000 Au
atom 4.5921099999999999 0.0153147400000000 0.3966608100000000 Au
atom 8.7821321399999999 2.4603548100000001 0.1169167300000000 Au
atom 11.6186853100000000 2.4814019799999998 0.0636351700000000 Au
atom 14.5723262099999999 2.4718652200000002 0.0254400300000000 Au
atom 17.5223816799999987 2.4882761599999998 0.2025204300000000 Au
atom 20.1786073600000009 2.5010982700000000 0.2551353000000000 Au
atom 23.1689896699999984 2.4668525799999999 0.5039494799999999 Au
atom 25.8019366900000016 2.3444548799999998 0.5978130900000000 Au
atom 0.3901022700000000 2.4703837700000002 0.1948426700000000 Au
atom 3.1987260300000000 2.3845414300000001 0.4752654600000000 Au
atom 5.9582875900000003 2.5073840000000001 0.2746538700000000 Au
atom 7.4728783500000002 4.8632375999999997 0.3664864600000000 Au
atom 10.2637707000000002 4.9118410199999998 0.0715556500000000 Au
atom 13.0273210200000005 4.8268775699999997 0.0805460000000000 Au
atom 15.9822644199999999 4.8568033699999997 -0.0909031400000000 Au
atom 18.8662374700000015 4.8959849200000001 0.0425030900000000 Au
atom 21.6849736899999996 4.8635056199999998 0.3001646300000000 Au
atom 24.5361493800000012 4.8879957799999998 0.2770527500000000 Au
atom 27.2821863600000007 4.9076900300000004 0.7576305600000000 Au
atom 1.9025523499999999 4.8336061299999997 0.5297952900000000 Au
atom 4.6895903099999998 4.9461578900000003 0.6329382800000000 Au
atom 8.8509645100000007 7.3747871099999998 0.2354079100000000 Au
atom 11.7099892800000003 7.3126644900000004 -0.0421616300000000 Au
atom 14.5257554100000004 7.3285292599999998 -0.1841905100000000 Au
atom 17.3416581100000009 7.2140131700000003 -0.1114794000000000 Au
atom 20.1914865399999996 7.3677582599999996 0.0280018800000000 Au
atom 22.9974666499999998 7.2870792399999997 0.0952966600000000 Au
atom 25.7913787200000009 7.3304318000000004 0.4144119600000000 Au
atom 0.3425189200000000 7.3216161000000000 0.4714743500000000 Au
atom 3.3048410000000001 7.3140673400000003 0.4723136400000000 Au
atom 6.0761928599999999 7.3219675400000002 0.3162997000000000 Au
atom 7.4918252100000000 9.7676645299999993 -0.2374753500000000 Au
atom 10.3081293200000008 9.7502647899999992 -0.1220502700000000 Au
atom 13.1252089400000003 9.7656080299999992 -0.1131114000000000 Au
atom 16.1846253699999991 9.7785624200000001 -0.2144623000000000 Au
atom 18.4216040399999983 9.7955011400000007 -0.2139473500000000 Au
atom 21.4553336799999990 9.9200093900000006 -0.1747358200000000 Au
atom 24.2574914499999998 9.8196119599999996 0.0213669700000000 Au
atom 27.2019576900000004 9.7333720899999996 0.0893731800000000 Au
atom 1.8839983400000000 9.7706703299999997 0.2741443200000000 Au
atom 4.7137515499999996 9.7020385900000008 -0.0518302600000000 Au
atom 8.6870549799999992 12.2811568300000005 -0.4455958600000000 Au
atom 11.6882481699999996 12.2145593899999998 -0.0744902500000000 Au
atom 14.5318322299999991 12.2856717100000008 -0.1704666400000000 Au
atom 17.2419847699999984 12.2562831299999999 -0.4111423400000000 Au
atom 20.0410326300000001 12.4107077500000003 -0.2463981000000000 Au
atom 23.0611636599999983 12.3003554600000005 -0.0822522000000000 Au
atom 25.8836828300000015 12.2877413299999994 0.0006046000000000 Au
atom 0.4457487800000000 12.1969253799999997 0.0692689500000000 Au
atom 3.2798424800000001 12.2710761900000005 0.0684285200000000 Au
atom 6.3207305399999996 12.2374635999999999 -0.3685557000000000 Au
atom 7.6079100200000003 13.2050864299999997 2.1401718199999999 Au
atom 10.3725125100000000 13.2170707800000002 2.2487262000000001 Au
atom 13.1595344000000001 13.2813512800000009 2.4678063500000000 Au
atom 15.8163105099999992 13.4216030800000006 2.2755206000000001 Au
atom 18.7410657000000000 13.2529568599999994 2.5610220099999998 Au
atom 21.5340302699999988 13.4695565599999991 2.2920587100000001 Au
atom 24.4747171600000009 13.1088475500000001 2.4777269400000002 Au
atom 27.2899392799999987 13.1767477100000008 2.4631610099999999 Au
atom 1.9568973199999999 13.3266723299999992 2.7302171700000000 Au
atom 4.7792559299999997 13.2315719800000000 2.4342093800000000 Au
atom 8.9183354900000005 15.6303091399999996 2.1126634800000001 Au
atom 11.7329505100000002 15.7265263900000001 2.2714596999999999 Au
atom 14.5419474500000003 15.6769258399999991 2.5291058099999999 Au
atom 17.4398687499999987 15.7609973700000001 2.5791904799999998 Au
atom 20.1988910799999992 15.6478323800000005 2.3221092600000000 Au
atom 23.0323518299999996 15.6253890799999997 2.4469649499999999 Au
atom 25.9571272499999992 15.7354807399999999 2.5760582599999999 Au
atom 0.4093340400000000 15.6040916599999999 2.6497065000000002 Au
atom 3.2481652900000002 15.5583091099999997 2.6427997400000001 Au
atom 6.1727011100000002 15.6318980799999991 2.4086649200000001 Au
atom 7.5125443399999998 18.1862488199999994 2.2853183800000001 Au
atom 10.2353578499999998 18.1050498200000014 2.3918340800000002 Au
atom 13.1336397599999994 18.0802300500000008 2.5385525200000001 Au
atom 15.8947956000000001 18.0851686700000016 2.6045461200000002 Au
atom 18.8420253700000018 18.1878104699999987 2.3825477400000001 Au
atom 21.5977108700000002 18.1013853100000013 2.4761839399999999 Au
atom 24.4678044399999983 18.0790058400000007 2.6743043800000001 Au
atom 27.2557155999999985 18.1290971300000017 2.5029077200000001 Au
atom 1.8459672600000001 18.0901980800000004 2.8072031399999999 Au
atom 4.7835333899999997 18.0937149200000000 2.6090212300000002 Au
atom 8.9552827300000004 20.6862582000000010 2.2630068400000001 Au
atom 11.7264119000000004 20.5127614300000012 2.3227007400000002 Au
atom 14.5373346699999999 20.5777517400000001 2.5232606400000002 Au
atom 17.3864365599999999 20.5388860800000010 2.4856992700000000 Au
atom 20.1645292199999986 20.5638202399999983 2.6346774800000001 Au
atom 23.0178772000000009 20.4518162299999986 2.7895367100000001 Au
atom 25.8797525399999984 20.8016354800000016 2.8638402699999999 Au
atom 0.5030190500000000 20.5720021700000011 2.5931221899999999 Au
atom 3.3467623600000000 20.5775208700000007 2.5643746599999999 Au
atom 6.1213985700000002 20.5865724199999995 2.4554727299999999 Au
atom 7.5502642299999998 23.0862353700000007 2.1270908199999998 Au
atom 10.2386114100000007 23.2188932200000018 2.5580367700000002 Au
atom 12.9997113899999999 22.9776409699999995 2.4643258900000000 Au
atom 15.7949967499999993 23.0442689300000012 2.7829081699999998 Au
atom 18.6029481899999993 22.9797413599999985 2.8538614400000002 Au
atom 21.4614906499999982 22.9761359499999998 2.7362374300000001 Au
atom 24.3112166199999997 23.0469817299999988 3.0457183300000001 Au
atom 27.0803656400000001 22.9552400299999988 2.7505545499999999 Au
atom 1.8283302900000000 23.0200779199999985 2.6814466700000001 Au
atom 4.7077679899999998 23.1197085300000005 2.2736232200000002 Au
atom 8.8571938699999997 25.6432458499999996 2.4632901600000001 Au
atom 11.5962080699999994 25.6656743600000006 2.6304919400000002 Au
atom 14.4382660800000000 25.5112378200000016 2.5253775100000002 Au
atom 17.3044073400000009 25.5938431699999995 2.6160450599999998 Au
atom 20.0440609000000016 25.3608559500000013 2.9969479899999998 Au
atom 22.9185773899999994 25.4245793000000013 2.8305364599999998 Au
atom 25.6373799799999986 25.5276558599999994 2.7215488699999999 Au
atom 0.2850062000000000 25.4804519499999991 2.7881265300000000 Au
atom 3.2682379899999998 25.5164631799999988 2.4831451499999999 Au
atom 6.0712853600000001 25.5299140099999988 2.1538154399999998 Au
atom 7.5115725299999996 28.0578212899999997 2.2988149700000000 Au
atom 10.2515108500000007 28.0830514700000009 2.2086637499999999 Au
atom 13.1161669300000003 27.9086374799999994 2.4985294499999999 Au
atom 15.7677307700000000 27.9898720700000005 2.6881580199999999 Au
atom 18.5969304599999994 28.0011471199999988 2.8143415300000001 Au
atom 21.4993390399999988 28.0491334300000013 2.7705089500000000 Au
atom 24.2244096999999989 27.9577299799999999 2.6307016000000001 Au
atom 27.0681581800000011 27.9683037200000015 2.6502841300000002 Au
atom 1.8102300400000000 27.9286806299999988 2.4238101799999998 Au
atom 4.5738775699999996 28.0386021800000016 2.5571059400000000 Au
atom 8.9300935500000005 30.5447181699999994 2.2947930400000001 Au
atom 11.5828259100000004 30.6618697500000010 2.3489759700000001 Au
atom 14.4221182500000005 30.5813833899999992 2.5973443500000002 Au
atom 17.2063544800000017 30.6427407800000005 2.6982174500000000 Au
atom 20.0414725599999990 30.4758026800000010 2.7366280800000000 Au
atom 22.9140020900000003 30.4320754200000003 2.8023945399999999 Au
atom 25.7184235699999988 30.4041496699999989 2.6963396500000001 Au
atom 0.3427046200000000 30.3896073800000011 2.7827481900000000 Au
atom 3.2181511700000001 30.4502767399999996 2.3890201900000001 Au
atom 6.1048491399999998 30.4417850399999992 2.3228682100000002 Au
atom 7.4988338299999997 32.9801211400000014 2.4768159399999998 Au
atom 10.2695821800000004 32.9849183899999971 2.5211863499999998 Au
atom 13.0197791699999996 33.2074250399999968 2.4179814300000002 Au
atom 15.8791544099999999 33.1087255500000026 2.3633500399999998 Au
atom 18.7178172399999987 33.0205531000000008 2.6369751600000000 Au
atom 21.4847608299999990 32.8830503300000032 2.6482241599999998 Au
atom 24.3304242299999984 32.9193899200000004 2.6979362800000000 Au
atom 27.1367018199999990 32.8755997399999984 2.7559403499999999 Au
atom 1.8219971200000000 32.8778896199999977 2.5114036099999999 Au
atom 4.7023072099999998 32.8814423700000020 2.5418868300000002 Au
atom 8.7994116200000008 35.4179500199999993 2.3575696499999999 Au
atom 11.8083296900000008 35.2174390799999983 2.4385303800000000 Au
atom 14.5327641100000005 35.4669949800000026 2.6495487199999999 Au
atom 17.3123466400000012 35.4675434199999984 2.9777362400000000 Au
atom 20.2143774200000017 35.4827027899999976 2.7517187500000002 Au
atom 22.9933088900000016 35.2997458600000016 2.9573467700000000 Au
atom 25.7458082099999999 35.4140476399999997 2.9484822999999998 Au
atom 0.2826808200000000 35.3746202800000020 2.8125418899999999 Au
atom 3.1315993600000001 35.4439899699999970 2.5126140900000000 Au
atom 6.0004961100000003 35.4553340699999993 2.5437380100000002 Au
atom 7.4107114500000000 37.1354337499999971 2.6243974699999999 Au
atom 10.2338982200000004 37.7860262199999966 2.6141351300000002 Au
atom 13.0230989400000006 37.8815012299999978 2.5197294399999999 Au
atom 15.9132750699999992 37.8860027599999967 2.6758512799999998 Au
atom 18.7446748300000010 37.8929527600000000 2.6118840600000000 Au
atom 21.4702505899999991 37.9597618900000029 3.0556872899999998 Au
atom 24.2795452199999993 37.7261986099999973 2.8218565400000002 Au
atom 27.1571796100000000 37.8375270800000010 2.8215071100000002 Au
atom 1.7092565200000001 37.8218876299999991 2.6176309899999999 Au
atom 4.5047815900000003 37.8025109700000002 2.8136120000000000 Au
atom 8.7373304600000008 1.5395605699999999 2.7225984799999998 Au
atom 11.6426163299999992 0.8487766300000000 2.7506687400000001 Au
atom 14.5497888399999997 0.8705880900000000 2.7163034700000002 Au
atom 17.2824035000000009 0.8660749700000000 2.6139531900000001 Au
atom 20.1034520900000011 0.9598306200000000 2.8163114899999999 Au
atom 22.9216200999999984 0.8773250500000001 3.0615614000000000 Au
atom 25.7088831400000011 0.7150549500000000 3.1305544300000001 Au
atom 0.2874461400000000 0.8369465000000000 2.6917844799999999 Au
atom 3.1188942800000001 0.8218115700000000 3.1218635600000000 Au
atom 5.9313491599999999 0.8506297700000000 2.8158134200000000 Au
atom 7.3482173499999996 3.2307215100000000 2.9943586000000000 Au
atom 10.1435497699999999 3.1492562400000002 2.5587889700000002 Au
atom 12.9701006099999994 3.4631494699999998 2.7174598500000000 Au
atom 15.8976269099999996 3.3546030800000000 2.5742295199999998 Au
atom 18.8380770700000006 3.4346545900000001 2.7449108199999999 Au
atom 21.7784759200000018 3.3994316900000001 3.0135189200000001 Au
atom 24.2026518700000004 3.3187073400000000 2.9534738300000001 Au
atom 27.0657050800000007 3.2039179600000001 3.2823811599999999 Au
atom 1.6685624200000000 3.2986332699999998 2.9610362399999999 Au
atom 4.5773267700000000 3.2041786100000000 3.0954059799999998 Au
atom 8.9002638899999997 5.6783423800000001 2.8063458799999998 Au
atom 11.8144546899999998 5.7209356500000004 2.6753937500000000 Au
atom 14.5731542800000007 5.7855971999999998 2.3537423700000000 Au
atom 17.3948484500000013 5.8331955799999999 2.5721981199999999 Au
atom 20.2156426200000006 5.9053505800000003 2.8355437200000000 Au
atom 23.0717583399999988 5.8753026100000003 2.8550838100000000 Au
atom 25.7903096000000005 5.8238535000000002 3.1112565800000000 Au
atom 0.5047256000000000 5.7586355100000004 3.1836129500000001 Au
atom 3.3440426400000001 5.7866409599999997 3.1309917800000000 Au
atom 6.1481904500000004 5.9054965099999999 3.0634548599999998 Au
atom 7.5735083999999997 8.3471446799999995 2.6287350699999998 Au
atom 10.3968597099999993 8.2434138800000003 2.5825859599999998 Au
atom 13.2052841200000000 8.2056407900000004 2.5854916499999998 Au
atom 15.9416144800000001 8.2452330699999994 2.4635468500000002 Au
atom 18.6768622200000003 8.3621400500000007 2.4931833499999998 Au
atom 21.5929926200000004 8.3152135699999992 2.4281348299999999 Au
atom 24.3631539600000018 8.3828830199999995 2.7717403799999998 Au
atom 27.3260110199999993 8.3261845000000001 2.9300393100000002 Au
atom 1.8770781100000000 8.2876559499999995 3.1256655599999998 Au
atom 4.7708103900000003 8.3710616800000004 2.8041867500000000 Au
atom 8.9184243500000004 10.7324304200000000 2.3029561400000000 Au
atom 12.1471042800000006 10.6242666200000002 2.4222894799999999 Au
atom 14.2987476400000002 10.7021728599999992 2.4264268000000002 Au
atom 17.3809245600000004 10.6173465300000007 2.3855926900000002 Au
atom 20.0368029999999990 10.7711812299999998 2.4728596100000000 Au
atom 23.1119204399999987 10.6493141300000005 2.6569327000000000 Au
atom 25.9230166500000010 10.6638274800000001 2.6695695000000002 Au
atom 0.5653304700000000 10.7775755100000001 2.8282543200000001 Au
atom 3.3614655700000000 10.7370266000000001 2.6424615400000002 Au
atom 6.1337559600000002 10.8045053099999997 2.4410226700000002 Au
atom 7.7558762600000000 13.3210563600000000 5.4760997400000004 Cl
atom 7.6754103000000002 15.9836410299999994 8.3782886600000008 Cl
atom 7.8072603599999999 13.2120961500000007 8.0593245000000007 Na
atom 7.6710260799999999 16.0783750199999993 5.4835398099999999 Na
atom 7.6566758200000002 18.9549540299999997 5.7882162599999996 Cl
atom 7.8492506300000002 21.6133928600000011 8.3478993100000007 Cl
atom 7.9816812800000001 18.7460769200000001 7.6801781499999997 Na
atom 8.0143207099999998 21.7918504900000016 5.6127370299999999 Na
atom 7.8642810699999997 24.5251540199999987 5.2450908800000002 Cl
atom 8.1066381900000000 27.3532789200000011 8.2956457199999996 Cl
atom 7.9308204299999998 24.8346759100000014 7.9587495199999996 Na
atom 7.8427190700000002 27.9066234500000014 5.4849602800000001 Na
atom 7.8872592600000004 29.6409595099999983 5.4878720100000002 Cl
atom 7.8784196399999997 32.8543390500000001 8.3695656700000001 Cl
atom 7.7289274099999998 30.2132382600000007 8.2022862399999994 Na
atom 7.6978275399999996 33.0938283099999992 6.0087305200000003 Na
atom 7.8146155600000000 35.8838811999999976 5.5951916600000002 Cl
atom 7.8213115599999998 38.6064172499999998 8.6400506400000001 Cl
atom 7.7326789299999996 35.7953791699999968 8.3341177999999996 Na
atom 7.5631495500000003 38.6558996899999983 5.8029152799999997 Na
atom 7.8220034199999997 1.9388606100000001 5.7338980800000003 Cl
atom 7.8783342200000002 4.7809086399999998 8.6263897000000007 Cl
atom 7.2515479500000000 1.9685010999999999 8.4956167699999998 Na
atom 7.8690008699999998 4.8383009499999998 5.8229997999999998 Na
atom 7.8121600100000004 7.5626690600000002 6.0094329000000002 Cl
atom 7.8495087200000002 10.4404577399999994 8.3465500000000006 Cl
atom 7.7814830099999996 7.7012051899999996 8.3072025000000007 Na
atom 7.7275838600000002 10.3269817499999998 5.6184503599999998 Na
atom 10.7409266100000007 13.1997286000000003 5.8583138000000003 Na
atom 13.7129302600000003 13.3773619400000001 5.3188106900000003 Cl
atom 10.5819958300000003 15.9524389099999997 8.0505499199999999 Na
atom 13.4637394799999992 16.4139316800000010 8.2411903599999992 Cl
atom 13.8106637800000005 13.3374362200000007 8.3264425299999996 Na
atom 10.7637648899999991 12.8969352100000005 7.7094345999999998 Cl
atom 13.3888482300000007 16.0085142100000013 5.3986494499999997 Na
atom 10.4558549000000003 16.0879381300000013 5.2863756600000000 Cl
atom 10.6470811399999992 19.0476597599999984 5.3273412499999999 Na
atom 13.5514504299999992 18.9948614199999994 5.5976835400000002 Cl
atom 10.5458781800000008 21.8388812100000003 8.1895177100000005 Na
atom 13.4543063400000005 21.6402136300000016 8.4036082099999998 Cl
atom 13.3850069400000002 18.6155063500000004 7.8704351499999996 Na
atom 10.2419246600000005 18.8619094800000013 8.1541556499999999 Cl
atom 13.5051242800000004 21.8119950699999983 5.6609118900000004 Na
atom 10.7156865200000002 21.8645760399999993 5.3818349799999998 Cl
atom 10.6091503300000003 24.6786882200000015 5.5796290099999997 Na
atom 13.4499375800000003 24.6052846699999996 5.5209929600000001 Cl
atom 10.5482462600000009 27.4300044800000009 8.3304475999999994 Na
atom 13.2702324699999998 27.2927372400000010 8.5584440500000003 Cl
atom 13.3397544600000000 24.4281769500000010 8.3815136500000005 Na
atom 10.6706692400000005 24.6827692499999998 8.3741477500000006 Cl
atom 13.4510348600000000 27.3051601800000014 5.8522138300000002 Na
atom 10.6901226900000008 27.4135606199999984 5.5555394500000004 Cl
atom 10.5693404999999991 30.1696401600000002 5.7438795799999998 Na
atom 13.4067219400000006 30.2150028299999995 5.6114897199999998 Cl
atom 10.2929397100000006 32.9923990099999997 8.4162601400000003 Na
atom 13.3794959099999993 32.9541567500000028 8.6343979700000002 Cl
atom 13.4836492700000008 30.1750728499999994 8.4615579699999994 Na
atom 10.4857030699999996 30.0676163199999991 8.4552836100000004 Cl
atom 13.4276102399999999 32.8528263500000008 5.6897926099999996 Na
atom 10.6842830699999993 32.9655155299999976 5.7160228300000000 Cl
atom 10.5839365399999998 35.8766956799999974 5.6416710600000002 Na
atom 13.3137451700000007 35.6869535100000022 5.4933120200000003 Cl
atom 10.4061618100000004 38.5736106700000008 8.3948813300000005 Na
atom 13.2984466099999992 38.6097292199999984 8.5271516100000007 Cl
atom 13.4155120399999994 35.7431886800000029 8.3976456299999995 Na
atom 10.4913407400000001 35.7319039400000023 8.3157055599999996 Cl
atom 13.3789066400000003 38.4803878800000021 5.8142178500000004 Na
atom 10.4542845799999995 38.6479199600000030 5.6162372200000004 Cl
atom 10.7265755200000008 1.9629317100000001 5.6901010899999998 Na
atom 13.4241186300000006 1.8745753300000001 5.8473456700000002 Cl
atom 10.6340416700000002 4.7162309200000001 8.7107374199999992 Na
atom 13.3069555299999998 4.6661703399999999 8.5518468599999995 Cl
atom 13.2925695200000007 2.0289184900000001 8.5250629199999999 Na
atom 10.8260625400000006 1.9251481200000000 8.5058173999999998 Cl
atom 13.5179001299999992 4.6064777399999999 5.7462655700000003 Na
atom 10.8361218600000004 4.6336495600000003 5.3739625699999998 Cl
atom 10.5349650599999993 7.5287997400000002 5.6108810499999997 Na
atom 13.4663480700000004 7.6121491099999998 5.6806395600000004 Cl
atom 10.7049737999999994 10.6934260000000005 8.0665027800000004 Na
atom 13.4519213200000003 10.4752303799999993 8.5490866899999993 Cl
atom 13.6611870599999996 7.7246199500000001 8.1002136700000005 Na
atom 10.7145576100000000 7.6703511200000003 8.2763474099999996 Cl
atom 13.4587166200000006 10.4388732500000003 5.5864745899999999 Na
atom 10.5199357199999994 10.3957332400000002 5.3960654200000002 Cl
atom 16.4830959499999992 13.0820270599999997 5.4620382799999998 Na
atom 19.3930444999999985 13.2594272499999999 5.4550515300000004 Cl
atom 16.4536033199999991 16.1277231000000008 8.2548656400000002 Na
atom 19.2588416500000008 15.9964836100000003 8.3897704500000003 Cl
atom 19.1593465099999989 13.2096730999999998 8.2250312799999996 Na
atom 16.2068451099999997 13.3482863300000005 8.3103432700000006 Cl
atom 18.9314364899999994 16.0355850199999992 5.6848356700000000 Na
atom 16.3535401600000014 16.1084046200000017 5.4705215400000000 Cl
atom 16.3724090400000009 19.0515923799999989 5.5123119899999997 Na
atom 19.2441054899999990 18.8072799500000016 5.6483509099999996 Cl
atom 16.1553306899999995 21.6010446700000003 8.2990885999999993 Na
atom 18.9860038399999986 21.6197395000000014 8.6330027600000001 Cl
atom 19.1689582499999993 18.8090588200000006 8.4214683699999995 Na
atom 16.4111572499999987 18.9175258399999997 8.2592739799999997 Cl
atom 19.4335794200000009 21.5201599600000009 5.6545552299999997 Na
atom 16.3210588500000000 21.8284788600000006 5.5221489799999999 Cl
atom 16.3079647399999992 24.4597941600000013 5.7822217599999997 Na
atom 18.6831326000000004 24.3800205599999984 5.7656543100000004 Cl
atom 16.1716400399999998 27.1024078099999990 8.2104914900000008 Na
atom 18.9832261500000001 27.1849559700000007 8.7849409900000008 Cl
atom 18.9167691699999985 24.4494126399999985 8.9924028600000003 Na
atom 16.2983459099999983 24.3594431100000008 8.4899472700000000 Cl
atom 19.1500462800000015 27.2830416400000004 6.0049998499999999 Na
atom 16.2261427299999994 27.2665499900000015 6.2892757899999996 Cl
atom 16.3062743400000016 29.9247978000000003 5.7376379200000001 Na
atom 19.1719426599999991 30.0824996099999993 5.8494762900000001 Cl
atom 16.2199928100000008 32.8936648600000012 8.3126616200000001 Na
atom 18.9565726599999991 32.9378634099999985 8.5882822900000004 Cl
atom 19.6360110399999996 30.0086113300000008 8.3838571399999999 Na
atom 15.6555878300000000 30.2149515999999991 8.4574068100000002 Cl
atom 18.9763933899999984 32.8598308700000032 5.8542392400000001 Na
atom 16.1549966500000011 32.9642006300000006 5.6783659000000002 Cl
atom 16.2988002399999985 35.8127810599999989 5.7148906500000001 Na
atom 19.0114370699999995 35.7433527000000026 6.0804660799999999 Cl
atom 16.0426396400000009 38.5489215599999966 8.4356000499999997 Na
atom 19.0824940100000013 38.4303930800000018 8.7032742600000006 Cl
atom 18.9624518900000005 35.7133696499999971 8.0732271299999994 Na
atom 15.9919405399999999 35.7347965900000020 8.4517607199999993 Cl
atom 19.0598149200000009 38.6797964200000024 5.8613714699999999 Na