#===============================================================================
# Created using the Atomic Simulation Environment (ASE)

# Tue Dec 23 22:26:01 2025

#=======================================================
lattice_vector 28.1999999999999993 0.0000000000000000 0.0000000000000000 
lattice_vector 0.0000000000000000 39.4799999999999969 0.0000000000000000 
lattice_vector 0.0000000000000000 0.0000000000000000 62.3296083400000001 
atom 7.4103623799999996 14.7757597199999999 0.1013228300000000 Au
atom 10.4499535300000002 14.8609487300000005 0.0699540900000000 Au
atom 12.9766418100000003 14.8191531800000007 -0.0487597200000000 Au
atom 16.0475417500000006 14.8464669699999998 0.1405120300000000 Au
atom 18.7184698199999993 14.8396828500000009 0.0240629400000000 Au
atom 21.6221619300000008 14.9512042399999991 -0.0221044400000000 Au
atom 24.5007983399999993 14.7423861200000008 -0.0760335400000000 Au
atom 27.2391833199999986 14.8004807799999991 -0.0569007700000000 Au
atom 1.6991325600000000 14.7292482299999996 0.1352614700000000 Au
atom 4.4746810200000002 14.8913465200000008 -0.0152553000000000 Au
atom 8.8763239100000000 17.3151815900000017 -0.0555357900000000 Au
atom 11.7905078400000001 17.0450640000000000 0.0658275100000000 Au
atom 14.4445463099999998 17.2065689800000001 -0.2143130400000000 Au
atom 17.2412248400000010 17.4467749400000010 0.1450270600000000 Au
atom 20.3703655499999989 17.2192292599999988 -0.1307505400000000 Au
atom 22.9167446199999993 17.1952532299999987 0.0334506200000000 Au
atom 25.6689340699999988 17.2983865799999990 -0.0282689300000000 Au
atom 0.5565426500000000 17.1646046299999995 0.0112742400000000 Au
atom 3.3278056199999999 17.2488860799999983 0.2609883600000000 Au
atom 6.1479183199999996 17.5059032099999996 -0.0323765900000000 Au
atom 7.5964670700000001 19.6745910700000017 -0.0072487700000000 Au
atom 10.3340543799999995 19.7522371200000002 0.1870698400000000 Au
atom 13.2223545199999997 19.6443117399999991 -0.0665617800000000 Au
atom 15.9954537699999992 19.7386039599999989 0.0264830300000000 Au
atom 18.7395763399999993 19.6809010800000017 0.0040402700000000 Au
atom 21.4883972900000018 19.5672076299999986 0.1577018900000000 Au
atom 24.5869723499999999 19.7432576299999987 0.0166917500000000 Au
atom 27.4063089700000013 19.6218107000000010 0.2052966700000000 Au
atom 1.9474976200000000 19.9376909900000001 -0.0022530500000000 Au
atom 4.6233437899999998 19.7348898900000016 0.0704572100000000 Au
atom 8.9706497800000005 22.2920246099999986 0.1727182300000000 Au
atom 11.7387688600000004 22.1508541500000007 0.0123368200000000 Au
atom 14.6890324700000008 22.3627525899999995 -0.0155739600000000 Au
atom 17.2976736100000004 22.3342435399999992 -0.1206636300000000 Au
atom 20.3058253300000011 22.2454360999999992 -0.0050206700000000 Au
atom 22.9675900199999994 21.9908847600000001 0.1248016400000000 Au
atom 25.8851700499999993 22.1301236400000008 0.0615233600000000 Au
atom 0.6714787900000000 22.1958027300000005 -0.1764081300000000 Au
atom 3.2744695099999999 22.0720762099999988 0.0141184800000000 Au
atom 6.3828804300000002 22.1734776499999988 -0.1023857300000000 Au
atom 7.4451977700000000 24.6366837399999987 0.1576267400000000 Au
atom 10.2929205400000008 24.8862185599999997 0.2972386400000000 Au
atom 13.1415519199999995 24.5300015000000009 0.1580565600000000 Au
atom 15.9276952000000005 24.5421582799999989 0.2156165800000000 Au
atom 18.6931569300000007 24.8285331000000014 -0.0705442700000000 Au
atom 21.5094613099999989 24.6654325900000018 0.0421266900000000 Au
atom 24.5857226100000013 24.5798929500000014 0.0192541300000000 Au
atom 27.3873036300000017 24.3928729799999999 0.2396800900000000 Au
atom 1.8466037700000000 24.6509420800000001 -0.0805086900000000 Au
atom 4.6342622699999998 24.9428258400000011 0.1668580100000000 Au
atom 8.9004138699999995 27.1193474200000004 0.0646848700000000 Au
atom 11.7701546100000005 27.2249162499999997 0.1522750500000000 Au
atom 14.6458054600000001 27.1246201900000017 0.1521115900000000 Au
atom 17.3533344900000017 27.1853031999999999 0.0211403600000000 Au
atom 20.1346421000000007 27.1790134600000002 -0.0000391300000000 Au
atom 23.1292863400000002 26.9958038599999988 0.0395611200000000 Au
atom 25.9650367200000005 27.0054719600000013 0.0465839500000000 Au
atom 0.3849384000000000 27.2142468099999988 -0.0331316500000000 Au
atom 3.3034785200000001 27.2017477499999991 0.0081338500000000 Au
atom 6.3712949600000002 27.1755503400000009 0.1757510100000000 Au
atom 7.6076462100000004 29.6613650600000014 -0.1090706300000000 Au
atom 10.1752028699999997 29.6056571300000009 0.0031696800000000 Au
atom 13.0189921000000002 29.6507433399999982 0.1063399100000000 Au
atom 15.9977093999999997 29.6868439700000017 0.0312384300000000 Au
atom 18.4809277999999999 29.3628856099999993 0.0349192500000000 Au
atom 21.6038268000000002 29.5422923399999995 0.1077617000000000 Au
atom 24.3034870100000013 29.7594142300000009 0.0845542900000000 Au
atom 27.3143416300000013 29.4863772399999995 -0.0269076900000000 Au
atom 1.8412740000000001 29.6466729700000009 0.0532747900000000 Au
atom 4.7487412899999999 29.4930232200000013 0.1295559800000000 Au
atom 8.9619508700000008 32.0563621100000020 -0.1765524100000000 Au
atom 11.6965203100000004 32.3222250900000034 -0.0194140300000000 Au
atom 14.6075322700000001 32.1613791799999973 0.0232373700000000 Au
atom 17.2468973400000003 32.0378640699999977 -0.1127209500000000 Au
atom 20.1409387899999999 31.9940742399999998 -0.1563867300000000 Au
atom 22.8548935299999982 32.1773267499999989 -0.1260439900000000 Au
atom 25.9464272300000012 32.0199469200000024 0.0035148600000000 Au
atom 0.4139907100000000 32.0448314699999983 -0.0896247000000000 Au
atom 3.2213957999999998 32.1051441400000002 0.1106015400000000 Au
atom 6.1743900800000002 32.0163384399999984 0.0760185100000000 Au
atom 7.4586232700000004 34.4989734600000020 -0.1557250200000000 Au
atom 10.2915551099999991 34.5607518099999993 -0.0952732600000000 Au
atom 13.3984492900000003 34.2894570599999966 -0.0651892400000000 Au
atom 16.0460324800000009 34.4924376399999986 0.0191256400000000 Au
atom 18.7804575699999994 34.5230019099999978 0.0283343700000000 Au
atom 21.5990536099999986 34.6443331600000022 0.1806115300000000 Au
atom 24.3829092900000006 34.6363477700000004 -0.0552597400000000 Au
atom 27.4271277100000006 34.5874522299999967 0.0678706400000000 Au
atom 1.7740732299999999 34.4143807199999969 0.1024513300000000 Au
atom 4.5437671699999997 34.5112476600000022 0.2619654500000000 Au
atom 8.7274063200000001 37.0763767199999990 -0.0995038400000000 Au
atom 11.6664687800000006 36.9447526300000035 0.0056114500000000 Au
atom 14.5558922000000006 36.9115896300000017 0.0865555100000000 Au
atom 17.4559858299999995 36.8453393500000033 -0.0174429200000000 Au
atom 20.2735363000000000 37.1119812700000011 -0.2186930200000000 Au
atom 22.9282827500000010 37.0289795400000017 -0.1438399800000000 Au
atom 25.8709618500000005 37.0266171499999999 0.0287623200000000 Au
atom 0.5402413500000000 37.0844974600000015 0.1196288500000000 Au
atom 3.5252638400000000 37.2105539300000032 -0.0282855400000000 Au
atom 5.9333549999999997 37.1187396699999965 0.0052949200000000 Au
atom 7.3998285800000003 0.0134132800000000 0.0381288600000000 Au
atom 10.2487215500000008 0.0027223700000000 0.0760989800000000 Au
atom 13.0166249399999998 -0.0554907800000000 -0.1427777400000000 Au
atom 15.8708793799999999 -0.0436897000000000 0.2183668200000000 Au
atom 18.9543460000000010 0.1338902400000000 0.0574555400000000 Au
atom 21.6847117599999990 -0.0758714300000000 0.1305214300000000 Au
atom 24.3072534400000002 0.0509602400000000 0.0269017500000000 Au
atom 27.1800512000000012 0.0192234900000000 0.0148845700000000 Au
atom 1.8703430999999999 -0.0807648700000000 0.0439408900000000 Au
atom 4.6966577799999998 -0.1097914700000000 0.1729799700000000 Au
atom 9.0116545099999996 2.3216031600000000 0.1991216400000000 Au
atom 11.6596749499999994 2.5521215900000001 -0.2168623600000000 Au
atom 14.5218389899999991 2.5344407900000001 0.2319189900000000 Au
atom 17.3060923899999999 2.5395541800000001 0.1983331200000000 Au
atom 20.2914994100000001 2.3031965799999998 0.2318076800000000 Au
atom 22.9935403200000010 2.3582594499999998 0.0208045600000000 Au
atom 25.8040274700000012 2.6109267100000002 0.0215057900000000 Au
atom 0.4925744800000000 2.4868584100000000 0.2544055400000000 Au
atom 3.4261663100000002 2.1753333900000000 0.1846420600000000 Au
atom 6.0451728600000001 2.4876145400000000 0.0269100400000000 Au
atom 7.4250277400000000 4.9434980900000003 0.2662247400000000 Au
atom 10.3653523700000001 4.9851105499999999 0.1615630700000000 Au
atom 13.1801658899999996 4.9445009100000004 -0.0086824100000000 Au
atom 16.0564479300000009 4.7404359800000000 0.2077079200000000 Au
atom 18.7990844199999998 4.8690962700000000 -0.0617177900000000 Au
atom 21.6634320699999989 4.8711803299999996 0.1421566200000000 Au
atom 24.4050791599999997 4.9174987999999997 0.0196908900000000 Au
atom 27.2749369299999991 4.9675103600000003 0.0749454300000000 Au
atom 1.9698986700000001 5.0367104700000001 -0.0061529600000000 Au
atom 4.8702750899999998 4.8324230500000001 0.0535284000000000 Au
atom 8.9374918999999995 7.4751129399999998 0.1077586200000000 Au
atom 11.8140506500000004 7.4376126999999999 0.0651859600000000 Au
atom 14.4905587199999992 7.4122113000000001 0.0155802100000000 Au
atom 17.5149985500000014 7.2925203700000001 0.1043527400000000 Au
atom 20.2924586100000006 7.2438885099999997 0.1977170500000000 Au
atom 23.0427038099999990 7.4335781900000004 -0.1013280400000000 Au
atom 25.7942630400000006 7.4856501000000000 0.0916624400000000 Au
atom 0.3756363500000000 7.2256869799999999 -0.0707524700000000 Au
atom 3.0684617599999999 7.6572899300000001 -0.0454775300000000 Au
atom 6.1332495500000004 7.4880573500000001 0.2300468700000000 Au
atom 7.3915090499999998 9.8442852500000004 0.1086070600000000 Au
atom 10.1986187200000007 9.9422700499999994 0.0102389200000000 Au
atom 13.0952472400000008 9.6364869899999999 -0.1575836500000000 Au
atom 15.7950235400000008 9.7783408499999993 0.1085003800000000 Au
atom 18.7513286599999986 9.5745226399999996 -0.0498091300000000 Au
atom 21.6616757399999997 9.8103057099999997 0.2609797700000000 Au
atom 24.5535684399999994 9.8542222000000006 -0.0363530900000000 Au
atom 27.2022686100000008 9.8446113700000009 0.0418360400000000 Au
atom 1.9377820299999999 9.9430526799999992 -0.0944751200000000 Au
atom 4.6629470700000004 9.6797266299999993 0.0911413200000000 Au
atom 8.9839467499999994 12.4940411699999991 0.0013050100000000 Au
atom 11.8644725599999994 12.2711793999999994 0.0297362500000000 Au
atom 14.5363092700000003 12.4667686999999994 0.0513713100000000 Au
atom 17.2807804400000009 12.4742426500000008 0.0853376800000000 Au
atom 20.2910993700000013 12.3497592199999993 -0.0221650300000000 Au
atom 23.0055686399999999 12.3878380799999999 -0.1741459100000000 Au
atom 25.9174155000000006 12.2724390600000000 -0.1870788400000000 Au
atom 0.5523473000000000 12.4594012999999997 0.0260788700000000 Au
atom 3.2876188800000001 12.3376711900000000 0.0172058700000000 Au
atom 6.0363363300000001 12.4059168100000008 0.1891380300000000 Au
atom 7.3198870600000001 13.0804770300000008 2.6908273500000002 Au
atom 10.2639164199999993 13.2530982599999998 2.4821755099999998 Au
atom 13.0686661599999994 13.3467861100000000 2.6355971899999999 Au
atom 16.0404197699999997 13.2770778800000002 2.6320304800000001 Au
atom 18.7796107600000006 13.2692409199999997 2.5485941400000001 Au
atom 21.5663753500000013 13.1010013099999991 2.4605957100000002 Au
atom 24.4565449199999989 13.4544653400000005 2.6279855900000002 Au
atom 27.1008668800000017 13.1020806899999993 2.6566799500000000 Au
atom 2.0378791900000000 13.1935957899999998 2.6340759500000002 Au
atom 4.9021394799999998 13.0597602699999999 2.4791886800000000 Au
atom 9.1703971899999992 15.5266525000000009 2.6205183600000002 Au
atom 11.7272253499999994 15.6871251399999991 2.7822452300000000 Au
atom 14.5883398300000007 15.6591830600000002 2.3937447500000002 Au
atom 17.3532461500000004 15.6738951800000006 2.3167970499999999 Au
atom 20.0444170499999998 15.5728701899999997 2.5056768100000002 Au
atom 22.8887735100000000 16.0091848500000005 2.6338633400000000 Au
atom 25.8879456300000008 15.7505720799999995 2.5677968400000002 Au
atom 0.4855199600000000 15.5428101099999996 2.4846950400000001 Au
atom 3.3378616100000000 15.6653146299999992 2.6379950499999998 Au
atom 5.9810922000000000 15.7774331599999993 2.6589918099999998 Au
atom 7.3788030200000003 17.9392464499999988 2.3663562100000002 Au
atom 10.1507038999999999 18.0182824199999985 2.4692499300000001 Au
atom 13.3166703099999992 18.2761749299999998 2.6312582299999998 Au
atom 16.1128459900000003 17.9824618899999997 2.4693726499999999 Au
atom 18.7810858299999985 18.0722811099999987 2.5758272999999998 Au
atom 21.6344140899999999 18.0634666099999990 2.7150048700000000 Au
atom 24.3951845200000008 18.2227000699999984 2.6642974300000000 Au
atom 27.2753913099999998 18.2930443700000005 2.4501821200000000 Au
atom 1.8322806100000000 17.9679139899999996 2.6320953299999998 Au
atom 4.7966257800000003 18.0271692399999992 2.4213485299999999 Au
atom 8.8822237400000006 20.6275024199999990 2.6340233199999998 Au
atom 11.8063600199999996 20.5957345300000014 2.5364966999999998 Au
atom 14.5602250200000007 20.6791552000000003 2.4867031599999998 Au
atom 17.3230472800000008 20.8263561000000017 2.9114830999999999 Au
atom 20.2237662699999987 20.5789468999999983 2.7154485700000000 Au
atom 23.0411635200000013 20.5919023699999997 2.7706022099999998 Au
atom 25.8067095100000010 20.6097680300000015 2.7458109300000002 Au
atom 0.4071723000000000 20.5434924300000006 2.5551626299999999 Au
atom 3.2380922200000000 20.5858041400000005 2.7274495200000000 Au
atom 6.0994622300000003 20.4974913699999988 2.4881323399999999 Au
atom 7.3936877100000000 23.0816912599999995 2.4241676999999999 Au
atom 10.5255343799999999 23.2460392999999996 2.7075700999999999 Au
atom 13.2337572100000003 23.1942910200000014 2.7884339599999999 Au
atom 15.7568897700000008 22.9823641700000003 2.7663252200000001 Au
atom 18.9411645200000009 23.0546908600000009 2.6704026199999999 Au
atom 21.4748407099999987 22.9030667500000007 2.6919121399999999 Au
atom 24.4615055999999989 23.0067784400000015 2.7178085400000001 Au
atom 27.1874690600000015 23.0920563200000011 2.6777110199999998 Au
atom 1.9158129500000001 23.1042690300000011 2.4425473100000001 Au
atom 4.5002852700000000 22.9138488299999992 2.5311267599999998 Au
atom 8.8914177700000003 25.6224688000000000 2.6273931899999998 Au
atom 11.6216103200000003 25.5817527200000008 2.7710091100000001 Au
atom 14.4959908899999999 25.7283719600000005 2.9188157700000001 Au
atom 17.2637295000000002 25.5724614199999998 2.6610051900000000 Au
atom 19.9228725400000002 25.3960955099999985 2.5192853099999999 Au
atom 23.0393342200000006 25.5526073199999999 2.8397678800000001 Au
atom 25.8183639599999992 25.6098064299999990 2.8862888899999999 Au
atom 0.4068686700000000 25.6944858600000003 2.6271100100000000 Au
atom 3.3547416000000001 25.6613005399999992 2.6825566300000001 Au
atom 6.0063135499999998 25.6632617100000004 2.8843918700000000 Au
atom 7.4896458600000004 28.1138296600000004 2.7232522499999998 Au
atom 10.4613756000000002 27.9434020300000014 2.6151554400000001 Au
atom 13.1580759100000009 27.9958193599999987 2.7372989200000002 Au
atom 16.0850624499999988 27.9195677499999988 2.5038540399999998 Au
atom 18.6959221900000010 28.1543919400000000 2.6468940700000001 Au
atom 21.6513214900000008 27.8971142900000011 2.5678644400000001 Au
atom 24.5579652099999990 27.8217008700000008 2.6652059800000001 Au
atom 27.1799385499999993 27.9187388299999988 2.6079769900000001 Au
atom 1.7995989400000001 27.9407120000000013 2.6862746600000000 Au
atom 4.8336483699999997 28.0101790000000008 2.6122985999999999 Au
atom 8.9204644000000002 30.5298805100000017 2.6463682700000000 Au
atom 11.6489533299999994 30.4374411699999996 2.6113671599999999 Au
atom 14.5946302899999996 30.3514323799999985 2.6290849500000002 Au
atom 17.4576612599999983 30.4435336700000008 2.7126043000000002 Au
atom 20.2299480299999992 30.3586421000000009 2.7278103800000002 Au
atom 23.0024053399999993 30.6173780499999992 2.5552060999999999 Au
atom 25.8309196300000004 30.6276076500000016 2.6690134699999999 Au
atom 0.3808797000000000 30.5578634399999984 2.5374349199999999 Au
atom 3.4665565500000000 30.5875531500000015 2.7289518899999998 Au
atom 6.1451331900000001 30.3789283700000006 2.6814110400000000 Au
atom 7.4194616099999999 32.7747541399999989 2.6604598600000000 Au
atom 10.2880637600000000 32.8729002700000024 2.7422959900000001 Au
atom 12.9435063600000007 32.7284212100000005 2.4568282300000002 Au
atom 16.0806627000000013 32.9251358900000000 2.6964823600000001 Au
atom 18.9313931400000008 32.9474491200000017 2.6163711799999998 Au
atom 21.7382636600000012 32.9690987500000006 2.6051827900000002 Au
atom 24.6000929500000005 33.0019550299999977 2.6680955800000001 Au
atom 27.2677600399999989 32.8978249999999974 2.6140259000000001 Au
atom 1.8137351300000000 33.1325580700000017 2.3738331100000001 Au
atom 4.5575122900000000 33.0828311900000003 2.7045142400000000 Au
atom 8.8025134900000008 35.3642985199999984 2.5625631699999998 Au
atom 11.7187307199999999 35.3109814299999982 2.6007913000000000 Au
atom 14.4652867900000004 35.4035855899999987 2.4681588200000002 Au
atom 17.6212343900000015 35.3572781199999966 2.3450210700000000 Au
atom 20.1853047299999986 35.3782113700000025 2.6342781899999999 Au
atom 23.0624734499999988 35.2441123600000026 2.6853553099999998 Au
atom 25.8527319700000007 35.2643166699999995 2.5439214200000002 Au
atom 0.3864871500000000 35.4365404699999971 2.8206725800000001 Au
atom 3.2188900399999998 35.3695853600000021 2.6624671100000001 Au
atom 6.1802701000000004 35.3042541800000009 2.7194718899999999 Au
atom 7.5275075999999999 37.9151069199999995 2.4573819499999998 Au
atom 10.1562275100000008 38.0291801300000003 2.9242743400000002 Au
atom 13.2123046599999991 37.9863412400000016 2.5820757799999998 Au
atom 15.8397088700000008 37.7190781999999984 2.7842297299999998 Au
atom 18.6228545099999998 37.9470935000000011 2.6308263799999998 Au
atom 21.6314012700000013 37.8885039700000021 2.7360982300000001 Au
atom 24.5345868600000010 37.7667687499999971 2.5175134400000001 Au
atom 27.1385539700000002 37.9094698199999982 2.7820007100000002 Au
atom 1.8339859599999999 37.7655601100000027 2.7333827400000001 Au
atom 4.7294834799999999 37.8866358000000005 2.7281693200000001 Au
atom 8.9748516200000008 0.7570723800000000 2.8630794000000002 Au
atom 11.6172357000000002 0.9889784900000000 2.6044239899999999 Au
atom 14.6654468999999992 0.9587893800000000 2.5763668000000002 Au
atom 17.3541050599999984 0.8976650900000001 3.0424380200000001 Au
atom 20.3776442399999986 0.9354771300000000 2.6319929900000001 Au
atom 22.9017544800000010 0.9445457300000000 2.6053778300000001 Au
atom 25.7509868900000001 0.8990338800000000 2.6169712000000001 Au
atom 0.4453223500000000 0.6331724700000000 2.7399542399999999 Au
atom 3.1395660799999998 0.8181752000000000 2.8186306600000002 Au
atom 6.1329910700000001 0.6717017100000000 2.6689304800000002 Au
atom 7.5769586799999997 3.3042676900000001 2.7937408800000001 Au
atom 10.3859799299999995 3.3442871099999998 2.6242860399999999 Au
atom 13.2211525699999992 3.4200066599999999 2.5522579599999999 Au
atom 16.0566279899999991 3.3825355699999999 2.7194861700000001 Au
atom 18.8113160999999991 3.4953348599999998 2.5331788500000001 Au
atom 21.7319038199999994 3.3070483500000001 2.7154858300000000 Au
atom 24.5328985899999985 3.2398248299999999 2.6099034699999999 Au
atom 27.3381586100000007 3.2937441199999999 2.7601148100000001 Au
atom 1.9176443700000001 3.3615980699999999 2.8842780399999999 Au
atom 4.7422172700000003 3.2393832699999998 2.7325117600000000 Au
atom 8.8918095899999994 5.7542375400000001 2.6754924700000000 Au
atom 11.6401650100000005 5.8817729900000000 2.6502869699999998 Au
atom 14.5817406900000002 5.7769640200000003 2.6656494899999998 Au
atom 17.1894583800000014 5.8202043899999998 2.7209433399999998 Au
atom 20.1597025899999984 5.7437375599999996 2.5850828600000000 Au
atom 23.2242199900000017 5.6873954199999996 2.7331733699999998 Au
atom 25.8142724299999990 5.7969374399999998 2.7317639100000002 Au
atom 0.3886188400000000 5.9807893900000000 2.8547712999999999 Au
atom 3.3157111600000002 5.7812612300000001 2.8188577800000001 Au
atom 6.2287672399999998 5.8766841200000002 2.5289956899999999 Au
atom 7.4733625200000002 8.1729943100000000 3.0224369499999999 Au
atom 10.2227004200000007 8.2818892000000002 2.6185218600000000 Au
atom 13.0768703399999993 8.4153432000000006 2.6817395099999999 Au
atom 15.9658062899999997 8.3395151300000006 2.6661804299999998 Au
atom 18.8962480200000016 8.3295424199999992 2.8435360900000002 Au
atom 21.4606797500000006 8.4412468399999998 2.7542581400000001 Au
atom 24.4295591799999983 8.1618789399999994 2.6747855999999999 Au
atom 27.3126753200000003 8.3824431500000003 2.6703620899999998 Au
atom 2.0869967400000000 8.2523657000000004 2.7651561700000000 Au
atom 4.6564711900000004 8.3194345700000003 2.5694791100000001 Au
atom 8.9329853499999992 10.6940295800000005 2.5688279199999999 Au
atom 11.7596698199999992 10.6938818500000004 2.4912441900000002 Au
atom 14.5035516999999992 10.7718773399999996 2.5042950799999999 Au
atom 17.4736975200000018 10.6535606900000008 2.6767493600000001 Au
atom 20.1557186600000016 10.6021765099999996 2.4661781299999999 Au
atom 23.0584142199999995 10.6715716999999994 2.5714469800000002 Au
atom 25.9148007199999988 10.7649003099999998 2.7327776500000001 Au
atom 0.4102055300000000 10.7109055800000004 2.5399344699999999 Au
atom 3.3631636000000000 10.7950630000000007 2.4766059100000000 Au
atom 6.2764278700000000 10.9348075300000005 2.5064065000000002 Au
atom 7.3071717300000003 12.8060430099999998 5.7714715900000000 Cl
atom 7.6606084900000004 15.9815960300000004 8.3262968399999995 Cl
atom 7.5970830700000000 13.1106317000000008 8.1220320600000004 Na
atom 7.4551016700000003 15.7256824900000005 5.6651954499999997 Na
atom 7.5433294100000001 18.3516593599999993 5.6092186799999997 Cl
atom 7.4688816600000001 21.5205596300000011 8.6756147000000006 Cl
atom 7.4200110300000004 18.6778240500000017 8.1686163799999996 Na
atom 7.1323079299999996 21.6463038200000000 5.2095501100000003 Na
atom 7.3466129799999997 24.6467753599999995 5.4603313699999996 Cl
atom 7.4163928800000001 27.1504737799999987 8.6416921200000001 Cl
atom 7.4316127099999996 24.8412320700000002 8.1793230799999996 Na
atom 7.2344226000000003 27.6022470700000007 5.6227947000000000 Na
atom 7.5084097500000002 30.1292661200000005 5.6157984699999997 Cl
atom 7.5398644800000003 32.9052942900000005 8.4716062700000005 Cl
atom 7.4080664900000004 30.2402692100000010 8.3907349300000007 Na
atom 7.5234508599999996 32.8304604799999993 5.8164474899999998 Na
atom 7.5608144599999996 35.7831228200000027 5.6839680299999999 Cl
atom 7.3942208000000003 38.5849895699999976 8.3801132200000001 Cl
atom 7.5546073700000003 35.8298815799999986 8.2392191500000003 Na
atom 7.5740507399999997 38.3993755300000004 6.0388952600000003 Na
atom 7.6017077000000004 2.0403540200000001 5.8010775700000003 Cl
atom 7.4671837099999996 4.7770784400000004 8.6207415100000002 Cl
atom 7.6601942200000002 2.1272487500000001 8.5507104500000004 Na
atom 7.4361933699999998 4.7372037599999999 5.8565226800000003 Na
atom 7.3149107600000001 7.2959412500000003 5.7278035699999998 Cl
atom 7.3957423999999996 10.1959006599999995 8.7097191699999996 Cl
atom 7.4717829199999999 7.6383668800000004 8.3726394699999993 Na
atom 7.5685382700000003 10.1502435099999992 6.1009859899999999 Na
atom 10.3382590400000005 12.8873241800000002 5.4981569600000002 Na
atom 13.2874840499999998 12.8907751400000006 5.7187868000000002 Cl
atom 10.1037736000000002 15.7076771700000002 8.0021660200000007 Na
atom 13.1893447699999999 15.9575171400000002 8.3793972199999995 Cl
atom 13.2752559699999999 13.1347932699999994 8.1059337399999993 Na
atom 10.5507124000000001 13.0171251800000007 8.5670013600000008 Cl
atom 13.2608020399999997 15.7569313700000002 5.6413433499999996 Na
atom 10.4559468100000004 15.6751834599999995 5.5676298099999997 Cl
atom 10.5267024899999999 18.6950354800000014 5.3943081800000003 Na
atom 13.5069129700000001 18.9872407299999999 5.3439926000000000 Cl
atom 10.4654949700000000 21.6543610599999994 8.0022127100000002 Na
atom 13.1548468199999995 21.8622565299999998 8.3393276899999993 Cl
atom 13.3944046300000004 18.9380467800000005 8.1031114800000008 Na
atom 10.8577492299999996 18.6709666900000002 8.4199205700000004 Cl
atom 13.1552741599999994 21.7158890599999985 5.4659674100000002 Na
atom 10.8225574600000005 21.6844062700000002 5.4112237199999997 Cl
atom 10.3717560599999992 24.5601612600000010 5.8448710300000002 Na
atom 13.5668099600000005 24.7327841399999997 5.6741196100000000 Cl
atom 10.1829329400000006 27.2628118400000012 8.3928043799999994 Na
atom 13.2180897200000000 27.1456436799999992 8.4261357799999992 Cl
atom 13.0777616000000005 24.3366412799999985 8.1307894300000001 Na
atom 10.3327816600000002 24.2195849800000005 8.3196987000000000 Cl
atom 13.2509117199999995 27.3874068100000017 5.8535404299999998 Na
atom 10.1958532000000002 27.2813480800000008 5.7575919100000004 Cl
atom 10.3650987200000007 30.0879754199999994 5.9181238000000000 Na
atom 13.0390215400000002 30.0202978800000011 5.7454897200000001 Cl
atom 10.1877411700000007 33.0661555900000010 8.5142680399999993 Na
atom 12.9880902299999992 32.9610692799999967 8.7878526000000008 Cl
atom 13.2151743899999996 30.1502614099999988 8.3909302399999994 Na
atom 10.2293575400000005 30.2345172499999997 8.4066087700000001 Cl
atom 13.2503381299999994 33.0121337300000022 5.8082415300000001 Na
atom 10.3309779800000001 32.9635820100000032 5.5171067400000000 Cl
atom 10.3399288699999996 35.7222006599999986 5.9095853600000003 Na
atom 13.1865400899999994 35.7043595100000033 5.7343715299999998 Cl
atom 10.3734227600000004 38.5316750499999969 8.4719978999999999 Na
atom 13.2164871200000000 38.4484038699999999 8.6652795699999992 Cl
atom 13.2704900200000004 35.7501391400000017 8.2955479000000008 Na
atom 10.2688536500000005 35.6490420800000010 8.5363185500000007 Cl
atom 13.1089476499999993 38.6380916000000028 6.0250006999999997 Na
atom 10.3482547300000007 38.5497283500000023 5.7149548000000001 Cl
atom 10.2087720199999996 2.0649226999999999 5.9183751500000001 Na
atom 13.1203698400000004 1.8465223099999999 5.7913447800000002 Cl
atom 10.4036082200000006 4.8883285299999999 8.2416601400000005 Na
atom 13.2254744500000001 4.7382817299999997 8.6239978399999995 Cl
atom 13.1429505800000008 2.0679340100000001 8.4083987199999992 Na
atom 10.4214823800000005 1.9846678499999999 8.6455561000000003 Cl
atom 12.9862652599999997 4.5640681599999997 5.8248092400000004 Na
atom 10.2759533699999999 4.5594278199999998 5.7613327800000000 Cl
atom 10.2862658800000002 7.3720458799999999 5.7955924999999997 Na
atom 13.0596741400000003 7.3851664499999998 5.5646328900000004 Cl
atom 10.3467237599999997 10.2831539700000008 8.3709564499999995 Na
atom 13.1187986199999997 10.2119221400000004 8.4956986499999996 Cl
atom 13.1280398199999997 7.4818197199999998 8.3716945299999992 Na
atom 10.4583284200000008 7.4087183599999999 8.7036694800000003 Cl
atom 13.3951067399999992 10.2086869000000000 5.9423313799999997 Na
atom 10.2934681700000006 10.3113220800000001 5.6307443900000003 Cl
atom 16.1781333700000012 12.9511157099999998 5.7287414099999996 Na
atom 18.9019623999999986 13.1582708200000003 5.7867232599999996 Cl
atom 16.0834742000000013 15.7796395300000007 8.1686047399999993 Na
atom 18.8852184500000000 15.8678999500000000 8.5785324000000003 Cl
atom 18.7471283500000006 13.1585832099999998 8.2100029899999996 Na
atom 16.0281948700000001 13.1446230199999992 8.6347337599999996 Cl
atom 18.8201572400000003 16.0283229399999989 5.6886660100000004 Na
atom 16.2341216400000015 15.7522623999999993 5.4567516500000002 Cl
atom 16.3846565899999987 18.9059144600000018 5.6247001799999996 Na
atom 19.0280383499999992 18.8799375500000011 5.7638948900000004 Cl
atom 16.0548701300000012 21.5152118100000003 8.4082534300000003 Na
atom 18.6596237400000007 21.6813892000000017 8.4759601199999999 Cl
atom 18.8327203899999986 18.8951930799999985 8.2629858800000004 Na
atom 15.9469692300000006 18.5658353399999996 8.6432494599999998 Cl
atom 18.8859810599999989 21.6150852200000010 5.9506843600000003 Na
atom 16.3293728000000016 21.6840662699999989 5.7928905500000001 Cl
atom 16.1142742900000009 24.6613983499999989 5.7231637900000001 Na
atom 18.7326287799999989 24.5850209500000005 5.6459109099999996 Cl
atom 15.9453319899999997 27.2844436600000009 8.2445017000000007 Na
atom 18.7256992599999990 27.2167384299999995 8.5024371300000006 Cl
atom 18.8789085900000018 24.5507127899999986 8.4334357499999992 Na
atom 15.8929221599999995 24.6221465700000017 8.7574805700000002 Cl
atom 18.7944360099999983 27.3876223299999992 5.6681631899999996 Na
atom 16.0076781500000003 27.3252134700000013 5.7761054900000000 Cl
atom 15.9801424200000000 30.1668940100000000 5.8256338799999998 Na
atom 18.8795679900000017 30.0345326499999992 5.8121432700000000 Cl
atom 16.1397570600000009 32.8547878700000027 8.4624880800000000 Na
atom 18.8100769099999994 32.8235650600000000 8.5116918699999999 Cl
atom 18.6953137500000004 30.2211789499999988 8.5245840499999996 Na
atom 15.9903420399999998 30.0826581699999984 8.6366921300000001 Cl
atom 18.7569238499999997 32.9388824500000013 5.8870350399999998 Na
atom 15.9911242399999995 33.0510635400000012 5.8120299299999996 Cl
atom 15.9547677799999992 35.7505555400000006 5.7053718699999996 Na
atom 18.9709098099999984 35.5744252300000028 5.9365895300000000 Cl
atom 16.1263424999999998 38.5236086900000032 8.5026030499999994 Na
atom 18.8213951799999997 38.5902209799999980 8.6058804000000002 Cl
atom 18.6724141400000008 35.6371838199999971 8.2345740500000009 Na
atom 15.9320678299999994 35.6231339599999970 8.7389735200000001 Cl
atom 18.8671221399999993 38.6480254399999978 5.6286717599999996 Na