#===============================================================================
# Created using the Atomic Simulation Environment (ASE)

# Sat Nov  1 21:48:36 2025

#=======================================================
lattice_vector 28.1999999999999993 0.0000000000000000 0.0000000000000000 
lattice_vector 0.0000000000000000 39.4799999999999969 0.0000000000000000 
lattice_vector 0.0000000000000000 0.0000000000000000 62.3296083400000001 
atom 7.5136684799999998 14.8447782299999993 0.0634854700000000 Au
atom 10.3264776000000005 14.8406596400000002 -0.0107403700000000 Au
atom 13.1356061299999993 14.8241519900000007 0.0737782100000000 Au
atom 15.9609307200000003 14.8347433800000008 -0.0237161000000000 Au
atom 18.7904167400000013 14.8288870100000008 0.0744740800000000 Au
atom 21.6164018400000018 14.8722572399999997 -0.0311500700000000 Au
atom 24.4344092800000006 14.7980340199999993 0.0616382100000000 Au
atom 27.2434040999999993 14.8247690900000002 0.0292041500000000 Au
atom 1.8708977499999999 14.8010024799999993 0.0221245900000000 Au
atom 4.7024579600000003 14.8353610000000007 -0.0087029300000000 Au
atom 8.9021310800000002 17.2989670699999998 0.0157640700000000 Au
atom 11.7297379100000008 17.2988403700000006 0.0067761000000000 Au
atom 14.5519039299999999 17.2963961899999994 0.0207608400000000 Au
atom 17.3834297500000012 17.2852915100000004 0.0528484400000000 Au
atom 20.2043656600000006 17.2807450299999985 0.0474969700000000 Au
atom 23.0025779399999983 17.2889679200000010 0.0505279300000000 Au
atom 25.8597583700000015 17.3000247099999989 0.0611018600000000 Au
atom 0.4482386300000000 17.3340120300000002 0.1745643200000000 Au
atom 3.2761478500000001 17.2866403499999990 0.0217911700000000 Au
atom 6.1159152900000002 17.2782155199999998 0.0588660800000000 Au
atom 7.5028657799999996 19.7788443700000016 0.0790618800000000 Au
atom 10.3181957499999992 19.7340717800000007 0.0370562400000000 Au
atom 13.1789642600000008 19.7780478600000009 0.1013426400000000 Au
atom 15.9665735000000009 19.7764998600000013 0.0418578400000000 Au
atom 18.7754483999999984 19.7609622300000005 0.0875860700000000 Au
atom 21.6155650100000010 19.7606913099999986 0.0496879700000000 Au
atom 24.4258385900000015 19.7661961300000009 0.1209186200000000 Au
atom 27.2707025200000004 19.7646826100000013 0.0776630400000000 Au
atom 1.8582072300000001 19.7361986499999986 0.1335474400000000 Au
atom 4.6620489100000002 19.7395214400000008 0.0277889900000000 Au
atom 8.8845840999999997 22.2405254700000015 0.0925559900000000 Au
atom 11.7338498999999992 22.2202638999999991 0.0357545700000000 Au
atom 14.6193798800000003 22.2085399199999998 0.0671889800000000 Au
atom 17.3782426100000009 22.2664182199999985 0.0829002800000000 Au
atom 20.2064025500000000 22.2025058999999985 0.1121295300000000 Au
atom 23.0518967000000004 22.2172921599999995 0.0634048900000000 Au
atom 25.8198113700000000 22.2171769800000014 0.1425721100000000 Au
atom 0.4054351900000000 22.0189813799999996 0.1787187800000000 Au
atom 3.2851766300000000 22.2452486500000006 0.0682524400000000 Au
atom 6.0847774200000000 22.2148461200000007 0.0919908500000000 Au
atom 7.5101335400000000 24.6863591199999988 0.0855715000000000 Au
atom 10.2954719800000003 24.7195377900000004 0.0921134000000000 Au
atom 13.1560534400000009 24.6925628699999997 0.0758011800000000 Au
atom 15.9542715699999995 24.6931003500000017 0.1153652400000000 Au
atom 18.7982552200000015 24.7045871000000012 0.0832713600000000 Au
atom 21.6171539700000004 24.6918553000000003 0.1047328700000000 Au
atom 24.3965084800000014 24.7074765099999993 0.1252637600000000 Au
atom 27.2229601400000014 24.6687676899999992 0.0861592000000000 Au
atom 1.8502349100000000 24.7439958100000013 0.0516641900000000 Au
atom 4.6824015899999996 24.6879334700000008 0.1256775000000000 Au
atom 8.9105980099999993 27.1706245899999992 0.0863980700000000 Au
atom 11.7400431300000001 27.1631297099999998 0.0865630500000000 Au
atom 14.5847956900000000 27.1557906100000004 0.0471580600000000 Au
atom 17.3747200799999995 27.1525208999999990 0.0805208700000000 Au
atom 20.1829551599999988 27.1649495099999996 0.0982926300000000 Au
atom 23.0496558000000000 27.1499962500000009 0.0746645700000000 Au
atom 25.8359607800000006 27.1311904499999983 0.0715654300000000 Au
atom 0.4515356100000000 27.1042856599999986 0.0544477500000000 Au
atom 3.2751815199999998 27.1482016900000005 0.0524068700000000 Au
atom 6.0921583400000001 27.1429305399999983 0.0564304300000000 Au
atom 7.4856900299999998 29.6291523400000010 0.0072007000000000 Au
atom 10.3408279099999998 29.5920454299999989 0.0785641500000000 Au
atom 13.1186497699999993 29.6428615899999990 0.0034988600000000 Au
atom 15.9682011599999996 29.5941460599999999 0.0264431200000000 Au
atom 18.7869530699999991 29.6405284900000012 -0.0025278500000000 Au
atom 21.5804806599999992 29.6070319899999994 0.0722540900000000 Au
atom 24.4292739099999991 29.6204228500000006 -0.0070137100000000 Au
atom 27.2372564500000003 29.7087925400000010 0.0975858700000000 Au
atom 1.8819210799999999 29.5881180999999991 0.0625928600000000 Au
atom 4.6893638199999996 29.6065955199999991 0.0554974700000000 Au
atom 8.9251616400000007 32.0713998800000013 0.0159584800000000 Au
atom 11.7430707299999995 32.0811541300000016 0.0205542200000000 Au
atom 14.5389774000000003 32.0738158200000001 -0.0021985700000000 Au
atom 17.3876661100000014 32.0927672799999968 0.0166626000000000 Au
atom 20.1845819999999989 32.0934759499999984 0.0024631300000000 Au
atom 23.0106091200000016 32.0900172799999979 0.0094317200000000 Au
atom 25.8204059199999989 32.1389968900000014 -0.0362273900000000 Au
atom 0.4540885800000000 32.0808572099999978 -0.1997006600000000 Au
atom 3.2605898500000001 32.1055285500000025 -0.0014202900000000 Au
atom 6.0824527899999996 32.0800587800000017 0.0053735900000000 Au
atom 7.4886101900000002 34.5824763899999965 -0.0182341200000000 Au
atom 10.3247062199999995 34.5716003200000017 0.0701170700000000 Au
atom 13.1412910299999997 34.5252579699999984 -0.0072419700000000 Au
atom 15.9788771500000006 34.5619451000000026 0.0727487200000000 Au
atom 18.7931208599999984 34.5637657799999971 0.0068229000000000 Au
atom 21.5951982700000009 34.5697404800000001 0.0564188300000000 Au
atom 24.4375597599999992 34.5666694100000029 0.0025715500000000 Au
atom 27.2340473299999992 34.5548497699999970 0.0352998200000000 Au
atom 1.8763336900000001 34.5682996199999977 0.0253023500000000 Au
atom 4.6768741900000004 34.5619908099999975 0.0602752600000000 Au
atom 9.0009221299999993 37.0347682499999991 0.0365940700000000 Au
atom 11.8686355199999998 37.0077310100000005 -0.0770922200000000 Au
atom 14.5926653500000008 37.0315347000000017 0.0636788500000000 Au
atom 17.4135063000000017 37.0102612800000017 0.1054208000000000 Au
atom 20.1545573100000013 37.0502652099999992 0.0822915700000000 Au
atom 22.9617019300000003 37.0249800799999988 0.0992199800000000 Au
atom 25.7486841499999990 36.9623426400000028 0.0962142000000000 Au
atom 0.4725238900000000 37.1590526900000029 -0.0845496700000000 Au
atom 3.3444951399999998 37.0183058699999989 -0.0115645500000000 Au
atom 6.1539700100000001 37.0047780800000012 -0.0567052200000000 Au
atom 7.2728188200000004 0.0248222000000000 0.1135331900000000 Au
atom 10.2797780400000001 0.0188088500000000 0.2310747600000000 Au
atom 13.3593202000000009 0.0244786800000000 0.1061176800000000 Au
atom 15.8617960700000005 0.0178362000000000 0.0023166900000000 Au
atom 18.6664162000000005 0.0285369100000000 -0.0980671400000000 Au
atom 21.4814833000000007 0.0073976300000000 0.2761652700000000 Au
atom 24.6893041300000000 0.0173468000000000 0.0942017500000000 Au
atom 27.3213352799999996 0.2327960500000000 0.0494138500000000 Au
atom 2.1159577800000000 0.0333621200000000 0.2234214100000000 Au
atom 4.5325003099999996 0.0110786400000000 0.0409701600000000 Au
atom 8.8942104099999995 2.4846306899999999 0.0699958100000000 Au
atom 11.7379020399999998 2.4558974199999999 0.0846173500000000 Au
atom 14.5556744499999997 2.4508739700000000 0.0891107500000000 Au
atom 17.3845889000000007 2.4823196099999998 0.0976906600000000 Au
atom 20.2075554699999991 2.4783341200000000 0.0819265800000000 Au
atom 23.0182398299999988 2.4512709600000000 0.0908916000000000 Au
atom 25.7980321799999999 2.4925576600000001 0.0591730200000000 Au
atom 0.4279636200000000 2.3705433299999998 0.2414615500000000 Au
atom 3.3023649200000000 2.5059574100000002 0.0713265700000000 Au
atom 6.0973518899999997 2.5029141099999999 0.0692100700000000 Au
atom 7.5380018800000004 4.9334078400000001 0.1135399400000000 Au
atom 10.3057245300000009 4.9182109699999996 0.1000177700000000 Au
atom 13.1333089100000002 4.9465254099999996 0.1350243900000000 Au
atom 15.9274251600000003 4.9366466200000003 0.0812923100000000 Au
atom 18.7807765000000018 4.9687176800000001 0.1196611800000000 Au
atom 21.6083990899999989 4.9574445499999999 0.0929702800000000 Au
atom 24.4129177199999994 4.9751238300000002 0.1076377200000000 Au
atom 27.2323053000000002 4.9085263399999999 0.0783379600000000 Au
atom 1.8895789500000000 4.9071919800000003 0.0598831800000000 Au
atom 4.6676010400000001 4.9454862600000000 0.0933853200000000 Au
atom 8.9300350099999992 7.4291472000000001 0.0717276800000000 Au
atom 11.7351500400000006 7.4201375499999997 0.0992883300000000 Au
atom 14.5574183900000005 7.4219840300000000 0.0561114400000000 Au
atom 17.4011017499999987 7.4229908000000000 0.0854599800000000 Au
atom 20.1959473500000009 7.4202733399999996 0.0383178100000000 Au
atom 23.0029185600000012 7.3755025700000001 0.0629785800000000 Au
atom 25.8233556399999991 7.4377318099999998 0.0391174200000000 Au
atom 0.4920113400000000 7.5862978200000004 0.0112461000000000 Au
atom 3.2518596099999999 7.4217414899999996 0.0721916400000000 Au
atom 6.0901681999999999 7.4107396799999998 0.0880409400000000 Au
atom 7.5153594699999999 9.8705808200000007 0.0463719900000000 Au
atom 10.3392597399999993 9.8880562399999992 0.0119357100000000 Au
atom 13.1393890399999993 9.8626204800000004 0.0641958200000000 Au
atom 15.9872765200000000 9.9081493999999992 0.0030064400000000 Au
atom 18.7518126199999990 9.8637654700000006 0.0746606600000000 Au
atom 21.6159142799999984 9.8589916899999999 0.0233507200000000 Au
atom 24.4487162399999995 9.8795803400000004 0.0545743500000000 Au
atom 27.2450945000000004 10.0826054799999998 -0.1079285700000000 Au
atom 1.8634472500000001 9.8953949500000000 0.0698074800000000 Au
atom 4.6855545999999997 9.8902976000000002 0.0101157900000000 Au
atom 8.8621252399999992 12.3741700399999992 0.0119235300000000 Au
atom 11.7358563999999994 12.3367173999999995 0.0051300100000000 Au
atom 14.5407859199999994 12.3376724200000005 0.0266800200000000 Au
atom 17.3697323700000013 12.3465933999999997 0.0307060900000000 Au
atom 20.1833568899999989 12.3409925600000001 0.0058167500000000 Au
atom 23.0182138499999986 12.3480384200000000 0.0027742900000000 Au
atom 25.8253065900000003 12.3006889499999996 0.1103938600000000 Au
atom 0.4619101500000000 12.3471675600000008 0.2433103200000000 Au
atom 3.2618705900000000 12.3442533900000004 0.0340994800000000 Au
atom 6.1131331900000001 12.3581950900000006 -0.0076306300000000 Au
atom 7.5401670100000002 13.2006344299999991 2.6587091300000001 Au
atom 10.3243377499999998 13.2016507300000008 2.5683010199999998 Au
atom 13.1690746099999991 13.1815037999999998 2.6276813200000002 Au
atom 15.9600008399999993 13.1894113599999994 2.5603205600000001 Au
atom 18.7861785300000008 13.1885631700000001 2.6459681800000001 Au
atom 21.5607931899999983 13.2066303400000002 2.5563591799999998 Au
atom 24.4198705099999991 13.1704285799999994 2.6971107600000002 Au
atom 27.2450870800000011 13.2290054599999998 2.5331844100000001 Au
atom 1.8469737600000000 13.1385097300000009 2.6426660499999999 Au
atom 4.6600990600000003 13.1785717299999998 2.5462414899999999 Au
atom 8.9134383400000008 15.6653324800000000 2.6637508200000002 Au
atom 11.7189015800000007 15.6304053500000002 2.6350005200000002 Au
atom 14.5602250000000009 15.6364538300000007 2.6232896600000002 Au
atom 17.3622736400000015 15.6494394099999994 2.6252979500000002 Au
atom 20.1818053400000004 15.6250796199999993 2.6321466299999998 Au
atom 22.9821319499999994 15.6486814299999999 2.6620075999999999 Au
atom 25.8708338900000001 15.6976723099999997 2.6385947500000002 Au
atom 0.4881061900000000 15.5968596000000002 2.6805834700000002 Au
atom 3.2489594899999998 15.6362959000000004 2.6557226799999998 Au
atom 6.0615505000000001 15.6581509000000008 2.6389306399999999 Au
atom 7.5037365500000002 18.0738044000000002 2.6616875699999998 Au
atom 10.3069834100000008 18.1279094200000017 2.6244673600000001 Au
atom 13.1578654200000003 18.0930781799999991 2.7024257000000000 Au
atom 15.9642719199999998 18.1301599399999986 2.5552815000000000 Au
atom 18.7686756899999985 18.0643421599999989 2.6499241499999999 Au
atom 21.6211551600000007 18.1082770699999998 2.6279556899999998 Au
atom 24.4172992899999990 18.0885692400000018 2.6887504799999999 Au
atom 27.2610832899999984 18.1892200499999994 2.6008399999999998 Au
atom 1.8651572500000000 18.1234622600000002 2.7368185299999999 Au
atom 4.6947627699999996 18.0981784800000014 2.6169430800000000 Au
atom 8.9285656200000005 20.5876820900000013 2.7244717399999998 Au
atom 11.7370673399999994 20.5743037700000002 2.7002681499999999 Au
atom 14.5412751900000004 20.5777027900000000 2.7258299500000001 Au
atom 17.3681941399999999 20.5882869699999986 2.6999200499999998 Au
atom 20.1794318900000000 20.5961400200000000 2.7059512899999998 Au
atom 23.0215852299999995 20.5911334900000007 2.7852728400000002 Au
atom 25.8478893700000008 20.5363498900000003 2.8190485900000000 Au
atom 0.4595146100000000 20.5123745799999995 2.8173165700000000 Au
atom 3.2792304799999998 20.5765317199999984 2.7477205100000002 Au
atom 6.0631584600000004 20.5632505899999991 2.7562831900000000 Au
atom 7.4706876600000003 23.0490928900000007 2.6936390800000001 Au
atom 10.3188076599999992 23.0459691100000015 2.7421932999999998 Au
atom 13.1843759400000007 23.0202309800000009 2.6428915200000000 Au
atom 15.9739876200000008 23.0697363899999992 2.6864149199999998 Au
atom 18.8229608299999995 22.9951623500000011 2.6731808600000000 Au
atom 21.6109341000000015 23.0541282299999999 2.7120340299999999 Au
atom 24.4464726100000007 23.0250562400000014 2.6646191199999998 Au
atom 27.2632861300000009 23.0460899899999987 2.6397167300000000 Au
atom 1.8693193500000000 23.0677495300000004 2.6906618099999999 Au
atom 4.6845398700000001 23.0670998900000015 2.7223183799999999 Au
atom 8.8842775100000004 25.5457575699999992 2.7482426499999999 Au
atom 11.7137723200000003 25.5235645099999999 2.7012573099999999 Au
atom 14.5471011200000007 25.5352124600000003 2.6831497700000000 Au
atom 17.3938429399999990 25.5442981399999987 2.6906880900000001 Au
atom 20.1955934299999988 25.5152768099999996 2.7041668799999998 Au
atom 23.0193892300000016 25.5435639399999985 2.6994447300000002 Au
atom 25.8248122699999989 25.5957987100000004 2.7375270700000001 Au
atom 0.4635985300000000 25.3741689000000008 2.4340755600000001 Au
atom 3.2787707600000000 25.5260162900000012 2.7346217700000000 Au
atom 6.1084990699999997 25.5385276200000000 2.7206783899999998 Au
atom 7.5127664999999997 27.9383725699999985 2.6395194800000001 Au
atom 10.3316122900000007 28.0045896600000006 2.7387142799999999 Au
atom 13.1470352899999998 28.0053524799999991 2.6241058599999998 Au
atom 15.9308984999999996 28.0225878000000002 2.6963549100000002 Au
atom 18.7453964800000001 27.9965649799999987 2.6433776600000001 Au
atom 21.6194227000000012 28.0239981100000008 2.6686950399999998 Au
atom 24.3841516600000006 28.0109579999999987 2.6251181099999998 Au
atom 27.2496227299999987 28.1344105400000011 2.7385111300000000 Au
atom 1.8881488600000000 27.9209640599999993 2.6122760700000001 Au
atom 4.6849503800000001 28.0246136899999989 2.6907182399999998 Au
atom 8.8930295200000007 30.4754695300000016 2.6326964300000002 Au
atom 11.7453050099999992 30.4614684599999990 2.6687742299999999 Au
atom 14.5836291399999993 30.4506357799999989 2.6252270599999998 Au
atom 17.3836460099999996 30.4982390800000012 2.6565746899999998 Au
atom 20.1917148200000014 30.4582317200000006 2.6265850999999998 Au
atom 23.0252551700000012 30.4355198999999992 2.6672024900000002 Au
atom 25.7982029100000005 30.4829420599999992 2.6879080100000001 Au
atom 0.4662444900000000 30.5910777399999994 2.5281655399999998 Au
atom 3.2668313400000000 30.4404222900000008 2.6278239700000001 Au
atom 6.0664241900000002 30.4626760599999997 2.6634597800000002 Au
atom 7.5243226300000003 32.9068478499999983 2.5311730200000002 Au
atom 10.3443321699999995 32.9350539699999985 2.6805426899999998 Au
atom 13.2036477899999998 32.9042913600000020 2.5472663000000000 Au
atom 15.9725380500000007 32.9252345100000028 2.6777300600000000 Au
atom 18.7877559199999986 32.9236171900000016 2.5575247000000001 Au
atom 21.6038919699999994 32.9272882499999966 2.6950182800000002 Au
atom 24.4318803500000001 32.9407754900000000 2.5483569099999999 Au
atom 27.2390142399999995 32.8303209999999979 2.5364901299999998 Au
atom 1.8604162500000001 32.9667073099999968 2.5895164400000001 Au
atom 4.6753532199999999 32.9294968499999996 2.6493864399999998 Au
atom 8.8905499799999994 35.3791379299999988 2.6272559900000001 Au
atom 11.7111698700000009 35.3820304899999982 2.6456256900000001 Au
atom 14.5334711700000003 35.3835028199999968 2.6612511599999999 Au
atom 17.3862337800000013 35.3659584800000033 2.6601189700000001 Au
atom 20.1782636599999989 35.4068102000000025 2.6604862599999999 Au
atom 23.0445104900000004 35.3872477500000002 2.6653871400000000 Au
atom 25.8547775299999998 35.3284852500000000 2.6765360299999998 Au
atom 0.4660074300000000 35.5134118599999979 2.6381443800000000 Au
atom 3.2691107499999998 35.3899027799999999 2.6258366099999999 Au
atom 6.0865054199999999 35.3690140300000024 2.6483358699999999 Au
atom 7.2997350799999996 37.8077112200000016 2.5908642600000000 Au
atom 10.4369616000000001 37.8335043499999983 2.5048511000000002 Au
atom 13.1878286700000000 37.8478032399999975 2.2739470100000001 Au
atom 15.8998003299999997 37.8389089400000032 2.8633132400000001 Au
atom 18.8134375499999997 37.8627982200000019 2.9988785700000000 Au
atom 21.5715033299999988 37.8494640500000017 2.9799446000000001 Au
atom 24.3616305000000004 37.8593231400000008 2.9162772800000001 Au
atom 27.0871784200000008 37.8599605699999984 2.5739673000000001 Au
atom 2.1192429700000002 37.8551051199999975 2.6956258800000001 Au
atom 4.6451661000000000 37.8467903600000000 2.5316223299999998 Au
atom 8.9961726399999993 0.8456907000000000 2.6663229500000001 Au
atom 11.7627515400000000 0.8464489100000000 2.8450886099999999 Au
atom 14.5642186099999993 0.7960912200000000 2.6109178100000001 Au
atom 17.4216346100000017 0.8092925300000000 2.7229187300000000 Au
atom 20.2537449299999999 0.8267829799999999 2.6155519699999998 Au
atom 23.1779655799999986 0.8048387800000000 2.5888317100000000 Au
atom 25.9169243000000016 0.8056590200000000 2.8301149799999998 Au
atom 0.4010762100000000 0.9982377600000000 2.7846676299999999 Au
atom 3.2684468799999999 0.8670771600000000 2.7525909300000002 Au
atom 6.1927529400000001 0.8366740100000000 2.6569503800000001 Au
atom 7.5058584000000002 3.3272995800000000 2.7049523600000001 Au
atom 10.3402678399999992 3.3072048999999999 2.6843602999999998 Au
atom 13.1299352799999998 3.3285861799999998 2.7032307300000000 Au
atom 15.9686212500000000 3.2969169699999998 2.6702678799999999 Au
atom 18.7468695600000004 3.3199528599999999 2.6749416600000000 Au
atom 21.5924437500000010 3.3080754099999998 2.6862110200000000 Au
atom 24.4348405000000000 3.3321102100000002 2.6585370899999998 Au
atom 27.2313164199999989 3.3707804000000001 2.6076536699999999 Au
atom 1.8526577500000001 3.3263148600000001 2.6755471800000001 Au
atom 4.6916244000000003 3.2737626600000000 2.6897308500000001 Au
atom 8.9280297399999995 5.8256131000000000 2.7055232000000000 Au
atom 11.7277190999999998 5.7905808600000004 2.7378286799999998 Au
atom 14.5359327999999994 5.7938251300000001 2.7156384000000000 Au
atom 17.3695033000000016 5.7868158400000000 2.7052520400000000 Au
atom 20.1932288000000000 5.7951028899999999 2.6942122799999999 Au
atom 22.9933403600000013 5.7638871700000003 2.7079530300000001 Au
atom 25.8293627900000011 5.8720467300000001 2.6594170300000002 Au
atom 0.4777745700000000 5.8605923799999999 2.7917276499999999 Au
atom 3.2928660999999999 5.7885763099999998 2.7229692900000000 Au
atom 6.1042356000000000 5.7681994000000003 2.7075979200000000 Au
atom 7.5476191600000000 8.2388556000000008 2.7154411700000001 Au
atom 10.3400105999999994 8.2327537100000008 2.6022060599999999 Au
atom 13.1706521700000003 8.2598240300000008 2.7189750199999998 Au
atom 15.9536287300000001 8.2379070599999995 2.6380601600000002 Au
atom 18.7859829100000013 8.2704937399999991 2.6984582000000001 Au
atom 21.6426287299999984 8.2886165700000003 2.6228302200000000 Au
atom 24.3792925800000013 8.2878368499999997 2.6733551300000000 Au
atom 27.2412894399999992 8.3600397999999991 2.6172857100000000 Au
atom 1.8520398199999999 8.3124211500000005 2.5976033900000002 Au
atom 4.7080010899999998 8.2520830699999994 2.5859087999999999 Au
atom 8.8968507700000004 10.7026177400000009 2.6070213700000000 Au
atom 11.7516906399999996 10.7299253700000001 2.6035883900000001 Au
atom 14.5423042799999997 10.7230854200000003 2.6306640699999999 Au
atom 17.3747668100000006 10.7385675999999997 2.6749731899999998 Au
atom 20.2183339099999984 10.6878678499999999 2.6548285200000001 Au
atom 23.0282256300000014 10.7355453399999998 2.6588824799999999 Au
atom 25.8239565800000008 10.6311001699999998 2.6472954999999998 Au
atom 0.4713841100000000 10.7317800999999999 2.4626895200000001 Au
atom 3.2471425100000002 10.7024614600000003 2.6438522000000000 Au
atom 6.1114896900000000 10.7260021999999999 2.6331312300000000 Au
atom 7.5088379700000001 13.1767152299999992 5.6627498899999997 Cl
atom 7.5029855999999997 15.9801825799999992 8.5402291899999998 Cl
atom 7.5256619499999999 13.1860350099999994 8.3509171500000008 Na
atom 7.4800055299999997 16.0060676999999991 5.8001597199999999 Na
atom 7.4955725900000001 18.8222310600000000 5.7080232799999999 Cl
atom 7.5069079299999997 21.6523348300000009 8.5537916599999999 Cl
atom 7.5012392400000003 18.8269807000000000 8.4193943299999994 Na
atom 7.4968368800000000 21.6221898199999991 5.8217762400000002 Na
atom 7.5054514200000000 24.4565749500000003 5.7122101900000004 Cl
atom 7.4680972900000002 27.2201480999999994 8.5569528800000008 Cl
atom 7.4748267899999998 24.4288899800000010 8.3920771199999997 Na
atom 7.4834150800000003 27.2451224299999986 5.8167466200000000 Na
atom 7.4954570100000000 30.0783342000000005 5.7430053900000004 Cl
atom 7.4681656099999998 32.9188002400000030 8.5316313499999996 Cl
atom 7.4870744100000000 30.0756865900000001 8.3585076300000001 Na
atom 7.4759005800000002 32.9306346300000001 5.8071484599999996 Na
atom 7.4759288200000000 35.7459990999999988 5.7171020700000001 Cl
atom 7.4749686999999998 38.5489422799999986 8.4502255099999992 Cl
atom 7.5036473099999998 35.7401067500000025 8.3970678400000001 Na
atom 7.1972204599999996 38.5750580099999993 5.8798920700000004 Na
atom 7.6686867799999998 1.8847585499999999 5.7070252899999998 Cl
atom 7.4876240599999999 4.7184949600000001 8.5474125799999996 Cl
atom 7.5067241300000003 1.9324891200000001 8.4592632200000004 Na
atom 7.5172697599999996 4.7042384600000000 5.7921648299999999 Na
atom 7.5067071800000003 7.5176032599999996 5.6964645999999997 Cl
atom 7.4998832100000001 10.3724965699999991 8.5246170600000006 Cl
atom 7.5050448000000003 7.5224594099999997 8.3904994399999993 Na
atom 7.5007504899999997 10.3293811099999999 5.8007338800000001 Na
atom 10.3175844300000001 13.1581938399999991 5.8254987299999996 Na
atom 13.1342105100000008 13.1701309099999992 5.6958375600000002 Cl
atom 10.2835335899999993 16.0210227399999994 8.3585760100000002 Na
atom 13.1541927199999993 15.9773603299999998 8.5301224799999993 Cl
atom 13.1292414799999992 13.1529672200000007 8.3863297800000005 Na
atom 10.3341257199999994 13.1818438699999998 8.5792157000000007 Cl
atom 13.1359427400000008 15.9961192499999996 5.8132235699999999 Na
atom 10.3123772000000002 16.0048817399999983 5.7269883100000003 Cl
atom 10.3109550199999997 18.8190514499999999 5.8318602500000001 Na
atom 13.1376921600000003 18.8123930299999991 5.7172672799999997 Cl
atom 10.3347087200000001 21.6543928100000009 8.3904532799999991 Na
atom 13.1110353499999999 21.6319172299999991 8.5781234099999999 Cl
atom 13.1436803799999993 18.8282965599999983 8.4026395100000002 Na
atom 10.3331253299999997 18.8086912599999998 8.5737394699999996 Cl
atom 13.1207798400000009 21.6077186599999997 5.8071302800000000 Na
atom 10.3147514600000001 21.6484098899999999 5.7314694399999997 Cl
atom 10.3122005800000007 24.4157707399999993 5.8295753699999997 Na
atom 13.1455762000000007 24.4547549699999998 5.7345422299999997 Cl
atom 10.3467422700000000 27.2357092499999993 8.4143803100000003 Na
atom 13.1441120399999996 27.2307274399999990 8.5887593800000008 Cl
atom 13.1469862299999996 24.4372718499999984 8.3818792999999996 Na
atom 10.3275077300000007 24.4547236099999985 8.5684516599999991 Cl
atom 13.1637540200000007 27.2413815399999990 5.8155463300000001 Na
atom 10.2962292000000009 27.2535688900000004 5.7611651200000003 Cl
atom 10.3467430500000006 30.0756304999999990 5.8149335600000001 Na
atom 13.1458798100000003 30.0854084300000011 5.7280298900000002 Cl
atom 10.2853956400000008 32.8855378299999970 8.3459484699999997 Na
atom 13.1384944400000006 32.8941022099999998 8.6017279999999996 Cl
atom 13.1035113699999997 30.0794015200000011 8.3569210999999992 Na
atom 10.3084678800000002 30.0850804200000006 8.5607426100000001 Cl
atom 13.1222884700000009 32.8730647000000005 5.8387951400000002 Na
atom 10.3200139300000000 32.9076116900000031 5.7098085100000002 Cl
atom 10.3122596899999994 35.7590674500000034 5.7989811299999996 Na
atom 13.1264570900000006 35.7366509200000024 5.7463994700000001 Cl
atom 10.4878754099999991 38.5277824899999999 8.6002689300000004 Na
atom 13.2746285200000003 38.5581550599999971 8.4994648700000006 Cl
atom 13.1142585500000006 35.7326767500000031 8.3538072900000007 Na
atom 10.3011283700000007 35.7234256400000021 8.5378571200000000 Cl
atom 13.0867732799999992 38.5746649000000019 5.8687236000000000 Na
atom 10.2145127400000000 38.5534803299999993 5.5322769200000002 Cl
atom 10.2972079300000008 1.8733139299999999 5.8308925599999997 Na
atom 13.0771964000000001 1.9066631000000001 5.7123273299999999 Cl
atom 10.2941255799999993 4.7087474199999999 8.4166761200000000 Na
atom 13.1079839899999993 4.7185387199999997 8.5618634999999994 Cl
atom 13.0871002300000008 1.9068658300000001 8.4138548499999999 Na
atom 10.2942885000000004 1.8844423500000000 8.4744930200000006 Cl
atom 13.1677538700000003 4.7150836900000002 5.8263214200000002 Na
atom 10.3168915800000001 4.7077679699999999 5.7434107200000000 Cl
atom 10.3571153799999998 7.5041113499999996 5.8153363599999999 Na
atom 13.1425266999999995 7.5153320700000004 5.7036098400000004 Cl
atom 10.3341613100000007 10.3515909199999996 8.3451687799999998 Na
atom 13.1387099799999998 10.3517273299999992 8.5541626500000003 Cl
atom 13.1332390799999992 7.5325706200000004 8.3937303300000004 Na
atom 10.3299485799999999 7.5194302899999999 8.5842859399999991 Cl
atom 13.1469366999999995 10.3239162600000007 5.8205129099999997 Na
atom 10.3151799400000002 10.3373800700000000 5.7343676400000003 Cl
atom 15.9716550000000002 13.1770949999999996 5.8278464300000001 Na
atom 18.7947384000000000 13.1734916299999991 5.7203269499999996 Cl
atom 15.9560817499999992 16.0313471900000017 8.4007177199999994 Na
atom 18.8110226300000001 15.9718735200000008 8.5560510599999997 Cl
atom 18.7612568800000012 13.1606892900000005 8.3789268799999999 Na
atom 15.9715394300000000 13.1725182099999998 8.5559601599999997 Cl
atom 18.7759442999999990 15.9920002500000002 5.8072587699999998 Na
atom 15.9811030400000007 15.9997731200000004 5.7256298000000001 Cl
atom 15.9924487800000001 18.8247791000000007 5.8327507299999999 Na
atom 18.7676643100000007 18.8057645499999992 5.7009922499999997 Cl
atom 15.9583737299999999 21.6467361499999988 8.3554612400000003 Na
atom 18.7929307700000017 21.6442268499999990 8.5720029100000001 Cl
atom 18.7612367599999992 18.8072765199999985 8.3910251200000001 Na
atom 15.9733568699999999 18.8068022399999997 8.5710626500000000 Cl
atom 18.7620721099999983 21.6495890399999986 5.8046369100000001 Na
atom 15.9437674299999994 21.6276550400000005 5.7202417900000002 Cl
atom 15.9913402999999992 24.4017774900000006 5.8285631599999999 Na
atom 18.7729403599999998 24.4269159400000007 5.7478737000000004 Cl
atom 15.9293988700000000 27.2573722499999995 8.3758921799999992 Na
atom 18.7824914599999993 27.2479025700000008 8.5397169500000008 Cl
atom 18.7803123899999989 24.3850224500000010 8.3605210599999999 Na
atom 15.9578804400000003 24.4427655199999982 8.5603459999999991 Cl
atom 18.7849374000000005 27.2385122600000003 5.8184510999999999 Na
atom 15.9669362499999998 27.2475248100000016 5.6990341400000002 Cl
atom 15.9512180400000005 30.0873812399999991 5.7984448899999999 Na
atom 18.7744445700000000 30.0705528199999996 5.7113094499999999 Cl
atom 15.9576670299999996 32.9269112200000009 8.3666472400000007 Na
atom 18.7587955700000002 32.9083310199999985 8.5894898699999995 Cl
atom 18.7873715700000012 30.0744915699999993 8.3466083700000002 Na
atom 15.9414142299999995 30.0867536400000013 8.5380449800000005 Cl
atom 18.7906924500000017 32.9020133200000018 5.8076232000000001 Na
atom 15.9547980900000006 32.9016853299999994 5.7078798099999997 Cl
atom 15.9849341200000001 35.7557934000000017 5.8262536899999997 Na
atom 18.7792146299999985 35.7314906800000003 5.7349215700000000 Cl
atom 15.7744562100000003 38.5670536100000021 8.3613888400000000 Na
atom 18.7829429099999992 38.5486883800000015 8.5712706799999996 Cl
atom 18.7808994600000005 35.7328740499999995 8.3886901300000005 Na
atom 15.9597885500000007 35.7164058899999972 8.5632248200000003 Cl
atom 18.8505956200000000 38.5722968999999978 5.9041686100000002 Na
atom 16.1891506199999995 38.5561443599999976 5.7424398300000004 Cl