#===============================================================================
# Created using the Atomic Simulation Environment (ASE)

# Tue Dec 23 21:42:32 2025

#=======================================================
lattice_vector 28.1999999999999993 0.0000000000000000 0.0000000000000000 
lattice_vector 0.0000000000000000 39.4799999999999969 0.0000000000000000 
lattice_vector 0.0000000000000000 0.0000000000000000 62.3296083400000001 
atom 7.5669863900000003 14.8204585800000004 0.1278872200000000 Au
atom 10.2835665100000000 14.7581371499999996 -0.0276773600000000 Au
atom 13.1434131999999995 14.7814849800000001 -0.2329066900000000 Au
atom 15.9883978399999993 14.8202132800000008 -0.2371397700000000 Au
atom 18.7267423599999994 14.7585700400000004 -0.1057475700000000 Au
atom 21.6291190200000010 14.7617946000000000 -0.0563912300000000 Au
atom 24.4852867699999983 14.7435799099999993 0.1444249300000000 Au
atom 27.3461808700000013 14.8859735799999999 0.0669928500000000 Au
atom 1.8429421699999999 14.7813492699999998 0.2691061200000000 Au
atom 4.6696371599999997 14.8474133500000001 -0.0192388900000000 Au
atom 8.9381280800000003 17.2862793100000012 0.0860819200000000 Au
atom 11.6559438400000008 17.2960694299999993 -0.2616766000000000 Au
atom 14.5738947200000002 17.2897579700000001 -0.2348274200000000 Au
atom 17.4335222999999999 17.2985505800000006 -0.2284931200000000 Au
atom 20.2167815500000003 17.1988317500000001 -0.1111631200000000 Au
atom 23.0370634900000013 17.2151233300000008 0.0495714700000000 Au
atom 25.7973154899999990 17.2916823599999994 0.1640507600000000 Au
atom 0.4809606800000000 17.3159222399999990 0.2256016100000000 Au
atom 3.2343521800000001 17.3263587200000018 0.1179488800000000 Au
atom 6.0942893900000001 17.2412562300000012 0.1482260400000000 Au
atom 7.4690943699999996 19.7181886999999989 -0.0115669700000000 Au
atom 10.3435229100000008 19.7521571700000003 -0.0710734900000000 Au
atom 13.2152721500000006 19.7267029700000016 -0.0674379900000000 Au
atom 16.0188128700000014 19.8085011100000017 -0.1694964700000000 Au
atom 18.8365918900000011 19.7544658700000006 -0.0989770500000000 Au
atom 21.6197683199999986 19.6986623399999985 -0.0848174300000000 Au
atom 24.4208904400000009 19.7346635100000007 0.1091988300000000 Au
atom 27.2795033599999996 19.7848002299999983 0.1392500800000000 Au
atom 1.9384226000000000 19.7824824499999998 0.2558190900000000 Au
atom 4.7040097400000001 19.7929524999999984 0.1007707000000000 Au
atom 8.9424797999999992 22.1646411800000003 0.0218993500000000 Au
atom 11.7358400300000003 22.1905817600000006 -0.0867376800000000 Au
atom 14.6109612000000002 22.1797541299999992 -0.0986103400000000 Au
atom 17.4307536700000014 22.2346424899999988 -0.1154721500000000 Au
atom 20.2313255800000000 22.1291860900000010 -0.1136456200000000 Au
atom 23.0626734499999984 22.1742570000000008 0.0679535600000000 Au
atom 25.8486139199999982 22.1681381600000016 -0.0959009200000000 Au
atom 0.4813307300000000 22.1832557699999988 0.0300899000000000 Au
atom 3.3214886300000002 22.2332464799999983 -0.0201454800000000 Au
atom 6.1551761899999997 22.1836256200000008 0.2333083100000000 Au
atom 7.5008136600000004 24.6621561699999994 0.3024995500000000 Au
atom 10.3069137499999997 24.6560740000000003 -0.0077944900000000 Au
atom 13.1550410600000003 24.6725497699999998 -0.1251583700000000 Au
atom 15.9786659899999997 24.6381044799999991 0.0722665000000000 Au
atom 18.8172176600000007 24.6695439299999997 -0.0337457500000000 Au
atom 21.6416496599999988 24.7174605499999984 -0.0356371000000000 Au
atom 24.4519200699999999 24.6655887299999996 0.1749368000000000 Au
atom 27.2558965399999984 24.7173883900000000 0.0929382300000000 Au
atom 1.8925756899999999 24.7119576999999992 0.0528027100000000 Au
atom 4.7305327600000000 24.7311083700000012 -0.0290996200000000 Au
atom 8.9381336099999995 27.0851055999999986 0.0211188600000000 Au
atom 11.7609606200000005 27.0962408299999993 0.0057966100000000 Au
atom 14.5070079799999991 27.1450625000000016 -0.1286296500000000 Au
atom 17.3405417899999996 27.1093621599999999 -0.1027404500000000 Au
atom 20.2020747199999988 27.1400528899999998 0.0052225500000000 Au
atom 23.0513327100000005 27.1416379300000017 0.0978776900000000 Au
atom 25.9115794000000008 27.2238133600000012 0.2407172200000000 Au
atom 0.4364936500000000 27.1544467599999990 0.1319269300000000 Au
atom 3.2756791900000000 27.1689206699999986 0.2073421300000000 Au
atom 6.0966278400000000 27.1114600000000010 -0.1088728000000000 Au
atom 7.4605097999999996 29.6158545400000008 -0.0778144700000000 Au
atom 10.2566613499999999 29.5418132600000014 -0.0166538900000000 Au
atom 13.1209062400000001 29.6321825899999993 -0.1996159400000000 Au
atom 15.9013411500000004 29.6638951000000013 -0.1342740300000000 Au
atom 18.7400705199999997 29.6549313900000016 -0.1972861100000000 Au
atom 21.5000777800000016 29.6065414699999998 0.0521756000000000 Au
atom 24.3708590100000002 29.6336090299999988 0.1180976400000000 Au
atom 27.3071674100000017 29.6209240399999985 0.0633230900000000 Au
atom 1.9101721100000000 29.6521465599999985 0.0681227100000000 Au
atom 4.6755683699999997 29.6052766799999993 0.1307165600000000 Au
atom 8.9319868499999995 32.0040856399999996 0.0990128100000000 Au
atom 11.7081088399999995 32.0672992499999978 -0.1936784700000000 Au
atom 14.5251457100000003 32.0810773099999977 0.0610790900000000 Au
atom 17.3421745300000012 32.1086431100000027 -0.0401771400000000 Au
atom 20.1903750200000012 32.1220450599999978 -0.0613104800000000 Au
atom 23.0293583700000006 32.0989578300000034 -0.0485178900000000 Au
atom 25.8591248000000000 32.0501235300000005 -0.1565095100000000 Au
atom 0.4542811300000000 32.0422994899999978 0.0362290700000000 Au
atom 3.2505646200000000 32.0956552099999968 0.0750998900000000 Au
atom 6.0997430200000000 32.1481923199999997 0.0537900100000000 Au
atom 7.4623450499999997 34.5520658800000007 -0.0699523300000000 Au
atom 10.3232631300000008 34.4343515999999994 0.0126288200000000 Au
atom 13.1233932899999992 34.5211917800000023 -0.0926131300000000 Au
atom 15.9378539700000008 34.5160973999999996 -0.1152935000000000 Au
atom 18.7789496100000015 34.5827668299999971 -0.0278634100000000 Au
atom 21.6217572900000015 34.5968717100000021 -0.0840602100000000 Au
atom 24.4576859900000017 34.6012798599999982 -0.0831950000000000 Au
atom 27.2095540100000015 34.5285860799999966 0.0252395400000000 Au
atom 1.8505487300000001 34.5678267799999972 -0.0137758600000000 Au
atom 4.7008982699999997 34.5718551800000000 0.0832357400000000 Au
atom 8.8869326799999993 36.9786714099999969 -0.0070617400000000 Au
atom 11.6870735499999991 36.9213001500000004 0.0356750300000000 Au
atom 14.4826888799999995 36.9830869000000035 -0.0538216300000000 Au
atom 17.3280974599999986 37.0485470799999987 -0.0138726100000000 Au
atom 20.2239194699999985 37.0364019000000013 -0.0315789400000000 Au
atom 23.0502934800000006 37.0423522899999966 -0.0890548000000000 Au
atom 25.8975727499999984 37.0829656800000009 0.1035711200000000 Au
atom 0.4727938000000000 37.0320699800000028 -0.1406607600000000 Au
atom 3.2459026000000000 37.0152739500000010 -0.0349409500000000 Au
atom 6.0614351099999997 37.0635558000000032 -0.0959687600000000 Au
atom 7.4285593199999997 0.0232897400000000 -0.0613595000000000 Au
atom 10.2628621199999994 -0.0026617500000000 0.2684337600000000 Au
atom 13.1174824200000000 -0.0159725400000000 0.0743794200000000 Au
atom 15.9634383900000003 -0.0054340200000000 0.0444426400000000 Au
atom 18.8181186700000005 0.0037258000000000 -0.0227042500000000 Au
atom 21.6646460599999990 0.0548954000000000 0.1851945300000000 Au
atom 24.4353625900000004 0.0281101500000000 0.1650530500000000 Au
atom 27.2931157999999989 0.0298583900000000 -0.0343473800000000 Au
atom 1.8662490500000000 0.0599862600000000 0.0061228800000000 Au
atom 4.6457195799999997 0.0295448400000000 -0.0318556500000000 Au
atom 8.8507177600000002 2.5019956600000000 0.0463128200000000 Au
atom 11.6898653400000008 2.4372410699999998 0.0316967400000000 Au
atom 14.4835044100000001 2.4338413900000000 0.2034385200000000 Au
atom 17.3155575599999985 2.4270936500000002 0.1260412700000000 Au
atom 20.1746987799999999 2.4216777700000001 -0.0561701100000000 Au
atom 23.0506708899999992 2.5098787400000000 0.0060430000000000 Au
atom 25.8391344899999993 2.5007310299999999 0.2181381600000000 Au
atom 0.4327151500000000 2.4620159400000001 0.1344570900000000 Au
atom 3.2523087199999998 2.5223109099999999 -0.0186589500000000 Au
atom 6.0260630800000001 2.5145448300000002 -0.0245771500000000 Au
atom 7.4754644399999997 4.9831685099999996 -0.0471360800000000 Au
atom 10.2667964299999994 4.9185324599999998 0.1819044000000000 Au
atom 13.0639093299999995 4.9670643700000001 0.1541898100000000 Au
atom 15.8739659399999997 4.8982757299999999 0.2234122500000000 Au
atom 18.7672089900000003 4.8992677699999998 0.1416437000000000 Au
atom 21.5583373599999994 4.9626627599999997 0.1422297600000000 Au
atom 24.3909095299999983 4.9816261400000004 0.1617453600000000 Au
atom 27.2683597999999989 4.9868804999999998 0.3535503700000000 Au
atom 1.8527791199999999 4.9811187700000001 0.0003549900000000 Au
atom 4.6179961299999999 4.9434711399999998 0.1880662600000000 Au
atom 8.8633137400000006 7.4616032399999996 0.0679928000000000 Au
atom 11.6573654300000005 7.4302795499999998 0.1068020400000000 Au
atom 14.5045225599999998 7.3631953200000000 0.0699795700000000 Au
atom 17.3826673400000011 7.3886658199999999 0.1994787100000000 Au
atom 20.2181245899999986 7.4122049800000003 0.1363544900000000 Au
atom 23.0644380099999999 7.3605994399999997 0.0882577500000000 Au
atom 25.8744047799999990 7.4251907499999996 0.0686067700000000 Au
atom 0.4834444700000000 7.4386605599999998 0.0810590000000000 Au
atom 3.2628239699999999 7.4131269800000004 0.1012760900000000 Au
atom 6.0657306000000002 7.4509572400000001 0.1509376500000000 Au
atom 7.4065946000000000 9.8486697299999992 0.2034890000000000 Au
atom 10.2854954900000006 9.8479947400000007 0.0869633600000000 Au
atom 13.1729187099999994 9.8738396399999999 -0.1371688400000000 Au
atom 16.0073140699999996 9.7877248800000007 -0.0856089300000000 Au
atom 18.8768839100000001 9.8111702399999992 -0.1272376200000000 Au
atom 21.6407591000000004 9.8721261800000004 0.1686753800000000 Au
atom 24.4122583999999989 9.8624726400000000 0.0714203900000000 Au
atom 27.2230074699999989 9.9123652100000008 0.0735043900000000 Au
atom 1.8990422199999999 9.9300995400000005 0.0018493500000000 Au
atom 4.6039849000000004 9.9259508099999998 0.1661250500000000 Au
atom 8.8232949299999994 12.2941496299999997 0.0420344900000000 Au
atom 11.7370325700000002 12.3629000999999992 -0.0303771300000000 Au
atom 14.5657137900000002 12.3179755600000007 -0.2910903500000000 Au
atom 17.4629404699999995 12.2577599599999996 -0.1491128600000000 Au
atom 20.2541119599999995 12.2957743700000002 0.0947282000000000 Au
atom 23.0517832899999995 12.3485347700000005 0.1064295200000000 Au
atom 25.8853666699999998 12.3251233100000004 0.1064102100000000 Au
atom 0.4555736600000000 12.3598907199999992 0.1155323600000000 Au
atom 3.2850527700000001 12.4365628899999994 -0.0533895700000000 Au
atom 6.0556037600000003 12.3891825600000001 0.2262533500000000 Au
atom 7.5049979000000002 13.2747808900000006 2.7150090800000002 Au
atom 10.3589682599999993 13.1762847900000004 2.5433879300000002 Au
atom 13.2630228799999994 13.1601670800000008 2.5389779400000001 Au
atom 16.0202762900000018 13.1696706399999997 2.3713027400000000 Au
atom 18.7945035999999988 13.2360396399999996 2.6282909299999999 Au
atom 21.6263465100000012 13.1262379199999994 2.6996422700000000 Au
atom 24.4406312200000002 13.2069488400000008 2.8667041900000001 Au
atom 27.2869918100000000 13.2376832800000006 2.6270761899999999 Au
atom 1.8662570300000001 13.1440932299999993 2.7920527000000002 Au
atom 4.6366081399999999 13.2454247200000008 2.7165142699999998 Au
atom 9.0300653499999992 15.6426538900000001 2.7611971500000001 Au
atom 11.8524246400000006 15.6264520800000000 2.3377048999999999 Au
atom 14.6573278100000000 15.5685501500000001 2.3348426099999999 Au
atom 17.4297119199999990 15.6536198300000002 2.4486742900000000 Au
atom 20.2810796400000015 15.6281620599999993 2.4616925400000000 Au
atom 23.0401879700000016 15.6696580000000001 2.5971247599999998 Au
atom 25.7868907699999994 15.6693678900000002 2.7991017299999998 Au
atom 0.4309369000000000 15.6272348799999996 2.8134105800000002 Au
atom 3.3103864500000002 15.6924016700000006 2.7670777599999998 Au
atom 6.1133343199999999 15.6323591499999992 2.6198120000000000 Au
atom 7.6374364100000003 18.1406844900000017 2.6384290899999998 Au
atom 10.4445604400000001 18.1166673200000012 2.5668593600000000 Au
atom 13.2233875500000000 18.0682187399999989 2.4452875700000001 Au
atom 15.9840031699999994 18.1240051999999991 2.3516137499999998 Au
atom 18.7650276699999985 18.0760292999999983 2.4753240600000002 Au
atom 21.5411313200000016 18.1546850699999993 2.5494820300000001 Au
atom 24.3962470700000011 18.1449992400000006 2.8372694799999998 Au
atom 27.1999345599999991 18.1450275800000007 2.6535327099999999 Au
atom 1.9079155200000000 18.1056009899999992 2.7682402399999999 Au
atom 4.7351478000000000 18.0778641399999991 2.7567415600000000 Au
atom 8.9465403499999994 20.6037390599999988 2.6382719899999998 Au
atom 11.7992425799999996 20.5628238799999998 2.5231442899999998 Au
atom 14.5722223599999996 20.5766373199999997 2.5814807599999998 Au
atom 17.3181423700000003 20.6116421900000013 2.4572036900000001 Au
atom 20.1167938399999997 20.5713858499999986 2.5593075700000001 Au
atom 22.9760078700000001 20.6337654999999991 2.6332166300000002 Au
atom 25.7902018099999992 20.6043155200000001 2.6374833600000001 Au
atom 0.4174366100000000 20.5445139999999995 2.8054757700000001 Au
atom 3.3206807800000000 20.5953259200000005 2.7164146100000002 Au
atom 6.1845831699999998 20.4833733799999997 2.8073487899999998 Au
atom 7.6080862900000001 23.0477530900000005 2.8039829799999998 Au
atom 10.4462466099999993 23.0122357000000015 2.5318376100000002 Au
atom 13.2556435900000000 22.9808661799999996 2.5575010499999999 Au
atom 16.0610364300000015 23.0658636500000007 2.6728186200000001 Au
atom 18.8010340400000011 23.0889789900000011 2.4985962399999999 Au
atom 21.6013345399999999 23.0778381000000010 2.5333904000000000 Au
atom 24.4374516200000009 23.0249922299999987 2.6913094800000001 Au
atom 27.2221930000000008 22.9890891000000011 2.4548730999999999 Au
atom 1.8758517699999999 23.0208933599999988 2.6765428800000000 Au
atom 4.7488246199999997 23.0356995699999985 2.5942611100000001 Au
atom 9.0535151799999998 25.5875969400000010 2.7571798900000002 Au
atom 11.8007129000000006 25.5089252500000008 2.6113614100000002 Au
atom 14.5927481300000004 25.4760198799999991 2.5749999600000000 Au
atom 17.4212944999999984 25.5864840200000003 2.5389699600000002 Au
atom 20.2091057099999993 25.5423560099999989 2.6802009000000000 Au
atom 23.0389845400000013 25.5784745300000012 2.8236855900000002 Au
atom 25.8440118699999992 25.5785220200000012 2.7804511199999999 Au
atom 0.5076374200000000 25.4620830900000001 2.7283662400000002 Au
atom 3.3577784099999999 25.5037147900000001 2.6613362999999999 Au
atom 6.1432247200000001 25.4721867999999994 2.7431243500000000 Au
atom 7.5706056799999999 27.9753845299999995 2.4469471500000002 Au
atom 10.4044060900000002 28.0655618699999998 2.5809817599999998 Au
atom 13.2071995999999992 27.9805818700000017 2.5301036600000000 Au
atom 15.9666975099999995 27.9966263799999986 2.5442079600000000 Au
atom 18.8291881500000002 28.0557066800000001 2.4398789800000000 Au
atom 21.5703933700000015 28.0288070900000008 2.7173698399999999 Au
atom 24.4175008799999986 28.1160711799999987 2.6872362999999999 Au
atom 27.2618728499999996 28.0740527499999999 2.8220946300000000 Au
atom 1.8659732200000001 28.0417925299999986 2.7700874899999999 Au
atom 4.7769158699999998 28.0375105699999985 2.6318203100000002 Au
atom 8.9284769900000001 30.4758734999999987 2.6311049299999998 Au
atom 11.7295364099999997 30.4642391799999999 2.4585172599999998 Au
atom 14.5449561700000007 30.4323647100000017 2.6411111799999998 Au
atom 17.3291898400000015 30.4654250100000006 2.4532291000000002 Au
atom 20.1310470499999994 30.5464592000000010 2.6181572300000000 Au
atom 22.9764044399999996 30.4809747000000009 2.5798324799999999 Au
atom 25.8536287300000005 30.4593036499999990 2.5306267000000000 Au
atom 0.5062669300000000 30.4832638200000012 2.7072200799999999 Au
atom 3.2945224299999998 30.5208928099999994 2.6900788800000002 Au
atom 6.0949870900000001 30.5160938500000007 2.6181527099999999 Au
atom 7.5665348500000000 32.9756673600000028 2.6231127999999999 Au
atom 10.3486419400000003 32.8853578599999992 2.6412333399999999 Au
atom 13.1184945099999997 32.8803022600000006 2.5131703999999999 Au
atom 15.9240591100000000 32.9830850399999989 2.6203755900000001 Au
atom 18.7334919800000002 32.9383580599999988 2.5612366700000000 Au
atom 21.5910305899999990 32.9126755899999992 2.5700313499999998 Au
atom 24.3983649500000013 32.9491387200000005 2.4603499300000000 Au
atom 27.1964713099999997 32.9423584500000004 2.6171389399999998 Au
atom 1.8197583100000001 33.0058676000000020 2.6276640900000001 Au
atom 4.6957477100000000 32.9869345299999992 2.7112810199999999 Au
atom 8.8795418700000006 35.3912399100000030 2.5405774299999999 Au
atom 11.6625764600000004 35.4492906799999972 2.6013466599999999 Au
atom 14.5067033999999992 35.4061716300000029 2.5331374900000001 Au
atom 17.3208827399999983 35.4310686199999978 2.4891945700000000 Au
atom 20.0929327499999992 35.3451834700000020 2.7022057899999998 Au
atom 22.9356183400000013 35.3772576000000001 2.5138098200000001 Au
atom 25.7849193200000002 35.3414925800000006 2.5985733799999999 Au
atom 0.4167757300000000 35.4667484100000010 2.5544231300000000 Au
atom 3.2836691400000002 35.4434445500000024 2.6223997400000001 Au
atom 6.1375812300000003 35.4295874800000021 2.5367298500000000 Au
atom 7.4834412500000003 37.8924680200000026 2.4260565199999999 Au
atom 10.2381507299999992 37.8648772299999976 2.6813109100000001 Au
atom 13.0837794800000005 37.8918161200000014 2.5100585400000002 Au
atom 15.9155300299999993 37.8920228699999981 2.6110591200000002 Au
atom 18.7683306600000002 37.8728505899999988 2.4583488500000001 Au
atom 21.5091797299999996 37.7720539500000001 2.5628789300000001 Au
atom 24.3699382799999995 37.7846129799999986 2.6298085699999998 Au
atom 27.2054984299999987 37.8982376200000033 2.5296756700000000 Au
atom 1.8764674500000000 37.8678963500000023 2.5144426300000000 Au
atom 4.6338405600000003 37.8230276500000002 2.4576905800000000 Au
atom 8.8001108600000002 0.9141168600000000 2.7327562099999998 Au
atom 11.7139276100000007 0.8359948400000000 2.8317932400000001 Au
atom 14.5621667699999993 0.8764269600000000 2.6568844999999999 Au
atom 17.3472615099999992 0.7931422700000000 2.6064632500000000 Au
atom 20.2049303800000004 0.8186656000000000 2.6591555900000001 Au
atom 23.0117871700000016 0.8212311100000000 2.7081183000000002 Au
atom 25.7968631600000009 0.7947325200000001 2.6954725100000001 Au
atom 0.4681468900000000 0.8678056700000000 2.7529200800000000 Au
atom 3.2134721599999998 0.9254863500000000 2.5734618100000000 Au
atom 6.0634772500000000 0.8791552300000000 2.6181664200000001 Au
atom 7.4387828000000003 3.3721313400000001 2.5862269400000000 Au
atom 10.3240106199999992 3.2458237799999998 2.6381114900000000 Au
atom 13.1504010499999993 3.3207379399999999 2.6119002099999999 Au
atom 15.9763386799999996 3.3021052300000000 2.8435055100000000 Au
atom 18.8254702000000016 3.3070539000000001 2.7337541299999999 Au
atom 21.5631717199999997 3.2955321799999999 2.5874486299999999 Au
atom 24.3561306000000002 3.3573156399999999 2.7290576299999998 Au
atom 27.2306927999999999 3.3160723900000000 2.8185543900000001 Au
atom 1.8420204300000000 3.3749741700000002 2.5558101299999998 Au
atom 4.5995374599999996 3.3026486799999999 2.6931025300000000 Au
atom 8.8997086200000002 5.7510702499999997 2.7369542700000000 Au
atom 11.7229827499999999 5.7681130800000000 2.8042137999999999 Au
atom 14.6016649600000008 5.8077484000000004 2.7167629000000000 Au
atom 17.4694030900000001 5.8362566800000000 2.8050201499999998 Au
atom 20.2350453299999984 5.8136891999999998 2.7601463100000001 Au
atom 23.0349500300000010 5.7810282099999997 2.7822447600000002 Au
atom 25.7895022599999990 5.7529703200000002 2.8518823300000000 Au
atom 0.4647685000000000 5.8455896300000001 2.8160480799999998 Au
atom 3.2683345199999998 5.8203668400000002 2.7329265800000000 Au
atom 6.0958027899999996 5.8348096099999998 2.6947991899999999 Au
atom 7.5400556700000001 8.2412550499999995 2.7932681200000000 Au
atom 10.3172833300000004 8.1820736099999998 2.7663716500000000 Au
atom 13.1623894600000000 8.3074317600000001 2.6835510400000002 Au
atom 15.9690802499999993 8.3167403600000007 2.6522563199999998 Au
atom 18.8250811599999999 8.3010487600000005 2.7899625900000000 Au
atom 21.6998592700000010 8.2384190900000007 2.7308764399999998 Au
atom 24.4306822100000005 8.3223001399999994 2.6569077700000001 Au
atom 27.2801756100000006 8.2513348400000002 2.5781843900000001 Au
atom 1.9003307800000000 8.2774971399999995 2.7038974900000001 Au
atom 4.7287289000000001 8.2945172800000009 2.6978730799999999 Au
atom 8.9419611900000007 10.7496508700000000 2.6982478599999999 Au
atom 11.7913675700000002 10.7147198299999999 2.5315319399999998 Au
atom 14.6235033100000003 10.7582974999999994 2.3496613000000002 Au
atom 17.4320254900000009 10.7097237100000005 2.5199122699999998 Au
atom 20.1912698199999987 10.7117591700000006 2.6188035500000000 Au
atom 23.1044828399999993 10.7458785999999993 2.7378719000000000 Au
atom 25.8973687599999991 10.7664378700000007 2.6732190800000000 Au
atom 0.5022451400000000 10.7033849500000002 2.7372651299999999 Au
atom 3.3355178599999999 10.7348819800000008 2.5932875800000001 Au
atom 6.1596142000000000 10.7778230900000001 2.8898332899999999 Au
atom 7.5235987700000004 13.2316992199999994 5.6658501799999996 Cl
atom 7.4718822400000002 15.9110859999999992 8.6594802299999998 Cl
atom 7.6177420299999996 13.0738043099999999 8.4922284900000005 Na
atom 7.5229340499999999 16.0121570300000009 5.9555530799999996 Na
atom 7.5495107099999998 18.8729356400000015 5.8265957999999998 Cl
atom 7.4711618099999999 21.6608293200000013 8.7060466400000003 Cl
atom 7.5066283399999998 18.8526685399999998 8.4860273900000003 Na
atom 7.4654632799999998 21.6027806099999999 6.0419843999999996 Na
atom 7.5119442400000001 24.4340778500000013 5.9005392299999997 Cl
atom 7.5879346700000001 27.3481153100000007 8.5972754100000000 Cl
atom 7.5311642299999999 24.5726302300000015 8.5040308699999994 Na
atom 7.4475353999999996 27.0979092000000001 5.7525781900000004 Na
atom 7.5531188699999996 30.1244574400000005 5.6184912200000001 Cl
atom 7.5013798600000001 32.8793702600000017 8.4899297499999999 Cl
atom 7.5396872100000003 30.1650073499999998 8.2649560500000003 Na
atom 7.4727303200000001 32.8460817799999987 5.7148293600000004 Na
atom 7.3671636300000003 35.8490340800000027 5.6602639600000000 Cl
atom 7.4733482599999999 38.6145492899999994 8.4783167299999995 Cl
atom 7.3306758900000002 35.7402050500000001 8.3730535100000001 Na
atom 7.4026830900000000 38.6196215499999980 5.7152674000000001 Na
atom 7.5183389299999996 2.0244332500000000 5.6578047199999997 Cl
atom 7.4980271700000003 4.7390581500000000 8.6777268599999999 Cl
atom 7.4261701699999998 1.8550389000000000 8.4689211699999998 Na
atom 7.3432790099999998 4.7267852100000001 5.9042998200000003 Na
atom 7.3029393200000001 7.5547818800000002 5.7393319399999996 Cl
atom 7.4449688600000004 10.4365659900000001 8.7618418400000007 Cl
atom 7.4157383899999996 7.5275983399999999 8.4507369600000004 Na
atom 7.4605498700000004 10.3972265600000000 5.9093951499999999 Na
atom 10.2736919699999998 13.1809145700000006 5.9227551700000003 Na
atom 13.2298163800000008 13.2436977400000000 5.7643397099999998 Cl
atom 10.2835568800000008 16.0225503200000006 8.6508440699999998 Na
atom 13.1748839400000008 16.0512690300000003 8.5513525500000007 Cl
atom 13.1239880499999995 13.3120965400000006 8.6224580700000004 Na
atom 10.4727275100000004 13.1867621800000006 8.7292978500000000 Cl
atom 13.0125178899999998 16.0661969000000013 5.9174798800000001 Na
atom 10.3853261999999997 16.0610093200000001 5.9441065599999998 Cl
atom 10.2909372399999999 18.8633292499999996 5.9804369099999999 Na
atom 13.1413812500000002 18.8373500599999986 5.6914589299999996 Cl
atom 10.3115350600000006 21.8857518700000000 8.5434687900000004 Na
atom 13.0301641099999994 21.7038594899999993 8.5621049599999992 Cl
atom 13.0391136500000009 18.8400451000000011 8.4406129399999994 Na
atom 10.2081595600000004 18.8588763099999994 8.7234864600000002 Cl
atom 13.0934185700000008 21.6076398099999984 5.7750653700000001 Na
atom 10.1533274000000002 21.7210466500000017 5.8285459199999998 Cl
atom 10.3664906499999994 24.4326204800000006 5.8342650000000003 Na
atom 13.1261632899999992 24.5893108600000012 5.6513724600000002 Cl
atom 10.2467444899999993 27.3127826899999988 8.3112523800000009 Na
atom 12.9540699799999999 27.3664072099999984 8.6318989800000008 Cl
atom 13.1446752199999999 24.5930533199999992 8.5971628199999994 Na
atom 10.2759325700000002 24.6065098599999992 8.6141164799999999 Cl
atom 13.1473515600000006 27.2336843100000010 5.7627250099999996 Na
atom 10.3667122500000009 27.1954742600000010 5.5514988499999998 Cl
atom 10.3098624700000006 29.9839958099999997 5.7012723400000000 Na
atom 13.2158142400000003 29.8609074099999994 5.6315289699999997 Cl
atom 10.1851927500000006 32.9279444299999966 8.2614873699999993 Na
atom 12.9954067500000008 33.0157218299999968 8.5047517399999997 Cl
atom 13.0189780899999992 30.1104366100000007 8.3226523900000000 Na
atom 10.2022873100000009 30.1588071199999987 8.4615497699999995 Cl
atom 13.1411926300000008 32.8180544800000007 5.8343723399999998 Na
atom 10.2415062500000005 32.9741338099999979 5.5710951299999998 Cl
atom 10.1440870699999994 35.6983460800000003 5.7654109599999996 Na
atom 13.0627505100000008 35.7282799899999972 5.6477691099999996 Cl
atom 10.2234056599999992 38.5413039900000030 8.2250925400000003 Na
atom 13.0394756699999999 38.5444388100000026 8.3821381499999994 Cl
atom 12.9551091399999994 35.7335349299999976 8.3100693600000000 Na
atom 10.1641738700000008 35.7802377699999994 8.4936476600000006 Cl
atom 13.0513546100000006 38.6152898100000002 5.6348853099999996 Na
atom 10.2088379800000002 38.4896210799999992 5.5777959700000004 Cl
atom 10.1868169399999999 1.8294995000000001 5.7058593599999998 Na
atom 13.0275748399999998 2.0000358899999999 5.6378381299999996 Cl
atom 10.2922941399999992 4.6637875800000002 8.4694670900000002 Na
atom 13.0601309400000005 4.7288140299999997 8.6067779000000009 Cl
atom 13.0535609600000004 1.8703839099999999 8.2582678499999993 Na
atom 10.2744966499999997 1.7147903400000000 8.5154917300000008 Cl
atom 13.0007029999999997 4.8304321200000002 5.8120756099999999 Na
atom 10.2048602200000005 4.7483719000000004 5.8675148100000003 Cl
atom 10.1943356600000001 7.4660535799999996 5.9517043899999997 Na
atom 13.0739464000000005 7.5583547600000003 5.7487767200000004 Cl
atom 10.3134954200000006 10.3199577100000006 8.5595722500000004 Na
atom 13.0282300099999997 10.4312505099999999 8.5820035400000005 Cl
atom 13.0534929700000006 7.6818087700000000 8.4600121999999995 Na
atom 10.3192907100000006 7.6107692100000000 8.6319710900000004 Cl
atom 13.0482179299999999 10.3295091299999999 5.7199789100000000 Na
atom 10.1930493299999991 10.3589973700000009 5.8399605799999996 Cl
atom 15.9813211299999995 13.2632827899999999 5.8438990999999998 Na
atom 18.7553070300000009 13.2159473599999995 5.7341615099999999 Cl
atom 16.0687483299999982 16.1534003999999989 8.5754073099999992 Na
atom 18.7597907399999997 16.1200620000000008 8.7095371299999993 Cl
atom 18.6554007599999991 13.1308292699999996 8.3919531000000003 Na
atom 16.0080504899999987 13.2101488499999995 8.5342890699999998 Cl
atom 18.6576332899999997 15.9925689799999997 5.8691342799999999 Na
atom 15.9200205500000003 16.1733666599999992 5.9094155099999996 Cl
atom 15.8753373199999999 18.8442873800000008 5.9224435800000004 Na
atom 18.6545006800000017 18.9175033500000005 5.8972043400000000 Cl
atom 15.8973662299999994 21.6502186399999985 8.4350107399999992 Na
atom 18.7265517400000014 21.7017080600000014 8.5828962299999993 Cl
atom 18.5879264699999993 18.9529954399999987 8.5733708199999992 Na
atom 15.7670688400000003 18.8278204600000016 8.6230695900000001 Cl
atom 18.5681094599999987 21.7891093699999985 5.8836888700000003 Na
atom 15.8085243999999996 21.5213841700000010 5.7286040399999996 Cl
atom 15.9256017799999992 24.4481020999999998 5.8729151000000002 Na
atom 18.6523315200000006 24.4374850300000013 5.8919457299999998 Cl
atom 16.0370215099999989 27.2658403000000007 8.6328679800000003 Na
atom 18.8570681600000007 27.3376102699999990 8.6650512400000004 Cl
atom 18.7270391700000012 24.4970290999999989 8.6135233699999993 Na
atom 15.8222025599999991 24.4842282100000013 8.6107774300000006 Cl
atom 18.7240492799999991 27.2439671399999987 6.0041442800000002 Na
atom 15.8648979800000003 27.2691890500000014 5.8980376500000000 Cl
atom 15.8926408099999996 29.9641257699999990 5.8361772600000004 Na
atom 18.6482602100000001 30.0183762999999999 5.6627748200000001 Cl
atom 15.7951133000000006 33.0082980899999967 8.3683141600000006 Na
atom 18.6756947199999992 32.9484125099999972 8.6916039000000005 Cl
atom 18.7055660900000014 30.1555429299999993 8.3990472199999999 Na
atom 15.7961082499999996 30.0815370900000012 8.6871499700000001 Cl
atom 18.7032870299999985 32.9515503000000010 5.8425696699999996 Na
atom 15.8022787999999998 32.9206876100000017 5.7073419899999998 Cl
atom 15.8389737999999998 35.7550699399999985 5.6337348299999999 Na
atom 18.8120605599999990 35.6881675400000020 5.6143500299999998 Cl
atom 15.8224598200000006 38.4900566299999980 8.1294494799999999 Na
atom 18.6718621200000001 38.5503219499999972 8.4096389400000007 Cl
atom 18.6623337900000017 35.6971136700000002 8.2579867000000000 Na
atom 15.7935681599999995 35.7411119900000003 8.3811914499999993 Cl
atom 18.7291897499999997 38.5534972399999987 5.6418036699999998 Na