#===============================================================================
# Created using the Atomic Simulation Environment (ASE)

# Tue Dec 23 22:26:53 2025

#=======================================================
lattice_vector 28.1999999999999993 0.0000000000000000 0.0000000000000000 
lattice_vector 0.0000000000000000 39.4799999999999969 0.0000000000000000 
lattice_vector 0.0000000000000000 0.0000000000000000 62.3296083400000001 
atom 7.5326058400000004 14.9290814399999991 0.0611593900000000 Au
atom 10.3791305200000004 14.8410517700000000 -0.0886501300000000 Au
atom 13.0649977199999991 14.6902018099999996 0.1375188400000000 Au
atom 15.8749173399999997 14.7394498200000008 0.1561727600000000 Au
atom 18.6323711799999998 14.7640692999999992 -0.1265780100000000 Au
atom 21.7325321100000011 14.8212100600000003 -0.0943010000000000 Au
atom 24.4000460799999992 15.0481388900000006 0.1127541000000000 Au
atom 27.1840668000000001 14.9645842400000006 -0.2440536000000000 Au
atom 1.7925596900000000 14.8127946900000005 0.1197053500000000 Au
atom 4.7959166000000000 14.7615845300000004 -0.1278713600000000 Au
atom 8.9892858600000007 17.4312190700000009 0.0558383600000000 Au
atom 11.6808476500000005 17.4473819699999986 0.0860378000000000 Au
atom 14.4994493299999991 17.1367328900000011 0.0036758100000000 Au
atom 17.3265313100000000 17.1638601900000012 -0.2559941800000000 Au
atom 20.1982159900000013 17.2426416300000014 0.1163168200000000 Au
atom 23.1161973200000013 17.0898879000000008 0.1259080600000000 Au
atom 25.7071348999999998 17.3968768099999984 0.0752021600000000 Au
atom 0.4973591700000000 17.3622918599999991 0.0242515300000000 Au
atom 3.1316614199999999 17.0862911500000010 0.0933021500000000 Au
atom 6.2643322100000001 17.2498523900000009 -0.0722423300000000 Au
atom 7.5260972099999996 19.5875345000000003 0.0894104300000000 Au
atom 10.2226108700000005 19.6837820599999986 0.1240558100000000 Au
atom 12.9808385800000003 19.7950338899999991 -0.0344399800000000 Au
atom 16.0220002400000006 19.7871250699999983 0.0154696200000000 Au
atom 18.7715029599999994 19.5047848399999992 0.2826482900000000 Au
atom 21.6750056800000017 19.6941400400000006 0.0600475900000000 Au
atom 24.2503486700000011 19.5340427199999986 0.0902395600000000 Au
atom 27.1558712399999997 19.8048859399999984 0.2112775000000000 Au
atom 1.8617773600000000 19.7401570699999986 0.0440543400000000 Au
atom 4.8538946300000001 19.5516880700000009 0.1388355400000000 Au
atom 8.8792059400000003 22.3969699300000009 0.0637693400000000 Au
atom 11.5903610300000004 22.2906553999999986 0.1114639700000000 Au
atom 14.5664027199999992 22.2866176100000004 0.1098125600000000 Au
atom 17.2883523699999984 22.2547458099999993 0.2025448900000000 Au
atom 20.0902569100000008 22.2894828400000016 0.0583528500000000 Au
atom 23.0386047100000013 22.2590196599999999 0.1428019400000000 Au
atom 25.9852700299999988 22.2966889200000011 0.1812141400000000 Au
atom 0.5719019400000001 22.1327929999999995 0.1191072200000000 Au
atom 3.1535346799999999 22.1868419099999983 0.0409283500000000 Au
atom 6.0815243399999996 22.3284643699999990 0.1785077000000000 Au
atom 7.4606287199999999 24.9494427899999991 -0.1543090700000000 Au
atom 10.2820670300000003 24.5450341300000012 0.0239813900000000 Au
atom 13.2261059999999997 24.5434740699999985 0.0144228900000000 Au
atom 16.0030336300000009 24.5536796499999994 0.1874326900000000 Au
atom 18.7989161899999999 24.5675203700000004 -0.0177701300000000 Au
atom 21.7101514900000012 24.6360593399999992 0.2475995700000000 Au
atom 24.2890023900000003 24.6536335400000013 0.3287190700000000 Au
atom 27.3154282799999990 24.7490594399999999 0.1625364200000000 Au
atom 1.7847131199999999 24.8362043499999992 0.1004095300000000 Au
atom 4.7386438300000000 24.7119457400000009 0.2136947500000000 Au
atom 8.8791693100000000 27.1694013100000014 0.0283951000000000 Au
atom 11.9209025299999993 26.8775155599999991 0.0572643000000000 Au
atom 14.6114162800000003 27.1804156399999997 0.1514871100000000 Au
atom 17.4656334199999996 27.1426128800000015 -0.1830260600000000 Au
atom 20.0432645200000010 27.0660507199999998 -0.0980422900000000 Au
atom 23.0398476499999987 27.1946940099999992 0.1484811000000000 Au
atom 25.7276105699999995 27.2060371900000000 0.0355223500000000 Au
atom 0.2622878000000000 27.2460132500000007 0.0195329400000000 Au
atom 3.2352446800000001 27.2488545799999997 0.1414104100000000 Au
atom 6.0824515799999999 27.2268469400000015 0.2219695300000000 Au
atom 7.4516087300000002 29.5364560900000015 -0.0249516600000000 Au
atom 10.3082200000000004 29.6682769999999998 0.0597998200000000 Au
atom 13.1203011699999994 29.6767146500000010 0.0806016300000000 Au
atom 15.9648707699999992 29.4896723799999982 0.2262046100000000 Au
atom 18.6316819799999998 29.6186122599999990 0.2562935400000000 Au
atom 21.5205310700000005 29.4902036500000015 0.1527370600000000 Au
atom 24.4488785200000009 29.7007308700000010 -0.0146342000000000 Au
atom 27.2780560600000008 29.7022510000000004 0.0230978100000000 Au
atom 1.6548537100000000 29.6243056899999999 0.0841582100000000 Au
atom 4.7252577300000000 29.5146165700000012 0.2090281500000000 Au
atom 9.0814517499999994 32.0141176699999974 -0.0793218700000000 Au
atom 11.7016351200000006 32.1813005899999993 -0.0575556600000000 Au
atom 14.4886282200000007 32.0099678999999995 -0.1577190400000000 Au
atom 17.4431749799999984 31.9864351099999986 -0.0760042500000000 Au
atom 20.0539488800000001 31.9516623200000005 -0.0065018200000000 Au
atom 23.0186400999999989 32.0851616400000026 0.0215714300000000 Au
atom 25.8430961000000003 32.1287892200000016 0.1966918000000000 Au
atom 0.5424515300000000 32.2019599699999972 -0.0214158600000000 Au
atom 3.2410712899999998 32.0056775799999969 0.0479876600000000 Au
atom 5.9004345599999999 31.9918636800000016 -0.0344438200000000 Au
atom 7.6956553400000001 34.5422411799999978 0.0091900400000000 Au
atom 10.4000646000000003 34.6352224800000030 0.0324888500000000 Au
atom 13.2265004800000003 34.6307263400000025 -0.1462902100000000 Au
atom 16.0213695200000004 34.5857348999999985 0.0168648200000000 Au
atom 18.7823460900000008 34.7517897399999995 -0.0596934200000000 Au
atom 21.4298117599999998 34.5342157799999967 0.0501460700000000 Au
atom 24.2166951399999988 34.5504038500000021 -0.0379630400000000 Au
atom 27.3843057799999983 34.6044618399999990 0.0005256900000000 Au
atom 1.9230694600000000 34.5153806399999965 0.0872201100000000 Au
atom 4.6302751700000000 34.4957761499999975 -0.0390953400000000 Au
atom 8.6716933899999997 37.2338552900000010 -0.0866353600000000 Au
atom 11.7107834700000009 37.0319386099999974 0.1196515300000000 Au
atom 14.5093943000000003 37.0413080300000033 0.1056638600000000 Au
atom 17.6144045200000008 37.2651869700000020 -0.0257952100000000 Au
atom 20.2563958399999997 37.0580752500000017 -0.0032652500000000 Au
atom 23.0062885100000010 37.0814778200000035 -0.0006213600000000 Au
atom 25.8701593099999982 36.9781038300000020 0.1655429700000000 Au
atom 0.5325494900000000 37.0189444600000002 -0.0880776900000000 Au
atom 3.2524448800000001 37.1218202399999981 0.0907550600000000 Au
atom 5.8518256900000001 37.1015392199999994 0.1470439100000000 Au
atom 7.5433413299999996 -0.0106709300000000 0.2230071900000000 Au
atom 10.3857169599999999 0.1557575800000000 0.2676914600000000 Au
atom 13.2005447500000006 0.1986174900000000 0.0318799900000000 Au
atom 15.9918721999999995 -0.0532472300000000 0.1520850400000000 Au
atom 18.7805057200000007 0.1341881100000000 0.0854586000000000 Au
atom 21.6298740599999988 0.0033507500000000 0.0805205600000000 Au
atom 24.5809917999999996 0.0273407700000000 -0.0321032600000000 Au
atom 27.1533103800000006 0.0667867400000000 0.2755257000000000 Au
atom 1.8227665099999999 0.0321119900000000 -0.0280746800000000 Au
atom 4.7673696899999998 -0.0327948500000000 0.1759464600000000 Au
atom 8.9044497899999993 2.6187099699999998 0.0216901100000000 Au
atom 11.6821920600000002 2.7680208500000001 0.1724413000000000 Au
atom 14.7746374300000003 2.6259826999999998 -0.0583108900000000 Au
atom 17.5192195200000000 2.6105754800000001 0.1108931600000000 Au
atom 20.3709706299999986 2.3544179100000000 0.0098603000000000 Au
atom 23.0406072199999983 2.4405850299999998 0.0235803100000000 Au
atom 25.9343808600000010 2.5309900100000000 0.0821052900000000 Au
atom 0.4074777400000000 2.6003516599999998 -0.0392801600000000 Au
atom 3.2113286300000001 2.4732083899999999 0.0920753900000000 Au
atom 6.1114456700000002 2.5197356900000001 0.0332041600000000 Au
atom 7.3662358599999997 4.8957242299999999 0.0504928600000000 Au
atom 10.1605538699999993 4.8580642999999997 0.2132809800000000 Au
atom 13.0199892899999998 4.9535281199999996 0.1594420100000000 Au
atom 15.8542551700000001 4.8775344100000000 0.1683920300000000 Au
atom 18.6173721900000011 4.8152974300000002 0.1476015900000000 Au
atom 21.4214494600000016 4.9283728099999999 0.2249005800000000 Au
atom 24.4981046300000003 4.9582694500000004 0.0498529700000000 Au
atom 27.2573020600000007 5.0070465500000001 0.2392379400000000 Au
atom 1.7463922199999999 5.1015618299999996 0.0582979300000000 Au
atom 4.6194672399999996 4.9024791299999997 0.0789548200000000 Au
atom 9.0115581500000008 7.4388739499999996 0.0266636900000000 Au
atom 11.6980764700000002 7.3038203199999998 0.1986016300000000 Au
atom 14.5476105300000000 7.3540393100000001 -0.1005841100000000 Au
atom 17.3362989700000014 7.4167409400000004 -0.1356138700000000 Au
atom 20.1924743999999983 7.3723676899999999 0.0596604900000000 Au
atom 23.0730108600000001 7.3805387700000002 0.2180953100000000 Au
atom 26.0354560600000013 7.4034280800000003 0.0879196200000000 Au
atom 0.5769921800000000 7.3183450600000004 0.0501607400000000 Au
atom 3.2051657300000000 7.4042072100000000 -0.0524285900000000 Au
atom 6.0967980700000002 7.3831479199999999 0.0460004100000000 Au
atom 7.4828370499999997 9.9656052299999995 -0.1244902800000000 Au
atom 10.2857248699999992 9.8376932499999992 0.0065008600000000 Au
atom 13.0742890200000001 10.0466285299999996 -0.0745962900000000 Au
atom 15.8918658500000003 9.8395725400000007 0.2413185000000000 Au
atom 18.6800302199999990 9.8838491000000008 0.1754638200000000 Au
atom 21.5952439299999988 9.9587403499999994 -0.0454121700000000 Au
atom 24.5168466199999990 9.7846432599999993 -0.0155518700000000 Au
atom 27.3018169700000009 9.8514138100000004 -0.0397725600000000 Au
atom 1.7500500500000000 9.6649503800000005 0.0563717600000000 Au
atom 4.6740603600000004 9.7676401199999994 0.0255784200000000 Au
atom 8.7653525299999995 12.4024576700000004 -0.1147434400000000 Au
atom 11.7300859400000004 12.4109213199999999 -0.0858339300000000 Au
atom 14.6878546199999995 12.3435090600000006 0.1261215800000000 Au
atom 17.3662959599999986 12.2700232099999997 0.1291735000000000 Au
atom 20.0610385899999990 12.4006106999999997 -0.0259788300000000 Au
atom 23.1732124000000006 12.2896625200000003 0.0920262300000000 Au
atom 25.9662235700000004 12.3850716100000007 0.2041947300000000 Au
atom 0.4279081100000000 12.4151562500000008 0.0198600000000000 Au
atom 3.2974665900000000 12.4676313899999993 -0.0044478500000000 Au
atom 6.0510358699999998 12.3055610400000006 0.0901487100000000 Au
atom 7.6790664900000003 12.9757474899999998 2.5952828200000000 Au
atom 10.4140232200000007 13.2659327600000001 2.5243291800000001 Au
atom 13.0773173200000006 13.1623878699999999 2.5837567199999998 Au
atom 15.9215962599999994 13.1752942700000002 2.5863862499999999 Au
atom 18.7888340800000009 13.2601297400000000 2.7640734000000000 Au
atom 21.6862056299999999 13.2188411200000004 2.6256281900000000 Au
atom 24.4518748099999996 13.1080494999999999 2.5684824300000000 Au
atom 27.3904330400000013 13.1560800400000009 2.4546123099999999 Au
atom 2.0086574700000002 13.2552495399999994 2.5584714800000001 Au
atom 4.6776887800000004 13.0996112700000005 2.6228516200000001 Au
atom 8.9109890499999995 15.7510384999999999 2.3382080599999999 Au
atom 11.6720566699999999 15.7730741800000001 2.7166167600000000 Au
atom 14.3802667100000008 15.5795126699999997 2.6065849200000000 Au
atom 17.3091472899999985 15.5988867399999993 2.4966793300000001 Au
atom 20.2575913900000018 15.6447540299999996 2.7158484199999999 Au
atom 23.2726021299999992 15.4757286300000008 2.6838834000000000 Au
atom 25.7074392500000002 15.5287499499999999 2.7071632200000000 Au
atom 0.2539255000000000 15.4081931099999991 2.8159571099999998 Au
atom 3.3974036600000002 15.4404887700000000 2.5430409300000001 Au
atom 6.0587762100000004 15.9198647500000003 2.6540222800000000 Au
atom 7.5395503000000001 18.1448204699999991 2.5802826300000001 Au
atom 10.2753539899999993 18.1335416199999990 2.6263217800000001 Au
atom 13.1477418400000001 17.9917186200000003 2.6506482000000000 Au
atom 15.7322544499999992 18.0929469999999988 2.7359100100000000 Au
atom 18.7777710000000013 18.0012852499999987 2.6063386500000001 Au
atom 21.7601875000000007 18.2270531499999997 2.5734507400000002 Au
atom 24.3415449399999986 18.1044692599999983 2.6223568899999998 Au
atom 27.1054882200000016 18.2041730000000008 2.7617804399999999 Au
atom 1.9884668700000001 18.1917777399999991 2.7347636000000000 Au
atom 4.6471648500000002 18.0809439500000018 2.5963621699999999 Au
atom 8.9665939899999998 20.6080459699999992 2.7441417600000002 Au
atom 11.8890374800000007 20.6159895099999986 2.7013525899999999 Au
atom 14.3789291400000003 20.5137768999999999 2.7144176099999999 Au
atom 17.3983896499999986 20.5616728600000016 2.7283865700000001 Au
atom 20.0288381499999986 20.8556913399999999 2.7459818700000000 Au
atom 23.1140044700000011 20.7241124700000015 2.7687992700000001 Au
atom 25.6998580600000004 20.6265736199999985 2.6571152599999999 Au
atom 0.3977725400000000 20.5874407400000017 2.6481451599999999 Au
atom 3.2869342300000000 20.5566261099999998 2.7414419400000001 Au
atom 6.0721444299999998 20.5544278899999995 2.7379616800000002 Au
atom 7.5755382500000001 23.0080895500000011 2.5423654700000000 Au
atom 10.2973473400000000 23.1231297299999987 2.6962068200000000 Au
atom 13.0883789400000001 22.9110080200000006 2.7148140199999999 Au
atom 16.0648134400000018 22.8984340599999996 2.6904478500000000 Au
atom 18.8127127899999991 23.0768153399999996 2.7120629699999999 Au
atom 21.6872166700000015 22.9890598100000005 2.7545154100000002 Au
atom 24.3006595099999991 23.1558040100000007 2.7385031500000001 Au
atom 27.1448036100000003 23.0424622200000009 2.6893155000000002 Au
atom 2.1001528299999999 23.0394420099999984 2.7593112099999999 Au
atom 4.8383941500000001 22.8787242000000006 2.6455913000000000 Au
atom 8.9622729400000001 25.7314953499999994 2.5630109200000000 Au
atom 11.5769836599999998 25.4301810300000000 2.6634218199999999 Au
atom 14.5498844900000002 25.6115569799999996 2.5473059500000002 Au
atom 17.2251809499999986 25.6156252699999989 2.6513817999999998 Au
atom 19.9988744999999994 25.5019469299999990 2.6554750299999998 Au
atom 22.9366979700000009 25.5345959700000016 2.5759966599999999 Au
atom 25.7475223100000008 25.5354454400000002 2.8428692299999998 Au
atom 0.5658102699999999 25.5765908099999990 2.7278796600000002 Au
atom 3.2327707399999999 25.4515332900000004 2.5477946600000001 Au
atom 6.1500106600000004 25.2873125200000004 2.7350811500000001 Au
atom 7.4585158700000003 28.0408742300000000 2.6242290499999998 Au
atom 10.3297894899999996 27.9389751400000002 2.6806894699999999 Au
atom 13.1594013499999996 28.0235868600000018 2.5224919400000001 Au
atom 15.8818535199999999 28.0202702799999983 2.6676633199999999 Au
atom 18.7264381499999999 28.0714707099999998 2.5395415799999999 Au
atom 21.6796406700000013 28.0486421600000000 2.6181052800000000 Au
atom 24.4344655999999993 28.0100731299999985 2.5946375700000002 Au
atom 27.2548937400000000 27.9634476899999989 2.7173904599999998 Au
atom 1.9034261500000000 27.9572393699999999 2.5925275999999999 Au
atom 4.8182046999999999 28.0355969199999997 2.6504925099999999 Au
atom 9.0672479700000004 30.4342175200000007 2.5734302100000002 Au
atom 11.6363463300000003 30.4169055399999984 2.6692901899999999 Au
atom 14.5357514900000009 30.2504249200000004 2.7059354999999998 Au
atom 17.4643825100000001 30.3561914100000010 2.4940192300000001 Au
atom 20.1943703899999996 30.6046602099999987 2.6651262800000000 Au
atom 22.9274609200000015 30.5608527599999995 2.7392483799999998 Au
atom 25.6528239300000003 30.4180026699999999 2.6766169799999999 Au
atom 0.5529550300000000 30.4447207400000011 2.3475009600000001 Au
atom 3.3127481799999998 30.5523016600000012 2.5465556600000001 Au
atom 5.8833239700000002 30.3669715499999988 2.5775909600000002 Au
atom 7.5933529499999999 32.8623236199999980 2.4468626000000002 Au
atom 10.4289832499999999 33.0602703899999995 2.6504108500000001 Au
atom 13.2855806300000001 32.7967486800000003 2.4834286300000001 Au
atom 15.8496711500000007 32.8492589900000027 2.5983248699999999 Au
atom 18.9281993499999999 32.9343993999999967 2.5312727399999999 Au
atom 21.4944267800000013 33.0029795900000025 2.8898230599999999 Au
atom 24.2374233200000013 32.9223616499999991 2.4320389200000001 Au
atom 27.2368380300000013 32.9422160800000015 2.7435172200000002 Au
atom 1.8066714600000000 33.0757513300000028 2.6503410900000000 Au
atom 4.6517692600000000 33.0131632100000019 2.7168842700000000 Au
atom 8.9945820600000008 35.3620123000000035 2.6291490899999999 Au
atom 11.7022469499999993 35.2280421800000028 2.5814812400000000 Au
atom 14.4169467000000004 35.3820038200000013 2.5352130300000000 Au
atom 17.1954982100000002 35.3906384200000019 2.5843012500000002 Au
atom 20.1040739799999990 35.3276648300000033 2.8310902200000001 Au
atom 23.1598814699999984 35.5113491899999971 2.5842756699999998 Au
atom 25.7892008299999986 35.4161823299999980 2.5867689399999998 Au
atom 0.5438985000000000 35.4010988900000001 2.6119844500000000 Au
atom 3.2723940599999999 35.3270351199999979 2.5582440499999999 Au
atom 6.0356356399999997 35.4655092200000013 2.7538497300000002 Au
atom 7.2953163600000002 37.9593450099999998 2.5897809500000002 Au
atom 10.3648053999999998 37.7238598900000000 2.6653421300000000 Au
atom 13.1876181500000005 37.7776069199999966 2.6233852899999999 Au
atom 15.7728754299999991 37.7779234599999967 2.7653723700000001 Au
atom 18.7269685099999990 37.8412038700000011 2.4825463800000001 Au
atom 21.5462315199999992 37.8821526199999994 2.7949397600000001 Au
atom 24.2986455899999996 37.8926057099999980 2.6228707600000001 Au
atom 27.2230209499999987 37.8442907000000019 2.4295479200000001 Au
atom 2.0656442099999999 37.8119842099999985 2.7048908400000000 Au
atom 4.6199303699999996 37.7752007899999995 2.7733653199999999 Au
atom 8.8124999200000005 0.8183843600000000 2.8289095400000002 Au
atom 11.7156037699999995 0.7315397800000000 2.7477587099999998 Au
atom 14.8639622500000002 0.8964859600000000 2.7100784400000002 Au
atom 17.3398899100000001 0.9361102900000000 2.8573838700000000 Au
atom 20.2359936599999983 0.8797982300000000 2.8156730400000001 Au
atom 23.0285915500000016 0.8859570800000000 2.7276571199999999 Au
atom 25.7785684800000006 0.8568168600000000 2.6710079599999998 Au
atom 0.3200411200000000 0.9699067000000000 2.6283912900000002 Au
atom 3.3419269699999998 0.8829082900000000 2.6957071300000002 Au
atom 6.1287555300000003 0.7349303600000000 2.6967188599999998 Au
atom 7.7764345400000003 3.2538066600000000 2.6690143000000002 Au
atom 10.2447200100000000 3.2964447200000002 2.8514104200000001 Au
atom 12.9965320000000002 3.4319846699999998 2.7508051899999999 Au
atom 15.9878917999999999 3.3426275699999999 2.8463770300000002 Au
atom 18.8311490600000013 3.3514346900000000 2.7449345699999999 Au
atom 21.6320355900000010 3.4009606799999998 2.6470129400000002 Au
atom 24.4661004200000001 3.3083463399999999 2.6917871799999999 Au
atom 27.1496630900000007 3.2286220000000001 2.8424506100000002 Au
atom 1.8225906400000000 3.2580112300000001 2.6989037300000001 Au
atom 4.6604897699999999 3.1850011800000000 2.7301539300000002 Au
atom 8.8824044099999995 5.9043399799999996 2.6090437899999999 Au
atom 11.6860111500000006 5.6413685100000004 2.8089452399999999 Au
atom 14.5446425000000001 5.8982202700000004 2.5535722900000000 Au
atom 17.1671324100000007 5.7259274900000001 2.7093162799999999 Au
atom 20.2413796599999998 5.8481513300000003 2.5949893899999998 Au
atom 22.9532549199999991 5.7019726899999998 2.6291748899999998 Au
atom 25.8214026300000015 5.8447800100000000 2.7615288400000000 Au
atom 0.4844030100000000 5.9421236300000002 2.7051730500000000 Au
atom 3.0677177300000000 5.8137195300000002 2.6596505300000000 Au
atom 6.1873855400000002 5.8100673000000000 2.7610498400000001 Au
atom 7.4209357200000001 8.2826438699999994 2.6606096799999999 Au
atom 10.4195835199999998 8.4279145199999999 2.5490805000000001 Au
atom 13.1295955200000005 8.3593354000000009 2.8004426599999999 Au
atom 16.0583370499999987 8.2609858099999993 2.7286791899999998 Au
atom 18.8990665799999995 8.2594449999999995 2.7057164000000000 Au
atom 21.5746936699999985 8.2630959799999992 2.6915040299999999 Au
atom 24.3048111300000009 8.2574993699999997 2.7583738499999999 Au
atom 27.3266882899999999 8.1705886099999994 2.6351391899999999 Au
atom 1.7942054599999999 8.3097263500000000 2.6876566600000000 Au
atom 4.6442919099999997 8.2402780799999995 2.6502231200000002 Au
atom 8.8692399399999999 10.7115196899999994 2.7303686200000001 Au
atom 11.7179038999999996 10.6049016399999996 2.6824889700000001 Au
atom 14.6497831800000000 10.7646264400000007 2.8653386699999999 Au
atom 17.4535964399999983 10.8114056200000004 2.6964919699999998 Au
atom 20.1712693999999999 10.7793797399999995 2.5565762799999998 Au
atom 23.0840594800000005 10.7746942899999993 2.6278193000000001 Au
atom 25.8608371400000010 10.9216534200000002 2.5729935199999998 Au
atom 0.5246309400000000 10.7086012099999994 2.6106339699999999 Au
atom 3.4318048900000000 10.6958966400000008 2.6755765700000000 Au
atom 6.1837778800000001 10.8614319199999994 2.8244573499999999 Au
atom 7.5245332400000002 13.2552843599999992 5.7234212500000003 Cl
atom 7.5122678900000004 15.9481083600000009 8.5746010600000009 Cl
atom 7.3575416100000002 13.1577068900000000 8.3487004400000000 Na
atom 7.5126382999999999 16.1376691000000001 5.6346937700000002 Na
atom 7.5072727199999996 18.8298843299999987 5.6340592300000001 Cl
atom 7.6423054800000001 21.7596370300000004 8.6502615800000004 Cl
atom 7.4651440800000000 18.7639021399999990 8.2827279800000007 Na
atom 7.4626421299999999 21.5389025600000004 5.8267170999999998 Na
atom 7.3799834400000002 24.3290821199999989 5.6917496700000001 Cl
atom 7.4652576899999996 27.2971016099999986 8.4944301400000004 Cl
atom 7.4317308200000003 24.4006801099999997 8.4301721000000001 Na
atom 7.3904784799999996 27.2075922900000009 5.8414900400000001 Na
atom 7.3973605600000001 30.0946081499999991 5.7871402800000000 Cl
atom 7.3366540000000002 33.0625458499999993 8.6464574299999999 Cl
atom 7.6384556999999997 30.1017221799999994 8.3565225299999994 Na
atom 7.5663862000000002 32.8263661000000013 5.8753230099999998 Na
atom 7.4889435999999998 35.9532814599999995 5.7806224799999999 Cl
atom 7.6468770900000003 38.3096086600000021 8.7221440200000000 Cl
atom 7.2733180500000003 35.6044362499999991 8.4819902099999993 Na
atom 7.4629966999999997 38.3703818400000003 5.8939932700000002 Na
atom 7.5778691000000000 1.9808150000000000 5.6361945100000002 Cl
atom 7.5048589699999999 4.6180385900000003 8.5816801300000005 Cl
atom 7.5247933400000004 1.8692718600000000 8.4827238400000002 Na
atom 7.3455386200000001 4.7132470399999997 5.8456694300000001 Na
atom 7.5474722500000002 7.5823787899999999 5.7170204800000004 Cl
atom 7.4962655600000003 10.4725880000000000 8.5349443800000007 Cl
atom 7.5419492500000000 7.7187631100000003 8.4342381700000004 Na
atom 7.4866001400000002 10.2860880699999999 5.7494281799999998 Na
atom 10.2472640100000003 13.0578702500000006 5.7415895700000004 Na
atom 13.2595906600000006 13.1825050099999999 5.6108173499999996 Cl
atom 10.3612571300000003 15.8391446100000000 8.4051382799999992 Na
atom 13.2830062800000004 16.0918178099999984 8.5896339899999994 Cl
atom 13.0541608799999995 13.0775003699999992 8.4719610099999993 Na
atom 10.2444883299999994 13.1417794200000007 8.6487121899999995 Cl
atom 13.2242478099999996 15.9847640700000007 5.6311041599999996 Na
atom 10.3291454100000006 15.8720005400000002 5.8504906400000003 Cl
atom 10.3594091200000005 18.6988199399999999 5.7802774299999999 Na
atom 13.0120097900000005 18.8283990199999991 5.6046040799999997 Cl
atom 10.3792772899999992 21.5161140800000013 8.3187787899999996 Na
atom 12.8941060299999997 21.4884579100000010 8.4077494599999998 Cl
atom 13.1000322499999999 18.8767024700000015 8.2921329299999993 Na
atom 10.2539341299999993 18.7251456900000015 8.4592063700000004 Cl
atom 13.1925325600000001 21.6664572100000008 5.8485139999999998 Na
atom 10.2883422499999995 21.5291101000000005 5.7272026699999996 Cl
atom 10.2556318900000001 24.3784393199999982 5.7273031699999999 Na
atom 13.0971687600000006 24.2643914999999986 5.6948441599999997 Cl
atom 10.4954302599999991 27.3457059399999984 8.3974399399999999 Na
atom 13.2254503299999993 27.3582379799999984 8.5221472499999997 Cl
atom 12.9813516399999997 24.5815430799999994 8.3741761399999994 Na
atom 10.4352157099999996 24.5346975500000006 8.7088325799999993 Cl
atom 13.1681453400000006 27.3044147799999983 5.8506034900000001 Na
atom 10.3574565799999991 27.1541633599999983 5.8854134800000004 Cl
atom 10.2428187499999996 30.0686090600000000 5.7421821199999998 Na
atom 13.1883302300000000 30.0141766600000004 5.6914664300000002 Cl
atom 10.1250514099999993 32.7600993200000019 8.1284943799999994 Na
atom 13.0399691200000003 32.9882871499999979 8.6675447400000003 Cl
atom 13.3158021200000007 30.2067449799999999 8.3703281700000005 Na
atom 10.3097438799999992 30.2843192099999996 8.4904506600000005 Cl
atom 13.0482953699999999 32.7932976600000003 5.7720660600000002 Na
atom 10.3763876100000001 32.9186396200000004 5.6520326299999999 Cl
atom 10.2440000900000001 35.6116550099999998 5.8079791199999997 Na
atom 13.2579332000000001 35.6766810399999983 5.8785945200000000 Cl
atom 10.2130788500000005 38.4832551800000005 8.2670887799999999 Na
atom 13.1534420900000004 38.6184031900000022 8.5597533000000006 Cl
atom 13.2158559699999998 35.8450997899999990 8.4408773799999999 Na
atom 10.4147590200000000 35.8264470800000012 8.7208383900000008 Cl
atom 13.0784525899999995 38.7085522799999993 5.8364154900000003 Na
atom 10.3932885200000005 38.4278452599999980 5.6867219200000001 Cl
atom 10.3898340499999993 1.9406055099999999 5.7146549799999997 Na
atom 13.1068965199999994 1.8867572399999999 5.7795136100000004 Cl
atom 10.3049318400000001 4.6582371699999996 8.3661345600000008 Na
atom 13.0880925799999996 4.7394236599999999 8.5560382799999992 Cl
atom 13.1077627999999997 1.8675932600000000 8.4827525799999997 Na
atom 10.1341624499999998 1.7396087200000001 8.3995208899999998 Cl
atom 13.2928843400000005 4.8582530000000004 5.8640653199999999 Na
atom 10.3664762199999991 4.8359328300000000 5.7440889500000001 Cl
atom 10.4686519899999997 7.4499630899999998 5.8860831200000003 Na
atom 13.0804650900000006 7.4240460600000002 5.7169211300000002 Cl
atom 10.2850504199999992 10.2671563900000002 8.2186233600000005 Na
atom 13.0944847899999992 10.1752196599999998 8.4799400100000000 Cl
atom 13.2426239599999995 7.6322500700000004 8.4437701100000009 Na
atom 10.4827825600000004 7.3136109600000001 8.4898588000000004 Cl
atom 13.0929900600000000 10.3733576900000006 5.6439804000000002 Na
atom 10.1976701500000004 10.2806209099999997 5.7572458600000003 Cl
atom 15.9090858799999992 13.0947352499999994 5.8177127899999999 Na
atom 18.8273708900000010 13.0226233899999997 5.7160961500000003 Cl
atom 16.0807847700000011 15.9684057799999994 8.4091750899999997 Na
atom 18.7346360499999989 15.9394346000000002 8.5162327599999994 Cl
atom 18.6522043500000017 13.1107354600000008 8.4830675200000005 Na
atom 16.2247046899999994 13.2880851399999997 8.6839391300000006 Cl
atom 18.7720396700000016 15.9253811800000005 5.9209050400000001 Na
atom 16.0774368199999991 16.1195898600000014 5.7028099699999997 Cl
atom 15.8978617799999995 18.7151250400000002 5.6728142000000004 Na
atom 18.7187057800000005 18.8371525700000007 5.7076630300000000 Cl
atom 16.1976229399999987 21.6633491700000000 8.3830942000000004 Na
atom 18.7895482800000018 21.6605011599999990 8.4243730600000006 Cl
atom 18.7526392299999998 18.6917245100000002 8.4251770799999992 Na
atom 15.9586127799999993 18.9445611800000009 8.5513252000000008 Cl
atom 18.8390115800000011 21.5829954400000013 5.8787874200000001 Na
atom 15.8631664400000005 21.6560492899999986 5.7024819899999999 Cl
atom 15.8751426500000008 24.2340691899999996 5.4337255100000004 Na
atom 18.8612576599999997 24.4522338499999989 5.8048158399999998 Cl
atom 15.9138323199999991 27.3402926800000010 8.5456590400000003 Na
atom 19.3644559200000010 28.0829020500000013 7.4326877400000004 Cl
atom 18.7878690299999995 24.3525336999999986 8.2881192899999991 Na
atom 15.7836466200000007 24.3207295399999985 7.9430265799999997 Cl
atom 18.7360304100000015 27.1616832099999996 5.3586070799999996 Na
atom 15.9689684300000003 27.2984842100000016 5.5501876399999999 Cl
atom 16.0611325700000016 29.9914801699999991 5.8069092500000004 Na
atom 18.7012198199999986 30.1850737900000006 5.6638087700000002 Cl
atom 15.7498438499999995 33.0341733500000032 8.2170157499999998 Na
atom 18.8356576699999998 32.8760109600000021 8.6233738599999992 Cl
atom 18.7209563999999986 30.3117168300000017 8.3148178300000009 Na
atom 15.8860730399999994 30.0449088000000017 8.4824953300000008 Cl
atom 18.7207115600000016 32.7943314799999968 5.7778855599999996 Na
atom 15.8179257199999999 33.0199963000000025 5.7102485700000001 Cl
atom 15.9247742500000005 35.6245466399999984 5.9412529599999999 Na
atom 18.7527426499999983 35.8872820200000007 5.8693201899999998 Cl
atom 16.0820113900000017 38.5672705699999980 8.3583412900000003 Na
atom 18.9967627300000004 38.6567203399999997 8.5110730199999995 Cl
atom 18.6372115500000000 35.6832010400000001 8.2989721500000009 Na
atom 16.0758694599999998 35.8371613500000024 8.3970573700000006 Cl
atom 18.8358770299999989 38.5582702000000026 5.7832020899999996 Na
atom 15.7004483799999992 38.5505209000000022 5.7138174599999996 Cl