#===============================================================================
# Created using the Atomic Simulation Environment (ASE)

# Tue Dec 23 21:42:48 2025

#=======================================================
lattice_vector 28.1999999999999993 0.0000000000000000 0.0000000000000000 
lattice_vector 0.0000000000000000 39.4799999999999969 0.0000000000000000 
lattice_vector 0.0000000000000000 0.0000000000000000 62.3296083400000001 
atom 7.3929589599999996 14.7539224499999992 0.2754911600000000 Au
atom 10.2753924500000000 14.7425999200000000 -0.0413356000000000 Au
atom 13.0528292199999996 14.6957321400000005 0.2565400600000000 Au
atom 15.9022807099999994 14.6676537499999995 -0.1542030300000000 Au
atom 18.7657525900000017 14.7930207300000003 -0.2594820600000000 Au
atom 21.6545661199999984 14.8198027799999998 -0.1462867600000000 Au
atom 24.4017045800000005 14.7894796399999997 -0.1442105800000000 Au
atom 27.2255872399999994 14.7465398400000005 -0.2876497600000000 Au
atom 1.7296454000000001 14.7935272999999992 -0.0026613100000000 Au
atom 4.5741799600000004 14.6949282700000001 0.3278484800000000 Au
atom 8.9597060499999994 17.1627446399999997 0.2761994500000000 Au
atom 11.7005485100000008 17.1079580799999995 0.0627794900000000 Au
atom 14.5608693000000002 17.1303224500000013 0.0697858600000000 Au
atom 17.3684018299999998 17.2188812800000015 -0.1904020900000000 Au
atom 20.2120442699999998 17.2403268300000008 -0.1042369100000000 Au
atom 22.9847310699999987 17.2593824100000006 0.1775884300000000 Au
atom 25.8507132999999989 17.1948133200000015 -0.0224048100000000 Au
atom 0.3901104200000000 17.2384435899999993 -0.0231845100000000 Au
atom 3.1519064800000001 17.2746648799999996 0.2255804200000000 Au
atom 6.0416720599999998 17.2119981499999994 0.4479791800000000 Au
atom 7.4060699100000003 19.6100686300000007 0.0148491600000000 Au
atom 10.3224149100000009 19.6143860200000013 0.0472855500000000 Au
atom 13.0898174800000007 19.5418854000000017 0.2118026600000000 Au
atom 16.0289518300000005 19.5906897499999992 0.2292171900000000 Au
atom 18.8133914000000004 19.6310182500000003 0.0450775500000000 Au
atom 21.6473051900000009 19.8501957800000000 0.0251139400000000 Au
atom 24.5038173700000002 19.6432439499999987 0.0398893700000000 Au
atom 27.3406037300000015 19.8299652299999991 0.0450730600000000 Au
atom 1.8835970200000001 19.6768417999999983 0.4008193900000000 Au
atom 4.6571173300000002 19.6486410900000017 0.0874732800000000 Au
atom 9.0192273800000002 22.1355833400000002 -0.1250755900000000 Au
atom 11.6461899300000002 22.1140691199999999 -0.0048898600000000 Au
atom 14.5626014200000000 21.9899484299999983 0.1640895400000000 Au
atom 17.4314602200000017 22.0279937299999986 0.1541112900000000 Au
atom 20.1918658600000001 22.1482554699999987 -0.0121728000000000 Au
atom 23.1770195100000009 22.1361130400000015 0.2524706800000000 Au
atom 25.9415905000000002 22.2006109699999996 0.1762037500000000 Au
atom 0.5115254500000000 22.2012465200000015 0.0964810200000000 Au
atom 3.3120657400000000 22.1864023099999983 0.2598153900000000 Au
atom 6.1751086700000002 22.0419778999999991 0.0551876000000000 Au
atom 7.4919694999999997 24.6492320700000000 -0.0853387000000000 Au
atom 10.3148607099999996 24.6349175199999983 -0.0933884600000000 Au
atom 13.2017481799999992 24.5138435500000007 -0.1031741100000000 Au
atom 15.9858164699999996 24.5531234100000013 0.0834487700000000 Au
atom 18.8156661800000009 24.6613768899999997 -0.0615038000000000 Au
atom 21.5865371999999986 24.5657337399999989 0.0570809900000000 Au
atom 24.4549987500000015 24.6048516600000013 0.0514597400000000 Au
atom 27.2407063600000008 24.6308848500000011 0.0243457600000000 Au
atom 1.8465242600000000 24.6070632099999997 -0.1123145600000000 Au
atom 4.6563050099999996 24.5034406099999984 -0.1000057400000000 Au
atom 8.9433973400000006 27.1237003899999998 -0.0831717600000000 Au
atom 11.7340219500000007 27.0915066899999992 0.0817193700000000 Au
atom 14.5060505600000003 26.9682054999999998 -0.1509993800000000 Au
atom 17.4114184200000004 27.0963475500000008 -0.0215394200000000 Au
atom 20.1114580499999995 27.0979688400000001 -0.0563991900000000 Au
atom 23.0305936699999982 26.9923211300000006 -0.1379376200000000 Au
atom 25.8195318500000006 27.0827878300000009 -0.0790898400000000 Au
atom 0.4369091500000000 27.1127354099999991 -0.2236215400000000 Au
atom 3.2416893400000002 27.0701688199999992 -0.0881491300000000 Au
atom 6.0429529100000003 27.0365722099999992 -0.0619080000000000 Au
atom 7.4998826300000001 29.6377738700000002 -0.0758973200000000 Au
atom 10.2687271800000008 29.6339071400000016 0.1769644000000000 Au
atom 13.0290327500000007 29.5232983100000013 -0.2269821400000000 Au
atom 15.9676967500000000 29.4685013100000006 -0.2620713700000000 Au
atom 18.7860318399999997 29.6120568199999994 -0.2216146700000000 Au
atom 21.6153633599999999 29.5811339800000006 -0.0670289700000000 Au
atom 24.4340242500000002 29.4781809099999990 0.0264905700000000 Au
atom 27.2629257500000008 29.5147724800000013 -0.0674364700000000 Au
atom 1.8889331899999999 29.7353434999999990 -0.0615053300000000 Au
atom 4.7160867599999996 29.6509791500000013 0.1439930600000000 Au
atom 8.8576536299999997 32.0626567199999997 -0.0094614900000000 Au
atom 11.7774770899999996 31.9762513300000002 0.0832028100000000 Au
atom 14.5407133999999996 31.9849754200000014 0.1252363400000000 Au
atom 17.3086648099999998 31.9999314800000008 -0.0978842300000000 Au
atom 20.1717801500000000 32.0320526699999988 -0.1426357100000000 Au
atom 23.0587329899999993 32.0367421699999966 -0.2163567100000000 Au
atom 25.7910082000000003 32.0337942800000022 -0.0850297000000000 Au
atom 0.3046851900000000 32.1321112700000029 -0.0368047900000000 Au
atom 3.1466840100000000 32.1475718900000018 -0.0922517100000000 Au
atom 5.9992293999999999 32.0801153299999982 -0.0189600200000000 Au
atom 7.5381277200000003 34.5178484200000000 -0.1286986400000000 Au
atom 10.2468249199999999 34.4684368899999996 -0.0456010000000000 Au
atom 13.0077228700000003 34.4097977200000003 -0.0728039700000000 Au
atom 15.7936018800000006 34.3934520199999980 -0.2870639000000000 Au
atom 18.7505376599999991 34.4974060300000005 -0.2316253500000000 Au
atom 21.5775283599999987 34.5750435599999975 -0.2604280700000000 Au
atom 24.4466769200000016 34.5709125400000019 0.1421524900000000 Au
atom 27.1878119699999985 34.6070027399999987 -0.0532610200000000 Au
atom 1.6853436600000000 34.5613206900000023 0.0287472100000000 Au
atom 4.7102063599999999 34.4778353100000032 0.0722089900000000 Au
atom 8.8631253399999999 37.0129406599999982 0.1112378200000000 Au
atom 11.6479796300000000 36.9860251500000032 0.0242118500000000 Au
atom 14.5072880499999997 36.9182475200000013 0.0016510600000000 Au
atom 17.3677371700000016 36.9040968199999995 0.1144706700000000 Au
atom 20.2589452100000003 37.0590200800000034 0.0219191800000000 Au
atom 22.9362316600000007 37.0422117999999969 0.4805478800000000 Au
atom 25.7932043499999999 37.0058813999999998 0.1974937100000000 Au
atom 0.3968376000000000 36.9842545899999990 0.1326937400000000 Au
atom 3.2771915200000001 36.9573349599999972 -0.0359086800000000 Au
atom 6.0841889499999997 36.8262357600000030 0.3714914500000000 Au
atom 7.4010451300000000 -0.0945143900000000 0.2650858400000000 Au
atom 10.1953713100000005 -0.0100096600000000 0.1622522000000000 Au
atom 13.0903031599999995 -0.0065593500000000 -0.1885785600000000 Au
atom 15.8738672899999997 -0.1842562900000000 0.3745024200000000 Au
atom 18.6931482600000010 -0.0687915600000000 0.2459326200000000 Au
atom 21.5363675500000014 -0.0143064900000000 0.3446331400000000 Au
atom 24.3964327099999991 -0.0127040100000000 0.3750464800000000 Au
atom 27.2123270400000017 -0.0080363700000000 0.3037075900000000 Au
atom 1.9035378800000000 -0.0548630900000000 0.1282713800000000 Au
atom 4.6691590900000000 -0.0163539200000000 0.2440441600000000 Au
atom 8.7677519900000007 2.4116254300000000 0.5213957200000000 Au
atom 11.5262902300000007 2.4652100300000002 0.0798135500000000 Au
atom 14.4758975700000008 2.4715400399999998 0.3244433900000000 Au
atom 17.3847990800000005 2.3775767999999999 0.1994576300000000 Au
atom 20.1434280699999988 2.3850827899999998 0.1359163200000000 Au
atom 22.9001067999999997 2.3495308000000001 -0.0711114400000000 Au
atom 25.7261981199999994 2.4168904900000001 -0.0200713600000000 Au
atom 0.2993279700000000 2.4571238300000000 0.1425986100000000 Au
atom 3.1461458800000002 2.4386702100000002 0.2216617500000000 Au
atom 5.9622343799999999 2.4578365400000002 0.1529614300000000 Au
atom 7.2805753600000003 4.7945433099999999 0.2462078400000000 Au
atom 10.1469146600000002 4.8503060800000002 0.1182547300000000 Au
atom 13.0744955399999991 4.8914599699999997 0.0775187700000000 Au
atom 15.8622200600000003 4.9400438600000003 0.2037763300000000 Au
atom 18.7844567600000012 4.9508385700000002 0.1600399300000000 Au
atom 21.4659562100000016 4.8993930900000002 0.0472830400000000 Au
atom 24.2799187600000010 4.8877711000000001 -0.2084679900000000 Au
atom 27.1024649999999987 4.8960127199999999 -0.0719589700000000 Au
atom 1.7973668700000001 4.7991739300000003 0.1643911200000000 Au
atom 4.6065912800000000 4.9802621299999998 0.1942424300000000 Au
atom 8.8188853900000002 7.2732168699999997 -0.0720132800000000 Au
atom 11.6643030200000002 7.2916474800000000 0.0847939500000000 Au
atom 14.4935651199999995 7.3178691999999996 -0.0542968000000000 Au
atom 17.3445932599999999 7.3628613900000000 -0.2383949900000000 Au
atom 20.2031772099999998 7.3582413500000001 -0.2785268600000000 Au
atom 23.0291524400000007 7.2895054799999999 -0.3059187000000000 Au
atom 25.8019010100000017 7.4020570799999996 -0.1020008200000000 Au
atom 0.3436011500000000 7.2291343399999999 0.1578061900000000 Au
atom 3.2167618899999999 7.3896317500000004 0.1407866100000000 Au
atom 6.0398587399999997 7.3589150400000003 -0.1508145000000000 Au
atom 7.3178871000000001 9.9298073799999997 0.2085605300000000 Au
atom 10.2345740599999999 9.8540499300000004 0.0067008500000000 Au
atom 13.1684537699999993 9.8098845000000008 0.0021007500000000 Au
atom 15.9131804199999998 9.7122820999999995 -0.2490082900000000 Au
atom 18.7338812200000007 9.8323998199999991 -0.1700765000000000 Au
atom 21.6518033000000010 9.8493321900000002 -0.5194711500000000 Au
atom 24.2932232299999988 9.8476932000000001 -0.2189507700000000 Au
atom 27.1486925200000009 9.8783808700000009 -0.1499176100000000 Au
atom 1.7989770899999999 9.8223236400000005 0.1497466400000000 Au
atom 4.5939481999999998 10.0531237499999992 -0.1388108700000000 Au
atom 8.8040629100000007 12.3665199300000008 0.0730280400000000 Au
atom 11.6506298099999999 12.2708206499999992 0.1391201700000000 Au
atom 14.4883233499999999 12.2192951399999998 -0.0064760800000000 Au
atom 17.3555282999999996 12.2695378900000005 -0.2776335500000000 Au
atom 20.1415620000000004 12.2915666600000009 -0.2235748400000000 Au
atom 22.9323777900000003 12.4048690500000003 -0.1957470300000000 Au
atom 25.6688960399999999 12.4671332100000001 -0.0879614300000000 Au
atom 0.3491559900000000 12.3934033199999991 0.0662129500000000 Au
atom 3.1282710300000001 12.3526158600000002 -0.0370805300000000 Au
atom 5.9851973200000002 12.3661182899999993 0.1162986900000000 Au
atom 7.4121249000000002 13.2599404199999995 2.6683024000000000 Au
atom 10.2915080400000001 13.1845723199999991 2.7727907300000001 Au
atom 13.0865791700000003 13.0396588199999997 2.8515130800000001 Au
atom 15.9526293700000004 13.1556353399999999 2.4573248599999999 Au
atom 18.7461111100000011 13.0643677700000005 2.3473096400000002 Au
atom 21.6471462800000012 13.1899598000000005 2.4225497300000001 Au
atom 24.3720196199999997 13.0785195299999994 2.3593889199999998 Au
atom 27.2726133299999987 13.1916482899999998 2.5745135499999998 Au
atom 1.8581648399999999 13.1813878899999999 2.6713932900000001 Au
atom 4.6583048800000002 13.1225304099999995 2.8106822400000002 Au
atom 8.8840049899999993 15.6697984899999998 2.7163656600000001 Au
atom 11.6514440900000000 15.5612353500000005 2.7078837000000000 Au
atom 14.5230277099999991 15.4427110699999997 2.7532014999999999 Au
atom 17.3731233600000010 15.5567153999999999 2.4164300700000001 Au
atom 20.1497671700000005 15.5808888200000002 2.3715125100000001 Au
atom 22.9802310200000015 15.6519489000000007 2.4738002200000002 Au
atom 25.8162458599999987 15.6267835999999996 2.5849289799999999 Au
atom 0.4512698700000000 15.7284675499999995 2.5489958000000001 Au
atom 3.2043751299999998 15.6976575900000004 2.7775350200000002 Au
atom 6.0004343000000002 15.5847221900000008 3.0888371299999999 Au
atom 7.4601924899999998 18.2692084199999982 2.8246663299999999 Au
atom 10.2268271800000008 18.0942226300000009 2.6907508199999999 Au
atom 13.1075971199999994 17.8657906100000012 2.6662269799999998 Au
atom 15.8374068700000006 17.8956093900000006 2.8118408900000000 Au
atom 18.6636623499999992 18.0324651699999983 2.4081109999999999 Au
atom 21.3800762700000000 18.1469042700000003 2.7210064500000000 Au
atom 24.4131720600000008 18.0943092300000004 2.7725481599999999 Au
atom 27.1869546900000003 18.0918817599999997 2.5814329100000002 Au
atom 1.7935625300000000 18.1985886000000008 3.0351997200000000 Au
atom 4.6145153499999996 18.1690740999999996 2.9338884699999999 Au
atom 8.9172974200000006 20.6550186400000015 2.4955747599999998 Au
atom 11.6909753100000007 20.4350604900000015 2.7409786199999999 Au
atom 14.4766916699999992 20.3918204100000011 2.7440988900000001 Au
atom 17.1684811599999989 20.3896287100000002 2.8480280599999999 Au
atom 20.0205963999999987 20.6809005699999986 2.5481794199999999 Au
atom 22.9946939599999993 20.5014855699999998 2.7140458700000001 Au
atom 25.8130729400000014 20.6535472400000018 2.7084267299999998 Au
atom 0.3678405800000000 20.6671913099999998 2.8891752600000000 Au
atom 3.2779795799999998 20.6818355999999994 2.9299778999999999 Au
atom 6.1199294799999997 20.5965022799999993 2.6634096299999999 Au
atom 7.4990412700000002 23.0256781900000007 2.4447210799999999 Au
atom 10.3898239599999993 23.0662301200000002 2.5142897299999998 Au
atom 13.0644273099999992 22.9180838300000005 2.5686276600000002 Au
atom 15.8205334999999998 23.0685123499999989 2.6185742599999999 Au
atom 18.7121786899999982 23.1261366799999983 2.5950549999999999 Au
atom 21.5786587599999997 23.0168330999999995 2.7389935099999998 Au
atom 24.4365012399999983 23.0880833699999997 2.8508741999999998 Au
atom 27.2702665199999998 23.1271755399999996 2.7355817899999999 Au
atom 1.8733213399999999 23.0952793000000014 2.7251543800000002 Au
atom 4.7532095700000001 23.1354428200000015 2.7193245699999999 Au
atom 8.8604380200000001 25.5631999800000003 2.5066812000000001 Au
atom 11.6730579799999994 25.5047588999999988 2.5564909299999998 Au
atom 14.4524082699999994 25.4668385999999991 2.6476001800000000 Au
atom 17.3210818300000007 25.4925118499999996 2.6245490700000000 Au
atom 20.2149019699999997 25.5705797100000005 2.8381607099999999 Au
atom 22.9605444500000004 25.4396726199999996 2.4815098000000000 Au
atom 25.7609577799999983 25.5683913999999994 2.7175845199999999 Au
atom 0.4033457000000000 25.5643892199999989 2.6543426700000001 Au
atom 3.2561200299999999 25.5407538900000013 2.5718105900000001 Au
atom 6.0913090299999997 25.4859317700000005 2.4358003199999998 Au
atom 7.5685292100000003 28.0786325999999988 2.2156012199999999 Au
atom 10.3303047100000001 27.9321580699999998 2.7216072300000000 Au
atom 13.2138590199999992 27.9115581000000006 2.3783522300000000 Au
atom 15.9830274600000006 27.8402646000000011 2.4759319899999999 Au
atom 18.8103780799999996 27.9655021999999995 2.4492633200000000 Au
atom 21.6337931400000016 27.9741804999999992 2.4977428599999998 Au
atom 24.3959872299999994 27.9684996999999989 2.7270094000000000 Au
atom 27.2637036200000011 28.0248372799999999 2.5626362000000000 Au
atom 1.8720294099999999 27.9571642699999998 2.2948985500000001 Au
atom 4.6888913199999998 27.9256721900000002 2.6642258800000000 Au
atom 9.0266505699999993 30.4361062400000009 2.6819625500000002 Au
atom 11.7706907800000007 30.3350806400000010 2.5893209900000000 Au
atom 14.5857733799999991 30.3341796700000010 2.4786866999999999 Au
atom 17.4114364700000017 30.4602893200000011 2.3318748999999999 Au
atom 20.2297329099999992 30.4379158799999985 2.4188446699999999 Au
atom 23.0237986700000015 30.3914697700000005 2.5362146299999999 Au
atom 25.8830567000000009 30.4684498300000008 2.4952159100000002 Au
atom 0.4943942700000000 30.3946104000000012 2.5240307099999999 Au
atom 3.3418968300000000 30.4727711799999987 2.4904631199999998 Au
atom 6.2130355300000000 30.4638822100000013 2.7364872999999998 Au
atom 7.4280873400000003 32.8896834399999989 2.4036343300000000 Au
atom 10.3128921699999996 32.8831217500000008 2.4698677899999999 Au
atom 13.2256353600000001 32.8745042400000003 2.6882119000000002 Au
atom 16.0074894900000011 32.8278510999999966 2.5849231900000000 Au
atom 18.8961882000000010 32.8920902600000034 2.5952645500000000 Au
atom 21.7147552099999999 32.8487827200000027 2.3564120900000001 Au
atom 24.3971133800000004 32.8514908599999984 2.5357116600000000 Au
atom 27.2609033300000014 32.9006637000000026 2.5825692299999998 Au
atom 1.9094112599999999 32.8863154200000025 2.5608503800000002 Au
atom 4.6460716000000000 32.9348510200000035 2.5834986600000001 Au
atom 8.8311180100000009 35.2359069299999987 2.6464255300000001 Au
atom 11.7965998299999999 35.2840669799999986 2.6105060199999999 Au
atom 14.6343878600000004 35.2806939900000032 2.4084739000000002 Au
atom 17.4763628199999985 35.2694019899999986 2.4656726799999999 Au
atom 20.2994783199999986 35.3582452699999976 2.4417748600000002 Au
atom 23.0508977399999999 35.3147434500000017 2.9101793300000001 Au
atom 25.8194883200000014 35.2418429299999971 2.6949973200000001 Au
atom 0.5139095700000000 35.3806249200000025 2.6086308100000002 Au
atom 3.2417013600000000 35.4007240099999976 2.4658964200000000 Au
atom 6.0823079099999999 35.2760504499999996 2.8916878800000001 Au
atom 7.4028527799999999 37.8543031900000031 2.9729882299999999 Au
atom 10.2912493000000005 37.7749704300000033 2.7683768899999999 Au
atom 13.1201476199999991 37.8279741999999999 2.5457466000000002 Au
atom 15.9859455100000005 37.5954839099999987 2.8513145999999998 Au
atom 18.9572376799999986 37.7691569400000020 2.7020454800000002 Au
atom 21.7003319400000017 37.8382069800000025 3.0403119599999999 Au
atom 24.5739296100000004 37.7769072899999969 2.9333970900000002 Au
atom 27.2453988199999984 37.8293226400000009 2.9174253000000001 Au
atom 1.8383023599999999 37.8397169099999999 2.7840366099999998 Au
atom 4.5437225400000001 37.8167904000000021 2.8163317499999998 Au
atom 8.9557938999999998 0.7311424700000000 2.9188697100000001 Au
atom 11.6755254399999995 0.9438836600000000 2.7369736599999999 Au
atom 14.5057326199999999 0.7638397200000000 2.8307852599999999 Au
atom 17.2304321499999986 0.7435157700000000 2.7842349099999999 Au
atom 20.1236628000000017 0.8495857800000000 2.7557034599999999 Au
atom 23.0509813100000009 0.9003390600000000 2.8474397100000002 Au
atom 25.8577921300000000 0.8314389900000000 2.8384754499999998 Au
atom 0.5201793100000000 0.8529413300000001 2.7572547500000000 Au
atom 3.2519098299999998 0.9014875200000000 2.8181583400000001 Au
atom 6.0478876100000001 0.8389410200000000 2.7424383200000002 Au
atom 7.3388181399999999 3.2467732499999999 3.0111940900000000 Au
atom 10.2450007900000006 3.2997128500000001 2.8960106500000000 Au
atom 13.0375649500000002 3.3362459300000000 2.6825493599999999 Au
atom 15.9251551599999992 3.3300960499999999 2.7098116800000001 Au
atom 18.6549055599999996 3.3845291000000000 2.8533604200000000 Au
atom 21.5088521700000008 3.3214253399999998 2.3967292499999999 Au
atom 24.3366421499999994 3.2597383899999999 2.4218042600000000 Au
atom 27.1330434400000016 3.2584826400000000 2.5724485300000000 Au
atom 1.7497402099999999 3.3629261200000000 2.8157294799999999 Au
atom 4.6887617700000002 3.3715680799999999 2.7036870300000002 Au
atom 8.7740041600000005 5.6372955100000004 2.7699818999999999 Au
atom 11.6659412000000007 5.7531469800000004 2.8760872300000000 Au
atom 14.4422735800000002 5.7291230700000000 2.8073592700000001 Au
atom 17.3117189899999993 5.8926060900000001 2.7034035099999998 Au
atom 20.2210306600000003 5.7327707300000004 2.7182238900000000 Au
atom 23.0892434599999987 5.7320015900000003 2.4210136900000001 Au
atom 25.8463250199999983 5.7499442600000004 2.5115826900000000 Au
atom 0.3631824400000000 5.7877414399999996 2.7980429000000000 Au
atom 3.1456234799999998 5.7820511400000001 2.7133695300000000 Au
atom 6.0056130500000000 5.8235041399999998 2.9359469100000002 Au
atom 7.3895641799999998 8.1035979699999992 2.3676980799999998 Au
atom 10.1361842099999997 8.1553646400000002 2.5902578300000001 Au
atom 13.0134061499999998 8.0704185000000006 2.6138998600000001 Au
atom 15.8578199699999995 8.2298001400000000 2.4742798100000001 Au
atom 18.7309537100000014 8.3566684299999991 2.4140528099999998 Au
atom 21.5006395599999998 8.2228078000000000 2.2747424700000001 Au
atom 24.3676228799999990 8.1878598999999994 2.3793418100000001 Au
atom 27.2206773200000001 8.2787498300000006 2.4501923500000000 Au
atom 1.8300886999999999 8.2323249799999996 2.7189614700000000 Au
atom 4.6577295000000003 8.2238913799999995 2.4195324800000000 Au
atom 8.8352849899999999 10.6459925000000002 2.6971579999999999 Au
atom 11.5788482199999994 10.5338420999999993 2.6377185200000000 Au
atom 14.4347676099999997 10.5694766199999997 2.5038775000000002 Au
atom 17.2467956499999993 10.7539524899999996 2.4161466200000001 Au
atom 20.2812200199999992 10.6826845499999994 2.2816673000000001 Au
atom 23.0083143200000002 10.7103034800000003 2.2846163800000001 Au
atom 25.9078572399999985 10.7548126300000000 2.3863003699999998 Au
atom 0.3616941400000000 10.6945555799999994 2.6742219999999999 Au
atom 3.2059436799999999 10.6321520500000002 2.7412239500000002 Au
atom 6.0239079400000000 10.6305913699999994 2.8682631399999998 Au
atom 7.7118828400000003 13.5471468900000005 5.9502489199999999 Cl
atom 7.5835368299999999 16.3745967999999991 8.5546757600000003 Cl
atom 7.9089156000000003 13.4072967900000002 8.4745375000000003 Na
atom 7.6665694000000002 16.3644837500000015 5.8748419800000002 Na
atom 7.5506966100000001 19.1682326900000000 5.8483474199999996 Cl
atom 7.6136488699999996 22.1995095000000013 8.7058416100000002 Cl
atom 7.7339157700000003 19.1706442400000014 8.4936181499999996 Na
atom 7.5185155400000001 22.0620131999999991 5.9301841499999997 Na
atom 7.5969111800000002 24.8559155999999994 5.6365226499999999 Cl
atom 7.6634278699999996 27.6530090000000008 8.3922926800000006 Cl
atom 7.6376099699999997 24.8467457799999991 8.3893418400000002 Na
atom 7.6722713999999996 27.6153715899999987 5.8123677300000001 Na
atom 7.6937447099999998 30.3912266899999999 5.7250932600000004 Cl
atom 7.5092407500000000 33.2739393499999991 8.4747640600000000 Cl
atom 7.6674615800000003 30.3809873199999991 8.3706085199999993 Na
atom 7.5852048300000003 33.3927342100000004 5.7371038800000003 Na
atom 7.7896196499999997 36.1587198499999971 5.8220074300000002 Cl
atom 7.6094934600000004 38.7819644200000013 8.6377517899999994 Cl
atom 7.6079397400000000 36.0075250900000015 8.4121710400000005 Na
atom 7.8712783100000001 38.8921304899999996 6.0732431900000003 Na
atom 7.7655329699999998 2.1163719699999999 5.9671006999999996 Cl
atom 7.7755131300000002 4.8380465299999997 8.9354314699999993 Cl
atom 7.6687570500000000 2.0682028600000000 8.5805696400000002 Na
atom 7.7852857300000000 4.7787693500000001 6.0547588000000001 Na
atom 7.6717369399999997 7.4339948500000004 5.8256086299999996 Cl
atom 7.7272769500000003 10.5783813999999996 8.6566160799999992 Cl
atom 7.7971999700000003 7.6497167399999997 8.6025004200000001 Na
atom 7.8324870999999998 10.6304597300000001 5.8610045199999998 Na
atom 10.6010176699999992 13.5072356500000001 5.8699252099999999 Na
atom 13.3285123399999996 13.5108722100000005 5.7605482300000004 Cl
atom 10.4504726199999993 16.2842320100000002 8.5155485199999994 Na
atom 13.2252183399999996 16.6095549899999995 8.3229203300000005 Cl
atom 13.4547261299999992 13.4810975899999992 8.3967492299999993 Na
atom 10.6838448400000008 13.4474296899999999 8.6823929999999994 Cl
atom 13.2974661300000001 16.5348130299999987 5.6567296300000001 Na
atom 10.2355643100000009 16.1408456099999995 5.9353180500000002 Cl
atom 10.4924901100000003 19.0551284199999991 5.8361455700000002 Na
atom 13.2442787600000003 19.2439835499999994 5.8238795400000001 Cl
atom 10.5575063700000005 21.9895446499999991 8.2718901799999998 Na
atom 13.3585285500000008 22.2033709700000017 8.6064413399999999 Cl
atom 13.3615820900000006 19.2769696999999987 8.5852578600000005 Na
atom 10.4224446400000001 19.1711553399999985 8.5379480599999997 Cl
atom 13.3045186300000005 22.0280877900000007 5.6886418100000000 Na
atom 10.4729013399999999 22.1740046600000014 5.6168795999999999 Cl
atom 10.4601322999999997 24.8580119699999997 5.6076713800000002 Na
atom 13.2206018200000006 24.9497446899999993 5.5011280999999999 Cl
atom 10.3997092700000007 27.6453964100000000 8.4512752399999993 Na
atom 13.2976502399999994 27.7615414999999999 8.4648322999999994 Cl
atom 13.1972692299999999 24.9773543599999996 8.1403377100000007 Na
atom 10.4722192100000004 24.8273912099999983 8.3687012500000009 Cl
atom 13.2641471800000001 27.7971275400000017 5.7037569599999998 Na
atom 10.5990585500000005 27.9907941899999990 5.7810543299999999 Cl
atom 10.4633786499999992 30.6215623800000003 5.8011466399999998 Na
atom 13.1653721699999995 30.5376259099999992 5.8182888600000000 Cl
atom 10.5941185099999995 33.3700444700000034 8.4457909400000002 Na
atom 13.2516996099999993 33.4105602799999986 8.5359520700000004 Cl
atom 13.1873013500000003 30.4987793499999995 8.4335381599999995 Na
atom 10.5290873999999999 30.6688853100000003 8.5835255700000008 Cl
atom 13.3652550899999998 33.4796066999999979 5.8414318400000003 Na
atom 10.5301666100000002 33.4273641500000025 5.6381051299999996 Cl
atom 10.5030650800000007 36.1375206100000028 5.8414474500000004 Na
atom 13.3669720600000002 36.2317207500000009 5.6832607900000003 Cl
atom 10.4726802699999997 38.7510687099999984 8.4745119100000004 Na
atom 13.2608515400000009 38.9075361000000015 8.6914274400000000 Cl
atom 13.3340711899999995 36.1902835899999999 8.4042848600000006 Na
atom 10.5959796900000001 36.0011956100000035 8.7439565600000009 Cl
atom 13.3936785000000000 38.9987688200000022 5.6285607200000003 Na
atom 10.6589479600000008 38.9094396799999984 5.8141370999999999 Cl
atom 10.5177379299999991 2.1628895099999998 5.9169891200000002 Na
atom 13.4711420700000009 2.1386514499999998 5.8305210000000001 Cl
atom 10.6562669400000001 5.0490534800000004 8.4914061699999994 Na
atom 13.5017086600000003 4.9510511199999998 8.6468036399999999 Cl
atom 13.4274603399999997 2.3660923199999999 8.6078627300000008 Na
atom 10.7129183799999996 2.2108741699999999 8.5924012800000007 Cl
atom 13.4166511199999992 4.9142784800000001 5.8888300999999998 Na
atom 10.6108858500000007 4.9236429599999996 5.9697843099999996 Cl
atom 10.4535090900000007 7.7952029700000001 5.9777270700000003 Na
atom 13.2626349900000005 7.8376447300000001 5.8981194300000004 Cl
atom 10.5759214000000004 10.6053691099999998 8.5865771199999994 Na
atom 13.3516362700000002 10.5505158899999998 8.5744748200000007 Cl
atom 13.6953453900000000 7.8776369099999997 8.5322536699999993 Na
atom 10.6503445899999996 7.8656353399999999 8.6538168500000001 Cl
atom 13.3279586200000004 10.7813730600000000 5.6755705799999996 Na
atom 10.5209225300000000 10.7569178999999995 5.8431279900000002 Cl
atom 16.1564680299999992 13.8095048800000004 5.6417786899999998 Na
atom 19.0679206299999997 13.5542216399999997 5.6098799200000000 Cl
atom 16.2592287400000011 16.2896325200000014 8.4952042199999998 Na
atom 19.2325675199999999 16.2088803699999993 8.7049671499999999 Cl
atom 19.1946716700000017 13.4351081400000005 8.1452443199999998 Na
atom 16.2151213600000013 13.4640055800000003 8.2545299799999992 Cl
atom 19.1010886699999993 16.3162935299999994 5.7762940100000000 Na
atom 16.4829200900000004 16.4952812299999998 5.7882809200000001 Cl
atom 16.0249487299999984 19.2194061599999984 5.9329635200000004 Na
atom 19.0330857800000004 19.2566785500000002 5.6463453100000001 Cl
atom 16.1742142899999983 22.3784756700000003 8.5807479999999998 Na
atom 18.9524945199999983 22.0843209899999984 8.2845492299999997 Cl
atom 19.0009675599999994 19.2868060399999983 8.4380995599999995 Na
atom 16.2147326499999984 19.2042440899999995 8.5316390700000007 Cl
atom 19.1958705800000011 21.9535691700000015 5.6102317299999998 Na
atom 16.0520794699999989 21.9187547500000015 5.9218455600000004 Cl
atom 16.1320371700000003 24.9449310100000012 5.6057145100000003 Na
atom 19.2097474599999991 24.9219093100000002 5.8041733700000000 Cl
atom 16.0908617900000017 27.8391038399999999 8.1927052200000006 Na
atom 19.0331001999999998 27.8032468399999999 8.5063800599999997 Cl
atom 18.9572861199999991 24.7590313699999989 8.3676295300000003 Na
atom 16.0037335200000008 25.1738324499999990 8.1442518100000001 Cl
atom 18.9769835200000010 27.8322582300000008 5.8471190399999999 Na
atom 16.0652271499999983 27.7275167200000006 5.6197224500000003 Cl
atom 16.1459343799999999 30.5795903200000012 5.7813957299999998 Na
atom 19.1587516700000009 30.5459354800000007 5.6792751600000004 Cl
atom 16.2292750000000012 33.3097545400000001 8.3490183699999996 Na
atom 18.9319509600000018 33.2467100000000002 8.6825188600000001 Cl
atom 19.1465762899999987 30.5307458099999991 8.3214562399999998 Na
atom 16.0712243699999995 30.6701500500000002 8.6283420700000004 Cl
atom 18.9449406899999993 33.2648116399999978 5.8664519100000003 Na
atom 16.1436541600000005 33.3116598100000019 5.6771885700000002 Cl
atom 16.2040942000000001 36.0067055999999965 5.9345983100000002 Na
atom 19.0095153600000017 36.1181585699999985 5.8702232099999998 Cl
atom 16.0605724499999987 38.7326303099999976 8.4785238599999992 Na
atom 19.0571696899999985 38.9222322000000034 8.7893393199999998 Cl
atom 18.9812920100000007 36.0138475099999980 8.4937091799999997 Na
atom 16.2588247700000004 36.0965213200000008 8.5511044900000002 Cl
atom 18.9533432799999986 38.7532082199999977 5.8378580199999996 Na