#===============================================================================
# Created using the Atomic Simulation Environment (ASE)

# Tue Dec 23 21:41:58 2025

#=======================================================
lattice_vector 28.1999999999999993 0.0000000000000000 0.0000000000000000 
lattice_vector 0.0000000000000000 39.4799999999999969 0.0000000000000000 
lattice_vector 0.0000000000000000 0.0000000000000000 62.3296083400000001 
atom 7.5801084400000001 14.6787301899999996 0.1427574800000000 Au
atom 10.3740959700000008 14.8655807899999992 -0.1547822500000000 Au
atom 13.2081069899999992 14.9160836600000000 -0.3838977700000000 Au
atom 16.0759939400000000 14.8712755399999992 -0.2830019500000000 Au
atom 18.8133750400000004 14.8461654500000009 -0.0038478000000000 Au
atom 21.4997846899999985 14.9569793200000003 -0.3498946400000000 Au
atom 24.4462656299999992 14.8933720199999993 -0.2460673300000000 Au
atom 27.1793546699999986 14.8820461599999998 0.1983781100000000 Au
atom 1.7914945700000000 14.9021393500000006 0.3221349400000000 Au
atom 4.6278323600000002 14.8130315400000008 0.1467101100000000 Au
atom 9.0017758699999995 17.2460331199999999 0.1271506700000000 Au
atom 11.9678186400000008 17.3254292200000002 0.2017374500000000 Au
atom 14.7564373700000004 17.3952216300000018 -0.3808007900000000 Au
atom 17.4614075699999987 17.3446433700000000 0.1679061600000000 Au
atom 20.1957578600000005 17.4400741799999999 0.0678924100000000 Au
atom 23.0181371500000012 17.4262288500000011 -0.1893173600000000 Au
atom 25.9066710700000016 17.3281831000000004 0.2012776400000000 Au
atom 0.4218151300000000 17.3595400099999999 0.1763724500000000 Au
atom 3.2298528000000002 17.2850127299999983 0.1970126500000000 Au
atom 6.1547655199999998 17.3084761299999990 0.1802558500000000 Au
atom 7.6651914699999999 19.6383750699999986 -0.1704998600000000 Au
atom 10.5165861799999991 19.6019038700000010 -0.0403000400000000 Au
atom 13.2472189100000008 19.8220935000000011 0.2190394400000000 Au
atom 16.1230841699999985 19.8530124100000016 0.2792748800000000 Au
atom 18.8658323400000008 19.8866819499999998 0.1712682500000000 Au
atom 21.7632404900000012 19.8335647199999983 0.1543162100000000 Au
atom 24.4798784199999986 19.8223590399999985 0.1485564500000000 Au
atom 27.2651141700000004 19.8478174400000000 0.3852556200000000 Au
atom 1.8838989700000000 19.6942046600000005 0.0965798700000000 Au
atom 4.6065789500000003 19.6984583300000011 -0.0937021600000000 Au
atom 8.9557936900000001 22.0720360800000002 0.3175355900000000 Au
atom 11.6554727099999997 22.1539602100000010 0.2186686600000000 Au
atom 14.6460091299999995 22.1325316299999990 0.4638822100000000 Au
atom 17.4305861700000015 22.3070994899999988 0.2881525600000000 Au
atom 20.2591656899999997 22.3232245800000015 0.1556289300000000 Au
atom 23.0385273700000006 22.2246263500000012 0.1798594700000000 Au
atom 25.8441168700000006 22.3330363200000015 0.1436294700000000 Au
atom 0.4515742500000000 22.1637244699999982 0.1947491500000000 Au
atom 3.3745622200000001 22.1145585900000015 0.0658507200000000 Au
atom 6.1377044600000001 22.0964423399999994 0.0577702800000000 Au
atom 7.4463682300000000 24.4402286800000006 0.2279793400000000 Au
atom 10.2850417499999995 24.5244432400000001 0.0152142900000000 Au
atom 13.1588488199999993 24.5554760799999983 0.3446051800000000 Au
atom 16.0021294099999984 24.6779183199999999 0.2432142000000000 Au
atom 18.8507692899999988 24.6561792400000002 -0.0582913100000000 Au
atom 21.8207380899999990 24.7261378399999998 -0.2798380900000000 Au
atom 24.5199308800000004 24.7088104000000008 0.1235829100000000 Au
atom 27.4244213099999996 24.6470146499999991 0.0681738300000000 Au
atom 1.8963977999999999 24.5788896399999999 0.4605223700000000 Au
atom 4.6870394099999997 24.5723405100000001 0.0964167900000000 Au
atom 8.9258773999999992 26.9954697099999983 0.0713319500000000 Au
atom 11.7764456400000004 26.9859341700000002 -0.1365085500000000 Au
atom 14.5786425299999998 27.0597506099999983 -0.1216618000000000 Au
atom 17.5011197000000003 27.1192445400000004 -0.0602786400000000 Au
atom 20.2285210699999993 27.2456914999999995 -0.1349360100000000 Au
atom 23.0704519700000006 27.2004635199999996 0.0545077700000000 Au
atom 25.9763614800000013 27.0245693600000010 -0.2327676900000000 Au
atom 0.5215735100000000 27.1487294299999995 -0.0722380300000000 Au
atom 3.2953229799999999 27.1570773699999997 0.1470194700000000 Au
atom 6.0389405299999996 26.9634644200000011 0.0280121700000000 Au
atom 7.5466590699999996 29.4288321599999989 -0.0667575700000000 Au
atom 10.3729044399999992 29.4287896899999986 -0.0312246800000000 Au
atom 13.1994416999999995 29.4547269500000013 -0.2742761900000000 Au
atom 16.0680621700000010 29.5784126500000006 -0.1347079300000000 Au
atom 18.8883226099999995 29.6800593500000005 -0.3186465200000000 Au
atom 21.6987861399999993 29.6455724600000003 -0.2442123300000000 Au
atom 24.5117103299999997 29.6106893900000010 -0.3644661100000000 Au
atom 27.2266538099999984 29.5636753500000005 0.0090260700000000 Au
atom 1.9362676700000001 29.6363964399999986 0.1771949700000000 Au
atom 4.7235500200000002 29.5487964199999986 0.1500461000000000 Au
atom 8.9068987300000000 32.0818756399999998 -0.1764852900000000 Au
atom 11.6749000800000005 31.9711444500000006 -0.2058430600000000 Au
atom 14.4714831700000008 32.1369082900000009 -0.1511383700000000 Au
atom 17.3327047000000007 32.1195025199999975 -0.1495587300000000 Au
atom 20.1457237300000003 32.1217522000000031 -0.3394675500000000 Au
atom 23.1179143099999997 32.0965830399999987 -0.0015875000000000 Au
atom 25.9002926699999989 32.1328504299999977 -0.0529344200000000 Au
atom 0.4986551000000000 32.1621499099999966 0.0125174900000000 Au
atom 3.3725864600000000 32.0951762099999982 0.0294582500000000 Au
atom 6.1751326899999999 31.9949640799999990 -0.1761850400000000 Au
atom 7.4829315300000001 34.6154324099999968 -0.3699768600000000 Au
atom 10.2798395800000009 34.5196238699999967 -0.2383749400000000 Au
atom 13.1104052000000006 34.5413033999999968 -0.2236970700000000 Au
atom 15.9072188899999993 34.5242150600000031 -0.2186015900000000 Au
atom 18.8187918900000000 34.7249848499999985 -0.3265174500000000 Au
atom 21.6822041500000005 34.5004125900000034 0.0024087800000000 Au
atom 24.3714619299999988 34.5475165499999974 -0.0381790900000000 Au
atom 27.2786908699999984 34.6013143999999997 -0.0917614900000000 Au
atom 1.9087764300000001 34.5296457299999986 -0.1029433600000000 Au
atom 4.7233305699999999 34.6562431300000000 0.0031521700000000 Au
atom 8.9093972099999998 37.1191675800000027 -0.1960202500000000 Au
atom 11.6278693499999992 36.9815587399999970 -0.0279326900000000 Au
atom 14.5787721300000008 37.0381775600000012 -0.1915129800000000 Au
atom 17.4604407100000003 37.1387454300000002 0.0542584300000000 Au
atom 20.3606439799999990 37.1614909700000027 -0.1067458600000000 Au
atom 23.0752273400000014 37.1967873700000027 -0.1345952800000000 Au
atom 25.9876089000000015 37.1134581000000026 -0.1610411800000000 Au
atom 0.6655111500000001 36.8926733699999971 0.1044295000000000 Au
atom 3.3129045600000002 37.0610487300000031 -0.0891461300000000 Au
atom 6.0870396600000003 37.0696098299999974 0.0634983000000000 Au
atom 7.5667792100000000 0.0937817300000000 -0.2145731600000000 Au
atom 10.3523244499999993 0.0393446000000000 -0.1558266000000000 Au
atom 13.1508274200000006 -0.0510208200000000 -0.2219344300000000 Au
atom 15.9992411000000008 0.0259541700000000 0.1408276100000000 Au
atom 18.8797386299999985 0.0816864200000000 -0.0644412000000000 Au
atom 21.7059460500000014 0.1394184900000000 0.1396822400000000 Au
atom 24.5071293300000015 0.1275009300000000 0.2270034900000000 Au
atom 27.2112210300000008 0.0308178600000000 0.0233551400000000 Au
atom 1.8820552300000000 0.0318611400000000 -0.1687880500000000 Au
atom 4.7032476599999997 0.0909051900000000 -0.0177196000000000 Au
atom 8.9863920499999992 2.5253972199999999 -0.0355817800000000 Au
atom 11.7591153100000003 2.5013249100000001 -0.1464529500000000 Au
atom 14.5405295100000007 2.4419878300000000 0.2091414700000000 Au
atom 17.4822350100000001 2.5493471900000002 0.2066353000000000 Au
atom 20.3331886699999984 2.5508609600000001 0.1542672300000000 Au
atom 23.1156278200000003 2.6096650499999998 0.1844149300000000 Au
atom 25.9377322799999988 2.6078261399999998 0.0264301000000000 Au
atom 0.4940678800000000 2.6622572299999998 0.0615108500000000 Au
atom 3.2778282500000002 2.5428686500000000 -0.1394420200000000 Au
atom 6.1502205300000004 2.5132069399999999 0.2286107300000000 Au
atom 7.4833058000000001 5.0784200200000003 0.1004484800000000 Au
atom 10.3350937199999997 5.0100186200000003 0.2958560700000000 Au
atom 13.2392076099999993 4.9847058000000004 0.2522263900000000 Au
atom 16.0156636500000005 4.9408818999999999 0.2094106700000000 Au
atom 18.8492605399999995 5.0014837999999999 -0.0335497900000000 Au
atom 21.6961648099999991 4.9983222100000004 0.1262320000000000 Au
atom 24.5062706299999995 5.1102042599999997 0.1374088500000000 Au
atom 27.3504098099999986 5.0329715600000000 0.0022139100000000 Au
atom 2.0226402200000000 5.0519608800000002 0.0355447700000000 Au
atom 4.7128045600000004 5.0107609799999997 0.0594015800000000 Au
atom 9.0431837500000007 7.4817824999999996 0.2322498100000000 Au
atom 11.7774921199999998 7.4337929599999999 0.1376515000000000 Au
atom 14.5985059899999996 7.3635139499999998 -0.0269157600000000 Au
atom 17.4741502199999985 7.3958954300000004 -0.2910284700000000 Au
atom 20.2269114300000012 7.4755372700000002 -0.0005502500000000 Au
atom 23.0707413300000006 7.4791590000000001 0.2043353900000000 Au
atom 25.8374975300000003 7.5878766799999999 -0.0814216400000000 Au
atom 0.4309576400000000 7.5609187100000002 -0.0047979800000000 Au
atom 3.3795953100000000 7.4799531699999999 -0.2024130500000000 Au
atom 6.1171407400000000 7.4856500900000000 0.1354568000000000 Au
atom 7.6375232600000000 9.8724598799999992 0.3219915200000000 Au
atom 10.3480460599999997 9.9083394800000004 -0.1243411100000000 Au
atom 13.2298608000000009 9.8380193200000008 -0.2480973600000000 Au
atom 16.0765888799999992 9.8188475600000000 -0.2738954900000000 Au
atom 18.8227892700000012 9.9134824600000009 -0.1599303100000000 Au
atom 21.7289487299999990 9.9560221299999991 -0.0845641300000000 Au
atom 24.4539726100000010 10.1024606099999996 0.0437833700000000 Au
atom 27.2616069500000009 9.9632067200000005 0.0083089300000000 Au
atom 1.9506673999999999 9.9613613900000004 -0.2302359100000000 Au
atom 4.7515597600000001 9.9471854299999993 0.0092558800000000 Au
atom 9.0098970800000000 12.2360133399999995 0.1192869000000000 Au
atom 11.8379356999999992 12.3614391000000001 -0.1154757200000000 Au
atom 14.6163990199999994 12.3388840299999991 -0.2676413300000000 Au
atom 17.3933123899999984 12.3943405500000008 -0.3817115900000000 Au
atom 20.1933502500000017 12.4071996200000001 -0.2913594700000000 Au
atom 22.9228391800000004 12.4317390600000000 -0.4378952900000000 Au
atom 25.8601089100000010 12.3857526599999996 -0.2264304300000000 Au
atom 0.5451827100000000 12.3563571099999994 -0.2519954700000000 Au
atom 3.3077265200000001 12.3740554199999995 0.1810960400000000 Au
atom 6.1636651899999997 12.3381897499999997 -0.0458422700000000 Au
atom 7.5502322900000003 13.1261963500000007 2.7859656500000001 Au
atom 10.3824084200000009 13.0831832699999993 2.5562579500000000 Au
atom 13.2839503400000005 13.1776610200000004 2.3616030100000001 Au
atom 16.0579967600000018 13.2074076399999996 2.0707959400000000 Au
atom 18.8930441599999988 13.2472099300000004 2.4188247800000000 Au
atom 21.7304680099999992 13.1968888300000007 2.0954027900000001 Au
atom 24.5338429500000004 13.1493950099999992 2.2705609800000000 Au
atom 27.3539004800000001 13.2494710100000006 2.4762776500000001 Au
atom 1.9403421599999999 13.2114484999999995 2.7735588899999999 Au
atom 4.7153460400000000 13.1893742399999994 2.6215681499999999 Au
atom 9.0470842999999999 15.5234208000000002 2.5235248700000001 Au
atom 11.8517860699999993 15.4926068699999995 2.4495627700000000 Au
atom 14.6370422599999994 15.6723371700000005 2.1229201999999998 Au
atom 17.3183523000000008 15.6631208500000003 2.5820546499999999 Au
atom 20.1577085199999999 15.6867258199999995 2.4237862699999999 Au
atom 23.0407622399999994 15.6866438400000003 2.2743636899999999 Au
atom 25.7702642500000003 15.6926742699999995 2.8051338600000002 Au
atom 0.4683956500000000 15.7350303700000005 2.8215814500000000 Au
atom 3.3168372300000000 15.6662208599999992 2.9024739300000002 Au
atom 6.1097095100000001 15.5412754700000004 2.6570641899999998 Au
atom 7.6021811799999996 18.0340522499999985 2.6672952699999999 Au
atom 10.5006187099999995 18.0073649600000003 2.7045837499999998 Au
atom 13.3723831499999992 18.0493712600000009 2.6517640800000000 Au
atom 16.1150900300000011 18.1581703300000008 2.6149427200000002 Au
atom 18.9188359099999985 18.1665641499999992 2.8832810300000000 Au
atom 21.6234038999999996 18.1406996999999990 2.4676601200000001 Au
atom 24.3939801799999998 18.1453411100000004 2.7163533300000000 Au
atom 27.2763696099999997 18.1699754300000009 2.8765251500000000 Au
atom 1.9035484899999999 18.1086644099999994 2.8835600499999998 Au
atom 4.8368078199999998 18.0113030700000003 2.6110750999999999 Au
atom 8.9729601999999993 20.4354376600000016 2.6491136499999999 Au
atom 11.7441955100000008 20.6264219299999993 2.6266392999999999 Au
atom 14.6486677299999997 20.5399156500000011 2.9966981600000002 Au
atom 17.5649937099999995 20.7099390300000010 2.7920086000000000 Au
atom 20.3442610500000001 20.6682191599999996 2.6595667299999999 Au
atom 23.0807469199999993 20.7205906300000002 2.8291530200000001 Au
atom 25.9508269899999995 20.6032033599999984 2.7210932699999999 Au
atom 0.5671002800000000 20.5895594600000003 2.9721016499999999 Au
atom 3.3876586099999999 20.5665264800000003 2.7329526600000000 Au
atom 6.2591262800000003 20.5160535400000015 2.4787893400000001 Au
atom 7.6814120499999996 23.0164234800000003 2.9093693300000001 Au
atom 10.3810340300000004 22.9690303000000000 2.8911208899999998 Au
atom 13.2293263099999994 22.9977811000000010 2.9970028599999998 Au
atom 16.0515360499999993 23.1335090600000015 2.8719062900000001 Au
atom 18.9028658699999994 23.2670333199999995 2.6962548399999999 Au
atom 21.7279396200000008 23.2206148299999988 2.6515065999999998 Au
atom 24.5700474200000016 23.0952894499999992 2.8352855099999998 Au
atom 27.3668820900000007 23.0481857499999983 2.6403369400000001 Au
atom 2.0670584999999999 23.0145478799999985 3.0964030999999999 Au
atom 4.8146905499999999 23.1033713799999987 2.6967596600000001 Au
atom 8.9175137699999993 25.5545759699999984 2.7815416800000001 Au
atom 11.6761972400000005 25.5924169500000005 2.6927681400000001 Au
atom 14.4893407799999991 25.4799028099999987 2.7616706299999998 Au
atom 17.3988848800000007 25.6940371300000017 2.7217294600000002 Au
atom 20.3022093800000007 25.6810162099999992 2.3424437700000000 Au
atom 23.2194874599999999 25.5875404499999988 2.7150698700000002 Au
atom 26.0164598299999987 25.4908910099999986 2.6918600499999998 Au
atom 0.5679641000000000 25.5826108400000010 2.7642199199999999 Au
atom 3.3770324299999999 25.5028443600000010 2.9276565699999999 Au
atom 6.1694921799999998 25.5724034099999997 2.7779678099999998 Au
atom 7.5723676800000002 28.0863467200000017 2.5537031699999999 Au
atom 10.3074284800000004 28.0263717200000002 2.5855870699999999 Au
atom 13.1135513100000001 28.0425088000000002 2.3300432999999998 Au
atom 15.9209522700000008 28.0747783700000006 2.5018135500000001 Au
atom 18.8502526099999983 28.1160759899999988 2.4537228299999998 Au
atom 21.7373945999999982 28.0315795799999989 2.6267060799999999 Au
atom 24.5581964799999994 28.0533289699999990 2.3200781500000001 Au
atom 27.3701494899999993 28.0037919500000001 2.4343364799999998 Au
atom 1.9246029200000001 28.1042845200000002 2.7019159199999998 Au
atom 4.7010246400000000 27.9757045799999986 2.7930435800000000 Au
atom 8.9319479600000005 30.5881897000000009 2.5067031599999998 Au
atom 11.8420024700000006 30.4867737800000000 2.3364456800000002 Au
atom 14.7009011699999999 30.5292316700000015 2.3276737999999999 Au
atom 17.4845538800000000 30.5556490399999987 2.4664733800000000 Au
atom 20.3358746100000012 30.5490350799999995 2.2546373499999999 Au
atom 23.1022540999999997 30.4033006300000004 2.4536109100000001 Au
atom 25.8220064100000002 30.5186073799999988 2.6289541999999999 Au
atom 0.4574869900000000 30.4743004900000010 2.6258940599999998 Au
atom 3.3595058999999998 30.5707619699999995 2.6790261100000001 Au
atom 6.1322315800000000 30.5832926500000006 2.4412785600000002 Au
atom 7.4412064400000002 33.0556116099999997 2.3502327900000002 Au
atom 10.2865411600000005 32.9406684799999994 2.4130461699999999 Au
atom 13.1551317700000006 32.9198356699999977 2.4074042300000000 Au
atom 16.0799336900000007 33.0080029399999972 2.6176529600000000 Au
atom 18.8025078900000011 32.9827031900000023 2.2974071299999999 Au
atom 21.6565887699999990 33.0086817700000026 2.6542236500000000 Au
atom 24.4730135400000002 32.9313147399999977 2.7127932200000000 Au
atom 27.2869331499999994 32.9182634499999978 2.6579087900000000 Au
atom 1.8905693500000000 33.0056298399999974 2.4869358099999999 Au
atom 4.7453900600000001 33.0062749399999973 2.5875465599999998 Au
atom 8.8243063799999995 35.4377697800000035 2.2610050300000002 Au
atom 11.7476454900000000 35.3788192299999977 2.4998193799999999 Au
atom 14.5036597100000009 35.3529970399999982 2.3238145800000001 Au
atom 17.3118198399999983 35.4900669100000030 2.3012496699999998 Au
atom 20.1198564100000006 35.4106785500000001 2.5696279099999999 Au
atom 23.0565021700000017 35.3878631199999987 2.5744138900000002 Au
atom 25.8814400400000011 35.4643242900000004 2.4784539300000001 Au
atom 0.4971912800000000 35.3765952999999982 2.6673889300000000 Au
atom 3.2673033800000000 35.4038293400000015 2.5029048600000001 Au
atom 6.0868251500000001 35.4258864099999968 2.7174803100000000 Au
atom 7.5581967299999997 37.8261230499999996 2.4122995899999999 Au
atom 10.3736454499999997 37.9088277600000012 2.5692425100000000 Au
atom 13.2292447800000001 37.8730774499999967 2.2348938899999999 Au
atom 16.0582343700000010 37.8442026800000022 2.6678337399999998 Au
atom 18.8938972999999990 37.8974902699999987 2.4699222800000000 Au
atom 21.7155619400000006 37.8444310400000035 2.6487754400000001 Au
atom 24.5449157599999985 37.8448441299999985 2.5820457499999998 Au
atom 27.2953505400000012 37.8497466399999993 2.7175806200000001 Au
atom 1.8976885999999999 37.9340186100000025 2.6235032100000000 Au
atom 4.7064468699999997 37.8041396300000017 2.5893951600000000 Au
atom 8.9768277800000007 0.8170334600000000 2.4403694800000002 Au
atom 11.7661552500000006 0.7853408700000000 2.4282180200000001 Au
atom 14.5919016799999994 0.7910347900000000 2.7271869600000000 Au
atom 17.5235120100000010 0.8433583700000000 2.6662067600000001 Au
atom 20.3110393400000007 0.9156988400000000 2.6076911300000001 Au
atom 23.0902292200000012 0.7296262600000000 2.9146595799999999 Au
atom 26.0167248800000017 0.8757056500000000 2.7273974900000000 Au
atom 0.4941309700000000 0.8737102400000000 2.6381486299999999 Au
atom 3.4093032999999999 0.8919728099999999 2.4014093100000000 Au
atom 6.2332443900000003 0.8568212700000000 2.6276647099999999 Au
atom 7.6907840800000002 3.2842665700000002 2.6569129199999999 Au
atom 10.3421328500000005 3.2763407299999998 2.6372272200000002 Au
atom 13.0595337199999992 3.3050265799999998 2.6411656400000001 Au
atom 16.0328516599999986 3.2266795500000001 2.8100392599999999 Au
atom 18.9006515600000000 3.3254429399999998 2.6363013600000000 Au
atom 21.8718589799999990 3.3049274400000002 2.8808412400000001 Au
atom 24.6461991699999992 3.3207871099999999 2.8787397200000000 Au
atom 27.3888993300000010 3.3635188899999999 2.6631803199999999 Au
atom 2.0242321300000001 3.3322264700000002 2.5922440299999998 Au
atom 4.7204775400000001 3.2288636600000000 2.8331362300000000 Au
atom 8.9350760600000001 5.8003479499999999 2.8983946899999999 Au
atom 11.7035058700000008 5.8999604799999998 2.8230255500000001 Au
atom 14.5713341599999993 5.7639367799999999 2.7916449299999999 Au
atom 17.4606069999999995 5.7830429800000003 2.6824866500000000 Au
atom 20.1867548700000015 5.7262787099999999 2.8503527000000002 Au
atom 23.1414756399999995 5.6610944700000001 2.8124870700000000 Au
atom 25.9503902199999992 5.8460514300000002 2.4826647500000001 Au
atom 0.5594028200000000 5.7827048400000001 2.6266540100000002 Au
atom 3.3041121000000002 5.9034637900000000 2.7253816600000000 Au
atom 6.1057212200000004 5.6513831500000000 2.5968900499999998 Au
atom 7.5030101000000000 8.2823152300000000 2.9071220100000001 Au
atom 10.3092717100000009 8.2017962299999994 2.7408286600000000 Au
atom 13.1653416199999995 8.2360635700000007 2.5933326700000001 Au
atom 16.1117977299999993 8.3194502700000008 2.5462574800000000 Au
atom 18.9058174500000007 8.2138235799999997 2.3206055399999999 Au
atom 21.6612116300000004 8.2091031300000008 2.6722880800000000 Au
atom 24.4766742400000012 8.2457902199999999 2.6911425200000001 Au
atom 27.2692184600000012 8.3211318599999995 2.6829651600000002 Au
atom 1.9677189300000000 8.2765358399999993 2.5090880400000000 Au
atom 4.7460411100000002 8.3087278100000006 2.5727135400000001 Au
atom 9.0378473499999998 10.7021978499999992 2.8096376799999998 Au
atom 11.8037853899999998 10.6714432699999993 2.2631511600000001 Au
atom 14.7053263800000007 10.7402818700000005 2.3940345800000000 Au
atom 17.4962477000000014 10.8207640099999995 2.4505617800000001 Au
atom 20.2735247299999983 10.7037723299999996 2.4838882299999998 Au
atom 23.0770647699999998 10.7510700499999992 2.5498612700000001 Au
atom 25.9047789799999997 10.7038839400000008 2.6356908799999998 Au
atom 0.5407565000000000 10.7754527000000007 2.2996882400000001 Au
atom 3.2962803799999998 10.7773763299999992 2.6885306500000001 Au
atom 6.0839143699999996 10.7706025200000006 2.6404606500000001 Au
atom 7.1342263600000004 12.7584561300000008 5.7646393700000003 Cl
atom 7.2746772100000001 15.3962307999999997 8.3574500999999994 Cl
atom 7.2027561100000002 12.6578707799999997 8.5266000799999997 Na
atom 7.1143315200000004 15.5450964599999999 5.5439032099999999 Na
atom 7.0823851900000001 18.4707642499999984 5.8847493699999998 Cl
atom 7.0904592900000001 21.3792592500000005 8.8322718899999995 Cl
atom 7.3453272099999998 18.2395959999999988 8.4152693700000007 Na
atom 7.1468129600000001 21.3530884699999994 5.9786687699999996 Na
atom 7.0944688700000000 24.1806767600000008 5.9616044600000002 Cl
atom 7.0145325700000001 27.0145121199999991 8.7386452999999999 Cl
atom 6.9312720199999998 24.0978450700000018 8.6077940700000006 Na
atom 6.9707090500000000 26.8967994499999996 5.7414325300000000 Na
atom 7.0735553400000004 29.6918134100000017 5.6838340299999999 Cl
atom 6.9857101400000001 32.4487213600000004 8.6074768000000006 Cl
atom 7.0786438000000000 29.7308242199999988 8.3786008699999996 Na
atom 7.0042890599999996 32.5135697400000012 5.8184020900000002 Na
atom 7.1783287700000002 35.3921925499999972 5.8147830599999999 Cl
atom 7.1315626300000003 38.1877760599999974 8.6454641500000005 Cl
atom 7.0893257099999998 35.2356608400000013 8.3913590199999994 Na
atom 7.0045000399999999 38.2639290199999991 5.7321196800000003 Na
atom 6.9241764699999999 1.5714871699999999 5.8026097700000001 Cl
atom 7.0510618500000000 4.3362822799999998 8.4959822400000000 Cl
atom 6.9383902099999997 1.3685610200000000 8.4569159700000007 Na
atom 7.0885387499999997 4.3338796700000000 5.7890621900000001 Na
atom 6.9881218900000004 7.0612672900000000 5.8206780900000004 Cl
atom 7.1876046799999997 9.9195573100000001 8.7157310399999997 Cl
atom 7.0774201699999999 6.9661153400000000 8.4878827099999992 Na
atom 7.1342579300000004 9.9597048400000006 5.8767949300000000 Na
atom 9.8878719999999998 12.6989493200000005 5.6321196899999997 Na
atom 12.5297542400000008 12.7395697999999999 5.6219217900000000 Cl
atom 9.9560532899999998 15.4467470400000000 8.1675728599999999 Na
atom 12.4652212299999992 15.6053560999999998 8.2552936500000005 Cl
atom 12.7560582199999999 12.8113627900000004 8.1915531500000007 Na
atom 9.9845775900000007 12.6975376799999999 8.5421677000000003 Cl
atom 12.8319789600000007 15.7470903999999994 5.6756852200000001 Na
atom 9.7937147899999992 15.6585689400000003 5.4393715599999997 Cl
atom 9.9352463600000007 18.5774885300000001 5.9187756399999998 Na
atom 12.6107480499999998 18.6321870199999999 5.8131151299999999 Cl
atom 9.8769674599999995 21.3053489399999982 8.5668062500000008 Na
atom 12.7011704900000009 21.3312582800000001 8.5901495899999993 Cl
atom 12.8715297900000003 18.4303201899999998 8.6438483700000006 Na
atom 10.0196929899999994 18.5383978599999999 8.5531029800000002 Cl
atom 12.7566500800000000 21.2999573899999994 6.0081397900000004 Na
atom 9.7949307900000004 21.5341967499999996 5.7476506399999998 Cl
atom 9.8768404299999997 24.2374739199999993 6.0407444300000002 Na
atom 12.6309249000000001 24.3873053499999983 5.8681853700000000 Cl
atom 9.9114242000000008 27.1401165900000017 8.4152504399999994 Na
atom 12.7175380499999999 27.1195247200000011 8.6680600099999996 Cl
atom 12.6907754700000002 24.1854097099999983 8.4856070500000005 Na
atom 9.9613470799999995 24.2684601099999995 8.7538424500000005 Cl
atom 12.8236304400000005 27.0934966700000004 5.8919391299999999 Na
atom 9.8644957499999997 27.0097516300000002 5.5637428399999997 Cl
atom 9.8503575199999993 29.6859021500000004 5.7751362600000000 Na
atom 12.6160232600000004 29.7390568699999989 5.6619456899999996 Cl
atom 10.0036792499999994 32.5067183700000015 8.3449834599999999 Na
atom 12.7237450699999997 32.4462690000000009 8.4533425599999994 Cl
atom 12.6526920700000005 29.7880768700000012 8.4847487499999996 Na
atom 9.9145385800000003 29.7965912000000017 8.6150973600000000 Cl
atom 12.6794952500000004 32.5416461100000021 5.7822356700000004 Na
atom 9.6819123200000003 32.4987979699999983 5.7319804699999999 Cl
atom 9.8699192700000005 35.3848461199999988 5.6339548300000004 Na
atom 12.4581548800000004 35.3958372800000021 5.6888789500000003 Cl
atom 9.8137473800000006 37.9890773999999993 8.1166073200000000 Na
atom 12.6200787800000001 38.0757019500000027 8.3431630299999995 Cl
atom 12.7529706199999993 35.2659350099999997 8.2403047199999993 Na
atom 10.0377577999999996 35.3178790799999973 8.6281575499999992 Cl
atom 12.7659815299999995 38.1038482200000033 5.5861442700000001 Na
atom 9.7183418899999996 38.2967187400000029 5.6296970799999997 Cl
atom 9.8773310100000007 1.4924705400000000 5.8239853400000001 Na
atom 12.5933895499999995 1.4224568099999999 5.6914917899999997 Cl
atom 9.7536702300000009 4.2249185400000000 8.4203379399999996 Na
atom 12.6050569400000008 4.3475999999999999 8.5774602699999996 Cl
atom 12.5910107199999999 1.5304873100000000 8.4807355799999993 Na
atom 9.8186916800000006 1.3588418700000000 8.5871663300000005 Cl
atom 12.6128886300000005 4.3235906399999999 5.8345575199999997 Na
atom 9.7703200700000004 4.3527944800000000 5.8561034799999998 Cl
atom 9.8012184599999994 7.1268808000000003 5.8944005800000001 Na
atom 12.7526372699999992 7.1063980600000001 5.7582044999999997 Cl
atom 9.8207616499999997 9.8252980799999996 8.4698700299999992 Na
atom 12.6494233200000004 9.9754356800000004 8.5177674299999993 Cl
atom 12.6408310099999994 7.1703898300000004 8.5343213599999999 Na
atom 9.7382552600000007 7.2056362199999997 8.6671202600000008 Cl
atom 12.4625292900000009 10.0514103299999995 5.6684789999999996 Na
atom 9.7549919599999999 9.9683759100000007 5.7711500600000001 Cl
atom 15.4001497000000001 12.7797062700000001 5.5906643200000001 Na
atom 18.2716962800000005 12.6872577900000003 5.4999907700000001 Cl
atom 15.5484867199999997 15.5296021100000008 8.2665864100000004 Na
atom 18.2349286200000016 15.6946984999999994 8.5029056099999991 Cl
atom 18.3414862899999989 12.8831875700000005 8.0870245900000004 Na
atom 15.5580569299999993 12.9183617099999992 8.3071292700000008 Cl
atom 18.3768058399999994 15.7496841199999995 5.7889514000000002 Na
atom 15.5393096300000000 15.6715159499999999 5.5357276799999999 Cl
atom 15.2764623900000007 18.6131297599999996 5.7176787500000001 Na
atom 18.4527543300000012 18.5311003599999999 5.7348512999999999 Cl
atom 15.5544019200000001 21.4332617499999998 8.3247529199999999 Na
atom 18.4029967700000014 21.2358677000000000 8.4585642300000004 Cl
atom 18.4456286399999989 18.4698037799999994 8.3412471900000007 Na
atom 15.6905246399999996 18.6781397300000016 8.2957000000000001 Cl
atom 18.5301787100000013 21.2940474299999991 5.7120853399999998 Na
atom 15.6093347599999994 21.3930155999999982 5.7373078599999996 Cl
atom 15.4962153199999992 24.1232254300000015 5.7403173100000000 Na
atom 18.3772535999999995 24.1080784500000007 5.6532156100000002 Cl
atom 15.5784978899999995 26.8975893900000003 8.2182194600000003 Na
atom 18.3734999399999985 27.0412465100000006 8.5134380699999994 Cl
atom 18.2469885400000003 24.1436945399999985 8.3572642100000003 Na
atom 15.4869149700000008 24.2219921000000014 8.5112479000000008 Cl
atom 18.3982391900000017 26.9307549900000005 5.7655101200000001 Na
atom 15.5622891100000000 27.0265039199999997 5.6562059900000001 Cl
atom 15.4192512700000002 29.7905307000000015 5.8439008899999996 Na
atom 18.2669868199999996 29.6977995999999997 5.6434144699999997 Cl
atom 15.7411389400000008 32.4291460299999983 8.3670433099999997 Na
atom 18.4556073599999984 32.5438460000000021 8.6879650399999999 Cl
atom 18.3835635500000016 29.7011075600000005 8.3268559900000003 Na
atom 15.5385718700000002 29.7726545599999994 8.6293465900000008 Cl
atom 18.4904939299999995 32.4398984799999965 5.7173145800000000 Na
atom 15.5464898999999992 32.5336044700000002 5.6246970799999998 Cl
atom 15.6179700300000004 35.2774500000000018 5.6949894099999998 Na
atom 18.3765609900000015 35.3278909499999969 5.6320414699999999 Cl
atom 15.4274389999999997 38.1039717999999965 8.2273445400000007 Na
atom 18.0757050700000015 38.0178959599999970 8.4594313499999991 Cl
atom 18.2038805400000001 35.2585315999999978 8.3847343799999994 Na
atom 15.3537515700000000 35.4021493199999995 8.4012241900000006 Cl
atom 18.2725302300000010 37.9301349899999991 5.7871841000000002 Na
atom 15.5888674300000005 38.1614355500000002 5.5731580100000002 Cl