#===============================================================================
# Created using the Atomic Simulation Environment (ASE)

# Tue Dec 23 21:42:41 2025

#=======================================================
lattice_vector 28.1999999999999993 0.0000000000000000 0.0000000000000000 
lattice_vector 0.0000000000000000 39.4799999999999969 0.0000000000000000 
lattice_vector 0.0000000000000000 0.0000000000000000 62.3296083400000001 
atom 7.4531843799999997 14.8452837399999993 -0.2267560000000000 Au
atom 10.2460910599999995 14.8928166599999994 -0.3261541000000000 Au
atom 13.0870577600000004 14.8526434300000005 -0.2929040000000000 Au
atom 15.9579908400000008 14.8834567700000004 -0.2063609300000000 Au
atom 18.7088094900000002 14.8252394400000007 -0.1069870900000000 Au
atom 21.5255924500000013 14.9131217700000001 -0.1403968400000000 Au
atom 24.4087526500000003 14.7136125199999999 0.0658813900000000 Au
atom 27.2968949700000003 14.7775659099999999 0.0667790100000000 Au
atom 1.8346814400000000 14.8685395200000006 -0.2484302000000000 Au
atom 4.6104446100000001 14.8090802099999994 -0.0715775400000000 Au
atom 8.8522306099999994 17.4060350200000009 -0.2356872900000000 Au
atom 11.7544163800000003 17.3623396800000016 -0.4613162800000000 Au
atom 14.5457576100000008 17.3161500500000010 -0.2166787700000000 Au
atom 17.3548595500000005 17.3457551000000016 -0.0016605800000000 Au
atom 20.2495934400000017 17.3314912300000010 -0.1230656000000000 Au
atom 23.0436530899999994 17.2497435999999986 0.1430881800000000 Au
atom 25.8849653400000008 17.1748952999999993 -0.1283927800000000 Au
atom 0.4450143900000000 17.2864348600000000 0.1101358700000000 Au
atom 3.3126586300000000 17.3396561300000016 -0.1317245300000000 Au
atom 6.1505456900000004 17.3978005399999986 -0.0137149800000000 Au
atom 7.5365654900000001 19.7787392799999999 -0.2259094000000000 Au
atom 10.2799667600000006 19.9490006099999988 -0.2081983700000000 Au
atom 13.1586443000000006 19.7944682999999984 -0.3066540300000000 Au
atom 15.9967452199999993 19.7572560700000004 -0.3829440500000000 Au
atom 18.8120968300000015 19.8229386100000013 0.0184982300000000 Au
atom 21.5397377200000015 19.7625460299999993 0.1748067900000000 Au
atom 24.5009187500000003 19.7231141299999990 0.0028973700000000 Au
atom 27.3274292500000016 19.6718096100000004 0.0358689500000000 Au
atom 1.9454311600000000 19.7933624500000001 0.1515060900000000 Au
atom 4.7219194800000004 19.7918175000000005 -0.0594451500000000 Au
atom 8.9348969000000000 22.2397538300000015 0.0562065900000000 Au
atom 11.8732639199999994 22.2072228199999984 -0.0566328900000000 Au
atom 14.6416898100000008 22.2148540899999993 -0.1847719600000000 Au
atom 17.3990147700000009 22.1850265399999991 -0.2354633000000000 Au
atom 20.2231247200000013 22.2621132400000015 0.0369150500000000 Au
atom 23.0670104699999996 22.1163931699999985 0.3067525100000000 Au
atom 25.8511246899999989 22.1503751999999992 -0.0649831000000000 Au
atom 0.4078713700000000 22.1990154000000004 0.1976363200000000 Au
atom 3.3502705000000002 22.2181146699999985 0.3260004100000000 Au
atom 6.0916046399999999 22.2425737000000012 -0.1246526500000000 Au
atom 7.5589144499999996 24.7050744100000017 -0.0983459100000000 Au
atom 10.3486496300000006 24.6187425600000012 0.0169989300000000 Au
atom 13.1629780299999997 24.6734236899999999 -0.1904982300000000 Au
atom 15.9640511699999994 24.7131568799999997 -0.1035354200000000 Au
atom 18.7554971399999992 24.6336742599999994 -0.0838144600000000 Au
atom 21.5777629900000001 24.6107458299999990 0.1292480300000000 Au
atom 24.4580721300000015 24.6914861799999983 0.1893593900000000 Au
atom 27.2805692499999992 24.6896176400000016 0.1082265000000000 Au
atom 1.9131055500000000 24.6770855699999991 0.1195044200000000 Au
atom 4.7848786199999997 24.6285319499999993 0.1246388500000000 Au
atom 9.0103194500000008 27.1266844599999999 -0.1041160300000000 Au
atom 11.7894575699999997 27.1371255900000001 0.0900945000000000 Au
atom 14.5946868399999996 27.1999721000000001 -0.1151946900000000 Au
atom 17.4013472200000017 27.2422834499999986 0.1162405500000000 Au
atom 20.1246585099999997 27.0902303000000018 -0.0156870600000000 Au
atom 22.8175654899999998 27.0826615799999999 -0.0450249100000000 Au
atom 25.7763518800000000 27.1228350399999982 -0.0269514900000000 Au
atom 0.4288475600000000 27.1158428100000002 0.0756262700000000 Au
atom 3.2783383200000000 27.2233779200000008 0.1027357200000000 Au
atom 6.1208993800000000 27.0282273500000016 0.2766198500000000 Au
atom 7.4436110900000001 29.5248908300000004 -0.0856990500000000 Au
atom 10.3175617400000004 29.6256422899999983 0.0186957800000000 Au
atom 13.0495067900000006 29.7426057899999989 0.0737010600000000 Au
atom 15.8324561599999996 29.7373417800000013 -0.2355407900000000 Au
atom 18.7452517299999997 29.6310663299999995 -0.0436619500000000 Au
atom 21.5769839999999995 29.6701584499999989 -0.1692940800000000 Au
atom 24.3223283499999994 29.5391753100000010 0.0411636900000000 Au
atom 27.1816687799999990 29.6243549100000010 0.1189682600000000 Au
atom 1.8443531500000001 29.6554671899999995 0.0341650200000000 Au
atom 4.7030775299999998 29.5350927600000013 -0.3847129400000000 Au
atom 8.8536645299999996 31.9998569099999983 -0.0079700900000000 Au
atom 11.7134723899999997 32.1495258699999980 0.0495787400000000 Au
atom 14.5466256099999995 32.2779527100000010 -0.4738788800000000 Au
atom 17.2568534299999996 32.0961153699999997 -0.0312577500000000 Au
atom 20.1007180100000014 32.0510771300000030 -0.1015186100000000 Au
atom 23.0388603900000000 32.0387219699999974 -0.1091008600000000 Au
atom 25.7348647399999990 31.9975039300000006 0.1440449900000000 Au
atom 0.4093667100000000 32.0917397699999967 0.0924953400000000 Au
atom 3.2646339200000001 32.1181681400000016 -0.0909116000000000 Au
atom 6.0434242200000003 31.9438618100000014 0.0179437300000000 Au
atom 7.4339865999999999 34.5256783999999968 0.1312311600000000 Au
atom 10.2506737799999996 34.5102459000000010 -0.2332693600000000 Au
atom 13.0850563599999994 34.6429342100000000 -0.1921602500000000 Au
atom 15.9694437199999992 34.6071302699999990 -0.0046875800000000 Au
atom 18.6988474199999999 34.6227033300000002 -0.1451735400000000 Au
atom 21.6124717500000010 34.4839642999999967 0.0344790700000000 Au
atom 24.3940271700000011 34.4855097399999977 -0.0105411100000000 Au
atom 27.2391000599999984 34.4739383000000004 -0.3091900800000000 Au
atom 1.8343335700000001 34.4971437900000026 0.0398553100000000 Au
atom 4.6594917899999997 34.5847000300000005 -0.1116648900000000 Au
atom 8.8835431499999995 37.0906326799999988 -0.1452382300000000 Au
atom 11.7138089399999998 37.0289153599999992 -0.0090544400000000 Au
atom 14.5613924600000004 37.1691720299999986 -0.3199055400000000 Au
atom 17.3209121000000010 37.1518017599999979 0.1798859700000000 Au
atom 20.0759306600000009 37.0282060299999998 0.2681809000000000 Au
atom 22.8263862800000012 36.9640726800000010 0.0139425200000000 Au
atom 25.8250263000000011 36.9973472400000034 -0.3866374400000000 Au
atom 0.4100108300000000 37.0682456299999998 -0.2848261900000000 Au
atom 3.2630244099999999 37.0056173099999981 -0.0212694100000000 Au
atom 6.0171650500000000 37.0473843500000015 0.0763787700000000 Au
atom 7.4504687499999998 0.0684368700000000 0.4096444900000000 Au
atom 10.2856516399999993 0.0447792900000000 0.1076172300000000 Au
atom 13.0880876799999992 0.0989953800000000 -0.2301637500000000 Au
atom 15.9094542000000008 0.0575999500000000 0.4124137600000000 Au
atom 18.7235957299999995 0.0222135300000000 0.2760785000000000 Au
atom 21.5201812799999992 0.0316178400000000 0.0116584400000000 Au
atom 24.3094105599999999 -0.0458223400000000 0.0932540500000000 Au
atom 27.2603758800000016 0.0435968200000000 -0.3641770800000000 Au
atom 1.8901992800000000 0.0820642900000000 -0.0603978400000000 Au
atom 4.6992269799999997 0.1213624600000000 0.1958614300000000 Au
atom 8.9069279399999992 2.5039933400000001 0.2824253200000000 Au
atom 11.7340981499999994 2.6411346199999999 0.0567737200000000 Au
atom 14.4451759800000001 2.5888369999999998 0.3289383300000000 Au
atom 17.1548689500000009 2.5177799699999999 0.2197558200000000 Au
atom 20.1336137199999996 2.4897482599999998 0.2039928100000000 Au
atom 22.9118425200000004 2.3832862499999998 -0.0100007100000000 Au
atom 25.9022753299999984 2.3894661799999999 0.0826468500000000 Au
atom 0.5560583500000000 2.5026540499999999 -0.1520698700000000 Au
atom 3.3713879100000002 2.5656172100000001 -0.1730201900000000 Au
atom 6.0701435600000000 2.4967115600000001 0.0555406000000000 Au
atom 7.4677728600000002 5.0237315899999997 0.1326578300000000 Au
atom 10.2389773599999998 5.0421341300000000 0.3565606300000000 Au
atom 13.0446313400000005 5.0149221600000002 0.2323306100000000 Au
atom 15.8483045199999992 5.1507782300000002 0.4705488300000000 Au
atom 18.6654024700000001 4.9602687400000001 0.2174304600000000 Au
atom 21.4978901399999991 4.8675747400000002 0.2265887400000000 Au
atom 24.4239472599999985 4.8103213800000004 -0.0111845600000000 Au
atom 27.3236014999999988 4.8688581099999997 0.1767568500000000 Au
atom 1.8744762600000000 5.0569490200000002 0.1398135600000000 Au
atom 4.6600222200000001 4.9931430700000003 0.4258643000000000 Au
atom 8.8164503799999991 7.4435577400000001 0.2596223100000000 Au
atom 11.6432956099999991 7.5528079200000002 0.1232623600000000 Au
atom 14.3670949799999992 7.5813694199999997 -0.1822824900000000 Au
atom 17.2258193199999994 7.4819709100000003 -0.2754656200000000 Au
atom 20.1444292999999988 7.4075785099999996 -0.3920194900000000 Au
atom 22.9645192199999997 7.3931368500000003 -0.0083182600000000 Au
atom 25.7569229700000015 7.3167845900000001 -0.0263987300000000 Au
atom 0.2819580200000000 7.3683669099999998 0.1653877900000000 Au
atom 3.2217026000000000 7.4299129900000001 0.2184223400000000 Au
atom 6.0555495400000003 7.4192080599999999 0.4245487400000000 Au
atom 7.4795321799999996 9.8847887799999992 0.2086507400000000 Au
atom 10.2300915099999994 9.9600403300000000 -0.0370036700000000 Au
atom 13.0561620800000000 10.0797503299999995 -0.2328506200000000 Au
atom 15.9023557300000000 9.9629887900000007 -0.1353533700000000 Au
atom 18.7615433600000010 9.9219776999999993 -0.2900292200000000 Au
atom 21.5664442100000002 9.8737738000000004 -0.0249210000000000 Au
atom 24.3721719499999985 9.9326700500000005 0.1679490000000000 Au
atom 27.2634865700000013 9.9152435000000008 0.2881528000000000 Au
atom 1.7358470800000001 9.9144638900000004 0.0298691100000000 Au
atom 4.6220743600000000 9.9248271500000005 0.1591563300000000 Au
atom 8.8452730600000002 12.3473960100000006 -0.0416801400000000 Au
atom 11.6912939700000003 12.4706431299999991 -0.3702510900000000 Au
atom 14.5453025100000009 12.3780064000000003 -0.0904503100000000 Au
atom 17.4107649400000000 12.3536851300000006 -0.2572793500000000 Au
atom 20.1825004099999994 12.4155003700000002 -0.3621968400000000 Au
atom 22.9624471399999983 12.2511630500000006 0.1474253800000000 Au
atom 25.7358375200000005 12.3269202500000006 -0.0237379800000000 Au
atom 0.3625825500000000 12.3423722999999992 0.0338684500000000 Au
atom 3.1241099000000001 12.3911143399999997 -0.0703793700000000 Au
atom 6.0782556400000001 12.3832794899999996 -0.0780212800000000 Au
atom 7.4887638299999999 13.3096151700000007 2.4693243900000001 Au
atom 10.3312171599999996 13.3237680500000000 2.3960480000000000 Au
atom 13.1055076400000008 13.3427323900000001 2.4314440199999998 Au
atom 15.8851251100000006 13.2713591900000001 2.3936658400000002 Au
atom 18.7235099600000012 13.2462074800000007 2.3295931799999998 Au
atom 21.4429494299999988 13.1963336800000004 2.3867562499999999 Au
atom 24.3431759499999991 13.2227196800000009 2.9578786500000001 Au
atom 27.2462418600000014 13.1721967499999995 2.6923858500000000 Au
atom 1.9036493000000001 13.2095804700000006 2.5236453200000000 Au
atom 4.7076729400000001 13.2295186600000001 2.5173021900000001 Au
atom 8.8482625600000002 15.7672048599999997 2.2362422799999999 Au
atom 11.6772629400000003 15.7137771700000002 2.1516599300000001 Au
atom 14.5069561700000005 15.6422862200000008 2.4157823500000002 Au
atom 17.3510212000000017 15.7007990100000008 2.6418058100000001 Au
atom 20.1108671699999988 15.7335326700000007 2.5599440800000002 Au
atom 22.9135516700000004 15.6156597399999999 2.6268738900000002 Au
atom 25.8067384699999991 15.6052725900000002 2.7150162700000000 Au
atom 0.5261329400000000 15.5739125000000005 2.5077313399999999 Au
atom 3.2724140899999998 15.7102340799999993 2.4954760299999998 Au
atom 6.0380732100000003 15.7195310999999993 2.5238416699999999 Au
atom 7.5091675799999997 18.1179288800000009 2.4033249400000001 Au
atom 10.3237716800000001 18.0598504200000001 2.4364483600000000 Au
atom 13.1256001799999993 18.0687209200000005 2.3335952000000000 Au
atom 15.8979039899999997 18.1072244799999993 2.4907492200000001 Au
atom 18.6880289200000007 18.1560068100000009 2.6204564399999999 Au
atom 21.5570906499999992 18.0868453400000000 2.7339507200000002 Au
atom 24.3897856799999992 18.0911749999999998 2.7724232999999998 Au
atom 27.2460172599999986 17.9195939600000003 2.6220085499999999 Au
atom 1.8156857399999999 18.1416427700000007 2.8054350900000000 Au
atom 4.7120411000000004 18.1184797999999994 2.5659842199999998 Au
atom 8.9172961100000006 20.6510441399999998 2.6167100200000002 Au
atom 11.6442894100000007 20.5639681100000011 2.5090403999999999 Au
atom 14.4997150500000007 20.5793842299999987 2.2932637400000000 Au
atom 17.3543282199999993 20.6719541800000002 2.4266068600000001 Au
atom 20.1454464100000017 20.5782195899999998 2.6873704100000002 Au
atom 23.0208153700000011 20.5074429699999996 2.6947105200000001 Au
atom 25.8082207100000005 20.5410509899999987 2.6317537099999999 Au
atom 0.4532661800000000 20.5303311899999983 2.8338011900000000 Au
atom 3.2963407899999999 20.5638282399999994 2.8153698600000001 Au
atom 6.1547199199999998 20.5944549700000010 2.4407686599999998 Au
atom 7.5295089199999996 23.0220876399999987 2.5139551400000002 Au
atom 10.3804752400000009 23.1303442900000000 2.6679906199999999 Au
atom 13.1414437500000005 23.1277124699999987 2.5824839800000001 Au
atom 15.9317110100000008 23.0797653199999999 2.3546632000000001 Au
atom 18.7529041999999997 22.9879188100000000 2.6633717400000001 Au
atom 21.5595785199999987 23.0521162900000007 2.7701538000000001 Au
atom 24.4223235299999999 23.0129946399999987 2.7460938499999998 Au
atom 27.2418154399999999 23.0210617800000001 2.6799090300000001 Au
atom 1.8518025499999999 23.0536090800000011 2.7806335000000000 Au
atom 4.6934512300000000 23.0509514399999986 2.8831489700000001 Au
atom 8.9765421500000002 25.5590516699999988 2.3848672700000000 Au
atom 11.7772826399999992 25.5925088299999999 2.5466527999999999 Au
atom 14.6298186500000007 25.6253678399999991 2.3948456899999999 Au
atom 17.4096728799999987 25.5566911800000014 2.3794746400000002 Au
atom 20.2303503300000003 25.4757830699999985 2.6176934599999999 Au
atom 23.0522572399999994 25.5218641499999990 2.6355601300000000 Au
atom 25.8325448800000004 25.4769196099999995 2.9655484799999998 Au
atom 0.4672245300000000 25.5483679899999991 2.6498645199999999 Au
atom 3.3801080300000002 25.5133245299999984 2.7096273599999998 Au
atom 6.2767765300000002 25.5428391999999995 2.9540527900000000 Au
atom 7.5303400199999997 28.0361185699999993 2.5825303900000001 Au
atom 10.3760257800000009 28.0026246800000003 2.7224202800000001 Au
atom 13.1231366499999993 27.9617993700000014 2.9224630999999999 Au
atom 15.8639441399999992 28.1096132700000005 2.5582936900000002 Au
atom 18.6661369000000015 28.0558138700000015 2.6304354900000000 Au
atom 21.4966265400000012 28.0274081399999986 2.6118204100000000 Au
atom 24.3166776099999993 27.9970316500000003 2.5748471700000000 Au
atom 27.1709393699999993 28.0145841500000010 2.5870780500000001 Au
atom 1.7680590199999999 27.9914108199999987 2.6633735100000000 Au
atom 4.6659729499999996 28.0748683200000002 2.7011292000000000 Au
atom 8.9362897100000005 30.4410171500000004 2.6681726399999999 Au
atom 11.7008635800000000 30.4662487499999983 2.7437125600000001 Au
atom 14.5184388500000008 30.5570030000000017 2.5445704800000000 Au
atom 17.2864597000000018 30.5192891099999990 2.5711972300000001 Au
atom 20.0505616400000015 30.5576002100000004 2.5546313199999999 Au
atom 22.9047573900000003 30.4522527399999987 2.6368802699999998 Au
atom 25.7416167999999992 30.4302158799999987 2.7283742900000001 Au
atom 0.4379195300000000 30.4811483099999982 2.7045301099999999 Au
atom 3.3548942500000001 30.4897176799999983 2.3729964300000002 Au
atom 6.1478175300000002 30.4498967100000009 2.4661997400000000 Au
atom 7.5109219999999999 32.9001803499999994 2.5711840700000002 Au
atom 10.2309434199999991 33.0095557900000003 2.4876197400000000 Au
atom 13.1901201100000005 33.0299331000000009 2.3521888000000000 Au
atom 15.9584936899999992 32.9841499200000001 2.5925966800000002 Au
atom 18.7597087999999985 33.0083010199999975 2.3528112800000001 Au
atom 21.5442338699999993 32.9787376600000002 2.5520838200000000 Au
atom 24.3964155799999993 32.8863521500000004 2.5893228100000001 Au
atom 27.2134268299999995 33.0194773099999992 2.7528802899999998 Au
atom 1.8911029399999999 32.8799249699999976 2.5241620400000002 Au
atom 4.7247102600000002 32.9399917100000010 2.7010398800000002 Au
atom 8.9157952199999997 35.4992878400000009 2.3920232800000001 Au
atom 11.7925291699999999 35.4605218499999992 2.6214315600000000 Au
atom 14.5724790500000001 35.4648976900000008 2.4285545700000002 Au
atom 17.3663388699999999 35.4640475899999998 2.6080183300000002 Au
atom 20.2384356200000006 35.4328705599999978 2.6301080300000002 Au
atom 23.0244741300000015 35.4472466100000005 2.7121726000000002 Au
atom 25.8459600199999997 35.4011629700000015 2.3708754399999998 Au
atom 0.4459937500000000 35.4398427799999993 2.3951046900000001 Au
atom 3.3018726900000002 35.3133282300000033 2.5227039300000000 Au
atom 6.0919603400000000 35.4187757999999988 2.6968120999999998 Au
atom 7.4080561400000002 37.9349331800000016 2.8227629500000000 Au
atom 10.3327718100000006 37.9816043100000016 2.6234337999999999 Au
atom 13.1878531300000006 37.9851979299999982 2.1952739700000001 Au
atom 15.9322502499999992 37.9101912300000023 2.7987131700000001 Au
atom 18.8291654999999984 37.8697056900000035 2.8389156500000001 Au
atom 21.6198038399999994 37.8485330999999974 2.8432484100000002 Au
atom 24.4222021200000015 37.8240349100000017 2.3871267399999998 Au
atom 27.2332400499999991 37.7777129600000023 2.4133366500000002 Au
atom 1.9262286900000001 37.7763272600000022 2.3763086300000000 Au
atom 4.6162403400000001 37.8766615400000006 2.7477673600000001 Au
atom 8.8522881099999999 1.0040302299999999 2.9824455400000001 Au
atom 11.6571794700000009 0.9508251599999999 2.6893711599999999 Au
atom 14.4714651599999993 0.9106579000000000 2.7769070500000002 Au
atom 17.4227021200000003 0.9025638400000000 2.8761653300000001 Au
atom 20.1788711800000016 0.7932198600000000 2.9206529500000000 Au
atom 22.9790570800000005 0.8246495200000000 2.6996413399999999 Au
atom 25.8622107099999994 0.8025940700000000 2.6013930200000002 Au
atom 0.3720993300000000 0.7345093800000000 2.3123301900000000 Au
atom 3.2418851000000002 0.8345371900000000 2.5955002500000002 Au
atom 6.0769056199999998 0.8739330800000000 2.8122204599999998 Au
atom 7.4033595400000003 3.4923814900000001 2.6033931300000002 Au
atom 10.2018171700000000 3.4676692400000002 2.9077035800000002 Au
atom 12.9653146199999991 3.4948163700000001 2.8679856799999999 Au
atom 15.8904075900000006 3.4059812500000000 2.8714599100000000 Au
atom 18.7658853000000008 3.3919451999999999 2.7550940300000000 Au
atom 21.5494354900000005 3.2448773900000001 2.7839031799999998 Au
atom 24.3841502199999987 3.2352679100000001 2.4994147799999999 Au
atom 27.2711875200000016 3.2480636199999999 2.6509394899999998 Au
atom 1.8821889599999999 3.2985258499999999 2.5072334600000001 Au
atom 4.6111495800000002 3.2230758100000001 2.7600707600000001 Au
atom 8.7735559500000004 5.9148923599999996 2.9390050599999999 Au
atom 11.6054549500000004 6.0722733399999997 2.7480168300000001 Au
atom 14.3451363099999991 6.0777313499999996 2.7725441900000001 Au
atom 17.3471216300000002 5.8571059500000002 2.8860886899999998 Au
atom 20.1054232400000004 5.8668135799999996 2.5853533999999998 Au
atom 23.0481915800000010 5.7442278699999996 2.7227687299999999 Au
atom 25.8047009500000009 5.7285269599999999 2.6516572599999999 Au
atom 0.4928858700000000 5.7934682300000002 2.8486220800000002 Au
atom 3.2104983200000001 5.8190614099999998 2.9161506199999998 Au
atom 5.9985503099999997 5.8269771300000004 3.0251063899999999 Au
atom 7.5369166800000000 8.4629365399999994 3.0201528500000001 Au
atom 10.2339945199999995 8.3712108900000004 2.6407901599999999 Au
atom 13.1379205900000002 8.4668191299999993 2.5301592700000000 Au
atom 15.9878613800000000 8.3551990299999996 2.3709555199999999 Au
atom 18.7472486099999998 8.3194210399999999 2.1453734799999999 Au
atom 21.4479675000000007 8.2998317000000004 2.3396724099999999 Au
atom 24.3044778299999997 8.3400742300000008 2.6956476299999999 Au
atom 27.1256576400000000 8.2421642399999993 2.7455595399999999 Au
atom 1.7811482199999999 8.2946696800000002 2.8090857599999999 Au
atom 4.7133159999999998 8.3108359099999998 2.7359090500000001 Au
atom 8.8869504500000005 10.8869276199999998 2.7273295499999999 Au
atom 11.7260695500000001 10.8886037800000004 2.3584313300000002 Au
atom 14.5171015400000005 10.8561835000000002 2.5520552500000000 Au
atom 17.2900894799999989 10.8446178199999999 2.4602341900000000 Au
atom 20.0581304799999991 10.7534935500000000 2.4840008999999998 Au
atom 22.8339442400000010 10.6902913099999992 2.8182013299999999 Au
atom 25.7857457399999994 10.7463999300000008 2.7964447200000002 Au
atom 0.5064943500000000 10.7562424799999992 2.8035878799999998 Au
atom 3.3451421799999999 10.7191289699999999 2.6525494699999999 Au
atom 6.1706764700000001 10.8173212000000003 2.7840324600000002 Au
atom 7.6361724799999999 13.0259168600000006 5.8142415400000003 Cl
atom 7.8460193399999998 15.7339639699999996 8.4909922099999999 Cl
atom 7.8345541100000000 12.9592223600000001 8.4314899899999993 Na
atom 7.7295828400000000 15.7162128100000000 5.6354785700000001 Na
atom 7.7417369799999998 18.5345303699999988 5.7127391200000002 Cl
atom 7.8435379000000003 21.3988342799999991 8.5468960900000006 Cl
atom 7.7758647600000002 18.6353200100000009 8.4085173500000003 Na
atom 7.6436979500000000 21.2904044900000002 5.8824083600000003 Na
atom 7.8160016900000002 24.1300238600000014 5.6851322199999998 Cl
atom 7.6908037199999999 27.1776727899999990 8.4992771600000001 Cl
atom 7.7605487200000001 24.3457435199999992 8.3244289899999995 Na
atom 7.6536439900000000 27.0665298700000001 5.6946315700000003 Na
atom 7.5546429899999996 29.8409747600000017 5.8607860599999997 Cl
atom 7.6914712099999996 32.6155741700000021 8.6200676800000000 Cl
atom 7.7882414000000004 29.8238949399999989 8.3864739400000001 Na
atom 7.7072651399999996 32.6396600500000034 5.8136893900000004 Na
atom 7.8375941400000002 35.3751529000000033 5.8313032900000001 Cl
atom 7.8541363000000004 38.4957392800000022 8.7858371799999997 Cl
atom 7.7840548299999996 35.5149197799999996 8.5192704599999995 Na
atom 7.8263061599999997 38.3955207999999999 5.8533456399999997 Na
atom 7.8268662400000002 1.7218290700000001 5.8050438399999997 Cl
atom 7.7981845999999999 4.6406576599999996 8.4997152099999997 Cl
atom 7.7603876700000001 1.6655622900000000 8.3448676099999997 Na
atom 7.8327346200000001 4.5621349000000002 5.7924131000000001 Na
atom 7.6602732700000002 7.5735896199999999 5.7404404700000002 Cl
atom 7.9271402599999998 10.2256136800000004 8.6343361999999999 Cl
atom 7.7497250199999996 7.3610661400000001 8.4853526000000006 Na
atom 7.7633372300000003 10.1956371800000003 5.9172040399999997 Na
atom 10.5797659300000007 12.8278300999999999 5.7435918299999997 Na
atom 13.2930133799999997 12.9572647100000005 5.4912477800000001 Cl
atom 10.6157864300000000 15.7960040999999993 8.2355172600000000 Na
atom 13.4694441699999992 15.8398906499999992 8.3271378100000000 Cl
atom 13.5346482600000009 12.9492042900000008 8.1832545999999997 Na
atom 10.5999102300000008 12.9128339699999994 8.4737902199999997 Cl
atom 13.3428713699999992 15.7041868900000008 5.5746222699999999 Na
atom 10.6003287900000007 15.9237314600000008 5.5153633900000001 Cl
atom 10.6520632400000004 18.6943936099999988 5.6529204200000001 Na
atom 13.3785929299999999 18.6749617800000003 5.5783751300000004 Cl
atom 10.6887057900000002 21.3479679000000004 8.3432917599999996 Na
atom 13.5256258999999996 21.4974168600000013 8.4551681999999992 Cl
atom 13.3952834700000007 18.6354989400000015 8.3124094500000005 Na
atom 10.7455245000000001 18.6299803699999984 8.4327219699999993 Cl
atom 13.5670868099999993 21.3123061100000015 5.8541747099999997 Na
atom 10.5808984299999995 21.3544367699999995 5.7435254200000001 Cl
atom 10.4940498899999994 24.1977484400000016 5.7542118300000000 Na
atom 13.4504549000000004 24.4285388899999987 5.8063957000000004 Cl
atom 10.6438677100000003 27.1125092400000014 8.2564332399999998 Na
atom 13.4856224800000000 27.1639054800000004 8.6557597200000007 Cl
atom 13.3148302699999999 24.4384395000000012 8.5832765900000005 Na
atom 10.5439360600000001 24.3630578900000003 8.5466280099999992 Cl
atom 13.4584479500000000 27.1774044699999990 5.9217896400000001 Na
atom 10.4528722799999993 27.2348917899999989 5.7491726999999999 Cl
atom 10.4201804700000000 29.8317674000000004 5.9019259999999996 Na
atom 13.3921084399999994 30.0140064700000018 5.9431557200000000 Cl
atom 10.5215055500000005 32.6711310499999996 8.4011112099999998 Na
atom 13.3749406900000007 32.5675132900000008 8.5427731999999992 Cl
atom 13.3733278299999991 29.9268548299999999 8.4655469399999994 Na
atom 10.5877305899999996 29.7335653300000011 8.7319677799999997 Cl
atom 13.4386156999999997 32.7840155399999986 5.8063943499999997 Na
atom 10.5985782299999993 32.6346546300000000 5.7409812799999997 Cl
atom 10.5707161900000006 35.4906148800000025 6.0302393900000002 Na
atom 13.4126919400000002 35.6244728100000003 5.7560163299999996 Cl
atom 10.5831568699999998 38.3405936400000016 8.5091367699999996 Na
atom 13.2937306300000007 38.2092986600000017 8.7848114299999995 Cl
atom 13.2472254500000002 35.4710787300000021 8.5741814099999996 Na
atom 10.5544564199999993 35.4575670600000024 8.7552435299999996 Cl
atom 13.4415779799999999 38.4293774599999978 6.1417149400000000 Na
atom 10.5088167200000004 38.3270618900000031 5.9888123799999997 Cl
atom 10.4591980299999996 1.8481078000000000 6.1198116599999999 Na
atom 13.3490298700000007 1.7703341500000001 5.9656208599999996 Cl
atom 10.5441180499999998 4.3262904300000002 8.7088533800000008 Na
atom 13.4743920500000005 4.4878710000000002 9.0362720900000006 Cl
atom 13.3983643699999995 1.6137575700000000 8.6643892499999993 Na
atom 10.4945967699999994 1.7172797099999999 8.8282056600000001 Cl
atom 13.4170285699999994 4.5282836900000003 6.1662170300000003 Na
atom 10.7591932000000003 4.5869002400000003 5.8369708700000000 Cl
atom 10.6726881400000000 7.3996402999999997 5.9802456900000003 Na
atom 13.4517511699999996 7.2954510399999997 5.9647825000000001 Cl
atom 10.7405131699999998 10.1005239600000003 8.3505803699999994 Na
atom 13.5737180300000002 10.2329572399999993 8.6933758300000008 Cl
atom 13.5909240600000008 7.3524754300000001 8.3888942899999996 Na
atom 10.7147453200000005 7.3373062500000001 8.6851865000000004 Cl
atom 13.4151654300000001 10.0458728199999996 5.8043357300000000 Na
atom 10.6035928599999991 10.1499617099999995 5.7580437800000004 Cl
atom 16.2821334200000010 12.8707542499999992 5.6675863800000004 Na
atom 19.2455190199999997 12.7378465199999997 5.6968723600000004 Cl
atom 16.2448627200000004 15.7743793799999992 8.1413514899999999 Na
atom 19.1866556400000015 15.6913156600000008 8.4335438400000005 Cl
atom 19.1013925200000010 12.9699711000000004 8.3463849200000002 Na
atom 16.2988153400000009 13.0929643799999997 8.3400023999999995 Cl
atom 19.0444752900000012 15.7737018899999999 5.7167940000000002 Na
atom 16.1544949799999991 15.7038190499999999 5.4122099600000002 Cl
atom 16.3146154199999991 18.4507158599999990 5.6525500199999996 Na
atom 18.9553007700000009 18.6365734500000002 5.5511080499999998 Cl
atom 16.3875424500000015 21.5164766999999983 8.3303098299999991 Na
atom 19.1295680399999988 21.4960925799999991 8.5378427899999991 Cl
atom 19.0796735400000017 18.6222833299999984 8.1918399700000002 Na
atom 16.2780525599999990 18.2934414799999985 8.5645379399999992 Cl
atom 19.1887739400000008 21.5992320000000007 5.8235602599999998 Na
atom 16.3491334500000001 21.4171495599999986 5.7718068799999998 Cl
atom 16.1976426300000007 24.2231337499999988 5.8100310200000003 Na
atom 19.0128796599999994 24.3883032899999996 5.8214675600000003 Cl
atom 16.3999014599999988 27.1664583800000017 8.5284833100000004 Na
atom 19.2214471799999984 27.0771192200000002 8.6036097500000004 Cl
atom 19.1195123799999998 24.1394392400000015 8.4804655300000000 Na
atom 16.4126378099999997 24.3679172800000003 8.5748357500000001 Cl
atom 19.0719989599999984 27.0888898100000013 5.8495262300000004 Na
atom 16.3468484700000012 26.9436700999999985 5.7108082500000004 Cl
atom 16.1112528499999996 29.8217060700000012 6.0200906900000000 Na
atom 18.9036166700000017 29.8972144499999999 5.6770745500000004 Cl
atom 16.3301591399999992 32.6367461600000013 8.4530318199999996 Na
atom 19.2134992999999987 32.7984655899999993 8.6255972300000003 Cl
atom 19.2983163399999995 29.9074268799999992 8.4137777899999993 Na
atom 16.2815779099999993 29.8410680399999997 8.6321294700000006 Cl
atom 18.9917070999999993 32.7669608799999992 5.9520888699999999 Na
atom 16.2618286400000009 32.9188564900000031 5.9658325300000001 Cl
atom 16.2761984899999987 35.5848703500000028 6.0168517699999997 Na
atom 19.0335242999999998 35.6865018199999966 6.0315392200000000 Cl
atom 16.1371276399999992 38.2640498399999984 8.4817309200000004 Na
atom 18.9316239599999996 38.5224449700000022 8.7207449500000003 Cl
atom 19.0352437799999983 35.6131966900000023 8.6708174400000004 Na
atom 16.0413472900000009 35.4426438599999969 8.6967246100000004 Cl
atom 19.0072927999999983 38.3774516200000022 5.9963321599999997 Na