#===============================================================================
# Created using the Atomic Simulation Environment (ASE)

# Tue Dec 23 21:42:05 2025

#=======================================================
lattice_vector 28.1999999999999993 0.0000000000000000 0.0000000000000000 
lattice_vector 0.0000000000000000 39.4799999999999969 0.0000000000000000 
lattice_vector 0.0000000000000000 0.0000000000000000 62.3296083400000001 
atom 7.4667256499999999 14.7853449500000007 -0.4260754500000000 Au
atom 10.3130336099999997 14.7871994299999994 -0.4316584900000000 Au
atom 13.1336648799999995 14.7899352499999992 -0.2977189900000000 Au
atom 15.9310220000000005 14.8388944400000007 -0.1028346000000000 Au
atom 18.7966419999999985 14.8886509500000006 -0.1332485300000000 Au
atom 21.5606721800000010 14.8792636100000006 -0.2559416800000000 Au
atom 24.4882536900000005 14.5913091399999999 -0.2232313500000000 Au
atom 27.3002346600000010 14.7002776799999992 -0.0266446800000000 Au
atom 1.8584157299999999 14.6990152399999996 -0.0156397100000000 Au
atom 4.6075914300000003 14.7773874099999993 -0.2062369700000000 Au
atom 8.8314010700000001 17.3077337799999995 -0.5825757700000000 Au
atom 11.5403424599999997 17.1927365200000004 -0.0566807500000000 Au
atom 14.3732158699999992 17.2777865700000000 0.0786596800000000 Au
atom 17.3547206900000006 17.2091522800000014 0.0857299900000000 Au
atom 20.2020437999999984 17.3135075699999987 -0.1206025400000000 Au
atom 23.1393753500000017 17.1868264199999992 -0.1056712400000000 Au
atom 25.9237758000000014 17.1888032499999994 -0.0785508500000000 Au
atom 0.5815026200000000 17.1661152399999999 0.0178121200000000 Au
atom 3.3995589000000002 17.2018679299999988 0.1275911300000000 Au
atom 6.0913969500000000 17.2958093099999992 -0.3117271800000000 Au
atom 7.5120208699999997 19.6651770200000016 -0.3745012100000000 Au
atom 10.3027603100000000 19.7683226800000007 -0.3663927100000000 Au
atom 13.0523464499999999 19.6572046900000004 -0.2455714300000000 Au
atom 15.9630067499999999 19.6965946400000007 -0.1437174300000000 Au
atom 18.7614021400000013 19.7608474399999992 -0.0549940700000000 Au
atom 21.6180695299999996 19.6800612000000008 -0.0093630800000000 Au
atom 24.4714880400000006 19.6179112999999994 0.2583081300000000 Au
atom 27.2215689300000001 19.6162375900000008 -0.0837160800000000 Au
atom 1.8338693100000001 19.7343208899999993 0.0987719500000000 Au
atom 4.6239535700000003 19.6602607800000015 0.0523994700000000 Au
atom 8.9187352999999998 22.2124453799999984 -0.3412708600000000 Au
atom 11.6512674599999997 22.3346935400000000 0.0421526400000000 Au
atom 14.4253592400000006 22.2580780400000009 -0.1106477100000000 Au
atom 17.3102536799999989 22.2485198299999993 -0.0428795200000000 Au
atom 20.0993243100000001 22.1429262700000002 0.0216624200000000 Au
atom 22.9732944400000001 22.1895306900000016 0.2096650700000000 Au
atom 25.7291745300000017 22.1377083799999994 0.4400391800000000 Au
atom 0.3824529100000000 22.2801354499999995 0.0528232400000000 Au
atom 3.1711290999999999 22.1470834600000011 0.0090445900000000 Au
atom 6.0642258199999999 22.0267031700000011 -0.2914195700000000 Au
atom 7.3525025199999998 24.6352776700000007 -0.3933545900000000 Au
atom 10.2680064200000007 24.7104941499999988 -0.0413924100000000 Au
atom 13.0754017800000000 24.7960423799999994 0.0337148800000000 Au
atom 15.8693704499999999 24.7146033199999984 0.0892007300000000 Au
atom 18.7170106899999986 24.6434292699999986 0.1959510300000000 Au
atom 21.4926718900000004 24.6089517800000017 0.1399251600000000 Au
atom 24.2541492100000013 24.7184078300000003 0.2673342400000000 Au
atom 27.1494211800000009 24.5592697099999988 0.2212285600000000 Au
atom 1.9092773199999999 24.6966299300000003 0.1549867000000000 Au
atom 4.6482518600000002 24.6492286699999994 -0.2447740700000000 Au
atom 8.7742408899999997 27.1821422800000008 -0.3687341500000000 Au
atom 11.6384716899999994 27.1247946999999989 0.0195282000000000 Au
atom 14.4478099400000009 27.2121715900000005 -0.0857160700000000 Au
atom 17.2462425300000000 27.1561137799999983 0.2652039800000000 Au
atom 20.1339250599999993 27.1150111699999989 0.2771861400000000 Au
atom 22.9132339000000016 27.1811556400000001 0.2638770500000000 Au
atom 25.7339390899999998 27.0621343900000006 0.1534836100000000 Au
atom 0.3214882500000000 27.0382812399999999 0.0273787200000000 Au
atom 3.2253340100000001 27.1621799300000006 0.0021014500000000 Au
atom 6.0061261000000004 27.1615195900000010 -0.2112453600000000 Au
atom 7.3524551899999997 29.6900454899999993 -0.3876907200000000 Au
atom 10.3372077299999994 29.6032628200000012 -0.3574657900000000 Au
atom 13.1287729899999999 29.6445529599999986 -0.2988804000000000 Au
atom 15.9077470400000003 29.7432878199999990 -0.1259639300000000 Au
atom 18.7612876600000007 29.6015685600000005 0.0754255100000000 Au
atom 21.5029354099999992 29.5512804200000012 0.1483119700000000 Au
atom 24.3613039399999991 29.6029783199999983 0.0533590600000000 Au
atom 27.1616381099999984 29.5955649600000008 -0.0728035000000000 Au
atom 1.7253365599999999 29.5487161600000015 -0.1037748700000000 Au
atom 4.6450161699999999 29.5659001299999993 -0.1875153500000000 Au
atom 8.8802482499999993 32.0709083599999971 -0.0487786000000000 Au
atom 11.6423254400000005 32.1575939800000015 -0.2062615900000000 Au
atom 14.4259072899999996 32.2193233799999987 -0.1426695300000000 Au
atom 17.3200415200000002 32.2502706799999999 -0.0464734100000000 Au
atom 20.0588723500000015 32.1144945799999988 -0.0049700400000000 Au
atom 22.8349736400000012 32.0879226799999984 -0.0079893000000000 Au
atom 25.8241052199999999 32.1531063400000008 0.1347594200000000 Au
atom 0.3346757700000000 32.0273741999999970 0.1242622800000000 Au
atom 3.1846469900000001 32.0339389000000025 -0.1965225900000000 Au
atom 5.9927964200000003 32.1421335699999986 -0.1462409500000000 Au
atom 7.4477878100000003 34.6049725900000027 -0.1506250200000000 Au
atom 10.2805735800000004 34.5998012200000034 -0.2920112000000000 Au
atom 13.0424344500000000 34.6817606199999986 -0.1332198000000000 Au
atom 15.9015662599999992 34.6606404300000008 -0.0349109900000000 Au
atom 18.6485256700000015 34.6029037099999996 0.2156210100000000 Au
atom 21.5459104900000007 34.5358565599999991 0.1365502000000000 Au
atom 24.3526007200000016 34.5134662600000013 0.3015286700000000 Au
atom 27.2484246900000002 34.4790271399999995 0.4406005500000000 Au
atom 1.8275886800000001 34.4561028299999990 -0.0427226800000000 Au
atom 4.6104928699999999 34.5123268700000025 -0.0655471400000000 Au
atom 8.7860246100000001 37.0225201200000029 -0.0908007100000000 Au
atom 11.6637935899999992 37.0848268599999997 -0.1679559000000000 Au
atom 14.5450086600000006 37.1535610000000034 -0.0606101100000000 Au
atom 17.3140113500000012 37.1243110500000029 0.2609525600000000 Au
atom 20.2059915299999986 37.0172076200000006 0.1865735200000000 Au
atom 22.9328044400000017 37.0270913499999992 0.5435682800000000 Au
atom 25.7155027899999986 36.9278982499999984 0.3115364200000000 Au
atom 0.2982107200000000 36.9786510599999971 -0.0690381100000000 Au
atom 3.0363927799999999 37.0136204599999985 0.1032707800000000 Au
atom 5.9509339499999996 36.9618123300000008 0.1053924800000000 Au
atom 7.4429145700000001 -0.0387648000000000 0.1957109000000000 Au
atom 10.2740339200000008 -0.0403823100000000 0.0464945100000000 Au
atom 13.0452805299999994 0.0388758800000000 0.0930915300000000 Au
atom 15.8900023200000007 0.1202993300000000 -0.0510776400000000 Au
atom 18.7006575899999987 0.0605256100000000 0.0120618600000000 Au
atom 21.4722924299999995 -0.0436663400000000 0.4726972200000000 Au
atom 24.3448487500000006 -0.0389546000000000 0.3461930800000000 Au
atom 27.0585818200000006 -0.0176673300000000 0.3331129700000000 Au
atom 1.7227229200000000 0.0468551600000000 0.0884185100000000 Au
atom 4.5561921800000000 0.0226659900000000 0.2491630500000000 Au
atom 8.8305089700000003 2.4081550799999998 -0.0271489900000000 Au
atom 11.6831981400000000 2.4768381800000001 -0.0400277900000000 Au
atom 14.4460460099999999 2.4641027800000002 0.1462137600000000 Au
atom 17.3761804799999986 2.5513089500000001 -0.1656893800000000 Au
atom 20.1829005600000002 2.4095897599999998 0.3024151500000000 Au
atom 23.0732926099999993 2.4340522600000001 0.4471100600000000 Au
atom 25.9247707799999993 2.4683208099999998 0.6747431400000000 Au
atom 0.4768396000000000 2.5367620500000001 0.1448965800000000 Au
atom 3.2258636699999998 2.4762996600000000 0.5391358400000000 Au
atom 6.0428355700000003 2.3739519599999999 0.4010669400000000 Au
atom 7.3908393600000002 4.8802686000000000 0.4594098700000000 Au
atom 10.2049717300000005 4.8526879300000001 -0.0022972600000000 Au
atom 13.0987238200000000 4.9654243700000000 -0.1006295100000000 Au
atom 15.9697612000000007 5.0222999000000002 -0.2031717600000000 Au
atom 18.7669060300000012 5.0232121999999997 -0.0070507900000000 Au
atom 21.6269494599999987 4.8898691400000001 0.4772633200000000 Au
atom 24.4479189099999985 4.8797614700000000 0.4544197100000000 Au
atom 27.3034877400000013 4.8837641800000000 0.7793872900000000 Au
atom 1.9046862300000000 5.0289735400000000 0.4292736700000000 Au
atom 4.6712827900000002 4.8467336599999999 0.6122434600000000 Au
atom 8.8097594400000006 7.3420780900000002 0.1782305900000000 Au
atom 11.5739494500000006 7.3929034700000003 -0.0818746000000000 Au
atom 14.4397009099999991 7.3461029199999999 -0.3264064500000000 Au
atom 17.3310473599999995 7.4717121500000001 -0.1310826800000000 Au
atom 20.2048904100000009 7.3890582399999998 -0.3020062600000000 Au
atom 23.1093195899999984 7.2819279999999997 -0.2107509100000000 Au
atom 25.9013272900000011 7.2285655100000001 0.2889089600000000 Au
atom 0.5277195500000000 7.3805139999999998 0.5528845800000000 Au
atom 3.3106441900000001 7.3429639599999996 0.3496083800000000 Au
atom 6.0916451499999997 7.4171013200000004 0.1700736200000000 Au
atom 7.4025461200000002 9.8075913299999993 -0.1842850200000000 Au
atom 10.1775959900000004 9.7995435000000004 -0.1233471700000000 Au
atom 13.0131719300000004 9.7521356699999995 -0.0838175900000000 Au
atom 15.7425623800000007 9.9392107299999992 -0.3491206100000000 Au
atom 18.7405785800000011 9.8643154600000003 -0.2982929000000000 Au
atom 21.6759959000000002 9.7712864199999991 -0.3556618100000000 Au
atom 24.4151881099999990 9.7537840800000009 0.0804886000000000 Au
atom 27.2741508599999989 9.8984161000000004 0.1371027200000000 Au
atom 1.8760519099999999 9.8118361099999998 0.2722821400000000 Au
atom 4.6434721899999998 9.8513899800000004 -0.0162175500000000 Au
atom 8.8800158899999992 12.2314341800000008 -0.4356540200000000 Au
atom 11.7566499199999992 12.3261218699999997 -0.4017843500000000 Au
atom 14.5377265199999997 12.3254648099999997 0.0819781900000000 Au
atom 17.3419556899999989 12.3885663600000004 -0.2367986600000000 Au
atom 20.1551371699999997 12.3673632900000001 -0.0985276200000000 Au
atom 22.8930773700000003 12.2328187400000008 -0.2670169200000000 Au
atom 25.8364833900000015 12.1713701699999994 -0.1581235000000000 Au
atom 0.4519870900000000 12.2546311699999997 0.1246543600000000 Au
atom 3.2403289200000001 12.2904415999999994 -0.1446236500000000 Au
atom 6.0432757600000002 12.3210451800000005 -0.2917009500000000 Au
atom 7.4844353799999999 13.2639558399999995 2.0959849600000000 Au
atom 10.1927960800000008 13.2309457800000008 2.2843434999999999 Au
atom 13.1024402500000008 13.0618442600000009 2.3737442999999998 Au
atom 15.9411128299999998 13.1092205600000007 2.6156887100000001 Au
atom 18.8214605900000009 13.1810935600000008 2.4405720299999998 Au
atom 21.6088322400000017 13.1856361799999995 2.3732946300000002 Au
atom 24.2902378399999996 13.1129430399999993 2.5661181800000001 Au
atom 27.1805713599999983 13.2139415800000002 2.5987312700000000 Au
atom 1.9097773499999999 13.1875536600000007 2.5903660700000000 Au
atom 4.7154866999999996 13.1995461600000006 2.3975396199999999 Au
atom 8.8765324299999993 15.7005913600000007 2.0037834399999999 Au
atom 11.6825692900000000 15.4920290000000005 2.4910106800000000 Au
atom 14.4441806600000007 15.5718418300000003 2.4312545900000000 Au
atom 17.3110951700000015 15.5238158700000000 2.6995313599999999 Au
atom 20.2232927400000015 15.5556369100000005 2.5165004799999999 Au
atom 23.0213042700000017 15.5069876200000003 2.3908882899999999 Au
atom 25.8600900299999985 15.4960681400000002 2.4353428099999999 Au
atom 0.5347082300000000 15.6663120300000003 2.6636342499999999 Au
atom 3.3034020700000002 15.6300349599999997 2.5978315300000001 Au
atom 6.0581969500000001 15.6597553600000001 2.2777913200000000 Au
atom 7.4364277100000002 18.1084587900000002 2.2371572999999998 Au
atom 10.2683490899999992 18.0999629199999994 2.2714618600000001 Au
atom 13.0439476299999999 18.1000530099999999 2.5777593900000002 Au
atom 15.8848298400000001 18.0042156899999988 2.5477934300000000 Au
atom 18.8116531699999996 17.9325282000000001 2.4703286400000000 Au
atom 21.6436386200000008 18.1318404400000013 2.5298392600000001 Au
atom 24.3727928700000014 17.9459386599999995 2.7667676299999999 Au
atom 27.2710964900000015 18.1008037799999997 2.4310362500000000 Au
atom 1.8250952600000001 18.2264594899999999 2.7386087799999999 Au
atom 4.7106333700000000 18.2549949600000012 2.6085767099999999 Au
atom 8.8973461000000000 20.5776121100000005 2.2319586000000000 Au
atom 11.7648278299999998 20.5702915900000001 2.3880513500000000 Au
atom 14.4716789499999994 20.5518702799999993 2.3484923300000000 Au
atom 17.2901021300000011 20.4913248000000010 2.5244494899999999 Au
atom 20.1375266199999992 20.3966417900000003 2.6113814000000000 Au
atom 22.9577643699999996 20.5630630799999992 2.7366348100000000 Au
atom 25.8205231200000007 20.4786164399999997 2.9124822099999998 Au
atom 0.4164036100000000 20.6915162200000005 2.7227687999999999 Au
atom 3.2918655200000000 20.6574719500000015 2.6914539199999998 Au
atom 6.1289153199999999 20.5730628899999992 2.3249342999999998 Au
atom 7.4824883199999999 23.1012679900000002 2.3236096900000001 Au
atom 10.2318437200000005 22.9620074599999988 2.5077249699999999 Au
atom 13.1265196900000003 23.1576463900000000 2.7717927800000002 Au
atom 15.9150241399999999 23.0055467399999998 2.5369552899999999 Au
atom 18.7855752199999984 22.8528038699999989 2.6609280399999999 Au
atom 21.5983416599999991 23.0457935499999991 2.8686307499999999 Au
atom 24.4425725999999983 22.9551351799999992 2.8843542100000001 Au
atom 27.2183727699999984 23.0604933900000013 2.8320423699999999 Au
atom 1.8544888100000001 23.1271635800000013 2.6828578599999999 Au
atom 4.6771447000000004 23.0967066500000016 2.3403316200000002 Au
atom 8.8588912400000002 25.5784381100000004 2.2697061700000001 Au
atom 11.6601257700000005 25.5557043600000000 2.6255839800000000 Au
atom 14.5538474999999998 25.6919057299999984 2.5685131200000000 Au
atom 17.2457449800000013 25.5485564899999993 2.8856788400000002 Au
atom 20.0860539699999983 25.4515535100000001 2.7989825900000000 Au
atom 22.8803244799999987 25.5231061900000000 2.7442707500000001 Au
atom 25.7813160799999999 25.5723363600000013 2.8538543800000000 Au
atom 0.4838854700000000 25.6081764800000009 2.6915589099999999 Au
atom 3.3200521200000002 25.5686272599999995 2.7484401799999998 Au
atom 6.0260676399999999 25.4554666699999999 2.5561636200000000 Au
atom 7.4482725600000004 28.0159145900000013 2.3644322400000002 Au
atom 10.2959474199999992 28.1326151300000014 2.5294234100000001 Au
atom 13.0413194299999997 28.1583627499999984 2.5101329500000000 Au
atom 15.8615043500000006 28.1416564399999984 2.6031358700000000 Au
atom 18.7268875299999991 27.9996350300000003 2.7433294099999999 Au
atom 21.4552730099999991 28.1064062200000002 2.8236634800000000 Au
atom 24.3114555000000010 28.0617743200000014 2.7247707499999998 Au
atom 27.1529896800000010 28.0658108199999994 2.7497373899999999 Au
atom 1.8463661099999999 28.0104136100000005 2.5459127800000001 Au
atom 4.6418242799999998 27.9972619899999984 2.5911260100000000 Au
atom 8.8023061200000008 30.4174481700000001 2.3503147499999999 Au
atom 11.6545249099999992 30.5273884100000004 2.3204194299999998 Au
atom 14.4804979399999993 30.5857222700000015 2.4660763999999999 Au
atom 17.2634744600000012 30.5372476100000014 2.5124446599999999 Au
atom 20.0251853000000004 30.5829751899999991 2.6518300500000000 Au
atom 22.8552152500000005 30.5576146800000004 2.6542282500000001 Au
atom 25.7533555300000003 30.4670897200000006 2.5776201599999999 Au
atom 0.3856829500000000 30.4236186999999987 2.6552227300000002 Au
atom 3.1935548499999999 30.2884471499999997 2.5307808600000001 Au
atom 5.9607818799999999 30.4961947900000006 2.3478523800000000 Au
atom 7.3671197399999997 32.8759652399999993 2.6134857700000000 Au
atom 10.1703832799999994 32.9583077799999984 2.3924184300000002 Au
atom 13.0566779299999993 33.0628360299999997 2.4555516700000002 Au
atom 15.8292179399999995 33.0511375900000033 2.5312064500000000 Au
atom 18.6036280900000008 32.9707168400000015 2.7299804100000000 Au
atom 21.4258498800000012 32.9311611600000020 2.8483467099999999 Au
atom 24.3051537599999996 32.8632226499999973 2.7920713899999998 Au
atom 27.2608564000000015 32.8036645999999976 3.1306572699999999 Au
atom 1.8041333900000001 32.8529246399999977 2.6379635800000001 Au
atom 4.4859281400000004 32.8106670299999976 2.4745262600000002 Au
atom 8.8268216299999995 35.2621168900000015 2.4824897099999998 Au
atom 11.5958608800000000 35.4638925599999979 2.2608123999999998 Au
atom 14.4519328999999992 35.5371945099999991 2.6310904499999999 Au
atom 17.1879249099999996 35.6369013899999985 2.8227129600000000 Au
atom 19.9628338999999997 35.4287684499999997 2.6685994200000001 Au
atom 22.9349986399999999 35.3102130700000032 2.9628792800000001 Au
atom 25.7974197799999985 35.2338737700000024 2.8775455499999998 Au
atom 0.4246287100000000 35.2902473500000013 2.7493103900000002 Au
atom 3.2339065200000001 35.2725577499999972 2.7571114600000000 Au
atom 6.0050475600000004 35.2301781199999979 2.6402154000000002 Au
atom 7.4455658700000003 37.6719510200000016 2.4938970100000000 Au
atom 10.1956123499999993 37.8765804100000025 2.6888538799999999 Au
atom 13.0110674100000008 37.9499086200000022 2.6139771299999999 Au
atom 15.8299173500000006 38.0808195899999973 2.7353246499999999 Au
atom 18.7346869900000002 38.0196362499999978 2.5669251399999999 Au
atom 21.4751986799999983 37.7303766400000029 3.0778072500000002 Au
atom 24.3334230200000015 37.8469653599999987 2.9799796299999999 Au
atom 27.1534389699999998 37.6881384900000000 2.7500714400000001 Au
atom 1.7192957000000000 37.7808650899999989 2.5493102699999999 Au
atom 4.5784818500000002 37.6999873399999998 2.7532746900000000 Au
atom 8.8475974500000003 0.8161445300000000 2.7670547200000000 Au
atom 11.5582347799999994 0.9313462800000000 2.6129558099999999 Au
atom 14.5464070299999992 0.9529308100000000 2.7120516000000001 Au
atom 17.3748849099999987 1.0051993699999999 2.6179181900000001 Au
atom 20.1541284099999984 0.8738904800000000 3.0506739899999999 Au
atom 22.9720648499999989 0.8554563100000000 2.9376853500000002 Au
atom 25.7293110499999997 0.8928494400000000 3.1620173199999999 Au
atom 0.2576633900000000 0.8653674400000000 2.8578226899999999 Au
atom 3.1524760800000000 0.7409977300000000 2.8868479200000001 Au
atom 6.0629659499999997 0.6913360500000000 2.8983273199999999 Au
atom 7.3819637299999998 3.2385412300000000 2.7885098899999998 Au
atom 10.2132626700000007 3.3540421399999998 2.5490867399999999 Au
atom 13.1857242800000005 3.4182877100000000 2.6020294100000001 Au
atom 15.9822662100000006 3.3995329200000000 2.6608290200000000 Au
atom 18.7219272799999992 3.4115985100000001 2.5884870699999998 Au
atom 21.5248427800000002 3.3720472600000000 3.1196763100000000 Au
atom 24.3821363399999989 3.4351965199999999 3.0843615999999998 Au
atom 27.2916630100000006 3.4293391299999998 3.2055690900000000 Au
atom 1.8193293300000000 3.3619947099999998 2.9585251700000001 Au
atom 4.5811324200000003 3.3471097599999999 3.0810914000000000 Au
atom 8.8459052699999994 5.8626420000000001 2.9638961600000000 Au
atom 11.6751979200000005 5.7254349500000004 2.5434071399999998 Au
atom 14.6819866200000000 5.8010006699999996 2.4039676399999999 Au
atom 17.4350443000000013 5.9028546799999999 2.5704488599999999 Au
atom 20.1836671800000005 5.8730720400000003 2.7625169100000000 Au
atom 23.0400033499999992 5.8556374699999996 2.9237682100000000 Au
atom 25.8415512599999992 5.8398026999999999 3.0939728500000001 Au
atom 0.5419638500000000 5.9352179300000003 3.2746535200000002 Au
atom 3.2568522500000001 5.8790132100000001 3.1341994400000002 Au
atom 6.0401170899999999 5.8208355999999997 3.1150598100000000 Au
atom 7.4928643599999996 8.3408478200000005 2.9430887000000001 Au
atom 10.3178636299999997 8.2298515000000005 2.6792083000000000 Au
atom 13.1169980800000001 8.1725490399999998 2.4805164400000002 Au
atom 16.0388256600000005 8.2665160499999999 2.2854958600000002 Au
atom 18.8947018299999989 8.2974475999999999 2.3879129500000000 Au
atom 21.7183393500000008 8.1912998100000003 2.1480395300000001 Au
atom 24.4283007999999988 8.2940983599999996 2.7796036900000001 Au
atom 27.2488245999999990 8.2618943300000005 2.8675061700000000 Au
atom 2.0025272500000000 8.4027907099999997 3.1695964700000001 Au
atom 4.7524651000000002 8.3266937100000007 2.6585749700000001 Au
atom 8.9039103700000002 10.6962908399999996 2.4855328800000001 Au
atom 11.6991283900000003 10.7026317500000001 2.5041570399999999 Au
atom 14.5127321699999996 10.6450103499999997 2.5883584599999998 Au
atom 17.4733725100000008 10.7682465700000005 2.1571314799999999 Au
atom 20.2425420799999998 10.7258787699999996 2.3871355699999999 Au
atom 23.0755033599999990 10.6790576399999999 2.4494706300000000 Au
atom 25.8116367400000009 10.6971620600000001 2.4377119600000001 Au
atom 0.3964498700000000 10.6332325300000008 2.7841217500000002 Au
atom 3.3602324800000001 10.7514019399999992 2.8046991399999999 Au
atom 6.2022542100000004 10.7842427199999999 2.3914054500000002 Au
atom 7.9379173300000003 13.0801876499999992 5.6071040999999999 Cl
atom 7.8376660300000003 16.0541218299999997 8.3314442300000007 Cl
atom 7.8380163200000004 13.2660597300000003 8.2550008300000002 Na
atom 7.7920725800000001 15.8556740299999994 5.4681268400000000 Na
atom 7.8310358799999999 18.6395549299999992 5.4133231799999999 Cl
atom 7.7156410500000003 21.5100221900000008 8.2701019099999993 Cl
atom 8.0501875900000002 18.6426113300000011 8.1728717300000007 Na
atom 7.9467372500000000 21.3798840400000003 5.6336812800000002 Na
atom 7.7828515899999999 24.4950994199999990 5.6455971099999998 Cl
atom 7.7922722899999997 27.3713752499999998 8.3917598200000008 Cl
atom 7.7397999500000001 24.3493105199999995 8.1879691300000008 Na
atom 7.9146614499999997 27.3207498899999983 5.6838508299999999 Na
atom 7.8057157400000001 30.0293140799999989 5.4396047100000002 Cl
atom 7.8704222599999998 32.7466616099999968 8.4532283100000001 Cl
atom 7.8182161299999997 30.1265048899999996 8.2203675300000008 Na
atom 7.7927574499999999 32.9581068800000025 5.6347657800000004 Na
atom 7.6922636300000002 35.6189531300000013 5.6769387299999998 Cl
atom 7.9778077800000000 38.5229246299999986 8.5190311399999992 Cl
atom 7.9059888999999997 35.8617507800000013 8.3665581099999997 Na
atom 7.7367622699999998 38.5525700999999970 5.7638370700000001 Na
atom 7.8937681099999999 1.8598681699999999 5.8759391399999998 Cl
atom 7.8848049400000004 4.7890939200000000 8.7725412899999995 Cl
atom 7.8361349300000001 2.0374471600000001 8.5212176199999998 Na
atom 7.7976256599999996 4.7796506399999998 6.0870604999999998 Na
atom 7.8578317000000002 7.5341196300000002 5.9675970200000004 Cl
atom 7.8125054799999996 10.4534672600000000 8.6085161899999996 Cl
atom 8.0305854300000004 7.6075139900000002 8.6155590699999998 Na
atom 7.7548525399999999 10.4269419299999999 5.8094830300000000 Na
atom 10.6195601699999997 13.1698525800000006 5.8009158500000000 Na
atom 13.1057735199999996 13.1402565399999993 5.3825263799999998 Cl
atom 10.6366846899999992 15.9739759299999999 8.0189241399999993 Na
atom 13.4106073499999994 15.9853638900000004 8.1982153899999997 Cl
atom 13.7215330499999997 13.2035187300000008 8.3281196699999995 Na
atom 10.6998181199999998 13.2131137800000005 8.5983156399999991 Cl
atom 13.3307377500000008 15.7695726700000005 5.5783132499999999 Na
atom 10.5417679399999997 16.0477927999999999 5.3509345000000001 Cl
atom 10.8449240899999992 18.8873455499999992 5.4366116099999999 Na
atom 13.6099728300000002 18.8643583200000009 5.5002087399999997 Cl
atom 10.6201945799999997 21.6527245899999983 8.1261998900000005 Na
atom 13.4009187200000000 21.6859846000000012 8.3674958499999992 Cl
atom 13.3896421700000001 18.7845950799999990 8.1129887099999998 Na
atom 10.6488200099999997 18.8382008799999987 8.4237065500000003 Cl
atom 13.4982356299999999 21.6568693000000003 5.7014982400000003 Na
atom 10.6244467700000005 21.4680620399999995 5.2141887000000002 Cl
atom 10.5970352099999996 24.2466522299999987 5.6039421799999998 Na
atom 13.5468293600000003 24.2706328800000009 5.6468260499999996 Cl
atom 10.6620199000000007 27.2582044199999984 8.1248441800000002 Na
atom 13.3658800600000003 27.1195555699999993 8.2170129599999999 Cl
atom 13.5127164499999992 24.4388215700000018 8.2287533199999991 Na
atom 10.5522645100000005 24.3633372500000007 8.3591901400000008 Cl
atom 13.5748515899999997 27.0620667300000015 5.5386905200000003 Na
atom 10.7738475699999992 27.1496353600000013 5.4797328600000004 Cl
atom 10.5623107399999991 30.0833021500000015 5.5115912800000002 Na
atom 13.5689195199999997 30.1517051999999985 5.4098752299999999 Cl
atom 10.7782935900000005 32.9961614500000024 8.0599082800000001 Na
atom 13.4401402200000000 32.9544650099999998 8.2473036200000003 Cl
atom 13.4796901600000005 30.1015829900000007 8.1204069099999998 Na
atom 10.6134603300000006 30.0650374800000009 8.1512318700000002 Cl
atom 13.5790414300000002 33.0684357599999998 5.6482177800000004 Na
atom 10.6152442300000001 33.0570722300000028 5.5496721300000003 Cl
atom 10.6790936799999994 35.8343738800000011 5.8246262700000004 Na
atom 13.5991141100000004 35.8569671999999997 5.7990953400000000 Cl
atom 10.6114817800000001 38.5771436300000019 8.5641849699999995 Na
atom 13.5074921200000002 38.5464340199999995 8.7147407099999992 Cl
atom 13.6466196699999998 35.6638595699999996 8.3205801600000004 Na
atom 10.7721972299999997 35.6131305800000035 8.5172217700000008 Cl
atom 13.3680966300000001 38.6404615599999985 5.9505103899999998 Na
atom 10.6146830699999999 38.5287595200000013 5.9286308400000003 Cl
atom 10.6687423999999993 1.8855325100000000 5.9314582600000003 Na
atom 13.4114349599999994 1.9960509799999999 5.8279496499999999 Cl
atom 10.7609869600000003 4.5992349299999997 8.7016866400000001 Na
atom 13.5638882100000000 4.6670486799999997 8.6171457300000007 Cl
atom 13.3362983199999992 1.9846039099999999 8.4893839500000006 Na
atom 10.7438709200000009 1.8135212000000001 8.7850957800000007 Cl
atom 13.5291138899999996 4.7306660400000000 5.7551724999999996 Na
atom 10.6251804900000000 4.6908482300000003 6.0056977700000003 Cl
atom 10.7381650900000007 7.4405074999999998 6.0121188300000004 Na
atom 13.4323818100000008 7.3178279499999999 5.7236931799999997 Cl
atom 10.7041921200000001 10.2963988299999993 8.4248823300000009 Na
atom 13.5486672499999994 10.2164242999999999 8.3604434500000000 Cl
atom 13.5665560599999999 7.4751852699999999 8.3610214999999997 Na
atom 10.7925555699999993 7.6304907300000000 8.6560442700000007 Cl
atom 13.2328127799999997 10.1937835200000002 5.7570107000000004 Na
atom 10.3688498599999992 10.1635761400000000 5.8544563700000003 Cl
atom 16.3953685699999987 13.0548741100000001 5.5053538399999997 Na
atom 19.1742338399999994 13.0993046300000007 5.4361068399999999 Cl
atom 16.2752910799999988 16.0268453499999985 8.0340830600000004 Na
atom 19.1490485799999988 16.0924751400000012 8.3309107900000008 Cl
atom 18.9638142999999992 13.0977027499999998 8.0090240200000000 Na
atom 16.2430495000000015 12.9819300099999992 8.0770521700000000 Cl
atom 18.8630477799999987 16.1334208399999994 5.5540149999999997 Na
atom 16.1808386700000000 16.1197807299999987 5.3838051900000004 Cl
atom 16.2093171100000006 18.8714834499999995 5.7633916300000001 Na
atom 19.0378716300000015 19.0655380799999996 5.5996076400000003 Cl
atom 16.3998861500000004 21.5643203800000016 8.4949653200000004 Na
atom 19.0437241300000011 21.5644612500000008 8.6467393200000000 Cl
atom 19.0284370000000003 18.8882850500000004 8.2982750099999993 Na
atom 16.2433126299999984 18.7712846900000017 8.5169777199999999 Cl
atom 19.1292700899999986 21.7461972699999997 5.9942421399999999 Na
atom 16.3939034200000009 21.5652951000000002 5.7758206699999999 Cl
atom 16.3817576299999992 24.1270764100000008 5.6994627800000002 Na
atom 19.1343990899999987 24.4088942499999995 5.7177635300000000 Cl
atom 16.2601837700000011 27.3898726299999993 8.2889016600000005 Na
atom 19.0622375099999992 27.4939427099999989 8.4070068300000003 Cl
atom 19.0403275100000009 24.4732800499999996 8.2942816599999993 Na
atom 16.3143915700000015 24.4463078399999993 8.3371531599999997 Cl
atom 19.0885753300000012 27.2704762100000018 5.7133530400000003 Na
atom 16.4560966700000009 27.2877905200000015 5.7206709599999996 Cl
atom 16.3335151799999991 30.0193992499999993 5.7153142399999997 Na
atom 19.0847353800000015 30.2730416399999989 5.6121073099999998 Cl
atom 16.2294559999999990 32.9329839299999989 8.3347347599999999 Na
atom 19.0638454400000015 32.9125475900000026 8.6675572899999995 Cl
atom 18.9825254299999990 30.1492153300000005 8.3329154899999995 Na
atom 16.1797903699999992 30.1793554300000011 8.5419559300000003 Cl
atom 19.2537714499999986 32.9945762400000007 5.9300606199999999 Na
atom 16.3983113200000012 33.0734457399999968 5.6235471700000002 Cl
atom 16.3558088899999987 35.7857224999999985 5.8554621400000002 Na
atom 19.2538107499999995 35.7617085299999999 5.7728330600000000 Cl
atom 16.2573246400000002 38.6001500599999972 8.4730521599999999 Na
atom 19.0360598600000017 38.6444234399999971 8.6571613099999993 Cl
atom 19.1927871000000003 35.8508562100000034 8.5215879999999995 Na
atom 16.3360173300000007 35.7608363100000020 8.6517804399999996 Cl
atom 19.0658755699999993 38.5943492899999967 5.8975775500000003 Na