#===============================================================================
# Created using the Atomic Simulation Environment (ASE)

# Tue Dec 23 22:26:59 2025

#=======================================================
lattice_vector 28.1999999999999993 0.0000000000000000 0.0000000000000000 
lattice_vector 0.0000000000000000 39.4799999999999969 0.0000000000000000 
lattice_vector 0.0000000000000000 0.0000000000000000 62.3296083400000001 
atom 7.5128425800000000 14.7749083300000006 0.2212718300000000 Au
atom 10.2378461000000005 14.7497414300000003 -0.1315435200000000 Au
atom 13.1860597800000008 14.8420180500000001 -0.0674877400000000 Au
atom 15.8816397899999995 14.9011415199999995 -0.0051479800000000 Au
atom 18.7589107099999985 14.7058960299999999 0.1775039200000000 Au
atom 21.4622288599999997 14.7012881899999996 -0.0060554700000000 Au
atom 24.5128462099999993 14.8850024300000001 0.0363326900000000 Au
atom 27.3559793400000011 14.8794748999999999 0.1412286000000000 Au
atom 2.0726359900000002 14.8497482499999993 -0.0663482500000000 Au
atom 4.6939130300000000 14.8331644600000008 0.0610814600000000 Au
atom 8.9424914399999995 17.2757071400000015 -0.0955133200000000 Au
atom 11.8228664400000003 17.1986004299999991 0.1790387400000000 Au
atom 14.5031765600000000 17.3092725499999993 0.1549741300000000 Au
atom 17.3370400199999999 17.3560739700000006 -0.0882579400000000 Au
atom 20.3292402699999997 17.1803805300000008 -0.1607481200000000 Au
atom 23.0816682200000010 17.2894152400000003 -0.0345070700000000 Au
atom 25.8081304899999999 17.1818484100000006 0.0773635900000000 Au
atom 0.2263347900000000 17.4042757500000000 -0.1014139300000000 Au
atom 3.3452907900000000 17.4936649399999986 0.1527937400000000 Au
atom 6.0390072500000000 17.2140335600000007 0.0560496100000000 Au
atom 7.4372819999999997 19.6311926999999997 0.2876097800000000 Au
atom 10.3451959799999997 19.5152971300000004 0.0883594900000000 Au
atom 13.1197614199999997 19.8243031499999987 0.0866893400000000 Au
atom 16.0670579499999988 19.9211196800000003 0.0280214200000000 Au
atom 18.7233255700000001 19.8381629100000012 0.1971604500000000 Au
atom 21.4226107200000015 19.8867274800000011 0.0252993700000000 Au
atom 24.3388448400000001 19.7627538700000009 0.1212103300000000 Au
atom 27.3486697800000016 19.7937027500000013 0.2588906800000000 Au
atom 1.9607947600000000 19.6187377199999986 0.1115109200000000 Au
atom 4.6694183000000002 19.7875167900000015 -0.0233804500000000 Au
atom 9.1904338800000005 22.0671068999999989 -0.1819431300000000 Au
atom 11.7302864400000004 22.4308241600000002 0.1291882700000000 Au
atom 14.4788367400000002 22.2052937800000016 -0.0011007000000000 Au
atom 17.2741667499999991 22.2283911900000000 0.0454440800000000 Au
atom 20.2155667900000005 22.1853821800000013 0.2192711400000000 Au
atom 22.7623700599999985 22.1991273199999988 0.0753592600000000 Au
atom 25.8522578500000009 22.2639408299999992 0.1454608700000000 Au
atom 0.5106953100000000 22.3161791700000016 0.2650849900000000 Au
atom 3.2210271599999998 22.2356273400000006 -0.0453932600000000 Au
atom 6.0595748900000004 22.2036405200000004 -0.0268767300000000 Au
atom 7.5294037500000002 24.6418460199999991 -0.0859784700000000 Au
atom 10.4051301899999995 24.5764137799999993 0.0866898700000000 Au
atom 13.1228932999999994 24.7351981000000016 0.1314931200000000 Au
atom 16.0205162500000000 24.4728058299999987 -0.0572862500000000 Au
atom 18.7117826100000002 24.7498901999999994 0.1326029200000000 Au
atom 21.6522006599999983 24.6225288999999989 0.1885886900000000 Au
atom 24.5714949699999998 24.8697641500000017 0.1544599300000000 Au
atom 27.2975477099999999 24.7601514099999989 0.0542656800000000 Au
atom 1.8364770600000000 24.8872733500000010 0.2617695400000000 Au
atom 4.7955246699999998 24.5981888600000005 0.0128224100000000 Au
atom 9.1378959500000008 27.2336250500000006 -0.0004987900000000 Au
atom 11.8770946700000000 27.1502567900000003 0.0234665800000000 Au
atom 14.4998002699999997 26.8465797200000011 -0.2345341100000000 Au
atom 17.4342113500000018 27.1022419600000006 0.1675117000000000 Au
atom 20.2943741300000013 27.2387972699999992 0.1307673000000000 Au
atom 23.0693444700000008 27.2832364600000012 0.1825953700000000 Au
atom 25.7474442699999990 27.1118297000000013 0.0599739300000000 Au
atom 0.4054157100000000 27.0137802200000010 0.0078965500000000 Au
atom 3.3271210199999999 27.0920911000000011 0.3560348600000000 Au
atom 6.1235416899999997 27.1749837399999983 0.1493086600000000 Au
atom 7.3588866499999996 29.5922260699999988 -0.0225850800000000 Au
atom 10.2478525600000001 29.5504863700000016 -0.0017910900000000 Au
atom 13.1615767399999992 29.5372480999999993 0.0435159900000000 Au
atom 15.8451344100000000 29.6811883099999996 -0.0134114000000000 Au
atom 18.8886815400000003 29.6523843999999990 0.0141971100000000 Au
atom 21.7094528500000017 29.5860136500000017 0.0087835800000000 Au
atom 24.2521096400000005 29.7771615199999999 -0.0352760200000000 Au
atom 27.1721229899999983 29.5725290700000016 -0.0004898900000000 Au
atom 1.6223456800000000 29.6004257799999984 -0.1437220800000000 Au
atom 4.7262502199999998 29.6667669899999993 0.2276302900000000 Au
atom 8.9219318899999998 31.9863416100000002 0.2359408800000000 Au
atom 11.6675876800000005 32.2118910100000022 0.0221609600000000 Au
atom 14.5722176000000001 32.1574309599999992 0.0929522600000000 Au
atom 17.4720333399999994 31.9328336300000011 0.0949107700000000 Au
atom 20.2030079399999991 32.1017773499999990 -0.2497361700000000 Au
atom 23.1108603600000002 32.0890371099999996 -0.0215161100000000 Au
atom 25.7769503700000016 32.1229877900000034 -0.0283939300000000 Au
atom 0.5547577600000000 32.0643359199999978 -0.0259192100000000 Au
atom 3.0405292199999998 32.1184323100000029 0.0356579500000000 Au
atom 5.9027475799999998 32.0893384499999996 -0.1234359800000000 Au
atom 7.4324245500000004 34.3875501899999989 -0.0619896200000000 Au
atom 10.4172832799999995 34.5913430000000020 0.0519561700000000 Au
atom 13.1364171400000007 34.4195180299999990 -0.0319295900000000 Au
atom 15.9195381000000005 34.5564208199999996 -0.0650892900000000 Au
atom 18.8677904800000000 34.4883206100000024 0.0231592600000000 Au
atom 21.5377538299999998 34.8294691600000021 0.0525024900000000 Au
atom 24.3767823300000011 34.4347033299999978 -0.0933825700000000 Au
atom 27.1758988700000010 34.4410897200000008 -0.0282337800000000 Au
atom 2.0580674600000002 34.5866542500000023 -0.0066347400000000 Au
atom 4.7459703400000004 34.5973098500000020 0.1250985400000000 Au
atom 8.9589100300000002 36.9169091500000022 -0.0191717300000000 Au
atom 11.6558616399999995 37.0644547500000030 -0.1923056100000000 Au
atom 14.6018966900000002 36.8668114099999968 0.0852155200000000 Au
atom 17.3442017700000015 37.0394621399999977 -0.0172782300000000 Au
atom 20.2063289200000007 36.9064960500000012 0.0597892300000000 Au
atom 23.0271736699999998 37.0501610600000006 0.0601331300000000 Au
atom 25.7440475199999987 37.1489447299999966 0.0317926200000000 Au
atom 0.3894322800000000 36.9268345899999986 0.1939972000000000 Au
atom 3.2891336999999998 37.0165303300000019 0.0103024000000000 Au
atom 6.1888329500000001 36.7995123500000005 -0.0675774000000000 Au
atom 7.5642256400000001 0.2595602000000000 0.0784442200000000 Au
atom 10.2573847899999997 -0.1457180400000000 0.0679977300000000 Au
atom 13.2535362200000009 -0.0306131200000000 0.1877532200000000 Au
atom 15.9990594599999998 0.0728252800000000 0.0848082900000000 Au
atom 18.6939585299999997 0.1747467000000000 0.0840922500000000 Au
atom 21.4987501899999991 0.0295399800000000 0.3040678500000000 Au
atom 24.4244794100000000 -0.0008718100000000 0.0660071100000000 Au
atom 27.4413695799999999 0.0179086100000000 0.1146728800000000 Au
atom 1.8632361300000000 0.0281460500000000 -0.0487494900000000 Au
atom 4.7435817000000000 -0.0963717100000000 0.1352303600000000 Au
atom 8.9253230600000002 2.6911314100000001 -0.0981027400000000 Au
atom 11.7732412899999996 2.6346883000000001 0.1033316400000000 Au
atom 14.3348315799999995 2.5138889199999999 0.1054211400000000 Au
atom 17.2535878400000016 2.3097978499999998 0.1200307800000000 Au
atom 20.2523121900000014 2.5016219199999998 0.0033127100000000 Au
atom 23.0378598399999994 2.5573137500000001 -0.0022696900000000 Au
atom 26.0217377200000008 2.3490145400000002 -0.0040131200000000 Au
atom 0.3873215800000000 2.3875303899999998 -0.0313336400000000 Au
atom 3.2581027200000001 2.5799143500000001 0.2104288800000000 Au
atom 6.1098830700000004 2.4450554100000002 0.1128419900000000 Au
atom 7.5219007600000003 5.0642370899999998 0.0439328200000000 Au
atom 10.3434656900000004 4.9559099199999999 0.0963704400000000 Au
atom 13.1792400000000001 5.0088913200000000 0.2685388600000000 Au
atom 16.0516185299999989 5.0017582500000000 -0.0946492300000000 Au
atom 18.7319247299999994 5.0199220999999996 0.0703818000000000 Au
atom 21.6699377700000007 4.9538120100000000 0.1629466200000000 Au
atom 24.4558109700000017 4.9486186200000004 -0.0266800000000000 Au
atom 27.2034863000000016 4.9552190100000004 0.1043668300000000 Au
atom 1.9638637500000000 5.0377370099999998 0.3004775500000000 Au
atom 4.6966126800000003 4.8360187300000002 0.1431439400000000 Au
atom 8.9346561300000005 7.6047742500000002 0.0654081600000000 Au
atom 11.6833888500000000 7.5089628900000003 -0.0814461100000000 Au
atom 14.4169572099999996 7.3464319400000004 0.0631212800000000 Au
atom 17.5633852300000015 7.3205027600000001 0.0292848900000000 Au
atom 19.9722584999999988 7.3234666700000002 0.1202693100000000 Au
atom 23.0734198699999986 7.4149773600000000 0.0643279600000000 Au
atom 25.8011949099999995 7.3992573400000001 0.0829974900000000 Au
atom 0.3513666200000000 7.3026045899999996 0.0869898900000000 Au
atom 3.2851431899999999 7.3985646200000001 -0.0423916100000000 Au
atom 6.1315136700000004 7.3002024900000002 0.1951341100000000 Au
atom 7.6240231899999999 10.0340701899999996 0.2518143300000000 Au
atom 10.4401608600000007 9.9254669900000003 0.0674101000000000 Au
atom 13.1161067399999993 9.6058390700000000 0.2131000600000000 Au
atom 16.2041548599999992 9.9280663400000009 0.0092732300000000 Au
atom 18.7466744100000007 9.8683480100000001 0.0659568800000000 Au
atom 21.5646744499999983 9.7826319900000005 0.0598273600000000 Au
atom 24.5100214600000008 9.9409817199999999 0.0979796400000000 Au
atom 27.2878494099999998 9.9162388900000007 0.1112686600000000 Au
atom 1.7498958800000000 9.9320946299999999 -0.0424528100000000 Au
atom 4.6660973900000000 9.8652625900000004 0.1669746300000000 Au
atom 8.7261482099999998 12.2675976599999998 0.0673628500000000 Au
atom 11.7424063800000003 12.2695431599999996 0.0392657100000000 Au
atom 14.5579663700000008 12.2977848800000000 -0.1074983400000000 Au
atom 17.5480319800000011 12.1313665600000000 0.1821842300000000 Au
atom 20.2203374099999991 12.3159892200000005 0.1556313300000000 Au
atom 23.0868232199999994 12.3805255899999995 0.0623954800000000 Au
atom 25.9835092900000006 12.2743031100000000 0.0062363700000000 Au
atom 0.5117703600000000 12.3041276400000008 0.1313970200000000 Au
atom 3.2512554499999999 12.3377286399999999 -0.0336970300000000 Au
atom 6.1239614900000001 12.2505710099999998 -0.0951835500000000 Au
atom 7.5564107399999996 13.2636291499999999 2.6561775999999999 Au
atom 10.2761073500000002 13.0312665899999995 2.3930875100000000 Au
atom 13.1482118700000008 13.2307328099999992 2.5286527599999999 Au
atom 15.9383847700000008 13.1827580500000003 2.3989119500000000 Au
atom 18.8281658100000016 13.3127383300000002 2.6567109200000001 Au
atom 21.6640157699999989 13.2232451399999995 2.5444794499999999 Au
atom 24.3459893399999991 13.1200620499999996 2.4646315599999999 Au
atom 27.2613548600000009 13.2097783100000008 2.6910635100000002 Au
atom 1.6669964399999999 13.2041299100000007 2.6756047900000000 Au
atom 4.7056160000000000 13.1335733200000000 2.7223418000000001 Au
atom 8.9570783800000005 15.3398704000000006 2.5408983799999998 Au
atom 11.8301439599999991 15.5936371400000002 2.6328435899999998 Au
atom 14.4551237700000001 15.6472129399999993 2.7679618700000002 Au
atom 17.2571945199999988 15.7184299700000008 2.5821838000000001 Au
atom 20.2536616000000009 15.4886708300000002 2.5679596000000000 Au
atom 23.1264612999999990 15.7254528400000009 2.5952323800000001 Au
atom 25.7554212999999983 15.5377573699999996 2.7960003499999999 Au
atom 0.4678352600000000 15.7756487100000005 2.6506366799999999 Au
atom 3.3472496600000001 15.5531071000000001 2.7330491499999998 Au
atom 6.0128555800000001 15.7502764699999993 2.6243525499999998 Au
atom 7.4897476799999998 18.0189776700000017 2.6628158000000002 Au
atom 10.4033853300000008 18.0238084100000009 2.5966761500000000 Au
atom 13.2838746899999993 18.1591688600000012 2.7052552300000001 Au
atom 15.9762499600000005 18.0996461999999987 2.6670479299999998 Au
atom 18.7962270700000005 18.1502295599999997 2.8382799300000001 Au
atom 21.5423117499999996 18.0155598499999989 2.6488172099999998 Au
atom 24.4067773700000004 18.1348920100000015 2.7434759000000000 Au
atom 27.1050629699999988 17.9856588700000017 2.6280964299999998 Au
atom 1.7429711400000001 18.0096288499999986 2.6113466800000000 Au
atom 4.7387500200000003 18.1682725100000013 2.6134895899999999 Au
atom 8.8892863500000008 20.6122368599999994 2.6709646000000000 Au
atom 11.5544326200000000 20.6146689199999997 2.5114985999999999 Au
atom 14.5161609800000004 20.4946983899999999 2.8608373299999998 Au
atom 17.3226673099999999 20.4704672099999989 2.7863417600000000 Au
atom 20.3680114100000011 20.5608984200000009 2.7359588499999998 Au
atom 22.9521085400000011 20.5574144600000004 2.7904136400000001 Au
atom 25.9553231699999998 20.5883210900000009 2.8601455300000000 Au
atom 0.5041487500000000 20.4404883599999998 2.5117027599999999 Au
atom 3.3896175500000001 20.6445599900000012 2.6570025600000000 Au
atom 5.9940692699999998 20.7642726000000017 2.6958664200000002 Au
atom 7.4333403100000002 23.2042970100000012 2.6453685199999999 Au
atom 10.5083590200000003 23.0291788400000002 2.6753248300000001 Au
atom 13.1045657799999997 22.9912464999999990 2.6648906900000000 Au
atom 16.0008319899999982 23.0887085700000014 2.8486812499999998 Au
atom 18.6107607900000005 22.9937693100000011 2.6545222599999998 Au
atom 21.5187381600000016 23.0221255499999984 2.7125220600000000 Au
atom 24.3752065299999998 23.0961807599999993 2.7763733600000000 Au
atom 27.1727911300000002 22.8801100899999987 2.5538203799999999 Au
atom 1.8761052700000000 23.0507107900000001 2.6550737400000002 Au
atom 4.6654077000000003 23.0731687399999998 2.7211745999999999 Au
atom 9.1666393100000008 25.5128997499999990 2.6416083600000002 Au
atom 11.6650627799999995 25.4210967299999986 2.6772503599999999 Au
atom 14.5836688300000006 25.3847610599999989 2.5060722300000000 Au
atom 17.4337343199999992 25.4772715000000005 2.8179295199999999 Au
atom 19.9437054799999984 25.6094960500000006 2.6809388799999998 Au
atom 23.1106688700000014 25.3723887200000000 2.7482218500000002 Au
atom 25.8317452000000003 25.5107393699999996 2.5733642699999999 Au
atom 0.3776259600000000 25.4306026799999998 2.6417670200000001 Au
atom 3.1245252099999998 25.5603876399999983 2.7320658099999999 Au
atom 6.1429463499999999 25.5543778300000000 2.6699718799999999 Au
atom 7.5590831300000003 27.9630219699999998 2.3775544700000002 Au
atom 10.3972345300000004 28.0713092199999998 2.7070808799999999 Au
atom 13.2084873999999992 28.0856234499999999 2.4812820900000001 Au
atom 15.7727489999999992 27.9173867599999994 2.6858013100000000 Au
atom 18.8118538899999983 28.1410307300000007 2.5460195600000000 Au
atom 21.4879196899999982 27.9625697299999985 2.6143053599999999 Au
atom 24.3068484699999985 28.0644881599999998 2.7247810800000001 Au
atom 27.3230392000000002 27.8826382399999986 2.8337426099999998 Au
atom 1.6780978499999999 28.1203333200000003 2.6073311100000001 Au
atom 4.8574061100000003 28.0631708099999990 2.9351834100000000 Au
atom 9.0743048900000005 30.5431296400000001 2.5770410099999999 Au
atom 11.8122076699999994 30.2520940100000004 2.7285506900000001 Au
atom 14.5016058200000000 30.5200102999999991 2.5173181699999998 Au
atom 17.1662180599999985 30.5362353700000000 2.5585176999999999 Au
atom 20.2075105599999993 30.3487326700000004 2.6954187200000002 Au
atom 22.9615889399999986 30.3503828099999993 2.6629597899999999 Au
atom 25.7948718200000009 30.4005366099999996 2.6975560199999999 Au
atom 0.4336439100000000 30.4234647400000000 2.5586813500000001 Au
atom 3.1542217400000001 30.5611134900000003 2.7445180400000000 Au
atom 6.1910368000000000 30.5581461899999987 2.6427782899999999 Au
atom 7.3761996600000002 32.7973984599999966 2.6459355400000000 Au
atom 10.3684764499999993 32.8704267900000033 2.5891559200000001 Au
atom 13.1028466199999993 32.7402356099999992 2.5278834300000002 Au
atom 15.8721977699999997 33.0243388900000028 2.6555160999999998 Au
atom 18.5827467099999986 33.1094144500000027 2.7268729999999999 Au
atom 21.8718964500000013 33.0884472400000007 2.6147118900000001 Au
atom 24.4196667699999992 32.8873571800000022 2.5308633999999999 Au
atom 27.2813314799999986 32.8268193700000026 2.3851212300000002 Au
atom 1.6930270800000000 32.7829262300000011 2.4562221100000001 Au
atom 4.7247416700000002 32.8063304300000027 2.7455483699999998 Au
atom 8.9985911800000000 35.5444164499999999 2.6813952400000001 Au
atom 11.6481662400000001 35.3100074600000013 2.5014338000000000 Au
atom 14.5783413599999996 35.5356410199999999 2.8626330699999998 Au
atom 17.3664721399999991 35.4323171799999983 2.6951803499999998 Au
atom 20.0475921700000015 35.4683550900000029 2.7965446799999998 Au
atom 22.9393747899999987 35.4412556099999989 2.5827584899999998 Au
atom 25.9724477900000004 35.4696242300000009 2.4535040200000000 Au
atom 0.3306370100000000 35.3308630000000008 2.8024561000000001 Au
atom 3.2864402799999999 35.3451968899999969 2.7603565600000000 Au
atom 6.0220805300000002 35.3596694100000022 2.5710525600000000 Au
atom 7.7006186899999998 38.0220953500000007 2.5470817600000002 Au
atom 10.3213349000000001 38.0281581699999975 2.7803496600000002 Au
atom 13.2168581399999994 37.8125239900000025 2.4826566099999998 Au
atom 15.9529747400000002 37.8792650299999991 2.7105713699999998 Au
atom 18.5274233399999986 37.8371762399999980 2.5495015400000001 Au
atom 21.7803987399999990 37.8506916600000025 2.8351491499999999 Au
atom 24.4405692399999985 37.6797119200000026 2.6289520400000002 Au
atom 27.2351985600000006 37.9445391699999988 2.6920676800000001 Au
atom 1.7900647000000001 37.9714168699999988 2.7202679999999999 Au
atom 4.7285495900000001 37.9672814899999977 2.8461847400000000 Au
atom 8.9241349400000001 0.9294188300000000 2.7226976199999999 Au
atom 11.5905993299999999 0.8223545500000000 2.7651274199999998 Au
atom 14.4873755699999993 0.7906111700000000 2.7405759700000001 Au
atom 17.3153045900000002 0.8262506100000000 2.7816883400000001 Au
atom 20.2276900600000005 0.8824390900000000 2.5711425399999999 Au
atom 22.9660613500000004 0.8482938100000000 2.7107525300000002 Au
atom 25.8429350999999983 0.9345044100000000 2.7765525900000001 Au
atom 0.3066627200000000 0.9332948400000000 2.7760721799999999 Au
atom 3.3597106499999998 0.7980274900000000 2.8921224300000001 Au
atom 5.9375072500000003 0.7762759100000000 2.5215881800000002 Au
atom 7.4218514500000001 3.2318670200000001 2.5632469900000001 Au
atom 10.3426842400000005 3.3048960400000000 2.6771902700000001 Au
atom 13.2273003700000000 3.3337385500000001 2.7798716600000000 Au
atom 16.1706959200000000 3.2938281599999999 2.6493737099999999 Au
atom 18.6836406699999991 3.2037065600000001 2.8548528300000000 Au
atom 21.5130628299999991 3.4170855800000002 2.6990811500000000 Au
atom 24.4538819399999987 3.2617153399999999 2.6855029600000000 Au
atom 27.2058618199999991 3.2015600599999998 2.6679388099999999 Au
atom 1.8576649599999999 3.3559862699999998 2.5432845799999999 Au
atom 4.5485645400000001 3.1108685199999999 2.6402011200000000 Au
atom 8.6684604299999997 5.7115649399999997 2.8577849000000000 Au
atom 11.8517417399999996 5.7955067400000004 2.8509351800000000 Au
atom 14.6042106500000006 5.8734183299999998 2.7690480200000001 Au
atom 17.4507730199999997 5.8063039999999999 2.6589291300000002 Au
atom 20.1158060600000006 5.9747867299999999 2.8045776299999998 Au
atom 23.2079830099999995 5.8239810199999997 2.7481108800000000 Au
atom 25.8419057000000016 5.8011082399999996 2.6696736900000002 Au
atom 0.4180083900000000 5.8519840099999998 2.7295571999999999 Au
atom 3.3356681500000001 5.8342744599999996 2.6029005000000001 Au
atom 6.2839776900000004 5.9393828500000003 2.7459215299999999 Au
atom 7.4878678399999998 8.3299582300000008 2.7863640200000002 Au
atom 10.2739841799999994 8.3184160699999996 2.6118694400000000 Au
atom 13.2536005100000001 8.4241016799999997 2.7717350399999998 Au
atom 16.1260540500000005 8.4721261800000001 2.5628397500000002 Au
atom 18.6162865500000017 8.2493492400000008 2.5183124800000001 Au
atom 21.8067352800000016 8.4434813700000007 2.8806300199999999 Au
atom 24.6036611399999998 8.3134850199999999 2.6880890000000002 Au
atom 27.4421912900000002 8.3508154300000008 2.4585019300000002 Au
atom 1.9816717300000000 8.3457039200000001 2.7745346000000000 Au
atom 4.7965973200000001 8.1657399700000006 2.6016540600000000 Au
atom 8.7255411100000000 10.7741030700000007 2.7737250100000002 Au
atom 11.8474629900000004 10.7321261400000001 2.6628834700000001 Au
atom 14.5518247299999999 10.9305259199999991 2.4966116100000000 Au
atom 17.6763653400000003 10.8311202000000009 2.7412869600000001 Au
atom 20.2553438200000002 10.6743897499999996 2.7145953299999999 Au
atom 23.0582410200000005 11.0102435199999995 2.5798804500000001 Au
atom 25.6434550500000000 10.6551707699999998 2.6570894400000000 Au
atom 0.5551542100000000 10.7362352300000001 2.7787931800000001 Au
atom 3.2030608699999998 10.7914422499999993 2.6308902000000001 Au
atom 6.0427672399999999 10.6477825900000003 2.4388434399999999 Au
atom 7.5134050200000004 13.1591723799999993 5.7148705700000004 Cl
atom 7.6079946100000004 15.6595440499999992 8.5617533600000009 Cl
atom 7.4306921499999996 13.0543782000000004 8.3442931500000004 Na
atom 7.5924757300000003 15.7127319900000000 5.6468413399999999 Na
atom 7.8494057399999999 18.2600274499999990 5.4458070000000003 Cl
atom 6.3196604199999999 20.7625464400000013 7.4858529300000001 Cl
atom 7.4971586300000004 18.4059432700000016 8.2077128800000008 Na
atom 7.5894882199999998 21.8202655199999995 5.4191915000000002 Na
atom 7.3362548900000002 24.6208214299999995 6.0326915000000003 Cl
atom 7.4717889499999997 27.5536288999999996 8.4545989899999991 Cl
atom 7.3063636399999998 25.0651483199999987 8.3661250900000006 Na
atom 7.3313323400000003 27.4128277199999992 5.7771174199999997 Na
atom 7.6881787700000004 30.2366791200000016 5.6289487400000002 Cl
atom 7.3254024400000004 33.0215754700000019 8.5229244299999998 Cl
atom 7.4447520999999997 30.1484237800000017 8.2416859999999996 Na
atom 7.3775385499999997 32.8970348300000026 6.0729137299999998 Na
atom 7.6279143100000004 35.7179429700000028 5.5908948299999999 Cl
atom 7.5587036300000001 38.5240419399999965 8.3773502499999992 Cl
atom 7.4946036100000004 35.7703802199999998 8.4215501199999991 Na
atom 7.4911767300000003 38.4852908000000014 5.8046214999999997 Na
atom 7.6061004600000004 1.8837018200000000 5.6163884299999998 Cl
atom 7.5025667699999996 4.8005627500000001 8.5057611099999999 Cl
atom 7.5119386600000002 2.1227008999999999 8.4651958900000004 Na
atom 7.5846211300000004 4.7454288599999996 6.0332355800000004 Na
atom 7.8229712500000002 7.3396868399999997 5.8725355199999996 Cl
atom 7.6139386299999998 10.4027304199999993 8.6672579600000006 Cl
atom 7.4595333899999998 7.5620412400000001 8.2995567999999995 Na
atom 7.3578008600000002 10.6403760300000005 5.7907047699999996 Na
atom 10.2971341299999999 13.1852334700000000 5.6960582200000003 Na
atom 13.3147877700000006 13.2616411999999997 5.7943065400000000 Cl
atom 10.4028491800000005 15.7554324399999999 8.3816293700000006 Na
atom 13.2761011300000007 15.7352029800000004 8.4084131600000003 Cl
atom 13.2783843499999996 13.1636965799999999 8.2814454800000004 Na
atom 10.2653153199999991 12.9764258800000007 8.6106051899999994 Cl
atom 12.9754426200000008 15.9678391099999999 5.6709067500000003 Na
atom 10.3035471199999993 15.8541862200000008 5.7429087499999998 Cl
atom 10.4526757900000007 18.8622746300000017 5.7386775099999996 Na
atom 13.2579122300000005 18.9971169700000004 5.4906917699999997 Cl
atom 10.1081854100000008 22.0896655499999994 8.5543717400000006 Na
atom 13.2351377800000005 21.4872611199999994 8.5638289899999993 Cl
atom 13.0490949000000001 18.7537848899999986 8.1728772400000000 Na
atom 10.2965784199999995 18.8680130999999989 8.3789421999999991 Cl
atom 13.2696189800000006 21.5550350399999999 5.9190238300000004 Na
atom 10.3568617399999994 21.7627978700000000 6.1590949500000001 Cl
atom 10.3371269800000007 24.4646024799999999 5.5523549699999997 Na
atom 13.6888747300000002 24.1513710599999989 5.4894619899999997 Cl
atom 10.2641313600000004 27.5775725899999991 8.1148250799999992 Na
atom 13.5917960499999992 27.6326436899999983 8.8425006100000001 Cl
atom 13.2497535400000004 24.3777395100000014 8.2014170899999996 Na
atom 10.8237713400000004 25.0878876400000017 7.9625487100000001 Cl
atom 12.9024813399999996 27.0813783500000014 5.7817740000000004 Na
atom 10.2241989400000008 27.7069035300000017 5.3313871800000001 Cl
atom 10.3070070600000001 30.3777781400000002 5.7477333200000000 Na
atom 13.2028519800000002 30.2630645600000001 5.7190298500000001 Cl
atom 10.5775000299999995 32.9109768200000019 8.3559249199999996 Na
atom 13.2181684300000004 32.8528316000000018 8.5877195499999992 Cl
atom 13.3638990500000006 30.2136248899999984 8.1661282600000007 Na
atom 10.5573324999999993 30.2639084099999991 8.6640099999999993 Cl
atom 13.1150889799999995 33.0124371799999992 5.9220718799999998 Na
atom 10.3472969799999994 33.0452458899999968 5.6334661300000004 Cl
atom 10.3466270199999997 35.8049086099999982 5.9312444099999997 Na
atom 13.1496145700000007 35.6384215499999968 5.7280397599999997 Cl
atom 10.2674243599999997 38.5475281300000034 8.4189693699999992 Na
atom 13.1824195900000003 38.6115989500000012 8.3986108399999999 Cl
atom 13.2045801300000001 35.7647537900000003 8.5129346699999999 Na
atom 10.3226601700000007 35.7974862700000003 8.7389670699999993 Cl
atom 13.3163036800000008 38.5487017100000031 5.7611002700000000 Na
atom 10.1184672100000004 38.6745559399999976 5.8047890200000003 Cl
atom 10.3539115200000005 1.9477027200000001 5.8284393200000002 Na
atom 13.2475200900000001 1.8394298300000000 5.8915786900000002 Cl
atom 10.3680801700000007 4.6640912200000004 8.4767641600000001 Na
atom 13.2673763699999991 4.6074790600000002 8.6957972399999992 Cl
atom 13.1766865800000001 1.9548276800000000 8.2198316600000005 Na
atom 10.3034734300000004 1.8740412799999999 8.4738110100000004 Cl
atom 13.0072064600000008 4.7437484000000003 5.8409005399999998 Na
atom 10.3076198600000009 4.7305151700000003 5.8342037500000004 Cl
atom 10.0683141799999998 7.7374303900000001 5.8826486500000001 Na
atom 13.0359399899999993 7.5950060199999996 5.6660754899999999 Cl
atom 10.3926783599999997 10.2801266299999998 8.3084784099999993 Na
atom 13.0632355600000007 10.3589903000000003 8.3865547700000000 Cl
atom 13.2534483699999992 7.3936957699999999 8.2485946600000002 Na
atom 10.4260038099999992 7.5238715300000001 8.5664478699999993 Cl
atom 13.0762327999999997 10.2125048500000002 5.7888773499999999 Na
atom 10.1899015100000003 10.3365385199999995 5.6709588499999999 Cl
atom 16.0248753099999988 13.3388244500000006 6.0558490699999998 Na
atom 18.6854800599999997 13.1677277099999994 5.6373284300000002 Cl
atom 16.0143141299999989 15.8811448500000001 8.3366725200000005 Na
atom 18.6214458399999998 16.0805219199999989 8.4550643799999996 Cl
atom 18.8225552500000006 13.1595308200000005 8.4651151299999992 Na
atom 16.0396729399999991 13.1878505799999992 8.4431803599999995 Cl
atom 18.7235168300000012 16.0688128500000005 5.8805625499999996 Na
atom 15.9225979599999992 16.0122655400000014 5.6011470900000004 Cl
atom 15.9761894400000006 18.9043699799999985 5.6097697799999997 Na
atom 18.7831239699999983 18.9652615699999991 5.7123818100000001 Cl
atom 16.1605953100000015 21.4790026599999990 8.4513295500000005 Na
atom 18.7471842200000012 21.5963582900000013 8.5232761999999997 Cl
atom 18.7686998799999998 18.7482414400000010 8.4064519200000003 Na
atom 16.1297961699999988 18.6311994399999996 8.5677762000000008 Cl
atom 19.0062859899999985 21.5648173999999990 5.7789130899999996 Na
atom 16.1015329600000001 21.6963163899999998 5.4799502000000002 Cl
atom 16.1047918999999986 24.4745562099999994 5.6832158000000002 Na
atom 18.8727724899999991 24.3946515099999992 5.6750255300000001 Cl
atom 16.1740071699999994 27.3010175599999982 8.1800368900000002 Na
atom 18.8930203500000005 27.3489424099999994 8.7006084200000000 Cl
atom 18.8060755800000017 24.4666907500000015 8.3004209299999996 Na
atom 16.2512933199999985 24.3332566999999997 8.5512409599999994 Cl
atom 18.7972763900000004 27.3829990899999984 5.7116385500000000 Na
atom 15.9933938799999993 27.2554610900000007 5.7369577500000002 Cl
atom 15.9337864000000007 30.0309901400000001 5.8795610600000003 Na
atom 18.7376851699999989 30.0493433900000007 5.8354186099999996 Cl
atom 15.9061234299999992 33.0070753600000018 8.4073663599999993 Na
atom 18.6498634000000010 33.0776838399999988 8.4994790800000004 Cl
atom 18.7403463200000004 30.0426348300000008 8.5257696000000003 Na
atom 16.0616863300000006 30.2294159600000008 8.6949458400000008 Cl
atom 18.7885945999999997 33.0838115199999976 5.6774890999999998 Na
atom 15.9310058100000003 32.8597458300000014 5.5363999399999999 Cl
atom 15.8489692699999996 35.7162071600000033 5.8596374700000000 Na
atom 18.7392366000000017 35.7143190800000028 5.6692849799999996 Cl
atom 15.9364391899999998 38.4297979299999994 8.4237354100000008 Na
atom 18.7944123099999985 38.6579109199999991 8.5694721600000001 Cl
atom 18.7345829500000001 35.7376193200000003 8.4534777600000002 Na
atom 15.9488286099999996 35.7535353499999999 8.5397841200000002 Cl
atom 18.7285168300000002 38.5792061300000029 6.0498315399999996 Na