#===============================================================================
# Created using the Atomic Simulation Environment (ASE)

# Sat Nov  1 21:48:29 2025

#=======================================================
lattice_vector 28.1999999999999993 0.0000000000000000 0.0000000000000000 
lattice_vector 0.0000000000000000 39.4799999999999969 0.0000000000000000 
lattice_vector 0.0000000000000000 0.0000000000000000 62.3296083400000001 
atom 7.5302718799999999 14.8281343999999997 0.0397163400000000 Au
atom 10.3182966700000005 14.8399434100000001 0.0026743500000000 Au
atom 13.1502665800000003 14.8521232100000002 0.0888001900000000 Au
atom 15.9654296500000008 14.8203868500000002 -0.0117979300000000 Au
atom 18.7971855199999993 14.8045686300000003 0.0539742400000000 Au
atom 21.6075789200000017 14.8423299800000006 0.0104643300000000 Au
atom 24.4039745000000003 14.8064622600000000 0.0526948500000000 Au
atom 27.2673257400000004 14.7924946700000000 -0.1610559100000000 Au
atom 1.8571647000000000 14.7258900199999996 0.0364582600000000 Au
atom 4.6755006899999998 14.8082831299999995 -0.0168233200000000 Au
atom 8.9349622100000001 17.3104299899999994 0.0272373400000000 Au
atom 11.7364924300000002 17.2892228599999989 0.0368680000000000 Au
atom 14.5417711999999995 17.2904386700000003 0.0299014800000000 Au
atom 17.3642932099999996 17.2877577799999997 0.0226508000000000 Au
atom 20.1759456399999983 17.2670621900000008 0.0360359800000000 Au
atom 23.0151654800000003 17.2639459299999984 0.0149150100000000 Au
atom 25.8281118300000010 17.2482790000000001 0.0268465500000000 Au
atom 0.4556220700000000 17.2872489400000013 -0.0456600200000000 Au
atom 3.3088698999999999 17.2839204100000003 0.0254945100000000 Au
atom 6.1106210100000000 17.2866037500000012 0.0700302000000000 Au
atom 7.5008648700000000 19.7844309699999990 0.1212221600000000 Au
atom 10.3217037999999999 19.7430839800000015 0.0686436800000000 Au
atom 13.1281569800000000 19.7475966400000011 0.0839691300000000 Au
atom 15.9789469600000000 19.7918198200000006 0.0609565700000000 Au
atom 18.7955920300000017 19.7681051799999992 0.0938159700000000 Au
atom 21.6208217199999986 19.7622765399999984 0.0572880000000000 Au
atom 24.4356107199999997 19.7672443300000005 0.1110081700000000 Au
atom 27.2211398100000004 19.7304755400000005 0.0215308000000000 Au
atom 1.8647227200000001 19.7579924099999999 0.0426991200000000 Au
atom 4.6640454800000004 19.7467583699999985 0.0558415200000000 Au
atom 8.9321406400000001 22.2336794699999984 0.0522314100000000 Au
atom 11.7440317400000005 22.2293744599999989 0.0631782600000000 Au
atom 14.5732638100000003 22.2328907700000009 0.0762651400000000 Au
atom 17.4372728200000005 22.2446382699999994 0.0834614300000000 Au
atom 20.1767963299999984 22.2259370599999997 0.0820010400000000 Au
atom 23.0470676700000006 22.2266616100000007 0.0812869600000000 Au
atom 25.8382306600000007 22.2337974000000003 0.0855238100000000 Au
atom 0.4397691400000000 22.1942500600000017 0.2614743100000000 Au
atom 3.2662903100000000 22.2539076400000013 0.0697567900000000 Au
atom 6.1260946699999996 22.2354796700000001 0.0908226700000000 Au
atom 7.5137690299999997 24.7022612300000013 0.1131005400000000 Au
atom 10.3135610900000003 24.6777722699999984 0.1079473400000000 Au
atom 13.1409418999999996 24.6916215399999999 0.0928790900000000 Au
atom 15.9586805500000004 24.7147717699999987 0.1070772500000000 Au
atom 18.7938972799999995 24.6791543599999983 0.1151389700000000 Au
atom 21.6176456299999984 24.7100988900000011 0.1100078300000000 Au
atom 24.4456219499999996 24.6598618199999997 0.0986744200000000 Au
atom 27.2229139700000005 24.8251894299999982 0.0937431600000000 Au
atom 1.9011187500000000 24.6877936899999995 0.0545768500000000 Au
atom 4.6805484999999996 24.6898610199999986 0.0772766700000000 Au
atom 8.9317004699999991 27.1564643900000000 0.0324095800000000 Au
atom 11.7518637100000003 27.1654980600000009 0.0472799400000000 Au
atom 14.5187211400000002 27.1488223499999997 0.0747222800000000 Au
atom 17.3873376399999984 27.1433790600000009 0.0631976400000000 Au
atom 20.2156758600000011 27.1398784800000001 0.0679149900000000 Au
atom 23.0381852800000004 27.1414216900000014 0.0661401300000000 Au
atom 25.8097585500000015 27.1217267600000014 0.1206108300000000 Au
atom 0.4762473400000000 27.1209783800000004 0.1488724200000000 Au
atom 3.2775479700000001 27.1429681999999985 0.0553958100000000 Au
atom 6.1002215000000000 27.1641917299999989 0.0813042900000000 Au
atom 7.5212584600000003 29.6240376099999985 0.0096319900000000 Au
atom 10.3184749999999994 29.6108888300000004 0.0474060500000000 Au
atom 13.1609909999999992 29.6203959800000014 0.0190455000000000 Au
atom 15.9874881200000001 29.6443245600000012 0.0602360600000000 Au
atom 18.7775283299999991 29.5921006899999988 0.0216189500000000 Au
atom 21.6160848200000011 29.6180611300000010 0.0887402500000000 Au
atom 24.4455444499999999 29.6200618099999993 0.0607979200000000 Au
atom 27.2388197500000011 29.5983071299999985 0.1331199400000000 Au
atom 1.8679695500000000 29.6419962800000008 0.0201162100000000 Au
atom 4.6853058000000001 29.6020776599999991 0.0763917700000000 Au
atom 8.8902455600000003 32.0873682300000027 0.0273436500000000 Au
atom 11.7186407999999993 32.0658707300000003 0.0099177600000000 Au
atom 14.5857093300000003 32.0976304400000032 0.0340664400000000 Au
atom 17.4045448100000009 32.0764775999999969 0.0099491500000000 Au
atom 20.1770339499999984 32.0966722599999983 0.0156124300000000 Au
atom 22.9886850799999998 32.0851120100000031 0.0144281100000000 Au
atom 25.8454740100000002 32.0975222499999973 0.0379693900000000 Au
atom 0.4564724700000000 31.8839820699999983 -0.1134096200000000 Au
atom 3.2670968000000000 32.0929565799999992 0.0154902600000000 Au
atom 6.0925826000000001 32.0875866299999970 0.0169612500000000 Au
atom 7.5306417200000002 34.5442691200000027 -0.0256188800000000 Au
atom 10.3058909700000001 34.5663938499999972 0.0595807100000000 Au
atom 13.1261046500000003 34.5700080700000001 -0.0073895800000000 Au
atom 15.9664898300000004 34.5853341899999975 0.0502644300000000 Au
atom 18.8019691400000006 34.5558395300000001 -0.0316233800000000 Au
atom 21.6195398499999989 34.5661968200000018 0.0427286400000000 Au
atom 24.4008706300000000 34.5758022500000024 -0.0132963100000000 Au
atom 27.2359392900000010 34.6160628399999979 0.0089734900000000 Au
atom 1.8605222900000000 34.5712431700000025 -0.0522496800000000 Au
atom 4.6608889400000004 34.5809321500000024 0.0393572700000000 Au
atom 9.0057641700000008 37.0311265200000008 0.1641175900000000 Au
atom 11.6773608499999995 37.0497513400000003 0.0452410400000000 Au
atom 14.5506147000000006 37.0248811499999988 -0.0537259400000000 Au
atom 17.1311700199999990 37.0270472999999996 0.2020524300000000 Au
atom 20.3130260299999996 37.0356467100000017 0.0506705200000000 Au
atom 23.0751541300000014 37.0373114900000004 0.0012374800000000 Au
atom 25.6570860299999985 37.0311855100000002 0.1931838100000000 Au
atom 0.5136297700000000 36.8817448799999994 0.2464647600000000 Au
atom 3.1904338499999998 37.0341491599999983 0.1419250200000000 Au
atom 5.8733375499999996 37.0234366399999999 0.0297628300000000 Au
atom 7.3617176999999998 0.0427458000000000 -0.1049263400000000 Au
atom 10.4050039900000009 0.0101864600000000 0.0853375700000000 Au
atom 13.0684022800000008 0.0346606700000000 0.3179931500000000 Au
atom 15.9580250899999996 0.0069797900000000 0.3058456700000000 Au
atom 18.6546420600000005 0.0126969300000000 0.1751571600000000 Au
atom 21.7153096499999982 0.0207955400000000 0.1423286200000000 Au
atom 24.4678917600000005 0.0257632200000000 0.2804811500000000 Au
atom 27.1855699599999987 0.0530247700000000 0.1234511600000000 Au
atom 1.9650368700000000 -0.0042505900000000 0.0840717100000000 Au
atom 4.7026677599999998 0.0235824400000000 -0.0540265000000000 Au
atom 8.9011734400000009 2.4646614800000002 0.0711390700000000 Au
atom 11.7328754199999992 2.4724196300000001 0.0913576700000000 Au
atom 14.5781563199999997 2.4549914400000001 0.0578035700000000 Au
atom 17.3730869900000009 2.5000831500000000 0.1056357400000000 Au
atom 20.1957667200000017 2.4894891600000002 0.0903602000000000 Au
atom 23.0195465299999995 2.5063167399999999 0.0517379300000000 Au
atom 25.8512761600000012 2.5236418299999999 0.0787745200000000 Au
atom 0.4546460600000000 2.4359703100000001 0.1011499300000000 Au
atom 3.2552605200000002 2.4774763599999998 0.0623236100000000 Au
atom 6.0603280100000001 2.4819197499999999 0.0970534700000000 Au
atom 7.4704480699999998 4.9697796700000003 0.1273241400000000 Au
atom 10.3422312400000003 4.9359849100000002 0.0694232700000000 Au
atom 13.1292471099999997 4.9214588700000004 0.1157635200000000 Au
atom 15.9636278399999991 4.9109508100000001 0.1540936600000000 Au
atom 18.8189729800000016 4.9579842000000003 0.1277897800000000 Au
atom 21.5894596599999993 4.9423190300000002 0.0871846400000000 Au
atom 24.4326232700000006 4.9386274999999999 0.1125401100000000 Au
atom 27.2340948699999998 5.3001056499999999 0.0335984400000000 Au
atom 1.9041674600000000 4.9317860800000002 0.0643287900000000 Au
atom 4.6907721100000002 4.9434995600000002 0.0733911400000000 Au
atom 8.9261544399999995 7.3983373700000001 0.0513102500000000 Au
atom 11.7223902399999993 7.4105366500000001 0.0971520300000000 Au
atom 14.5494737799999996 7.3981965199999999 0.0580066700000000 Au
atom 17.3894553300000005 7.4214678799999998 0.0966909700000000 Au
atom 20.1883121900000013 7.4030864200000002 0.0783510600000000 Au
atom 23.0131836199999995 7.3974224700000004 0.0358756200000000 Au
atom 25.8259112799999997 7.3537045699999997 0.0713930800000000 Au
atom 0.4698937700000000 7.4392666099999998 -0.0500866100000000 Au
atom 3.2680525700000000 7.4422418700000001 0.0680966400000000 Au
atom 6.0870524799999997 7.4085670500000003 0.0591388900000000 Au
atom 7.5296870399999998 9.8829289399999993 0.0733743500000000 Au
atom 10.3172914299999992 9.8871197899999999 0.0080715500000000 Au
atom 13.1655541500000002 9.8963667100000006 0.0501491800000000 Au
atom 15.9581763100000007 9.8782813600000008 0.0175998200000000 Au
atom 18.8183063699999984 9.8780220100000005 0.0497985800000000 Au
atom 21.6428105399999993 9.9066922900000005 0.0410075700000000 Au
atom 24.4472711999999994 9.8711284399999997 0.0661640100000000 Au
atom 27.2535509500000011 10.0766086799999997 0.0728036900000000 Au
atom 1.8727006300000000 9.8323992100000002 0.1083793500000000 Au
atom 4.7045236099999999 9.9126062299999997 0.0098961900000000 Au
atom 8.9064677799999998 12.3560719399999996 0.0304240900000000 Au
atom 11.7489639500000003 12.3894116200000006 0.0253816100000000 Au
atom 14.5400285700000005 12.3405173000000001 0.0441924100000000 Au
atom 17.3772253300000017 12.3583136800000002 0.0190208300000000 Au
atom 20.1906900699999987 12.3382771499999997 -0.0220944500000000 Au
atom 23.0193430499999998 12.3514439899999999 0.0313480600000000 Au
atom 25.8256896800000000 12.3718909299999993 -0.0320470300000000 Au
atom 0.4697067100000000 12.2840070499999996 0.0490980000000000 Au
atom 3.2566938599999999 12.3809396199999995 0.0215856300000000 Au
atom 6.0857623700000003 12.3401109299999998 0.0040866700000000 Au
atom 7.5175090500000001 13.1878484000000000 2.6597449700000002 Au
atom 10.3598844200000002 13.2020119999999999 2.5381493599999998 Au
atom 13.1665601100000007 13.1798901500000003 2.6906575600000000 Au
atom 15.9228048199999996 13.2073585599999994 2.5329897300000002 Au
atom 18.7818721800000006 13.1713224600000007 2.6263298900000001 Au
atom 21.6155554899999984 13.1822490000000005 2.5869318699999999 Au
atom 24.3992030799999995 13.1816075900000005 2.6792521200000001 Au
atom 27.2749849399999995 13.0914083899999998 2.3874765600000001 Au
atom 1.8933522800000000 13.1622376299999999 2.5828226900000000 Au
atom 4.6833165200000000 13.1613969999999991 2.5774659999999998 Au
atom 8.9117520399999997 15.6179807299999993 2.6227766500000000 Au
atom 11.6996927300000007 15.6628211900000007 2.6185783900000001 Au
atom 14.5752305399999997 15.6400848799999999 2.6450590200000001 Au
atom 17.3893592800000008 15.6492995900000000 2.6337663099999999 Au
atom 20.1838527300000017 15.6413727500000004 2.6552935600000001 Au
atom 23.0210099100000001 15.6381494399999994 2.6967068099999998 Au
atom 25.8478308100000014 15.5488643000000000 2.6749593100000002 Au
atom 0.4637863300000000 15.6525444100000009 2.5752318999999999 Au
atom 3.2880363300000002 15.6734965800000001 2.6500480199999998 Au
atom 6.0673376299999999 15.6682279500000003 2.6295822200000001 Au
atom 7.5219405699999999 18.1010813800000001 2.6861687500000002 Au
atom 10.2929885799999994 18.0979551399999998 2.6317199900000001 Au
atom 13.1474177300000008 18.1019634899999993 2.6596129799999999 Au
atom 15.9732358800000007 18.1222447600000010 2.5884653900000001 Au
atom 18.7932120199999986 18.1100991399999991 2.6918202899999999 Au
atom 21.5963016199999984 18.0917652500000017 2.6023879299999999 Au
atom 24.4505946899999991 18.1121542399999989 2.6941168800000002 Au
atom 27.2555714900000012 18.0635860500000014 2.7019347100000002 Au
atom 1.8876648700000001 18.0532243500000007 2.7168591700000002 Au
atom 4.6716058699999996 18.1242715200000006 2.6215345600000002 Au
atom 8.9300703099999996 20.5688924499999999 2.7048664100000002 Au
atom 11.7442491699999998 20.5775268500000017 2.7317200800000001 Au
atom 14.5753413900000002 20.5972230699999983 2.7046870099999998 Au
atom 17.3843967799999994 20.5896032300000016 2.7158497100000001 Au
atom 20.2000328600000003 20.5696124400000002 2.7543714600000002 Au
atom 23.0431397699999998 20.5525522299999999 2.7323089399999998 Au
atom 25.8166378899999991 20.5606732600000015 2.6923088100000001 Au
atom 0.4316840800000000 20.6312915799999992 2.6981054599999998 Au
atom 3.2971403000000001 20.5307869899999993 2.7135054699999999 Au
atom 6.1192655000000000 20.5578972899999997 2.7076181099999999 Au
atom 7.5158520400000004 23.0441954299999985 2.7129265700000000 Au
atom 10.3482844899999993 23.0982267199999995 2.6895772800000000 Au
atom 13.1382332200000000 23.0497007499999995 2.6741212100000000 Au
atom 15.9712509100000002 23.0426605000000002 2.7071131199999998 Au
atom 18.7702475399999997 23.0257358600000011 2.6904022500000000 Au
atom 21.6309790000000000 23.0845737200000016 2.6566348000000000 Au
atom 24.4006448700000007 23.0569315099999983 2.7069504000000002 Au
atom 27.2544282899999999 23.0401293299999992 2.8366460899999999 Au
atom 1.8871549299999999 22.9950004300000010 2.7065652000000000 Au
atom 4.6904518399999997 23.0799463899999999 2.6948905100000000 Au
atom 8.8989366000000008 25.4865300400000017 2.6957693300000001 Au
atom 11.7332324099999994 25.5492645600000010 2.7175375800000001 Au
atom 14.5449247300000000 25.5148441999999989 2.6823627700000001 Au
atom 17.3929231299999998 25.5149449600000011 2.6906415899999998 Au
atom 20.2046256399999997 25.5704938400000010 2.7295294800000001 Au
atom 23.0099696599999994 25.5276053699999999 2.7374103999999999 Au
atom 25.8285227400000004 25.5271611299999996 2.6767709000000002 Au
atom 0.4458993500000000 25.3430849699999996 2.6313764200000000 Au
atom 3.2950040000000000 25.5360452000000002 2.7085737900000000 Au
atom 6.0722615400000004 25.5288597999999993 2.7268008799999999 Au
atom 7.4956010199999996 28.0054638199999992 2.6232389000000000 Au
atom 10.2901201899999997 28.0046156699999997 2.6856952500000002 Au
atom 13.1486564099999992 28.0136351999999995 2.6096077000000002 Au
atom 15.9565028800000004 28.0182244300000001 2.6883432799999998 Au
atom 18.7689057599999991 27.9853609799999994 2.6175951000000000 Au
atom 21.6036603499999984 27.9836719699999996 2.7044996200000000 Au
atom 24.4277922099999998 27.9931990000000006 2.6199644499999999 Au
atom 27.2435029499999999 28.3060584099999986 2.6322712600000000 Au
atom 1.8919805700000001 28.0361880700000015 2.5897223199999999 Au
atom 4.6849991199999996 28.0001375000000010 2.6753586899999999 Au
atom 8.9247614700000000 30.4719582200000012 2.6213434300000000 Au
atom 11.7242300499999992 30.4899698800000003 2.6593267200000001 Au
atom 14.5944607299999998 30.4596063500000014 2.6328222700000001 Au
atom 17.3655892200000004 30.4686723400000012 2.6254334699999999 Au
atom 20.1869056299999983 30.4588264399999993 2.6155837399999999 Au
atom 23.0237845400000012 30.4624563600000009 2.6532127700000001 Au
atom 25.8288577000000004 30.4425344899999999 2.6032033399999999 Au
atom 0.4725697600000000 30.5358697399999990 2.5475911299999998 Au
atom 3.2859094099999999 30.4626276599999990 2.6443678400000001 Au
atom 6.1156879599999998 30.4615964800000008 2.6466201800000002 Au
atom 7.5030416799999999 32.9343552400000021 2.5750564900000001 Au
atom 10.3086350800000002 32.9086549499999990 2.6388529900000002 Au
atom 13.1132078799999992 32.8922337600000034 2.5541790600000001 Au
atom 15.9775596800000006 32.9175330500000030 2.6461036800000000 Au
atom 18.7681194100000006 32.8906786000000011 2.5504140199999998 Au
atom 21.6000776799999983 32.9345233299999975 2.6902132000000001 Au
atom 24.4118839100000002 32.9463790399999965 2.5520337199999998 Au
atom 27.2621184599999999 32.9818258000000029 2.8651155699999999 Au
atom 1.8554300900000000 32.8851993800000031 2.5721702899999999 Au
atom 4.6608114699999996 32.9271507999999997 2.6602222100000001 Au
atom 8.9254235699999995 35.3948874499999988 2.6528034699999998 Au
atom 11.7210338600000004 35.4062191599999991 2.6342147400000000 Au
atom 14.5402346700000002 35.4016285000000011 2.6513354800000002 Au
atom 17.3325717799999985 35.3762270699999988 2.6543126199999998 Au
atom 20.2024788999999991 35.3869298700000030 2.6365779100000002 Au
atom 23.0423059399999985 35.3753979700000016 2.6487581900000001 Au
atom 25.8395982699999998 35.4582528400000001 2.5775095600000002 Au
atom 0.4319113000000000 35.5009612300000015 2.7681127000000001 Au
atom 3.3005506300000000 35.3920152000000030 2.6323971899999998 Au
atom 6.0960522299999997 35.3736803399999999 2.6617823999999999 Au
atom 7.5890119699999996 37.8580691900000019 2.7099414700000000 Au
atom 10.3873167100000003 37.8192604700000032 2.8848328599999999 Au
atom 13.0904734099999995 37.8711378300000021 2.6025712200000002 Au
atom 16.0818798700000016 37.8422012199999998 2.6507458200000000 Au
atom 18.7075005400000016 37.8303311499999992 2.5788497600000002 Au
atom 21.3736531399999983 37.8624801099999999 2.6983107700000000 Au
atom 24.5305189800000001 37.8394331000000008 2.7698371800000001 Au
atom 27.3238061399999985 37.9513086700000031 2.7808893299999999 Au
atom 2.1031797200000000 37.8924972499999981 2.7252107699999999 Au
atom 4.5221466899999996 37.8349582800000022 2.8127563300000000 Au
atom 8.9739981100000001 0.9007610000000000 2.6445173899999999 Au
atom 11.7601255299999998 0.8579756200000000 2.6246619099999999 Au
atom 14.5714004900000003 0.8384038000000000 2.7942691100000001 Au
atom 17.4111009099999983 0.8359533000000000 2.7102998899999999 Au
atom 20.1473682700000012 0.8345522500000000 2.7140783100000001 Au
atom 23.0348842599999983 0.8261847100000000 2.6841982999999998 Au
atom 25.7887588299999990 0.8549786100000000 2.8088867000000000 Au
atom 0.5321679200000000 0.7485141600000000 2.8902899199999998 Au
atom 3.1928367899999999 0.8513287600000000 2.6842055299999998 Au
atom 6.1839165200000004 0.8279725700000000 2.6400237299999998 Au
atom 7.4864560700000000 3.3599007500000000 2.6842406099999998 Au
atom 10.2999673699999992 3.3004003100000001 2.6780334200000002 Au
atom 13.1580499799999995 3.3332444300000001 2.6518258299999999 Au
atom 15.9406678599999996 3.3108768700000000 2.6989328800000001 Au
atom 18.7904831100000003 3.3170438999999998 2.7044780700000000 Au
atom 21.5899669799999998 3.2655901799999998 2.6921278100000001 Au
atom 24.4246692299999992 3.3258182000000001 2.6696974700000000 Au
atom 27.2328457700000008 3.2494553200000000 2.6634063499999998 Au
atom 1.8549514100000000 3.2683459400000001 2.6679268800000000 Au
atom 4.6898478900000002 3.2916758100000001 2.6752068300000000 Au
atom 8.9018415399999995 5.8179203499999996 2.7082950800000001 Au
atom 11.7409579399999995 5.7926216600000000 2.7241064499999998 Au
atom 14.5640973799999998 5.7814260400000004 2.7373207100000001 Au
atom 17.3524951099999996 5.8498922599999998 2.7336816100000001 Au
atom 20.1898903499999989 5.7724907200000004 2.7166421100000000 Au
atom 22.9972472699999990 5.7394137900000004 2.7627577699999999 Au
atom 25.8664824300000014 5.7337209400000004 2.7646843500000000 Au
atom 0.4595277100000000 5.7454701500000001 2.6425149000000001 Au
atom 3.2585279900000002 5.7895937200000001 2.7312668100000002 Au
atom 6.1044608299999998 5.7837649500000001 2.7078691099999999 Au
atom 7.4893159599999999 8.2683104800000002 2.6675929400000000 Au
atom 10.3169497799999998 8.2634523400000006 2.6134802900000000 Au
atom 13.1737413300000004 8.2707908099999994 2.6860218100000002 Au
atom 15.9683914100000006 8.2590846399999993 2.6232086600000000 Au
atom 18.7812030099999987 8.2759481800000003 2.6939494800000001 Au
atom 21.5742788200000000 8.2624690699999999 2.6561089600000001 Au
atom 24.4160876699999996 8.2523314200000009 2.7039914999999999 Au
atom 27.2765055200000006 8.3006223899999991 2.6540759500000002 Au
atom 1.8660791999999999 8.2462952999999999 2.7649894499999998 Au
atom 4.6825250100000000 8.2570319199999993 2.6075754999999998 Au
atom 8.9104034599999995 10.7290157100000005 2.6461414900000002 Au
atom 11.7386434000000008 10.7204653099999998 2.6275222100000000 Au
atom 14.5638737400000000 10.7356863300000001 2.6520525400000001 Au
atom 17.4136293100000010 10.7198072900000003 2.6556645300000001 Au
atom 20.1773225799999985 10.7215987100000003 2.6312280200000000 Au
atom 23.0000031599999986 10.7109721400000009 2.6641996099999998 Au
atom 25.8264017999999993 10.8075835199999997 2.6200184399999999 Au
atom 0.4669352700000000 10.7569081999999998 2.5045550699999999 Au
atom 3.2762462700000001 10.7188163099999993 2.6506270299999999 Au
atom 6.1137545199999996 10.7175010200000003 2.6363736100000001 Au
atom 7.5060266300000000 13.1924569399999996 5.7188105900000004 Cl
atom 7.5168591600000001 15.9792341300000000 8.5508726399999997 Cl
atom 7.4802074699999999 13.1425021100000006 8.3390246599999998 Na
atom 7.4836364199999998 15.9884789200000004 5.8232032199999999 Na
atom 7.4993077899999996 18.8206565999999995 5.7008264799999999 Cl
atom 7.4755167599999996 21.6304627499999995 8.5558048800000002 Cl
atom 7.5242282999999999 18.8189844400000013 8.4211919099999992 Na
atom 7.4963180500000002 21.6123149499999982 5.7934753399999996 Na
atom 7.4709148399999998 24.4512532699999987 5.7458700399999998 Cl
atom 7.4867851400000003 27.2535074699999988 8.5766493199999996 Cl
atom 7.5073368499999997 24.4313289599999983 8.3885080900000002 Na
atom 7.4871350300000001 27.2371110999999999 5.8364836200000001 Na
atom 7.5001256999999999 30.0920050600000017 5.7046422600000000 Cl
atom 7.5153363600000000 32.9297658500000026 8.5612007000000006 Cl
atom 7.4745925000000000 30.0712210300000002 8.3625918600000002 Na
atom 7.5107775600000002 32.8896351699999983 5.8216196000000000 Na
atom 7.5018374400000001 35.7457045000000022 5.7362539899999998 Cl
atom 7.6069833700000000 38.5534211100000022 8.3847300699999998 Cl
atom 7.4785833999999998 35.7355220000000031 8.3735584999999997 Na
atom 7.5266239300000004 38.5594643599999998 5.6539198900000001 Na
atom 7.3871540199999997 1.8959513500000000 5.7655196899999996 Cl
atom 7.4846441900000000 4.7447008400000001 8.5809866299999999 Cl
atom 7.6887003900000002 1.9042435700000000 8.2320691499999992 Na
atom 7.4834165600000002 4.7009574900000004 5.8155947399999999 Na
atom 7.4826023599999996 7.5350753299999997 5.7250187600000002 Cl
atom 7.4870726799999998 10.3590949600000002 8.5877500100000006 Cl
atom 7.5013170499999999 7.5291747999999998 8.4241499399999995 Na
atom 7.4937603099999999 10.3325644299999997 5.8008571299999998 Na
atom 10.3712450999999994 13.2076251300000003 5.7921482199999996 Na
atom 13.1449791000000005 13.1658121900000005 5.7332918499999996 Cl
atom 10.3315608599999997 15.9904148999999993 8.3793223799999996 Na
atom 13.1442770600000003 15.9832602399999999 8.5475603499999995 Cl
atom 13.1571560800000000 13.1573518499999995 8.3885608900000008 Na
atom 10.3235954400000001 13.1677158500000004 8.5778174299999996 Cl
atom 13.1554613099999997 16.0062778100000003 5.7856901100000000 Na
atom 10.3331379600000002 16.0015801999999994 5.7195204700000000 Cl
atom 10.3330260400000000 18.8302868299999986 5.8145110600000001 Na
atom 13.1321161300000000 18.8077175399999987 5.7346979700000000 Cl
atom 10.3301287100000003 21.6455851300000006 8.3877715300000002 Na
atom 13.1295355800000006 21.5839702600000010 8.5622102200000008 Cl
atom 13.1439921999999996 18.8037460600000017 8.3588010199999996 Na
atom 10.3174178899999998 18.8173909700000017 8.5748213799999995 Cl
atom 13.1208945999999997 21.6454037100000001 5.7947265600000000 Na
atom 10.3244426300000001 21.6281613999999998 5.7502727000000000 Cl
atom 10.3302018400000009 24.4969698399999984 5.7959788100000003 Na
atom 13.1449496200000002 24.4392544700000016 5.7378958600000001 Cl
atom 10.3179869600000007 27.2614222200000000 8.3681375199999994 Na
atom 13.1500883599999998 27.2440444100000008 8.5715546099999997 Cl
atom 13.1232112000000001 24.4443096900000008 8.4217494300000002 Na
atom 10.3236304600000004 24.4473031700000014 8.5765157300000006 Cl
atom 13.1673602100000000 27.2351539600000017 5.8364910800000001 Na
atom 10.3247197100000001 27.2572259700000004 5.7299293799999997 Cl
atom 10.3124796799999991 30.0529869900000008 5.8204716899999998 Na
atom 13.1218140999999999 30.0671044999999992 5.7288375100000000 Cl
atom 10.2983597699999994 32.9178584599999979 8.3571231000000008 Na
atom 13.1478592200000008 32.8949379800000017 8.5514378600000001 Cl
atom 13.1253237299999999 30.0667638799999999 8.3575725999999992 Na
atom 10.3040236899999993 30.0886947800000009 8.5774505699999999 Cl
atom 13.1305240300000001 32.9076974999999976 5.8304313399999996 Na
atom 10.3269505400000003 32.9148023199999997 5.7359084999999999 Cl
atom 10.3183019799999993 35.7396222599999973 5.7786769500000004 Na
atom 13.1325806400000005 35.7405255899999972 5.7201257099999996 Cl
atom 10.0913273300000004 38.5509787599999996 8.3549913500000006 Na
atom 13.2634870700000000 38.5235053399999998 8.5535650299999997 Cl
atom 13.1185343400000001 35.7306437399999979 8.3719584000000005 Na
atom 10.3168293999999996 35.7320124600000000 8.5471390599999992 Cl
atom 13.1693186499999992 38.5819444199999992 5.7204223499999998 Na
atom 10.2571745300000003 38.5558757900000018 5.5764049599999996 Cl
atom 10.4742470300000008 1.9042522500000001 5.8749224199999999 Na
atom 13.1989079000000000 1.8851730200000001 5.7441056100000001 Cl
atom 10.3229342600000003 4.7127888599999999 8.4077988000000001 Na
atom 13.1475447200000009 4.7300723700000002 8.5929573700000006 Cl
atom 12.9628975999999998 1.9281830300000000 8.2765220199999998 Na
atom 10.2613578099999998 1.8854524600000000 8.5458716900000002 Cl
atom 13.1444213100000002 4.7364731300000003 5.8249832499999998 Na
atom 10.3049393800000004 4.6977214099999998 5.7551312299999999 Cl
atom 10.3125982199999999 7.4853623499999999 5.8572462400000003 Na
atom 13.1375654799999992 7.5265331099999999 5.7061086300000001 Cl
atom 10.3266011300000002 10.3680915700000007 8.3956843699999997 Na
atom 13.1271507599999993 10.3522765600000000 8.5494166699999994 Cl
atom 13.1433104299999997 7.5382260700000003 8.3919777199999999 Na
atom 10.3010778300000005 7.5228062900000001 8.5925136000000002 Cl
atom 13.1282125000000001 10.3425947100000002 5.7955568299999998 Na
atom 10.3143069799999996 10.3458076999999999 5.7078449999999998 Cl
atom 15.9504887800000006 13.1783108299999991 5.8062317400000003 Na
atom 18.7845109299999997 13.1596751300000001 5.7112982199999998 Cl
atom 15.9938276800000008 15.9884197300000004 8.3560850900000005 Na
atom 18.7786677399999995 15.9594073200000004 8.5627644000000007 Cl
atom 18.7420592900000003 13.1579774799999996 8.3712007300000000 Na
atom 15.9613992499999995 13.1588985600000008 8.5634763399999994 Cl
atom 18.7941222299999993 16.0147253499999991 5.8028905499999999 Na
atom 15.9568658600000006 15.9865900399999994 5.7317377900000004 Cl
atom 15.9731975899999998 18.8577401500000015 5.8341768600000004 Na
atom 18.7726709199999995 18.8241560899999989 5.7111961899999999 Cl
atom 15.9457283400000005 21.6231377999999985 8.3534092900000001 Na
atom 18.8049426299999993 21.6330606299999992 8.5667943300000005 Cl
atom 18.7891092600000000 18.7980634799999997 8.3550451799999994 Na
atom 15.9440331499999992 18.8118618300000016 8.5672802699999995 Cl
atom 18.8267511600000006 21.6314623600000004 5.7769792400000002 Na
atom 15.9632281200000001 21.6426745300000007 5.7285373399999999 Cl
atom 15.9809211999999992 24.4671529800000016 5.7796304699999999 Na
atom 18.7610286200000012 24.4358160899999994 5.7354504700000000 Cl
atom 15.9458591199999997 27.2628851899999987 8.3975389499999995 Na
atom 18.7826003899999989 27.2873576299999989 8.5581828899999994 Cl
atom 18.7882946799999999 24.4070514199999984 8.3668108799999992 Na
atom 15.9745113500000002 24.4458534800000002 8.5515601700000001 Cl
atom 18.7798951699999996 27.2312188599999985 5.8229358700000002 Na
atom 15.9319845299999994 27.2585336799999993 5.7432046999999997 Cl
atom 15.9600632299999994 30.0565948300000017 5.8041589499999997 Na
atom 18.7636351599999998 30.0657274500000007 5.7200644699999996 Cl
atom 15.9675240899999995 32.9319532199999969 8.3599199300000002 Na
atom 18.7573241400000015 32.8920865500000019 8.5972704100000001 Cl
atom 18.7891128000000016 30.0819060000000000 8.3878391200000006 Na
atom 15.9598719599999992 30.0838688999999988 8.5580517300000007 Cl
atom 18.7625879799999993 32.8944011000000032 5.8051809700000003 Na
atom 15.9579719400000002 32.9003270700000030 5.7105898200000000 Cl
atom 15.9563701099999999 35.7532819799999970 5.8516566499999998 Na
atom 18.7795455300000000 35.7353997199999966 5.7362267100000004 Cl
atom 15.9067728200000005 38.5575794599999995 8.3747051599999995 Na
atom 18.7683381000000011 38.5339308900000006 8.5154316399999992 Cl
atom 18.7682174199999992 35.7371396400000023 8.3777331900000007 Na
atom 15.9514675599999993 35.7192407599999981 8.5585239200000007 Cl
atom 18.7645761799999988 38.5736888500000035 5.9692611099999997 Na
atom 15.8107386800000000 38.5545203200000017 5.5692310300000001 Cl