#===============================================================================
# Created using the Atomic Simulation Environment (ASE)

# Sat Nov  1 21:48:34 2025

#=======================================================
lattice_vector 28.1999999999999993 0.0000000000000000 0.0000000000000000 
lattice_vector 0.0000000000000000 39.4799999999999969 0.0000000000000000 
lattice_vector 0.0000000000000000 0.0000000000000000 62.3296083400000001 
atom 7.6990771999999996 14.9727800500000008 0.0810914700000000 Au
atom 10.3395043199999996 14.9128130199999998 -0.1365200300000000 Au
atom 13.1460165399999998 14.9824616899999992 0.0402903000000000 Au
atom 15.9862409299999992 14.8954478500000000 0.1881627300000000 Au
atom 18.6722481800000004 14.8253874299999993 0.0169130800000000 Au
atom 21.7843531800000001 14.6869538100000003 -0.1765178000000000 Au
atom 24.3892623600000000 14.7171591100000008 0.1824846900000000 Au
atom 27.3383472400000009 14.7069818399999992 -0.1609374900000000 Au
atom 1.8262325900000000 14.8014043500000003 -0.0676389100000000 Au
atom 4.6380500299999996 14.7098450599999993 -0.1388079200000000 Au
atom 8.7942321600000000 17.4740801999999995 0.0354204100000000 Au
atom 11.7486114900000000 17.1319270299999999 -0.1581372100000000 Au
atom 14.5833610500000006 17.3000504799999995 -0.0002927000000000 Au
atom 17.5649999299999990 17.2160326800000014 0.0199554700000000 Au
atom 20.1163911499999983 17.3192088800000015 -0.1194586200000000 Au
atom 22.9434339899999991 17.2815283999999991 0.1390484800000000 Au
atom 25.8498465000000017 17.2588284399999985 0.0862546000000000 Au
atom 0.3695114700000000 17.4695657900000008 0.0973250200000000 Au
atom 3.5703979299999999 17.3305149100000015 -0.1284106000000000 Au
atom 6.1111136600000000 17.2694074099999995 -0.0336416700000000 Au
atom 7.4513370400000003 19.6502027999999989 0.0806171800000000 Au
atom 10.3528225200000001 19.7852925500000012 -0.1372009500000000 Au
atom 13.2261866300000008 19.7127050299999986 -0.0468994800000000 Au
atom 15.9270913800000002 19.8659605200000016 0.0237445300000000 Au
atom 18.9796709800000016 19.9409349099999993 0.1987568900000000 Au
atom 21.5232840500000009 19.8641761199999998 0.1026996500000000 Au
atom 24.4260880200000017 19.6265954700000016 0.0918643500000000 Au
atom 27.2545132300000006 19.9325304999999986 0.0397795100000000 Au
atom 1.8382057100000000 19.8750130899999995 0.1642694000000000 Au
atom 4.4815109700000004 19.9683309400000013 0.3518887400000000 Au
atom 8.9889734899999993 22.3518728799999984 0.1075687100000000 Au
atom 11.7952939200000007 22.2650303899999997 0.2572832300000000 Au
atom 14.7173959900000000 22.0430420600000012 -0.0732484900000000 Au
atom 17.4221751599999983 22.1000228499999984 0.0132927400000000 Au
atom 20.1700184000000000 22.2531685400000008 0.1576943300000000 Au
atom 23.1629686600000007 22.2506709899999997 0.1773369500000000 Au
atom 25.8891686400000012 22.5003451900000009 0.0147862700000000 Au
atom 0.4918842100000000 22.2323151599999989 0.0746547700000000 Au
atom 3.1159428100000000 22.2782909899999986 0.0010130000000000 Au
atom 6.0903910300000001 22.1957558599999984 0.1265228300000000 Au
atom 7.4900373000000000 24.7793235299999992 0.0594793000000000 Au
atom 10.4024844600000002 24.8300024199999996 0.0514008500000000 Au
atom 12.9898452399999993 24.7403994999999988 0.0449605800000000 Au
atom 15.7387316500000001 24.4223627900000011 0.0878543600000000 Au
atom 18.8237824700000012 24.7688194400000015 0.1501840700000000 Au
atom 21.6833463900000005 24.4974223199999983 0.1246983500000000 Au
atom 24.5199703900000010 24.6493191500000002 0.1122639800000000 Au
atom 27.3160015200000004 24.6925693399999986 0.0532738900000000 Au
atom 1.8391240300000000 24.7528096099999999 0.1874793500000000 Au
atom 4.7391007600000004 24.6122947200000013 -0.0022752900000000 Au
atom 8.9170443400000003 27.1156122300000000 0.2235707200000000 Au
atom 11.7846477800000002 27.1888487099999985 -0.0661755000000000 Au
atom 14.3447215099999994 27.0784701199999986 0.0110158000000000 Au
atom 17.5956706199999999 27.0911652200000006 0.1773049600000000 Au
atom 20.1604196400000006 27.3089066100000011 0.0361489700000000 Au
atom 23.0027337699999990 27.1510543599999998 0.1962388700000000 Au
atom 25.8328038699999993 27.0548042399999993 0.1111620600000000 Au
atom 0.5855232600000000 27.0351622099999993 0.0392118800000000 Au
atom 3.1818520299999999 27.1660537899999994 0.0726966100000000 Au
atom 5.9274494600000001 27.2835877999999994 0.2670599300000000 Au
atom 7.3884503700000002 29.6082677099999998 -0.0045828700000000 Au
atom 10.2671801200000008 29.6396889100000003 0.1744806100000000 Au
atom 13.2295833100000007 29.7229348800000004 0.0876753900000000 Au
atom 15.9369048299999996 29.8243955099999987 0.0439460200000000 Au
atom 18.8300161999999993 29.7083488699999982 -0.0464092000000000 Au
atom 21.5563622099999996 29.5603042800000004 0.1119817300000000 Au
atom 24.5177417499999990 29.5890116600000006 -0.0450531700000000 Au
atom 27.1083129700000001 29.6567357899999990 -0.0410580600000000 Au
atom 1.9076284200000000 29.7840165600000013 -0.0795927900000000 Au
atom 4.7500983200000002 29.6454750300000001 0.0748698300000000 Au
atom 8.9330268099999994 32.2137133199999965 0.1289087100000000 Au
atom 11.5782069300000003 31.9813746600000002 0.0724116900000000 Au
atom 14.7778132099999997 32.0845233300000032 0.0965183400000000 Au
atom 17.3336936399999999 32.0438142799999994 -0.1534602900000000 Au
atom 20.2487669900000000 31.9196381199999983 0.0600878200000000 Au
atom 23.0347704799999988 32.1757746500000010 -0.0088640400000000 Au
atom 26.0053502899999991 32.1469788599999973 0.0393772600000000 Au
atom 0.6351856400000000 32.2737364799999966 0.1208055500000000 Au
atom 3.3763751700000002 32.2115950700000013 -0.1139320100000000 Au
atom 6.1484814800000001 32.0953385800000035 -0.0682997700000000 Au
atom 7.4987824700000001 34.4925605099999970 -0.1931551300000000 Au
atom 10.3821397900000001 34.7291912900000028 0.1872903300000000 Au
atom 13.2846670499999995 34.4098739800000004 -0.0025257900000000 Au
atom 15.8516589200000002 34.5174474499999988 0.2685354300000000 Au
atom 19.0430644200000003 34.4939782900000012 -0.0630487300000000 Au
atom 21.5706641599999998 34.5275711199999975 0.1841745800000000 Au
atom 24.4792931600000010 34.4552291400000001 0.0877281800000000 Au
atom 26.9512400599999999 34.3458910000000017 0.1167372300000000 Au
atom 1.9450695899999999 34.5655552899999989 0.0277076100000000 Au
atom 4.5393182400000001 34.6261934600000032 -0.0839831900000000 Au
atom 9.0161394399999999 37.1214529900000016 -0.0835339200000000 Au
atom 11.8275195199999992 36.9233262099999990 0.0154602900000000 Au
atom 14.5343549299999992 37.1633427100000020 0.0104106700000000 Au
atom 17.4664493800000002 37.0898108399999984 0.0930518300000000 Au
atom 20.3178889699999985 37.0621834299999975 0.0520661000000000 Au
atom 22.9610863199999997 37.0733573099999987 -0.0268923800000000 Au
atom 25.8020478400000002 37.0147466000000023 0.0948845300000000 Au
atom 0.4282230100000000 37.0211012400000001 -0.0403496900000000 Au
atom 3.1872481000000001 37.1571441399999998 0.0388933500000000 Au
atom 6.0734810599999998 36.7831126600000005 0.0864040700000000 Au
atom 7.4582582400000001 0.0253162400000000 0.1552637000000000 Au
atom 10.2678058500000002 -0.0080101200000000 0.2275006200000000 Au
atom 13.0249051700000003 0.0549533400000000 0.1339736200000000 Au
atom 15.9367094399999996 -0.0556747000000000 0.0418888100000000 Au
atom 18.8180094000000011 -0.0856481800000000 -0.1020529500000000 Au
atom 21.7241770000000010 0.0170565100000000 0.0673615300000000 Au
atom 24.3401738999999999 -0.0441032700000000 0.1134938300000000 Au
atom 27.1415951100000008 -0.0062856000000000 0.2729229500000000 Au
atom 1.9243061500000000 -0.0336647600000000 -0.0602985100000000 Au
atom 4.7732566800000003 0.0574812100000000 0.1379810900000000 Au
atom 8.7940895500000007 2.5042420500000002 0.0917509800000000 Au
atom 11.7036500599999993 2.5579138800000001 0.1692345000000000 Au
atom 14.6716549300000008 2.5410285899999998 0.1177600400000000 Au
atom 17.3617573599999986 2.5040380000000000 -0.0262069200000000 Au
atom 20.3398768600000004 2.4463086500000002 -0.0247278300000000 Au
atom 22.7974303599999999 2.4401888199999999 0.0311546800000000 Au
atom 25.7072710200000003 2.5212703900000002 0.2092549300000000 Au
atom 0.5569917400000000 2.4076107499999999 0.0997861800000000 Au
atom 3.0990523500000000 2.4433010500000001 0.0710752900000000 Au
atom 6.1666880300000004 2.4525666699999999 0.1405684400000000 Au
atom 7.5502526699999999 5.0597025499999999 -0.0739599400000000 Au
atom 10.4239240199999994 4.9886670100000003 -0.0102863100000000 Au
atom 13.2879453600000002 5.0320807500000004 0.1083174400000000 Au
atom 16.0067062900000003 4.9430250999999998 0.0760541400000000 Au
atom 18.4861478900000016 5.1156971499999999 0.2254723000000000 Au
atom 21.6205825500000017 4.8038528200000004 -0.0246028000000000 Au
atom 24.4885193600000015 4.9029772700000001 0.1350220900000000 Au
atom 27.0555589999999988 4.7940807200000002 -0.1833121900000000 Au
atom 1.8149838800000000 4.9952863299999999 0.0844751500000000 Au
atom 4.6215085699999996 4.7608339600000003 0.1948501900000000 Au
atom 8.8893586199999994 7.3597630699999996 0.0596093900000000 Au
atom 11.5729405399999994 7.4155350499999999 0.1879999100000000 Au
atom 14.6269435399999992 7.5824082500000003 0.1659194400000000 Au
atom 17.3766107100000013 7.3511808500000004 0.0372140400000000 Au
atom 20.0130584099999993 7.5009093299999998 -0.0571900600000000 Au
atom 23.2143891199999999 7.2681219700000002 -0.0350530300000000 Au
atom 25.8865130199999989 7.6198864600000000 0.1453349500000000 Au
atom 0.3777609700000000 7.4575430699999998 0.0400840300000000 Au
atom 3.3177644599999998 7.4175519300000001 0.0832058600000000 Au
atom 6.1318904300000003 7.3178080500000000 0.0394539900000000 Au
atom 7.1949831800000004 9.7197465399999992 -0.1370491500000000 Au
atom 10.4160721499999998 9.8688453799999998 -0.0222960200000000 Au
atom 13.1694628300000005 9.9897494699999996 0.0445147500000000 Au
atom 15.8496960300000005 9.8205585400000004 -0.1159366200000000 Au
atom 18.8025761699999983 9.9032826699999994 -0.0145212300000000 Au
atom 21.7486277600000015 9.7649612399999999 0.1836849700000000 Au
atom 24.3655169100000002 9.9125675900000001 -0.0128617300000000 Au
atom 27.2350354599999989 9.9917813700000000 0.0535284000000000 Au
atom 1.8242131300000000 9.8320596400000007 0.0360792900000000 Au
atom 4.5605922500000000 9.8364438199999995 0.1495773000000000 Au
atom 8.8143009100000000 12.2792591400000006 0.1298558100000000 Au
atom 11.7773173599999996 12.1957478300000002 0.0708625600000000 Au
atom 14.5580092699999994 12.1294735100000004 0.2105523600000000 Au
atom 17.2761361300000011 12.3371313600000008 -0.0342481100000000 Au
atom 20.0613579000000009 12.4852695600000008 -0.1215663100000000 Au
atom 23.0268343800000004 12.2595012800000003 -0.0580065200000000 Au
atom 25.8697109900000015 12.3672425300000004 0.2647836400000000 Au
atom 0.4317113300000000 12.2446165199999992 0.0966619600000000 Au
atom 3.1834245000000001 12.4137773399999993 -0.0995148500000000 Au
atom 6.1066627200000001 12.4656016600000008 0.0148904500000000 Au
atom 7.4819617699999998 13.1583836800000000 2.7291809599999999 Au
atom 10.2590753499999998 13.4510639500000000 2.6136926900000002 Au
atom 13.2291044699999993 13.1622450000000004 2.5858829100000000 Au
atom 15.7189876900000005 13.3653510099999995 2.4164658600000002 Au
atom 18.8070512699999988 13.2847697700000005 2.5804420299999999 Au
atom 21.5413096599999996 13.1893302099999996 2.5333203100000001 Au
atom 24.2774598399999988 13.3228473800000007 2.6857749300000000 Au
atom 27.3903569800000000 13.0999952499999992 2.4214483300000000 Au
atom 1.7839981300000001 13.0237595699999993 2.6229497300000002 Au
atom 4.5229588700000001 13.0304124500000000 2.6607929499999998 Au
atom 8.8895494199999998 15.7639242500000005 2.5211497000000000 Au
atom 11.9414163400000000 15.6578497500000005 2.7109794500000000 Au
atom 14.5085201900000005 15.6706589100000002 2.6841379900000000 Au
atom 17.3666551399999989 15.6461644399999997 2.4751891700000002 Au
atom 20.3474354300000009 15.7139241500000004 2.6162638199999999 Au
atom 22.9521934099999996 15.6348219099999994 2.6336604800000001 Au
atom 25.6637782500000000 15.5983942899999999 2.5781861600000000 Au
atom 0.4305126700000000 15.6634118400000002 2.7561714600000000 Au
atom 3.3256265599999999 15.6523394899999992 2.7223365600000000 Au
atom 6.0871296800000003 15.5032954000000007 2.5138661400000002 Au
atom 7.5707182299999998 18.3148868500000006 2.5956167600000000 Au
atom 10.3928643699999999 18.1613414700000000 2.5418344099999999 Au
atom 13.2540695700000004 18.1671145799999998 2.8089351200000001 Au
atom 16.0616544899999987 18.3264220599999987 2.8516171899999998 Au
atom 18.7572515899999992 18.0786008000000002 2.6321211899999999 Au
atom 21.5662709499999998 18.2096439600000011 2.4972083199999999 Au
atom 24.3743154000000004 18.0015710800000015 2.8038480200000002 Au
atom 27.3043028099999994 17.8941456499999987 2.8454602699999998 Au
atom 1.8062856199999999 18.0232752000000005 2.5932755500000000 Au
atom 4.7907635199999996 18.1569928999999988 2.5717933799999999 Au
atom 9.0640349699999998 20.6964328500000008 2.8203714999999998 Au
atom 11.6802659500000008 20.5616640199999985 2.6660961300000001 Au
atom 14.6255135099999993 20.4961725699999988 2.8855756700000001 Au
atom 17.3916825199999998 20.4728614799999988 2.5841029099999999 Au
atom 20.4170568099999983 20.6346189600000010 2.6572626900000000 Au
atom 23.0319528099999999 20.4360164200000014 2.8772415800000002 Au
atom 25.9699710900000014 20.5947108999999990 2.8921724400000000 Au
atom 0.4642077300000000 20.5992910599999988 2.6925737000000001 Au
atom 3.0595320500000001 20.6405976600000010 2.9311932900000000 Au
atom 6.0330615200000004 20.6919061199999987 2.7768730900000000 Au
atom 7.4010000600000003 23.0499572999999991 2.5988932299999998 Au
atom 10.3065042400000006 23.0654643899999989 2.6780477800000000 Au
atom 13.2479991399999992 23.0899840599999990 2.5426672699999999 Au
atom 16.0125896499999989 23.1972129000000002 2.7251257799999999 Au
atom 18.8209322800000010 22.9796717199999989 2.6107944500000002 Au
atom 21.4846882100000016 23.0553171299999988 2.5848036599999999 Au
atom 24.3554468700000015 23.0352565300000016 2.6897921800000000 Au
atom 27.2139072199999994 23.2216924999999996 2.4844568400000000 Au
atom 1.8213890900000000 23.1783962599999995 2.6969330100000000 Au
atom 4.8052266100000001 23.1655888400000016 2.8661244199999998 Au
atom 8.8848564099999994 25.4144317400000013 2.7498696200000001 Au
atom 11.4340049700000002 25.5876650900000016 2.7753093799999999 Au
atom 14.7774811499999998 25.5489043799999997 2.6760556499999999 Au
atom 17.3874253500000009 25.5069644699999998 2.5912781800000002 Au
atom 20.1487789600000013 25.3765652000000017 2.7286988100000000 Au
atom 23.0888115200000001 25.6235268900000008 2.8035846200000001 Au
atom 25.8005656099999996 25.6117383700000012 2.5099017799999999 Au
atom 0.3986357400000000 25.4973582999999984 2.6744701800000001 Au
atom 3.1651202800000000 25.3482517799999982 3.0375620500000000 Au
atom 6.3100602099999996 25.5242180199999993 2.8812317200000002 Au
atom 7.4020671199999999 28.0002924799999988 2.7108410300000001 Au
atom 10.3374803600000007 28.1317395099999992 2.6684859200000002 Au
atom 13.0734107599999998 27.9160132899999986 2.3940862699999998 Au
atom 16.1550372300000014 28.0087494700000015 2.6800026300000002 Au
atom 18.5495298300000009 27.8624135099999997 2.8020870100000002 Au
atom 21.4348897200000010 27.9952861999999989 2.5593963999999998 Au
atom 24.4471059000000004 27.9853970799999985 2.7965424400000001 Au
atom 27.1935287899999985 27.8545707799999995 2.9406782900000001 Au
atom 1.8773691100000001 28.0654391099999998 2.5942498100000000 Au
atom 4.7719246799999997 28.0954081600000016 2.6452220099999999 Au
atom 8.8475032200000001 30.3432054300000011 2.7818750400000001 Au
atom 11.6345611299999998 30.4768724900000016 2.7450138200000000 Au
atom 14.5644697099999991 30.4514323000000005 2.4901792800000000 Au
atom 17.4448364799999993 30.4865177100000011 2.7304374600000001 Au
atom 20.3048300300000015 30.5195255900000006 2.7996974400000001 Au
atom 23.1158461399999986 30.4092264999999990 2.5274797800000002 Au
atom 25.9026117300000003 30.5159791600000005 2.7822756399999999 Au
atom 0.5719725500000000 30.2639693100000002 2.7275945500000001 Au
atom 3.2037442500000002 30.5131176599999989 2.6147492300000001 Au
atom 6.0988769400000002 30.3420817400000011 2.4911953499999999 Au
atom 7.4753433600000001 32.9961748200000002 2.5125682199999999 Au
atom 10.4953532299999992 32.8814356099999969 2.5863031900000002 Au
atom 13.1348269400000000 32.7750269699999990 2.6109035199999999 Au
atom 15.8936337900000009 32.8550137900000010 2.6036841399999999 Au
atom 18.7825207700000014 32.8543418799999998 2.5677801300000000 Au
atom 21.4943279899999986 32.8057648999999998 2.6126968800000001 Au
atom 24.3517577100000011 32.8945018599999983 2.6460982500000001 Au
atom 27.0280642200000010 33.1369508699999997 2.6030921000000000 Au
atom 1.8938166599999999 32.9909825399999974 2.6058939600000000 Au
atom 4.6447051100000003 33.0075817099999966 2.7593568999999998 Au
atom 8.9809916199999993 35.2223986199999999 2.7051716699999999 Au
atom 11.4586649600000001 35.4227292100000000 2.7086979699999998 Au
atom 14.6632709000000006 35.3591527499999998 2.6311899400000001 Au
atom 17.4601006699999992 35.5376238099999995 2.5586027100000002 Au
atom 20.1845155799999993 35.1933045899999968 2.7496190999999999 Au
atom 22.9841372700000015 35.5022199200000017 2.7246573100000000 Au
atom 25.8985395999999994 35.4053563000000011 2.6365405000000002 Au
atom 0.4362449400000000 35.5077459000000033 2.8526348900000000 Au
atom 3.2316894299999999 35.2917637999999982 2.7179020600000001 Au
atom 6.0606729499999998 35.3003841199999968 2.6103770700000002 Au
atom 7.5197759800000004 37.8551348700000005 2.6203662900000002 Au
atom 10.2286418399999999 37.9921505100000019 2.7671208699999998 Au
atom 13.1841780699999997 37.9645831899999990 2.5915397699999998 Au
atom 15.9409396700000006 37.7635250200000030 2.7293398099999999 Au
atom 18.8489575999999985 37.5697514699999999 2.5400927200000001 Au
atom 21.6586648500000010 37.9121076899999991 2.6220859200000000 Au
atom 24.4220546200000008 37.6424910499999967 2.4969900400000000 Au
atom 27.2043290599999992 37.8130687600000002 2.5032852100000000 Au
atom 1.8987702900000001 37.8544776999999968 2.6356650400000001 Au
atom 4.6556655500000002 37.8925766300000006 2.7335067400000002 Au
atom 8.9271036200000005 0.8610875099999999 2.6010022300000002 Au
atom 11.6939395099999999 0.6465786000000000 2.6939669999999998 Au
atom 14.4237280400000003 0.7558542100000000 2.8676524699999999 Au
atom 17.3628017200000002 0.9431146900000000 2.8065477599999999 Au
atom 20.1256310599999999 0.8163803500000000 2.8483709899999998 Au
atom 22.9495274900000013 0.8105189100000000 2.5441521599999999 Au
atom 25.7793433800000003 1.0405710300000000 2.6375217900000001 Au
atom 0.5156499300000000 0.9382795200000000 2.7221109700000001 Au
atom 3.1700545000000000 0.8836434600000000 2.7636846500000001 Au
atom 6.0853033600000002 0.7702919700000000 2.8680688200000000 Au
atom 7.6201944199999998 3.4802827399999998 2.8913309599999999 Au
atom 10.3699553699999996 3.4940596199999998 2.7698863000000000 Au
atom 13.2620524500000005 3.3507703300000000 2.6733823100000000 Au
atom 16.0082570100000012 3.2736726500000000 2.5436509699999998 Au
atom 18.6157697999999989 3.2759801799999999 2.5828210199999999 Au
atom 21.6266651699999990 3.4329766899999998 2.6698159000000001 Au
atom 24.3880444499999989 3.3281381200000002 2.6859916799999999 Au
atom 27.3112493699999987 3.1854539300000000 2.5667333499999998 Au
atom 2.0327034600000000 3.1766828399999998 2.7968230400000000 Au
atom 4.6371695700000002 3.2929862700000001 2.8042801800000001 Au
atom 9.0383350799999995 5.8312096799999997 2.6917422400000000 Au
atom 11.7066418599999995 5.9139058799999997 2.7456123500000000 Au
atom 14.6043001900000000 5.5766764100000001 2.5609787499999999 Au
atom 17.5572311700000014 5.7539151700000000 2.6423773599999998 Au
atom 20.1374125900000003 5.8140094400000004 2.7405243300000000 Au
atom 22.9385223799999984 5.9897435899999998 2.7355528900000001 Au
atom 25.7182633900000006 5.9322363300000003 2.6977686300000001 Au
atom 0.4488762700000000 5.8735257200000000 2.8171560200000001 Au
atom 3.2070104200000000 5.7423060699999997 2.7357456299999998 Au
atom 6.0046744600000004 5.7170624099999996 2.6904423099999999 Au
atom 7.5092070499999997 8.2676943999999999 2.8438656099999999 Au
atom 10.3037989499999991 8.3555378099999995 2.6892496299999999 Au
atom 12.9336754900000006 8.2872169200000005 2.6123024799999999 Au
atom 16.1105413199999994 8.2821319800000008 2.5837893900000002 Au
atom 18.7580107900000002 8.2921227300000009 2.8503433500000002 Au
atom 21.5728861099999989 8.2960081300000006 2.6280363400000000 Au
atom 24.4917880900000000 8.2658014299999998 2.6369482899999999 Au
atom 27.4224473899999985 8.2250642400000000 2.5621096600000000 Au
atom 1.7705499400000000 8.2662019099999995 2.9196087300000002 Au
atom 4.6772995399999999 8.3272481099999993 2.6890157200000000 Au
atom 8.7958418599999995 10.6847725400000009 2.5796619199999999 Au
atom 11.6457561799999993 10.7765527100000007 2.6613493699999999 Au
atom 14.6617848199999994 10.7019037800000003 2.7400775999999998 Au
atom 17.5298257500000005 10.6423875500000005 2.6065777500000000 Au
atom 20.2545701200000003 10.7846510400000000 2.6382684699999999 Au
atom 23.0158057099999986 10.9056782099999996 2.6629091699999998 Au
atom 25.9311509499999993 10.6809453399999992 2.5017658500000000 Au
atom 0.4205169600000000 10.6718715500000005 2.5745276900000000 Au
atom 3.4062731199999998 10.7035585100000006 2.6491706800000001 Au
atom 5.8305398000000004 10.7382323199999998 2.6011321399999998 Au
atom 7.4266913199999998 13.1219728999999994 5.8427200800000003 Cl
atom 7.5665592300000002 15.9796355000000005 8.4748513100000000 Cl
atom 7.5795313899999996 13.0456313200000000 8.5194717499999992 Na
atom 7.5938753400000003 16.0941600099999995 5.9290677900000004 Na
atom 7.5054956500000003 18.7693821099999987 5.8194253700000003 Cl
atom 7.6814700000000000 21.8438939999999988 8.5092120199999997 Cl
atom 7.5574913600000002 18.8901932399999986 8.4515274100000006 Na
atom 7.4197235299999997 21.4824938799999998 5.8309558299999997 Na
atom 7.3877781300000001 24.4332343799999983 5.8637221799999999 Cl
atom 7.6573929800000000 27.2755197900000006 8.6868479199999999 Cl
atom 7.5847613999999997 24.6033072600000011 8.3925917299999995 Na
atom 7.5401634599999996 27.2662351899999997 5.6178246100000004 Na
atom 7.4847748300000001 30.1087748399999988 5.6817141099999997 Cl
atom 7.5141954799999997 32.9783629699999992 8.6807393699999995 Cl
atom 7.6686035199999996 30.0884091500000004 8.3228185700000008 Na
atom 7.4387885499999999 32.9215700800000022 5.7504611700000003 Na
atom 7.3903135500000001 35.7180543400000019 5.9788275799999999 Cl
atom 7.5132961500000004 38.4976079899999988 8.6318328399999995 Cl
atom 7.5198438699999999 35.8395868400000026 8.3926143799999995 Na
atom 7.5007154900000002 38.5702313299999986 5.6958860099999997 Na
atom 7.4243705599999998 1.8003718300000000 5.5539565299999998 Cl
atom 7.5863830999999999 4.7888019899999996 8.6413025000000001 Cl
atom 7.4517774899999996 2.0303814199999999 8.5986014300000004 Na
atom 7.5470765499999999 4.7462973499999999 5.8722714600000003 Na
atom 7.4660453699999998 7.4969897000000003 5.6540360999999999 Cl
atom 7.3997586599999998 10.4579766900000006 8.6247762199999993 Cl
atom 7.5188780599999996 7.3275817099999996 8.1736243500000008 Na
atom 7.5290023899999996 10.3883252299999995 5.7622076699999996 Na
atom 10.3414528800000003 13.1794925200000002 5.8305923300000000 Na
atom 13.1088488800000000 13.2353403600000004 5.6375118100000003 Cl
atom 10.3263386300000004 15.9582941500000004 8.3579409600000005 Na
atom 13.1365891300000008 15.9917820699999993 8.6291188699999992 Cl
atom 13.2529474100000009 13.0193070300000002 8.4010542499999996 Na
atom 10.2874586200000007 13.1179746399999999 8.6679157100000008 Cl
atom 13.3269267800000009 15.9478879100000004 6.0535217200000000 Na
atom 10.4277014300000008 16.0794042600000004 5.8659175499999998 Cl
atom 10.2214740699999993 18.8903528300000012 5.7236819099999998 Na
atom 13.1303558500000008 18.7910177000000012 5.6710878700000000 Cl
atom 10.0715271699999995 21.7106107900000005 8.3939217599999996 Na
atom 13.0601480700000003 21.6580890199999985 8.4954943699999994 Cl
atom 13.0582956299999999 18.9109374800000012 8.4483994700000000 Na
atom 10.4962449699999993 18.9254573599999993 8.5558970999999993 Cl
atom 13.1172497000000003 21.6776424699999986 5.5585375700000004 Na
atom 10.3127902700000007 21.5941586699999988 5.8384464999999999 Cl
atom 10.2997904200000008 24.3838599199999990 5.7711412700000002 Na
atom 13.0778628500000007 24.3108906000000005 5.7157266800000004 Cl
atom 10.3653573899999998 27.3124416600000011 8.3587364799999992 Na
atom 13.0251496899999992 27.1829419100000003 8.3196041600000008 Cl
atom 13.0289001300000002 24.4278527399999987 8.3283538700000008 Na
atom 10.3302471199999992 24.3963235500000017 8.6328426300000007 Cl
atom 13.2205214299999998 27.3278680200000004 5.9146819600000002 Na
atom 10.4258238500000004 27.2067209500000011 5.8181725200000001 Cl
atom 10.4033535199999996 30.1123946499999988 5.7981980000000002 Na
atom 13.2425251500000005 30.0074639599999990 5.7314860400000001 Cl
atom 10.3541539399999998 32.8810479400000020 8.3209122200000003 Na
atom 13.0590332500000006 32.9032584500000027 8.6222870799999995 Cl
atom 13.0948681699999998 30.0078890499999993 8.5066812600000006 Na
atom 10.1770977800000004 30.0777867500000013 8.6550175700000000 Cl
atom 12.9370058500000003 32.9307037000000022 5.8708625799999998 Na
atom 10.2686443399999998 32.7989355799999984 5.7439627499999997 Cl
atom 10.1553840300000005 35.7383835500000018 5.7056719400000002 Na
atom 13.0872234200000008 35.7741714599999980 5.7631680799999998 Cl
atom 10.3597157499999994 38.6310018100000008 8.2237288999999993 Na
atom 13.1066217100000006 38.5002293699999996 8.6420364700000007 Cl
atom 13.1814861899999993 35.7106779000000003 8.4310532899999995 Na
atom 10.2783753999999998 35.6349623799999975 8.6273672099999992 Cl
atom 13.1276437399999999 38.5645982500000031 5.9155408200000004 Na
atom 10.2678628599999993 38.4811648000000019 5.6898737600000002 Cl
atom 10.2879924400000000 1.9048546000000000 5.7710853599999998 Na
atom 13.1727006299999996 1.9287718000000000 5.5879339999999997 Cl
atom 10.1805200100000004 4.9260696299999998 8.4386514699999999 Na
atom 13.3263798799999993 4.7498005299999999 8.5016009100000005 Cl
atom 13.0856101999999996 1.9840819800000000 8.6025651900000000 Na
atom 10.3077524999999994 1.8104164000000000 8.4681340899999995 Cl
atom 13.0059237200000002 4.7149901999999999 5.7728495000000004 Na
atom 10.2938786800000006 4.7633890100000000 5.7549313700000004 Cl
atom 10.1702533800000001 7.6038505499999998 5.9449412099999996 Na
atom 13.0001347900000006 7.5172411500000003 5.8444244200000002 Cl
atom 10.3721377900000000 10.2430828399999996 8.3936376500000005 Na
atom 13.1561928600000009 10.3990804000000008 8.3814494300000000 Cl
atom 13.1637263200000003 7.6029342900000003 8.4538399200000001 Na
atom 10.1852302399999992 7.5171258999999999 8.5547094099999992 Cl
atom 13.2898441999999992 10.5773785599999997 5.6749807299999997 Na
atom 10.2828257000000001 10.3659064700000005 5.7796302900000001 Cl
atom 16.0229952900000008 13.0769842500000006 5.7887087800000003 Na
atom 18.8598139899999993 12.9503268899999995 5.8292369500000003 Cl
atom 15.8367500400000001 15.8315800299999996 8.3012811899999992 Na
atom 18.6205430800000009 15.9729499900000000 8.7563398600000006 Cl
atom 18.8640688200000000 13.1326052400000002 8.3927725199999994 Na
atom 15.9415313899999997 13.2865723399999993 8.6790939500000004 Cl
atom 18.6541483600000007 15.9111148000000000 5.7100863799999999 Na
atom 15.8992116699999997 15.9870180899999994 5.7031326299999998 Cl
atom 16.0684400499999995 18.7879214300000008 5.8536431599999998 Na
atom 18.7331877200000001 18.7219147300000017 5.6315806300000002 Cl
atom 15.8725067699999993 21.5925256899999987 8.3562941300000002 Na
atom 18.9071784100000002 21.6594005199999984 8.3387288599999998 Cl
atom 18.6220011800000016 18.8138009699999991 8.3418632499999994 Na
atom 15.9973186500000004 18.9322287799999991 8.6098680099999996 Cl
atom 18.7482088000000005 21.7648329300000007 5.8789845700000001 Na
atom 16.0321384100000017 21.7028832999999999 5.8258803300000004 Cl
atom 16.0486746400000015 24.2815683699999987 5.7339234599999997 Na
atom 18.7419118100000013 24.4427112199999996 5.7901382999999997 Cl
atom 15.9511543299999996 27.3611532799999999 8.2040613600000007 Na
atom 18.9114411500000017 27.2031531800000010 8.5702176100000003 Cl
atom 18.6858709500000018 24.4271987700000004 8.4457586800000009 Na
atom 15.8817602999999998 24.5552142300000007 8.4789288000000003 Cl
atom 18.7576714699999982 27.1104231200000001 5.7319569499999998 Na
atom 16.0813618600000012 27.3792876800000009 5.5380801399999999 Cl
atom 15.7479276200000005 29.9605399599999984 5.6523895299999998 Na
atom 18.8127810400000008 29.9530374500000001 5.5465505300000002 Cl
atom 16.0474072899999989 32.9227034800000027 8.4256955999999992 Na
atom 18.7071681400000003 32.7950750600000021 8.5449626199999997 Cl
atom 18.9478209699999987 30.1309339099999995 8.4065830300000002 Na
atom 16.0271801200000006 29.9999731199999999 8.5015751099999992 Cl
atom 18.8495190800000003 32.7399833300000012 5.8398523899999999 Na
atom 15.8641213600000004 32.8962111100000030 5.7820239100000004 Cl
atom 15.8989876199999998 35.6522653600000012 5.9692810300000003 Na
atom 18.7504198200000012 35.8495779200000015 5.6498949300000003 Cl
atom 16.0639244000000012 38.5292789299999967 8.4654120600000002 Na
atom 18.7454040599999985 38.5963326999999978 8.6519890000000004 Cl
atom 18.7344083400000017 35.8587709600000011 8.2383039399999998 Na
atom 15.9214150799999992 35.5904447200000007 8.5075710200000003 Cl
atom 18.8956283700000007 38.6405916200000021 5.9584559900000000 Na