#===============================================================================
# Created using the Atomic Simulation Environment (ASE)

# Tue Dec 23 21:43:03 2025

#=======================================================
lattice_vector 28.1999999999999993 0.0000000000000000 0.0000000000000000 
lattice_vector 0.0000000000000000 39.4799999999999969 0.0000000000000000 
lattice_vector 0.0000000000000000 0.0000000000000000 62.3296083400000001 
atom 7.5047719300000004 14.7223269099999996 -0.1432507000000000 Au
atom 10.2865892700000003 14.7562198500000008 0.2150701200000000 Au
atom 13.3072272399999996 14.7770864100000008 0.1468474500000000 Au
atom 16.1437553200000004 14.7245502300000002 -0.0677004600000000 Au
atom 18.8281391800000009 14.7984192300000004 0.0660534800000000 Au
atom 21.6653742399999985 14.7555942200000008 -0.2875761700000000 Au
atom 24.5625958199999985 14.7897674600000002 -0.0771186100000000 Au
atom 27.3531637900000000 14.9209302600000004 -0.1005855400000000 Au
atom 1.9161454300000000 14.6795271300000003 0.0560287600000000 Au
atom 4.7382089100000000 14.7971685300000004 -0.2116425800000000 Au
atom 8.9186227799999998 17.1614850399999987 -0.0547231700000000 Au
atom 11.7556788399999999 17.2196464099999993 0.0097053900000000 Au
atom 14.5560631100000002 17.3650122300000014 0.0778219700000000 Au
atom 17.3067258499999994 17.2434817299999992 0.0711571800000000 Au
atom 20.2942285899999995 17.3479211100000015 0.1464093300000000 Au
atom 23.0581034699999989 17.2142119999999998 -0.2875749200000000 Au
atom 25.8938538700000009 17.3040744000000011 -0.0298183800000000 Au
atom 0.6064359600000000 17.2507665099999983 -0.2404242500000000 Au
atom 3.3691914000000001 17.2239362299999996 -0.1158992600000000 Au
atom 6.1480168900000001 17.2394464700000007 -0.0363863600000000 Au
atom 7.5031365000000001 19.7577778200000012 -0.0520415000000000 Au
atom 10.2882787899999997 19.7103999799999983 0.1052213800000000 Au
atom 13.1070517399999993 19.8032225100000012 0.2193191200000000 Au
atom 15.9437630200000005 19.7575638500000004 0.0760584500000000 Au
atom 18.7028425300000016 19.7263147200000013 0.0178314400000000 Au
atom 21.5704927300000016 19.8778491300000013 -0.1389800600000000 Au
atom 24.4091443999999989 19.7614781700000002 -0.0280243500000000 Au
atom 27.3427375400000017 19.7222035099999999 -0.1380260700000000 Au
atom 1.9074829600000001 19.6520274199999996 0.1500229600000000 Au
atom 4.7524917400000000 19.7997602599999993 -0.2544371900000000 Au
atom 9.0486402100000003 22.1570624299999999 -0.1586963300000000 Au
atom 11.6816531900000005 22.1440471400000014 0.4981056100000000 Au
atom 14.6174550100000005 22.2358632900000011 0.3876113700000000 Au
atom 17.3961098999999990 22.2549989900000007 0.1130355700000000 Au
atom 20.2226553100000004 22.3394397600000012 0.0817142500000000 Au
atom 23.1068787299999983 22.2820185500000001 0.0024195100000000 Au
atom 25.8248657799999997 22.1511119600000015 0.0122060200000000 Au
atom 0.4396080900000000 22.1561109099999989 -0.0479889000000000 Au
atom 3.2469488200000001 22.1493058100000013 0.0580564900000000 Au
atom 6.1837232300000000 22.2324305299999985 0.0048064700000000 Au
atom 7.5926655099999998 24.7043890700000013 -0.0898661700000000 Au
atom 10.2845584799999994 24.5280453399999985 0.4569556600000000 Au
atom 13.2352514499999998 24.5513069500000007 0.1504075000000000 Au
atom 16.0160210099999993 24.7160915599999989 0.1897284400000000 Au
atom 18.7516132000000013 24.7751927400000014 0.3031722500000000 Au
atom 21.6407339000000007 24.8626064100000015 0.1874322900000000 Au
atom 24.4574673999999987 24.6539859200000002 0.0389079500000000 Au
atom 27.3135406900000000 24.6734334000000004 0.0809908200000000 Au
atom 1.9200663099999999 24.6823619299999990 -0.0588416200000000 Au
atom 4.6758423899999997 24.7171204899999992 -0.0156001400000000 Au
atom 8.9305006200000001 27.0383632399999989 0.1897930300000000 Au
atom 11.6759781199999999 27.0045631700000008 0.0988238400000000 Au
atom 14.6198002999999996 27.1177994700000013 0.0293937600000000 Au
atom 17.4211783500000017 27.2429238699999985 0.1279714000000000 Au
atom 20.2507609200000012 27.2320233400000014 0.0674564600000000 Au
atom 23.0221385299999994 27.2019334899999983 0.1159397900000000 Au
atom 25.8799218000000018 27.1624249300000002 0.2210448700000000 Au
atom 0.4093300500000000 27.1834679600000015 0.0170043400000000 Au
atom 3.2012088699999999 27.2000099099999986 -0.0684709900000000 Au
atom 6.1645379599999997 27.0795313399999991 -0.2111910500000000 Au
atom 7.4293265100000001 29.5267987500000011 0.0138024700000000 Au
atom 10.2990677000000002 29.4596033400000010 0.0346800200000000 Au
atom 13.0946582899999999 29.5492520700000014 -0.1240464800000000 Au
atom 15.8776848400000006 29.6648777499999987 0.1783346800000000 Au
atom 18.8230934599999991 29.6990830800000012 0.1650295900000000 Au
atom 21.6270844199999992 29.6395122999999998 0.1751191000000000 Au
atom 24.4234170299999995 29.5330664799999987 0.0011319900000000 Au
atom 27.2818956999999997 29.5400525400000014 -0.1121594800000000 Au
atom 1.8577446300000000 29.5813195299999983 -0.3088637200000000 Au
atom 4.6776728199999997 29.6365372200000010 -0.3036024500000000 Au
atom 8.9024358499999998 31.8816245900000013 0.1545605500000000 Au
atom 11.7939160800000007 32.0081661099999977 0.1379271000000000 Au
atom 14.6755111500000002 32.1390201199999979 0.2079596400000000 Au
atom 17.4093823000000008 32.0792886899999985 -0.1750499500000000 Au
atom 20.2207721099999986 32.1265376899999993 -0.0110783600000000 Au
atom 23.0535636100000012 31.9652558800000008 -0.1737829000000000 Au
atom 25.9006457999999995 31.9782428000000003 -0.1454812300000000 Au
atom 0.6149838900000000 32.0450092499999997 -0.0148389500000000 Au
atom 3.3915069500000001 32.1139957199999984 -0.1923318900000000 Au
atom 6.1433956800000002 32.1035723299999987 -0.1083632600000000 Au
atom 7.6081539600000001 34.4579308499999968 -0.1566760400000000 Au
atom 10.4068616100000000 34.4923481200000026 0.0806803400000000 Au
atom 13.2550108699999996 34.7434317299999975 0.1754171000000000 Au
atom 16.0996388699999997 34.6740451200000024 0.0782857300000000 Au
atom 18.8302656299999995 34.6675096299999979 -0.0896924400000000 Au
atom 21.6034738299999987 34.5558689900000005 -0.1744685100000000 Au
atom 24.4293045999999983 34.6646717200000012 -0.0686511500000000 Au
atom 27.2755761099999994 34.4592736500000001 0.1454662200000000 Au
atom 1.8092965400000001 34.6767966700000017 -0.0902137900000000 Au
atom 4.7511559600000002 34.5307278800000006 -0.0577972700000000 Au
atom 8.9494292200000007 36.9365908700000034 0.1982641300000000 Au
atom 11.7561738299999998 37.0772273799999965 0.1286754400000000 Au
atom 14.6489484099999991 37.1181184499999972 -0.0572769100000000 Au
atom 17.4132697199999988 37.1583977000000019 -0.0781177300000000 Au
atom 20.1897854099999989 37.1545008900000013 -0.0404320900000000 Au
atom 23.1005049100000015 37.0819085199999989 -0.0547380300000000 Au
atom 25.9272356200000011 36.9880129599999989 -0.0223099900000000 Au
atom 0.5958049300000000 37.1712094399999984 -0.0559591800000000 Au
atom 3.3551085299999999 37.1347581300000016 -0.0632616300000000 Au
atom 6.1262502200000002 37.1102881899999986 -0.1400687100000000 Au
atom 7.6077041500000000 0.0664781300000000 0.0173905800000000 Au
atom 10.3267662399999995 0.0826869600000000 0.1816682200000000 Au
atom 13.2374755099999994 0.0294474800000000 0.0748622500000000 Au
atom 16.0163344099999989 0.1504456400000000 0.2447343200000000 Au
atom 18.8342661599999985 0.1684619000000000 0.2145680100000000 Au
atom 21.6747772300000001 0.0269955500000000 -0.0824515400000000 Au
atom 24.6344419099999996 -0.0051053100000000 0.1414443600000000 Au
atom 27.3553014499999989 0.0580047700000000 0.1152616600000000 Au
atom 1.9908238300000001 0.1381182200000000 -0.1521134400000000 Au
atom 4.8383910900000000 0.0091169200000000 0.0782534100000000 Au
atom 8.9982311100000008 2.4445831500000001 0.2781882600000000 Au
atom 11.8188861999999997 2.4655521399999998 0.5152535900000000 Au
atom 14.5246432599999995 2.4669932700000001 0.1756731900000000 Au
atom 17.4060192899999997 2.6005889700000000 0.3306462400000000 Au
atom 20.2507515399999996 2.5779732000000002 0.2756250100000000 Au
atom 22.9716382099999983 2.5131991700000000 0.0284363400000000 Au
atom 25.8291858499999982 2.4458682100000000 0.1593846800000000 Au
atom 0.4357281800000000 2.4305987800000000 0.3051973200000000 Au
atom 3.3206770500000000 2.5780941500000001 -0.0703305700000000 Au
atom 6.1814373800000002 2.4839493899999998 0.1953923900000000 Au
atom 7.5938911300000003 4.8775398900000004 0.4351855400000000 Au
atom 10.3433426799999992 4.9489070100000001 0.3045355700000000 Au
atom 13.1831158100000003 4.8549793499999998 0.3946778700000000 Au
atom 15.9867916900000004 4.8601129500000004 0.3656834100000000 Au
atom 18.8165790199999989 4.9656334600000003 0.1604237200000000 Au
atom 21.6783626299999987 4.9582263700000002 0.1231803700000000 Au
atom 24.5072835399999995 4.9436665099999999 -0.0487056000000000 Au
atom 27.2480420300000006 4.9417428900000004 0.2274691800000000 Au
atom 1.9356721800000001 4.9918903300000004 -0.0200028700000000 Au
atom 4.8328324100000000 4.9358054600000001 0.1519106000000000 Au
atom 9.0562171300000003 7.4367015099999998 0.0450749600000000 Au
atom 11.8787382299999997 7.2973671199999997 -0.0247431400000000 Au
atom 14.6573351200000008 7.3678400300000000 0.4920916200000000 Au
atom 17.4131582800000011 7.3321542199999996 0.1901688100000000 Au
atom 20.2705339199999983 7.5238147399999997 -0.0558963900000000 Au
atom 23.0775889700000008 7.4371627599999997 0.0625238800000000 Au
atom 25.8855195100000017 7.4369983299999998 0.0020402400000000 Au
atom 0.3976531300000000 7.3779323799999998 0.1005630800000000 Au
atom 3.3314876199999999 7.3972066500000002 0.0035786800000000 Au
atom 6.2224130000000004 7.3028003300000002 0.0795717600000000 Au
atom 7.5145558100000001 9.7949934899999995 -0.0027269000000000 Au
atom 10.4186042200000006 9.9160854000000000 -0.0848321200000000 Au
atom 13.1619759900000002 9.7898197200000006 0.1661239300000000 Au
atom 16.0031451699999998 9.8785365100000000 0.2389256100000000 Au
atom 18.7711698899999995 9.8236015900000009 -0.2161645200000000 Au
atom 21.7373612700000010 9.9293013000000006 -0.0092829200000000 Au
atom 24.5313986300000018 9.9497473200000002 -0.0201760500000000 Au
atom 27.3274657099999985 9.8540328899999992 -0.2184539100000000 Au
atom 1.9172753300000001 9.9202702800000004 -0.0057005500000000 Au
atom 4.7049545899999998 9.7973853700000006 0.0389823800000000 Au
atom 9.0135847499999997 12.3071611399999998 -0.0946540400000000 Au
atom 11.8168113699999999 12.3169068999999993 -0.0012125300000000 Au
atom 14.6752811300000001 12.2642729100000007 -0.0761123700000000 Au
atom 17.4719332899999991 12.2974084999999995 -0.0116937300000000 Au
atom 20.2530600300000003 12.3421513500000000 -0.2202125200000000 Au
atom 23.2263097499999986 12.3172803099999992 -0.2663883000000000 Au
atom 26.0371836899999991 12.4853415800000001 -0.1620855900000000 Au
atom 0.5113772400000000 12.3073920099999992 -0.0227821700000000 Au
atom 3.4000714300000001 12.2855637000000009 -0.4091903400000000 Au
atom 6.2118793500000002 12.2697470299999996 -0.1241665200000000 Au
atom 7.6852861299999997 13.2476814100000002 2.3287411100000002 Au
atom 10.5604587500000004 13.1823957899999993 2.7189202899999998 Au
atom 13.3946258300000007 13.1259644299999998 2.5712954899999998 Au
atom 16.1295756399999988 13.1812633699999999 2.6322688099999998 Au
atom 18.8768858199999983 13.1304830199999998 2.6582216399999998 Au
atom 21.6699074899999999 13.1648937900000007 2.4256864800000000 Au
atom 24.5108134299999989 13.2217625600000002 2.5377501900000001 Au
atom 27.3504752599999996 13.3494602300000000 2.4246233799999999 Au
atom 2.0075392900000000 13.1732676200000007 2.6210683000000001 Au
atom 4.9170149900000002 13.3100894400000005 2.4108229900000002 Au
atom 9.0495617900000003 15.6646926600000000 2.6863119200000001 Au
atom 11.8833494000000002 15.6605584400000009 2.6141737699999998 Au
atom 14.7659699500000006 15.7667277000000006 2.5747558499999998 Au
atom 17.5496554200000006 15.6224977099999993 2.6481593200000000 Au
atom 20.3773931700000013 15.6203039199999996 2.5098263599999999 Au
atom 23.2082948800000004 15.6803636700000002 2.4415693200000002 Au
atom 25.8923901000000001 15.6820846300000003 2.7153063600000000 Au
atom 0.5457886300000000 15.7676018399999993 2.4663855600000000 Au
atom 3.5123931900000001 15.7226563699999993 2.6097537200000001 Au
atom 6.3089991000000003 15.6295986100000004 2.4480001499999999 Au
atom 7.6908358300000002 18.1632065199999992 2.5047440500000002 Au
atom 10.5305053900000001 18.0163111499999999 2.5309566100000001 Au
atom 13.2431227400000004 18.1584123599999998 2.8159999500000001 Au
atom 16.0629995699999988 18.2322463399999997 2.5426497800000001 Au
atom 18.8494935999999988 18.1399297399999995 2.6932002300000000 Au
atom 21.6518229200000007 18.1366606600000004 2.5321631999999998 Au
atom 24.5268651899999988 18.0758119899999983 2.4452814300000001 Au
atom 27.3470309200000017 18.1142310299999991 2.5875977899999998 Au
atom 2.0635779200000002 18.0783512900000005 2.6641612900000000 Au
atom 4.8653753300000000 18.2219678199999997 2.6003684599999999 Au
atom 9.0744178800000004 20.5900798199999997 2.6885066499999999 Au
atom 11.7973474700000001 20.5236611199999999 3.0624696000000000 Au
atom 14.6733023899999999 20.5464036000000014 2.8040883399999998 Au
atom 17.4311667399999983 20.6308524200000001 2.7885440600000000 Au
atom 20.2564773600000017 20.5555425499999984 2.4106492400000001 Au
atom 23.1846131699999987 20.5586141399999995 2.6549297500000000 Au
atom 25.9838639899999997 20.5638334500000006 2.5775879700000002 Au
atom 0.4822251600000000 20.5397091799999991 2.6101027100000000 Au
atom 3.3237259799999999 20.5926209900000003 2.5195894299999999 Au
atom 6.2252073100000000 20.6410553800000010 2.5620425099999999 Au
atom 7.6173425600000000 23.1609038399999996 2.4722748900000000 Au
atom 10.4127502500000002 22.9992574199999993 2.9998020099999998 Au
atom 13.2522447099999994 23.0899507399999990 2.9263433200000000 Au
atom 16.1080840899999984 23.0978775899999995 2.8444914500000000 Au
atom 18.8911854599999991 23.0713970199999991 2.6987424099999999 Au
atom 21.6920842600000014 22.9789940600000016 2.8395241400000000 Au
atom 24.4477048699999990 23.1560099000000008 2.7486361100000001 Au
atom 27.3212675800000007 23.0606649899999994 2.6267035399999998 Au
atom 1.9555749099999999 23.0229977099999985 2.6917238600000002 Au
atom 4.7738247300000003 23.1055513400000017 2.6170043299999999 Au
atom 8.8671816700000008 25.5162111299999985 2.9433452000000000 Au
atom 11.7558270199999999 25.3959111499999999 2.8008623899999998 Au
atom 14.5683671300000004 25.5106529900000005 2.7132403799999998 Au
atom 17.4489166000000004 25.5734989900000009 3.0003695000000001 Au
atom 20.2571133900000007 25.5580712000000005 2.6208554500000001 Au
atom 22.9919994699999997 25.6199038799999990 2.7776503600000000 Au
atom 25.9927168799999997 25.5476094399999987 2.3887095399999998 Au
atom 0.5583666500000000 25.5670250400000008 2.6615898800000002 Au
atom 3.2755122000000001 25.6062595000000002 2.4488541800000001 Au
atom 6.0803650800000000 25.6916951199999986 2.6195362900000001 Au
atom 7.4849392000000003 28.0306013299999996 2.6419271800000002 Au
atom 10.3322302700000002 27.8857687600000013 2.9136793200000000 Au
atom 13.2058049400000002 27.9628194699999995 2.5430891000000000 Au
atom 16.0158402899999999 27.9421337700000016 2.6706479500000002 Au
atom 18.8955544700000004 27.9861056999999995 2.5844415600000001 Au
atom 21.6678198100000010 28.0795090000000016 2.8723703100000000 Au
atom 24.4178840699999995 28.0298617400000012 2.8503432900000001 Au
atom 27.3239092799999987 28.0264425000000017 2.8005011400000002 Au
atom 1.9202560000000000 27.9943772700000011 2.4299501600000002 Au
atom 4.6767590999999999 28.1742515000000004 2.1568088400000001 Au
atom 8.9341535899999993 30.4952727999999986 2.7004682600000001 Au
atom 11.7302054800000004 30.3372199299999998 2.6158347300000000 Au
atom 14.5312890499999998 30.4869897300000012 2.6943616700000002 Au
atom 17.3729099100000006 30.4648222299999993 2.5818674700000002 Au
atom 20.0975568899999999 30.4889461399999995 2.8304388000000000 Au
atom 23.0169053199999993 30.4924521999999989 2.7920528899999999 Au
atom 25.7654089199999987 30.4113113999999989 2.4578901100000001 Au
atom 0.4927836900000000 30.3927674699999990 2.4218701299999998 Au
atom 3.2717014799999999 30.5800817299999999 2.2618731900000002 Au
atom 6.1187032600000002 30.5829813299999991 2.3501521599999999 Au
atom 7.5517458800000004 33.1129237299999986 2.6640443700000001 Au
atom 10.2996103399999992 32.8648223799999997 2.8560462900000001 Au
atom 13.1828341699999996 32.8247275100000024 2.7542050900000001 Au
atom 15.9810921900000000 32.9098355200000015 2.7432559699999999 Au
atom 18.7411284000000009 32.9342533599999996 2.3071338099999998 Au
atom 21.6237040900000004 32.9336364199999991 2.4793426799999998 Au
atom 24.5294801400000004 33.0339082699999977 2.3270403599999998 Au
atom 27.3509822500000013 32.9200261800000007 2.7899351499999998 Au
atom 1.8987898299999999 33.0706547500000028 2.5418462800000001 Au
atom 4.7356198599999999 32.9919536199999968 2.5074600500000002 Au
atom 8.9831944700000008 35.4262267000000008 2.7635150600000000 Au
atom 11.8432132800000005 35.1630337499999968 2.6872707000000000 Au
atom 14.5795024600000005 35.3756814500000019 2.7661873099999998 Au
atom 17.4310742000000012 35.3876161000000025 2.7329174799999998 Au
atom 20.2586458600000014 35.3757820100000018 2.5053770000000002 Au
atom 23.0139040000000001 35.3126517099999973 2.5632428100000002 Au
atom 25.8587606200000018 35.3038283799999988 2.5991808700000001 Au
atom 0.5119552700000000 35.5019194099999993 2.6297059400000000 Au
atom 3.2966246699999999 35.4986261099999965 2.4830096199999998 Au
atom 6.1161956200000001 35.4921623299999993 2.3698394899999999 Au
atom 7.4651350100000000 37.9637525899999986 2.5611776900000001 Au
atom 10.3623912899999997 37.8051056799999969 2.6897113899999998 Au
atom 13.1761196999999992 37.7834636400000008 2.6415200200000002 Au
atom 16.0092331100000003 37.8009493500000033 2.6528126599999999 Au
atom 18.9149193199999992 37.9203302800000017 2.6076459200000000 Au
atom 21.6882090000000005 37.7534531900000019 2.6928447200000001 Au
atom 24.4560049299999989 37.8350925499999988 2.6724928200000000 Au
atom 27.2881286799999998 37.8129191100000028 2.6692379599999998 Au
atom 1.8504245900000000 38.0119259100000022 2.6187649199999998 Au
atom 4.6303085599999996 37.9038471100000010 2.5837862299999999 Au
atom 8.8503649800000002 0.8982466800000000 2.7579750100000000 Au
atom 11.6677251999999996 0.8251972800000000 2.9552094699999998 Au
atom 14.5570330000000006 0.8239467700000001 2.8370897199999998 Au
atom 17.4516745200000010 0.8296520200000000 2.8017423799999999 Au
atom 20.2961737500000012 0.7920675200000000 2.7086085000000000 Au
atom 23.1161124200000003 0.7945292300000000 2.6911681800000000 Au
atom 25.8491976399999999 0.7927477200000000 2.7580351400000001 Au
atom 0.4232520900000000 0.9521349099999999 2.9158639399999999 Au
atom 3.2277917999999999 0.9948312200000000 2.4242919999999999 Au
atom 6.1096216099999996 0.8625452400000000 2.6878111200000001 Au
atom 7.5591125500000000 3.3880075999999999 2.9689471500000000 Au
atom 10.3058555599999995 3.2983633900000000 3.0114683200000001 Au
atom 13.0938081600000000 3.3100075599999998 2.9236445099999999 Au
atom 15.9488036300000005 3.1856368100000001 2.9758737100000001 Au
atom 18.8817348199999984 3.3221482400000002 3.0191317099999999 Au
atom 21.7817654300000001 3.2667066000000000 2.8814925599999999 Au
atom 24.5531979699999994 3.3015301500000001 2.5347051899999999 Au
atom 27.2762396400000000 3.3186570799999999 2.9211483399999998 Au
atom 1.9214286899999999 3.4327155199999999 2.6897522399999998 Au
atom 4.7113972600000000 3.3422863000000000 2.5740563299999999 Au
atom 8.9088639999999995 5.8286013299999997 2.9830070000000002 Au
atom 11.7870924499999994 5.7197133500000001 2.9386118799999998 Au
atom 14.6307189199999996 5.6147077899999998 3.0045273199999998 Au
atom 17.4917917699999990 5.8267549799999996 2.8876604100000001 Au
atom 20.2471859199999997 5.8164182400000000 2.7259326499999998 Au
atom 23.0954199299999985 5.8363297300000001 2.6819780500000001 Au
atom 25.8804613600000017 5.7988900799999996 2.6893558099999999 Au
atom 0.4993231100000000 5.8336967599999996 2.5585000500000001 Au
atom 3.3401947900000000 5.7941932100000004 2.7121227399999999 Au
atom 6.1694551300000002 5.8053816899999999 2.8151820700000001 Au
atom 7.6820271900000003 8.3310411400000000 2.6440975400000002 Au
atom 10.5161228999999992 8.2544157600000005 2.6299393400000000 Au
atom 13.3065648000000003 8.2623866100000001 2.9543520499999998 Au
atom 16.0632373100000017 8.1630275799999996 2.9882957399999999 Au
atom 18.8514725299999988 8.3010550399999996 2.6179070200000001 Au
atom 21.6983232199999989 8.2912849200000007 2.5376515300000002 Au
atom 24.5188202400000002 8.3787573500000008 2.7705431800000002 Au
atom 27.3445232199999992 8.4239784600000007 2.5558570600000001 Au
atom 2.0320565600000000 8.3236506400000003 2.5238948699999999 Au
atom 4.8585473600000002 8.2798561300000006 2.6465616500000002 Au
atom 8.9949524800000003 10.7695698499999999 2.5710216699999999 Au
atom 11.8467794699999995 10.7438946299999998 2.7584150099999998 Au
atom 14.6229384200000005 10.7238946599999991 2.7274731600000002 Au
atom 17.4266092099999987 10.5918800799999993 2.5823656700000002 Au
atom 20.2457350699999985 10.6942347699999996 2.4254732699999999 Au
atom 23.0573848599999991 10.7710431100000008 2.4963270199999998 Au
atom 25.8635040700000012 10.8140453900000004 2.3903547299999999 Au
atom 0.6303772399999999 10.8241162200000005 2.6004066500000000 Au
atom 3.4715968400000001 10.7851934000000007 2.5481512700000000 Au
atom 6.2621601699999996 10.7336618799999997 2.6710768200000001 Au
atom 7.2065950599999997 13.1842237499999992 5.7031834300000002 Cl
atom 7.1095585799999998 16.0230541299999985 8.5307393999999999 Cl
atom 7.1061933899999996 13.0886627600000001 8.3762137899999995 Na
atom 7.1505585700000003 15.7932673799999996 5.8089796199999997 Na
atom 7.2206959900000003 18.7542813099999996 5.8387763499999998 Cl
atom 7.1122992900000002 21.5269945699999994 8.7072980399999995 Cl
atom 6.9438720500000004 18.7416942300000002 8.4506025000000005 Na
atom 7.1763086100000004 21.4876848500000008 5.7903423199999997 Na
atom 7.1358838499999999 24.4050614299999999 5.9077488599999999 Cl
atom 7.1117026399999999 27.1398802799999999 8.7299929800000005 Cl
atom 7.1006862300000000 24.1786758400000004 8.5706550299999993 Na
atom 7.1596099600000001 27.1635005099999987 6.0319736800000001 Na
atom 7.2291639400000003 29.9736564399999992 5.8361489700000000 Cl
atom 6.9892819900000003 32.6315968099999978 8.8936445099999997 Cl
atom 7.0903212399999997 29.9924652899999984 8.5251784599999993 Na
atom 7.1591285100000004 32.6603851400000025 6.0102779799999997 Na
atom 7.2828738199999998 35.6030322800000008 5.6612632300000003 Cl
atom 7.2163897199999996 38.3253400600000020 8.9408628799999992 Cl
atom 7.0541865499999998 35.4931036999999989 8.3235918200000008 Na
atom 7.1865832899999997 38.3842632799999990 6.1781275100000004 Na
atom 7.1107409600000002 1.8485112400000001 6.0146243000000004 Cl
atom 7.0008474100000004 4.5184430899999999 8.8651926599999999 Cl
atom 7.0225497199999998 1.6017217900000000 8.6860565800000007 Na
atom 7.0653218500000001 4.6515651900000003 6.1037403200000000 Na
atom 7.0309147300000001 7.3224781300000004 5.8723702900000001 Cl
atom 7.0865299899999998 10.3425388700000003 8.6970743000000006 Cl
atom 7.0768221499999999 7.4097674299999996 8.5171976100000002 Na
atom 7.1170721600000002 10.4070223800000008 5.8625165700000004 Na
atom 9.8962426699999995 13.0365096900000008 5.8790977399999997 Na
atom 12.6839032700000001 13.1030853100000009 6.0097302099999999 Cl
atom 9.8460093000000004 15.8783341199999999 8.4517264200000000 Na
atom 12.7090814200000004 15.8942168400000003 8.7591939399999994 Cl
atom 12.6756756700000004 13.1054376700000006 8.6194112900000004 Na
atom 9.7398018900000007 13.1416840599999993 8.5343713399999999 Cl
atom 12.6716454800000005 15.8326695100000006 5.8754331000000004 Na
atom 10.0221149500000006 15.8889760100000004 5.6456405700000003 Cl
atom 9.8712178000000002 18.7459977400000000 6.0726934799999999 Na
atom 12.6914536899999995 18.7227349499999995 5.8588622299999997 Cl
atom 9.8907354499999993 21.3672556699999987 8.4901233000000005 Na
atom 12.7044907299999998 21.3797929599999996 8.6468568300000008 Cl
atom 12.6764067300000001 18.7535852600000013 8.5160929599999999 Na
atom 9.9937734400000000 18.6299732999999996 8.8017875799999992 Cl
atom 12.7992285700000004 21.4700740000000003 5.9096965600000004 Na
atom 10.1029332099999998 21.8192008900000012 5.7577144200000001 Cl
atom 9.8798032300000003 24.3573501999999991 6.1489161100000000 Na
atom 12.7286203800000006 24.3073594799999988 6.0466650800000004 Cl
atom 9.7767938999999995 27.0910113400000014 8.8530809799999997 Na
atom 12.8300930799999993 27.1126670300000008 8.8474831500000004 Cl
atom 12.8031587600000005 24.2163611600000017 8.6888161000000004 Na
atom 9.8735269399999996 24.2625092500000008 8.8948384800000007 Cl
atom 12.7049684099999993 27.1712924700000009 6.0671702099999996 Na
atom 9.9139991500000004 27.2298738100000008 6.1083652400000004 Cl
atom 10.1003021700000009 29.9547110900000000 6.1036873900000002 Na
atom 12.6609163599999999 29.7668503899999983 5.9793751999999998 Cl
atom 9.8429713000000003 32.8165964800000012 8.5442152900000004 Na
atom 12.6108388900000001 32.6354263899999992 8.6830500900000001 Cl
atom 12.7499601299999998 30.0737653000000016 8.6240260699999993 Na
atom 9.9182663800000004 30.1268974100000015 8.7405794399999994 Cl
atom 12.6989116499999994 32.6352375700000010 5.9278055299999997 Na
atom 9.8950806599999996 32.7797454299999984 5.9486333800000004 Cl
atom 10.0212417800000004 35.5834137100000021 6.0012333699999996 Na
atom 12.7748081500000001 35.6738171100000017 5.8521155100000000 Cl
atom 9.9743429900000002 38.3064299799999972 8.6430386400000003 Na
atom 12.7701276700000008 38.3860548199999982 8.8215215899999997 Cl
atom 12.7633105499999999 35.5038330200000019 8.5692070600000001 Na
atom 9.8761625500000001 35.6559087999999988 8.7064786400000003 Cl
atom 12.7230607100000004 38.5035454699999988 5.9625447899999999 Na
atom 9.8185678400000000 38.4359318200000004 5.8881043899999996 Cl
atom 9.7180913800000006 1.7150618600000000 6.2023967799999999 Na
atom 12.4977262600000003 1.6760076600000000 5.9755557599999998 Cl
atom 9.8359811199999996 4.5790433999999998 8.6673011500000001 Na
atom 12.7515295099999992 4.4478374299999999 8.6234299700000001 Cl
atom 12.5500282199999997 1.6769661100000000 8.5903095900000004 Na
atom 9.8454060499999994 1.5820984700000000 8.9637700500000008 Cl
atom 12.6445364100000006 4.5179916200000001 6.0345650099999997 Na
atom 9.7984319299999996 4.6953825900000004 6.0716594199999996 Cl
atom 9.8631631599999992 7.5232117399999998 6.0372426199999998 Na
atom 12.5467772300000000 7.5078665000000004 5.9273352299999997 Cl
atom 9.8667061799999995 10.1888199099999994 8.6379482299999992 Na
atom 12.6871885500000001 10.2703090899999996 8.8499738699999995 Cl
atom 12.8325343400000005 7.2352175100000000 8.6213067300000006 Na
atom 9.6714901300000005 7.4162771200000002 8.7428418000000008 Cl
atom 12.6513386000000008 10.3615406100000005 6.1218490799999996 Na
atom 9.9245759899999992 10.3272028999999996 5.9171260700000001 Cl
atom 15.5332098399999996 13.1216558100000000 6.0164355599999997 Na
atom 18.2939812800000006 13.1591885899999994 5.6509391400000002 Cl
atom 15.5209430299999998 15.7964921900000004 8.5073551900000002 Na
atom 18.4201974300000018 15.8638278600000007 8.3272478999999997 Cl
atom 18.4374246500000005 13.2837341999999996 8.3557204699999996 Na
atom 15.4701001900000001 13.1260234300000000 8.6665585299999996 Cl
atom 18.3195340100000017 15.9212596200000007 5.7720216100000004 Na
atom 15.4110649199999994 15.9399325300000001 5.9089763000000000 Cl
atom 15.4767676299999994 18.6905047800000013 6.0284117899999998 Na
atom 18.3260049199999990 18.6147747499999987 5.7397862999999996 Cl
atom 15.6975748199999998 21.6279376700000014 8.5334926699999993 Na
atom 18.3330416499999984 21.4312123999999997 8.6873430999999997 Cl
atom 18.3309754399999996 18.6757973399999990 8.4255711400000006 Na
atom 15.5779049300000008 18.6764263100000001 8.8498286600000000 Cl
atom 18.4585433600000002 21.5633006199999997 5.8165006200000002 Na
atom 15.6037411800000001 21.4700660899999995 5.9195159200000003 Cl
atom 15.5832066099999995 24.3851659299999994 5.7907663400000002 Na
atom 18.3794407299999989 24.4615469499999989 5.7788071700000003 Cl
atom 15.5315880699999997 27.2416989299999983 8.6133301000000007 Na
atom 18.4544149299999987 27.1332394800000003 8.7188480800000008 Cl
atom 18.3971875999999988 24.2799105299999987 8.3699906899999998 Na
atom 15.6093437099999992 24.2637448999999989 8.6048018400000004 Cl
atom 18.3662670100000014 27.1886769699999995 5.8368310900000004 Na
atom 15.6020789299999993 27.1069014800000012 5.9029665900000001 Cl
atom 15.6242209899999995 29.8925118500000018 5.8760048100000004 Na
atom 18.3473763900000009 29.8082817200000001 5.8566063499999998 Cl
atom 15.5745845000000003 32.7522365000000022 8.5376230000000000 Na
atom 18.4332976200000012 32.7677139299999993 8.4014840100000008 Cl
atom 18.5486703400000010 29.9581259600000003 8.5903162599999998 Na
atom 15.7019563499999997 29.9343283100000015 8.6426091700000001 Cl
atom 18.2868646199999993 32.8309167900000034 5.8026040900000000 Na
atom 15.4907877299999992 32.6539103100000005 5.8779884100000004 Cl
atom 15.5335054699999997 35.4365790299999972 5.8458982600000002 Na
atom 18.2563281099999983 35.6467961500000001 5.8768707300000003 Cl
atom 15.4689487700000008 38.3719803899999974 8.4177235300000000 Na
atom 18.2880612999999990 38.4550417399999986 8.5239158400000008 Cl
atom 18.2721016600000006 35.6751811900000035 8.4017313700000003 Na
atom 15.5204306899999995 35.4995360799999986 8.8951855700000007 Cl
atom 18.3452647700000000 38.4808966900000016 5.8199690600000000 Na
atom 15.5345540799999995 38.3569258899999994 5.7592684500000004 Cl