#===============================================================================
# Created using the Atomic Simulation Environment (ASE)

# Tue Dec 23 21:41:58 2025

#=======================================================
lattice_vector 28.1999999999999993 0.0000000000000000 0.0000000000000000 
lattice_vector 0.0000000000000000 39.4799999999999969 0.0000000000000000 
lattice_vector 0.0000000000000000 0.0000000000000000 62.3296083400000001 
atom 7.3341678200000002 14.8887694699999997 0.2800599200000000 Au
atom 10.2131618700000004 14.8053726200000000 -0.1316095400000000 Au
atom 13.1288272599999996 14.8212108600000008 0.1736440700000000 Au
atom 16.0096839899999992 14.8731939299999993 -0.1704577700000000 Au
atom 18.8870153999999992 14.8787675099999994 -0.2655809600000000 Au
atom 21.6903436499999991 14.8325150600000004 -0.4529686000000000 Au
atom 24.4572336800000016 14.8905969500000008 -0.5573007700000000 Au
atom 27.2741683399999992 14.6814601299999996 -0.0268110500000000 Au
atom 1.8421008000000001 14.7686802700000008 -0.1804076200000000 Au
atom 4.6756806600000003 14.8017883099999992 -0.0444477900000000 Au
atom 8.8612236000000006 17.2152409499999983 0.0427983700000000 Au
atom 11.6614793900000002 17.2628022200000011 0.2476215100000000 Au
atom 14.5326041000000004 17.2533254900000017 -0.0204113900000000 Au
atom 17.3253371200000004 17.2689897700000010 -0.4036207100000000 Au
atom 20.1410381899999997 17.4190101499999983 -0.2654498100000000 Au
atom 23.0684647799999993 17.3644358799999985 -0.3216953800000000 Au
atom 25.9353582399999993 17.3556055399999991 -0.1372358500000000 Au
atom 0.4521628400000000 17.2115781900000009 -0.3822885300000000 Au
atom 3.2015083400000002 17.3153487900000016 -0.3870215600000000 Au
atom 5.9759378400000003 17.3408273599999987 -0.1128960500000000 Au
atom 7.4570276399999997 19.7545141400000013 0.0662850900000000 Au
atom 10.3347833399999995 19.6535788300000007 0.0852162200000000 Au
atom 13.1403450999999993 19.6839367400000000 0.1989096700000000 Au
atom 15.9436889199999996 19.6843436800000013 -0.1356268100000000 Au
atom 18.7325495599999989 19.7818824299999996 -0.1435284500000000 Au
atom 21.5671638399999992 19.8615666100000006 -0.2602116000000000 Au
atom 24.4650770699999995 19.8344868400000003 -0.2109837800000000 Au
atom 27.2513864199999993 19.8400288600000003 0.1947088100000000 Au
atom 1.8820972499999999 19.8527236900000013 -0.5183876800000000 Au
atom 4.7330910099999999 19.8046596900000011 -0.3137195500000000 Au
atom 8.9401315599999993 22.1900851099999983 0.0869892300000000 Au
atom 11.6679131500000004 22.1461231199999986 0.2458276500000000 Au
atom 14.5814086199999995 22.0508719299999996 -0.0676391500000000 Au
atom 17.4047754599999998 22.2151275999999989 -0.4224450800000000 Au
atom 20.1782268500000015 22.2167257300000003 -0.2784538200000000 Au
atom 22.9414034200000003 22.3743165700000013 -0.3889427800000000 Au
atom 25.8583841600000000 22.2695835200000012 0.0704930400000000 Au
atom 0.5536789100000000 22.2344864499999986 0.1442535600000000 Au
atom 3.3442059600000000 22.2675066599999987 -0.1122182500000000 Au
atom 6.1097024299999996 22.2186989699999984 -0.1957966700000000 Au
atom 7.5070489499999997 24.6458601100000010 0.1145068900000000 Au
atom 10.3649475599999992 24.6502304300000006 0.1380610400000000 Au
atom 13.0599983399999999 24.5890778200000000 0.0075378500000000 Au
atom 15.8307624899999997 24.6056943200000013 0.0824677600000000 Au
atom 18.7861681999999988 24.7287879100000012 0.0463231100000000 Au
atom 21.5356502799999987 24.8132173800000011 -0.1398979800000000 Au
atom 24.4434625700000012 24.7801507299999990 -0.1165921700000000 Au
atom 27.3289610399999994 24.6889873699999995 0.1375423700000000 Au
atom 1.8896487099999999 24.7236260500000000 0.0131877800000000 Au
atom 4.7296210900000002 24.6948819200000003 0.0330134600000000 Au
atom 8.9097626099999996 27.0354773600000016 -0.0993935600000000 Au
atom 11.7512479499999998 27.0423662399999998 0.1123054300000000 Au
atom 14.5133144400000003 27.0576036299999991 -0.0858330900000000 Au
atom 17.2967141700000013 27.1795490800000010 -0.1698616100000000 Au
atom 20.1391908599999994 27.2565401899999991 0.0453880600000000 Au
atom 22.9427763899999988 27.1653638700000002 -0.0058091000000000 Au
atom 25.8273397500000002 27.1385995300000005 -0.0155107300000000 Au
atom 0.4706715500000000 27.1876490299999993 -0.0314616900000000 Au
atom 3.3284724300000001 27.1739743699999998 -0.0698768100000000 Au
atom 6.1325810900000004 27.2312391399999996 -0.1073780300000000 Au
atom 7.4463942500000000 29.5969521200000010 -0.1340649500000000 Au
atom 10.1925897200000009 29.4425147799999998 0.3700460700000000 Au
atom 12.9825721499999993 29.6329463400000002 0.0605894600000000 Au
atom 15.7722044500000003 29.5532806000000008 -0.0649396300000000 Au
atom 18.7502144699999995 29.6964145299999984 0.0816437700000000 Au
atom 21.7077786699999997 29.7051740600000009 0.1765885200000000 Au
atom 24.4553667399999988 29.5694710000000001 -0.2002613200000000 Au
atom 27.2572672900000015 29.6113674099999997 -0.1091442000000000 Au
atom 1.9145844200000000 29.6752936699999985 -0.0972793400000000 Au
atom 4.7386436800000000 29.5986897900000017 -0.0778934400000000 Au
atom 8.8369351300000005 31.9418717100000009 0.5202715800000000 Au
atom 11.6449180699999992 31.9247705300000000 0.3684246900000000 Au
atom 14.5370057700000004 32.0201763000000028 0.3753686300000000 Au
atom 17.2970484800000008 32.1648282000000023 0.2079503600000000 Au
atom 20.2024696500000012 32.0814745899999991 0.1972352500000000 Au
atom 23.0228123499999988 32.1476548899999983 -0.3419297600000000 Au
atom 25.8686170599999983 32.0914536200000029 -0.0790153100000000 Au
atom 0.3706351200000000 32.2124528000000012 -0.2454573600000000 Au
atom 3.2819081300000001 32.1720846099999989 -0.0026896100000000 Au
atom 6.1845526199999998 32.0972859000000028 -0.0137958000000000 Au
atom 7.5587573700000004 34.5699578899999977 0.0850960900000000 Au
atom 10.4154875699999998 34.4379790999999997 0.5273560300000000 Au
atom 13.1865924099999994 34.4199062799999993 0.0588695400000000 Au
atom 15.8206409000000008 34.5818839299999965 0.2390248200000000 Au
atom 18.7191504799999997 34.6001138399999988 0.1437681400000000 Au
atom 21.5697683600000012 34.5569487400000028 -0.0220967300000000 Au
atom 24.4055587500000009 34.6100985599999973 -0.0900164200000000 Au
atom 27.3141455800000017 34.7038435899999982 0.0724514900000000 Au
atom 1.8946602200000000 34.6168426199999999 -0.1035879000000000 Au
atom 4.6708903700000004 34.5893422400000006 0.0476367500000000 Au
atom 9.0718498200000006 36.9305005900000012 0.1467812000000000 Au
atom 11.7920642000000004 37.0380941900000025 0.0954500900000000 Au
atom 14.5389149199999999 36.9604044000000016 0.2248444500000000 Au
atom 17.3963349200000010 36.9649471399999996 0.2273909700000000 Au
atom 20.2285684799999999 36.9793092800000025 0.2322257000000000 Au
atom 23.0301358900000004 37.0794452700000008 0.2738302100000000 Au
atom 25.8325646800000008 37.1521867499999985 0.0752930800000000 Au
atom 0.4165571500000000 37.2482288100000005 -0.1929871400000000 Au
atom 3.4506168499999998 37.0618377300000006 -0.0014401900000000 Au
atom 6.1983557800000000 36.9936756600000010 -0.0397750900000000 Au
atom 7.5510703000000001 0.0184945500000000 0.1481730100000000 Au
atom 10.2722872800000005 -0.0231457500000000 0.3162707500000000 Au
atom 13.1444501900000006 0.0471984700000000 0.3352287900000000 Au
atom 15.9923469699999998 -0.1052631100000000 0.2976613700000000 Au
atom 18.7937397299999986 -0.0416550700000000 0.2007491500000000 Au
atom 21.5747685900000015 0.0072804200000000 0.0407166700000000 Au
atom 24.4302409900000015 0.0895059600000000 0.1154927400000000 Au
atom 27.2383444399999988 0.0786884000000000 0.3526956000000000 Au
atom 1.9768225399999999 0.0519583200000000 -0.0763600200000000 Au
atom 4.8036560799999997 0.0084812000000000 0.2915327600000000 Au
atom 8.8964699800000009 2.4597903600000000 0.4885382700000000 Au
atom 11.7210616699999992 2.4409086000000002 0.3514878900000000 Au
atom 14.6416640200000003 2.4339058300000000 0.0700308000000000 Au
atom 17.3446150099999983 2.4607019600000002 0.2165510900000000 Au
atom 20.1789888799999986 2.4282676500000000 0.1386224700000000 Au
atom 22.9166053699999992 2.5055963999999999 0.0688293600000000 Au
atom 25.9449494600000001 2.5305064100000001 0.1686395400000000 Au
atom 0.5246629500000000 2.4284429099999998 0.0469281000000000 Au
atom 3.3203984100000001 2.4570873000000000 0.4098833200000000 Au
atom 6.1624153100000001 2.4199695200000000 0.1897410700000000 Au
atom 7.5761238300000002 4.9133887500000002 0.1502575800000000 Au
atom 10.3177538200000001 4.9611525900000002 0.2702829400000000 Au
atom 13.1311006799999994 4.9172287600000004 0.2490687800000000 Au
atom 15.9161934200000008 5.0217966599999997 0.0041582600000000 Au
atom 18.8084636100000004 4.8068455400000003 -0.0048876500000000 Au
atom 21.6078657999999990 4.9649215299999998 0.2703565700000000 Au
atom 24.4627661500000002 4.9022690400000002 0.3868108800000000 Au
atom 27.3287064000000015 4.8728409199999998 0.1879790400000000 Au
atom 1.8876903500000000 4.9565798900000004 0.1316943500000000 Au
atom 4.7520847599999998 4.8741339999999997 0.0648361000000000 Au
atom 8.8848161200000000 7.3583925099999998 0.1516479200000000 Au
atom 11.8532943900000003 7.3876680800000001 0.2214984200000000 Au
atom 14.6015294299999994 7.4800586700000000 0.0416026300000000 Au
atom 17.4298973699999991 7.4362037900000004 0.2573724900000000 Au
atom 20.2131781599999982 7.3410243900000003 -0.1134736600000000 Au
atom 23.0705343999999997 7.4370567899999998 0.1739951000000000 Au
atom 25.8413076400000001 7.3325495299999996 0.3047495000000000 Au
atom 0.4440860900000000 7.4034544499999999 0.1472053400000000 Au
atom 3.2771639200000000 7.3370906500000004 0.0638532300000000 Au
atom 6.0562163599999996 7.4569460500000000 -0.1205127100000000 Au
atom 7.4737779499999997 9.8678484399999995 0.3214412100000000 Au
atom 10.3382040100000001 9.8594833200000007 -0.2159684600000000 Au
atom 13.2657009099999996 9.8850681900000001 0.2364220700000000 Au
atom 16.0746570099999992 9.9311080000000000 0.1208984600000000 Au
atom 18.8829359399999994 9.8585153800000001 -0.2397581900000000 Au
atom 21.6207745799999991 9.9028065900000009 0.0143387100000000 Au
atom 24.3945131300000000 9.8963889199999997 -0.1469164000000000 Au
atom 27.2175376299999989 9.7710177900000001 0.0648308200000000 Au
atom 1.8599525699999999 9.7596174500000004 -0.2264098900000000 Au
atom 4.6897964400000003 9.8849146000000001 -0.2198327400000000 Au
atom 8.8791045499999992 12.3458765600000007 0.1741555100000000 Au
atom 11.7154678499999996 12.3953871200000005 -0.1112198700000000 Au
atom 14.5234619200000008 12.4616947000000007 0.1487767800000000 Au
atom 17.4336489999999991 12.4070784199999995 -0.1646318700000000 Au
atom 20.1925997899999992 12.3579547499999993 -0.1843386500000000 Au
atom 23.0647637299999992 12.3314857500000006 -0.6264902400000000 Au
atom 25.8656364500000002 12.2040278000000004 -0.3973727700000000 Au
atom 0.4702456700000000 12.3113797599999995 -0.2393435200000000 Au
atom 3.2226565300000001 12.2826903299999994 -0.2905398900000000 Au
atom 6.0772007400000003 12.3868776399999998 -0.0127275100000000 Au
atom 7.5005521300000000 13.2482418800000001 2.8164029700000000 Au
atom 10.3203956100000003 13.1277437500000005 2.5983456600000001 Au
atom 13.1378340300000005 13.1289703000000006 2.8074184000000000 Au
atom 16.0837042799999992 13.2472233500000005 2.5065160099999999 Au
atom 18.8734071499999985 13.2777390999999998 2.5368733400000001 Au
atom 21.7244538399999989 13.0986363200000007 2.0801732099999999 Au
atom 24.5534532500000005 13.2014300000000002 1.9283880900000001 Au
atom 27.2711108799999984 13.1056108899999995 2.4829686999999998 Au
atom 1.8886111600000000 13.2558745400000006 2.3041032299999999 Au
atom 4.7325873800000000 13.1790988599999999 2.4610789999999998 Au
atom 8.9578488600000004 15.5975264199999994 2.5505808299999999 Au
atom 11.7271389900000003 15.5587537999999999 2.6805035099999999 Au
atom 14.5135804600000000 15.5687893000000006 2.6354758000000000 Au
atom 17.4078509600000011 15.6170439699999992 2.3360130099999998 Au
atom 20.3314474300000008 15.6501845199999998 2.1085534099999999 Au
atom 23.0723175599999983 15.6704905399999994 2.0950452500000001 Au
atom 25.8139848100000009 15.6787880400000006 2.4005588000000002 Au
atom 0.5046785700000000 15.6634398200000007 2.4049430699999998 Au
atom 3.2831196899999999 15.6928376200000006 2.3484948299999999 Au
atom 6.0264068300000000 15.6595512899999996 2.7871278600000000 Au
atom 7.4012532599999998 18.0185271699999987 2.4174990699999999 Au
atom 10.2374061800000007 18.0612766799999989 2.6783110899999998 Au
atom 13.1191141400000006 17.9674125300000007 2.7642278600000001 Au
atom 16.0376809199999997 18.0257426199999991 2.3797606700000000 Au
atom 18.8091160399999993 18.0567405399999998 2.4048292199999999 Au
atom 21.7345544299999993 18.1209067700000013 2.2546463499999998 Au
atom 24.4806926400000009 18.2727505299999997 2.3292090200000000 Au
atom 27.3176623899999989 18.0718229299999997 2.3796183599999998 Au
atom 1.8574515000000000 18.2565031900000001 1.9675518700000001 Au
atom 4.5996892699999998 18.0981921700000008 2.4268317900000000 Au
atom 8.7853030099999998 20.5984289499999988 2.7165130400000002 Au
atom 11.6367269899999997 20.4458573699999988 2.6070674700000001 Au
atom 14.6107099500000004 20.4182645899999997 2.6858598400000000 Au
atom 17.4015767500000003 20.5078409800000010 2.4154585800000001 Au
atom 20.2330837400000014 20.5104753899999999 2.4324291599999999 Au
atom 23.0385826700000003 20.7706850500000009 2.3532028100000000 Au
atom 25.8410137400000011 20.6276118100000012 2.6825092100000001 Au
atom 0.5215033300000000 20.6472171200000005 2.6968830600000002 Au
atom 3.2643675499999998 20.5625314599999989 2.2441168899999999 Au
atom 5.9587928400000001 20.5355277100000002 2.6497994199999999 Au
atom 7.3875800399999996 22.9662617299999994 2.5701333900000001 Au
atom 10.3177058099999996 23.0703809500000006 2.6889510500000000 Au
atom 13.2259809700000002 22.9017721399999985 2.6256541699999998 Au
atom 15.9434098199999994 22.9597899800000000 2.5952607900000002 Au
atom 18.7450840700000008 23.0164123300000014 2.4080027300000002 Au
atom 21.5408888000000012 23.0662719699999990 2.3795606199999999 Au
atom 24.4403374299999996 23.1537460199999998 2.5426752700000002 Au
atom 27.1809906499999983 22.9529099800000012 2.6223836299999999 Au
atom 1.8722907600000001 23.1358788699999991 2.7871458300000000 Au
atom 4.6335000600000003 23.0407900099999985 2.4936047499999998 Au
atom 8.9241748100000002 25.4151605200000006 2.7214941800000001 Au
atom 11.7149430399999996 25.4078020900000006 2.7745144399999999 Au
atom 14.5554346900000002 25.4424711399999985 2.6314020400000002 Au
atom 17.3200009500000007 25.5689288899999987 2.2942318700000000 Au
atom 20.2457812299999986 25.5034367499999988 2.6232991999999999 Au
atom 23.0097197800000011 25.4635719000000016 2.5208289800000001 Au
atom 25.9455157300000003 25.5948724900000002 2.7435305600000000 Au
atom 0.5139438100000000 25.5815940799999986 2.5171483100000001 Au
atom 3.2942645200000000 25.5630521299999991 2.5966000800000000 Au
atom 6.0973733200000000 25.6305177399999984 2.7113522600000000 Au
atom 7.5997259799999997 27.9548730200000008 2.4131402999999998 Au
atom 10.2282327500000001 27.9866155300000017 2.9242458000000000 Au
atom 13.1070702800000003 27.8591428000000008 2.8192524799999998 Au
atom 15.9648932400000003 27.9605729499999995 2.4930145000000001 Au
atom 18.7582520799999983 28.0179749800000018 2.5713706200000002 Au
atom 21.5820774299999982 28.0106120300000008 2.6222233199999998 Au
atom 24.4349824499999997 28.0226872100000008 2.4331204299999998 Au
atom 27.2768330100000007 28.0887115899999991 2.5537679400000002 Au
atom 1.8519445200000000 28.1182836300000005 2.3076505100000002 Au
atom 4.7372260199999996 28.0299710399999995 2.4137710299999999 Au
atom 8.8457041800000002 30.3881329800000017 3.0326636599999999 Au
atom 11.7381062400000005 30.4199242000000005 2.9133902699999998 Au
atom 14.4871760399999996 30.3449999000000012 2.6843307500000000 Au
atom 17.4167571199999998 30.4175413699999986 2.6490177199999998 Au
atom 20.2741948500000007 30.4431200799999999 2.7885971399999998 Au
atom 23.0652962700000010 30.5096709600000011 2.5579725899999999 Au
atom 25.8321736199999989 30.4974673799999998 2.5804156200000001 Au
atom 0.4051286800000000 30.5465481700000012 2.4849866199999999 Au
atom 3.2399179800000000 30.4824534100000015 2.6362079500000002 Au
atom 6.1451245400000003 30.3956173000000014 2.3968463999999998 Au
atom 7.4984651500000004 32.9150987700000002 2.8538345000000001 Au
atom 10.2588053600000002 32.8624364100000008 3.1927154999999998 Au
atom 13.0592818800000003 32.9151060399999977 2.9022016399999999 Au
atom 15.9992865500000008 32.7785664399999987 2.9299756000000001 Au
atom 18.8826465399999996 32.9192818399999965 2.7562267500000002 Au
atom 21.6884349299999997 32.9146987399999986 2.6282330500000000 Au
atom 24.4554839699999995 32.9877307400000035 2.3496688699999999 Au
atom 27.2095419000000014 32.9273996000000011 2.7403097500000002 Au
atom 1.7213155899999999 32.9299184099999991 2.3560854199999999 Au
atom 4.6222489099999997 33.0042188899999971 2.6390604600000001 Au
atom 8.8569289999999992 35.4156498899999974 2.9351442300000001 Au
atom 11.7361369100000008 35.3646809399999995 2.7670980500000000 Au
atom 14.5562403099999997 35.2590076400000001 2.7849358199999998 Au
atom 17.3025887500000017 35.3450157600000026 2.7381524700000002 Au
atom 20.1510809600000016 35.3299351900000005 2.6469669900000001 Au
atom 23.0446349099999992 35.3664137800000020 2.5953304400000001 Au
atom 25.9770844899999993 35.4048796100000018 2.5620941400000001 Au
atom 0.5594844900000000 35.3849750400000005 2.5485192099999998 Au
atom 3.2424699299999999 35.4185020299999991 2.8715677799999999 Au
atom 6.0669164699999998 35.3410672500000018 2.6098615500000002 Au
atom 7.5840879899999996 37.8855282800000026 2.5629614599999999 Au
atom 10.3642675200000003 37.7734915400000020 2.8329606599999999 Au
atom 13.1699697499999999 37.7876421699999980 2.7871494299999999 Au
atom 15.9807208299999992 37.8854217700000007 2.8355726500000000 Au
atom 18.7243381900000010 37.8694271000000029 2.9563740500000000 Au
atom 21.5581975300000011 37.8767617399999992 2.7648039400000002 Au
atom 24.4556048699999984 37.9200974299999984 2.7420075100000001 Au
atom 27.2734516300000003 37.9056540300000009 2.6416868600000001 Au
atom 1.8809417900000001 37.9317091200000007 2.4232824100000001 Au
atom 4.6974163400000002 37.8508505000000000 2.8580096699999999 Au
atom 8.9245783700000008 0.8125366900000000 2.8946817000000000 Au
atom 11.7010222600000002 0.8332629800000000 2.9163992500000000 Au
atom 14.5235176799999994 0.8075114600000000 2.7989838400000000 Au
atom 17.4795389300000004 0.9044740400000000 2.7773634600000001 Au
atom 20.1672526400000010 0.8354292400000000 2.8357622000000000 Au
atom 22.9464930600000017 1.0057472900000000 2.6792704600000001 Au
atom 25.7738480900000013 0.8833612199999999 3.0412765400000001 Au
atom 0.5222913800000000 0.8657452700000000 2.7603581500000001 Au
atom 3.2975016500000001 0.8307263700000000 2.7954431799999999 Au
atom 6.1384416699999997 0.8634805200000000 2.9199851300000002 Au
atom 7.4145282000000003 3.3902203200000001 2.9341743199999999 Au
atom 10.3086993200000006 3.3855884100000000 2.8824294799999999 Au
atom 13.1823811000000006 3.2914148000000001 2.8828668999999998 Au
atom 16.0464917199999988 3.3576785600000001 2.5963690000000001 Au
atom 18.8364113099999990 3.4417270499999999 2.6544140199999999 Au
atom 21.6766210699999995 3.3808359399999999 2.9796318500000001 Au
atom 24.3548416900000007 3.3265543700000002 2.8221482299999998 Au
atom 27.2105420400000000 3.3142304500000002 2.7448942199999999 Au
atom 1.7724996900000001 3.4026949399999999 2.7634642199999999 Au
atom 4.6863268900000001 3.3636202700000002 2.8679027700000002 Au
atom 8.9419192200000008 5.8456523400000000 2.9542038700000002 Au
atom 11.7916606799999997 5.8271322500000000 2.9056179300000000 Au
atom 14.5545601500000004 5.8410729200000002 2.6745363900000001 Au
atom 17.3070606100000006 5.7912926499999999 2.7880343700000001 Au
atom 20.2113644500000014 5.9130102700000000 2.5952506500000001 Au
atom 23.0530632199999985 5.9217513899999998 3.0211550599999999 Au
atom 25.8577085800000006 5.7647970199999996 3.0547654600000000 Au
atom 0.4304096100000000 5.8297641599999999 2.7771917600000000 Au
atom 3.3098092800000001 5.7765809600000004 2.5655425300000001 Au
atom 6.0793350100000003 5.8869537599999999 2.6985085400000002 Au
atom 7.5808386099999998 8.2838721399999997 2.8191366499999999 Au
atom 10.3707474299999998 8.3001816099999992 2.5096388500000000 Au
atom 13.0822812000000006 8.2679078900000000 2.8199777699999999 Au
atom 15.8745336100000003 8.2531697800000003 2.5980823200000001 Au
atom 18.8163885700000009 8.2931570200000007 2.7286633400000002 Au
atom 21.6518275899999999 8.2844178399999997 2.7231097100000001 Au
atom 24.5142515699999990 8.2426308299999995 2.8530250800000001 Au
atom 27.3002058500000011 8.3102201999999998 2.7668511900000001 Au
atom 1.9258081700000000 8.2663504200000002 2.6387709400000001 Au
atom 4.7617488699999999 8.3447008100000009 2.5161628500000002 Au
atom 8.8642462000000002 10.7188924799999992 2.7160841400000000 Au
atom 11.6858856600000003 10.6824026599999993 2.6449581200000001 Au
atom 14.5404050999999992 10.7419027299999996 2.8217869100000001 Au
atom 17.4779329399999988 10.7388639799999996 2.5320934199999998 Au
atom 20.2051351600000011 10.7918033900000001 2.5757934499999999 Au
atom 23.0645038699999994 10.6898291099999998 2.5052535599999999 Au
atom 25.7541506899999995 10.6410862399999999 2.4353605200000001 Au
atom 0.5384790699999999 10.7225834399999993 2.5210727999999998 Au
atom 3.2703077700000001 10.8095692499999991 2.5372380200000002 Au
atom 6.0868452900000003 10.7556118499999993 2.7039711000000000 Au
atom 7.4690616800000003 13.0734145900000005 5.5581045199999997 Cl
atom 7.3087015099999997 15.8881671000000004 8.4525365099999998 Cl
atom 7.3714888900000002 12.9694443100000001 8.1430909600000003 Na
atom 7.4454650899999999 15.9191119600000004 5.6828832599999997 Na
atom 7.4810224500000002 18.8843541899999998 5.6512819700000003 Cl
atom 7.4675849799999998 21.4764291900000011 8.5920553000000002 Cl
atom 7.3327961200000003 18.7086793699999987 8.2840966900000002 Na
atom 7.5843188399999999 21.4952843099999988 5.8568085400000003 Na
atom 7.4999301999999997 24.4415019300000012 5.8644387199999999 Cl
atom 7.4799824399999997 27.2785724499999986 8.6665691400000000 Cl
atom 7.4374067699999999 24.3136572099999988 8.6396288699999992 Na
atom 7.4558620600000003 27.2234813399999993 5.8426605399999998 Na
atom 7.6283087800000002 30.1422269400000005 5.8885314600000003 Cl
atom 7.3801086500000004 32.9142145100000008 8.6677009799999993 Cl
atom 7.5776963500000001 29.9551160199999984 8.6375616399999995 Na
atom 7.4079274000000002 32.9649192099999979 6.1548057900000002 Na
atom 7.5773324999999998 35.7617219199999994 6.0771624700000002 Cl
atom 7.5444094599999998 38.5832280999999995 8.8265029300000002 Cl
atom 7.4052343900000004 35.6200607999999974 8.7702325299999995 Na
atom 7.6152718400000001 38.4295821199999992 6.2119519700000003 Na
atom 7.5936069100000001 1.8572339300000000 5.9058335199999998 Cl
atom 7.5512687400000003 4.6938779100000003 8.9116075200000004 Cl
atom 7.3987885100000002 1.8186453300000001 8.8162721800000003 Na
atom 7.5789774599999999 4.5213997800000003 6.1698853400000004 Na
atom 7.3622448100000000 7.3353032799999998 5.9209449699999999 Cl
atom 7.4226438500000000 10.2244067899999997 8.6410732200000009 Cl
atom 7.4614565400000004 7.2784936900000003 8.5784526000000003 Na
atom 7.5724376199999996 10.1997192099999996 5.6285880099999996 Na
atom 10.3670703399999997 13.0606223900000007 5.6938479600000003 Na
atom 13.3669233700000003 13.1773047400000003 5.6920436299999997 Cl
atom 10.3376203300000000 16.0100502999999996 8.2669234500000002 Na
atom 13.5492333100000000 15.6867252500000003 8.3138179700000006 Cl
atom 13.1003965800000000 12.9852057999999992 8.5238639700000007 Na
atom 10.1427656099999997 13.0401118700000005 8.4165056200000006 Cl
atom 13.2241111799999995 15.7467158499999993 5.6583928500000003 Na
atom 10.3432390299999994 15.7516471899999999 5.7162235199999998 Cl
atom 10.3161604499999999 18.7897336099999990 5.6538642499999998 Na
atom 13.1068171200000005 18.7345845000000004 5.5176967299999999 Cl
atom 10.3889198399999998 21.6423918099999995 8.2861247000000002 Na
atom 13.0656742399999999 21.3420160400000007 8.3168224800000008 Cl
atom 13.2232833900000006 18.5930016400000007 8.1986045000000001 Na
atom 10.2774243900000002 18.9001999599999984 8.3949867800000000 Cl
atom 13.0591454599999999 21.7341435999999995 5.8009739400000004 Na
atom 10.4382252300000005 21.7367734500000012 5.6233499100000000 Cl
atom 10.3336700599999993 24.4957882699999985 5.9810653699999996 Na
atom 13.1071013399999998 24.5488415999999994 5.9426019200000004 Cl
atom 10.3217631900000004 27.2040096899999995 8.5739946000000007 Na
atom 13.1218847400000005 27.3229183000000013 8.7937025400000000 Cl
atom 13.2947400800000004 24.5970960599999984 8.5850267900000006 Na
atom 10.3281521299999994 24.3527584899999994 8.5334022600000008 Cl
atom 12.9746772999999997 27.2436364399999995 6.0154031799999998 Na
atom 10.2648562200000004 27.3393215900000008 5.8781038600000004 Cl
atom 10.3483903399999999 30.3916171999999989 6.1079377499999996 Na
atom 13.0517644399999995 30.1108808600000017 6.0045194600000000 Cl
atom 10.1813034299999998 32.9568519500000008 8.7134849699999997 Na
atom 13.1485908200000008 32.9056083799999968 9.0970754700000001 Cl
atom 13.1065785500000000 30.1970291800000012 8.6246445299999994 Na
atom 10.3042502999999996 30.0567061399999993 8.8441466299999991 Cl
atom 13.1260275899999996 33.1227111199999982 6.3231553600000003 Na
atom 10.1650255600000001 33.1259523100000024 6.1684017000000004 Cl
atom 10.4278032399999994 35.7741187100000033 6.1143448500000002 Na
atom 13.0408709799999993 35.6549066999999980 6.0806518100000000 Cl
atom 10.3801545700000002 38.5681433499999997 8.5992487499999992 Na
atom 13.3018483500000002 38.5141922700000023 8.7982669100000006 Cl
atom 13.2547053399999992 35.6996710000000022 8.8369043200000004 Na
atom 10.3918068800000007 35.7464485499999967 8.8899546600000008 Cl
atom 13.1202282300000004 38.6221487700000026 6.0743612100000002 Na
atom 10.3568928299999996 38.4622494500000016 5.9141618300000003 Cl
atom 10.2528842499999993 1.7910511499999999 5.9785657199999998 Na
atom 13.1560626999999997 1.8828605700000001 5.8576487000000004 Cl
atom 10.1357883500000003 4.6086499900000000 8.5890300199999992 Na
atom 13.2173541900000000 4.5598191200000002 8.7205525399999999 Cl
atom 13.2145493599999995 1.8152445200000000 8.5767240999999999 Na
atom 10.4959099400000007 1.6951415900000000 8.8150783300000004 Cl
atom 13.1659452800000007 4.6715797400000003 6.0040348300000002 Na
atom 10.3436757000000004 4.4686541999999996 5.9102515899999997 Cl
atom 10.2411997100000001 7.3835829500000001 5.8462674000000003 Na
atom 13.0657538599999992 7.4212572899999998 6.0387979200000004 Cl
atom 10.2321704800000006 10.2265924899999998 8.2112469200000007 Na
atom 13.0791827099999995 10.2062224300000004 8.5174467899999993 Cl
atom 13.1330483200000003 7.3002063599999998 8.5289590200000003 Na
atom 10.2716547899999995 7.2337709800000001 8.6176005000000000 Cl
atom 13.0141892800000001 10.1292982800000004 5.8557648400000000 Na
atom 10.2330655900000007 10.1312833199999996 5.6668024099999998 Cl
atom 16.0089112600000014 13.0312667199999996 5.8464348399999997 Na
atom 18.8489528499999999 13.3318802600000001 5.6182701200000000 Cl
atom 16.1167113700000009 15.8933625000000003 8.0905514000000007 Na
atom 18.8743281399999994 15.8360062399999997 8.5060427000000001 Cl
atom 18.8480304700000012 13.1267113900000005 8.3122546600000007 Na
atom 16.0560069699999985 13.0944013600000009 8.6087400499999998 Cl
atom 18.8932005200000006 15.9756483800000009 5.6856375200000002 Na
atom 16.2445656999999990 15.9388154300000000 5.5312335800000003 Cl
atom 16.0062075499999992 18.8022536400000000 5.5457913999999997 Na
atom 18.9408710599999992 18.8060107899999984 5.4587599400000002 Cl
atom 16.0772117399999992 21.5427532100000008 8.5539209100000004 Na
atom 18.7774892000000015 21.6064085500000012 8.4021600599999999 Cl
atom 18.7442099199999994 18.9079423599999998 8.1568199200000002 Na
atom 15.9297060599999991 18.6513148099999988 8.4014342899999992 Cl
atom 18.6687439200000007 21.7803867599999990 5.5859792500000003 Na
atom 15.9552779000000005 21.6741057200000000 5.8516654600000004 Cl
atom 16.0052374099999994 24.5049755199999986 5.7626437299999997 Na
atom 18.8295440599999999 24.5865828600000000 5.5958639100000003 Cl
atom 15.8973509400000008 27.4630620900000011 8.3207876699999996 Na
atom 18.7401994400000014 27.2136566600000016 8.5435118299999999 Cl
atom 18.8352350299999998 24.3857297700000011 8.2777316100000000 Na
atom 16.1297401600000008 24.5587520700000006 8.5116831000000008 Cl
atom 18.7402785499999993 27.1655743299999983 5.8675922299999996 Na
atom 15.8438245500000008 27.3350839000000008 5.7114717400000004 Cl
atom 15.9371872000000003 30.0309188899999988 5.9507564100000003 Na
atom 18.7116300299999985 29.9857424100000003 5.7442077200000004 Cl
atom 16.1000456599999993 32.8401084300000008 8.7359387799999997 Na
atom 19.0162974100000000 32.9556662000000031 8.5775149200000005 Cl
atom 18.8114095699999986 29.9865109200000006 8.4463852300000006 Na
atom 15.8506927199999996 30.0931077100000017 8.7151332400000001 Cl
atom 18.7493228400000014 32.8667815200000035 5.9668738299999999 Na
atom 15.8849826400000005 32.9005028300000006 6.2049635600000004 Cl
atom 15.9798772200000005 35.6203238700000000 6.0225602599999997 Na
atom 18.8473399099999988 35.6257688500000000 5.7671294800000004 Cl
atom 16.1344636699999988 38.4285187199999996 8.4481829200000007 Na
atom 18.8370243299999984 38.2735605399999983 8.7557561800000006 Cl
atom 18.9291817599999987 35.5532400100000032 8.5308214299999996 Na
atom 16.1132381400000000 35.6924862199999993 8.7783811800000002 Cl
atom 18.7602783899999999 38.6011243800000017 5.9444918500000004 Na