#===============================================================================
# Created using the Atomic Simulation Environment (ASE)

# Tue Dec 23 21:42:27 2025

#=======================================================
lattice_vector 28.1999999999999993 0.0000000000000000 0.0000000000000000 
lattice_vector 0.0000000000000000 39.4799999999999969 0.0000000000000000 
lattice_vector 0.0000000000000000 0.0000000000000000 62.3296083400000001 
atom 7.4145187600000000 14.8664943899999997 -0.0959585000000000 Au
atom 10.2523089800000005 14.8148669900000005 -0.3231672800000000 Au
atom 13.0882950400000002 14.8390529999999998 -0.3072614500000000 Au
atom 15.9832638100000004 14.8761541000000008 -0.3453084500000000 Au
atom 18.7589834599999996 14.8899891300000000 -0.1472932800000000 Au
atom 21.5834654199999996 14.8218172599999995 -0.1912875400000000 Au
atom 24.3956555100000010 14.7666753699999997 -0.2058133400000000 Au
atom 27.2169225700000013 14.8413854199999999 -0.2433064100000000 Au
atom 1.8398360000000000 14.7576091799999993 -0.3575849600000000 Au
atom 4.6276386000000000 14.8124414299999998 -0.3060988400000000 Au
atom 8.8605513400000007 17.3536376300000015 -0.1751255700000000 Au
atom 11.6671454400000005 17.3590181500000007 -0.3749386500000000 Au
atom 14.5388307999999995 17.3184528700000016 -0.3556495700000000 Au
atom 17.3709956900000009 17.3516103100000016 -0.2437369200000000 Au
atom 20.1589076200000008 17.3626105799999984 -0.2311012300000000 Au
atom 22.9765632000000011 17.3452136599999989 -0.1583925600000000 Au
atom 25.7092008800000009 17.3256627999999999 -0.0863209000000000 Au
atom 0.4127892100000000 17.2838466400000001 -0.0784881700000000 Au
atom 3.2231908200000001 17.3595146800000002 -0.1854578300000000 Au
atom 5.9999112600000002 17.2421010000000017 0.0256788200000000 Au
atom 7.4912067400000000 19.7214455700000002 0.1968293000000000 Au
atom 10.2732469500000008 19.7744778600000011 -0.2012517700000000 Au
atom 13.1184969400000000 19.7830557399999982 -0.3102599600000000 Au
atom 15.9171056499999999 19.8836156499999994 -0.2679010500000000 Au
atom 18.7321998799999996 19.7876872400000003 -0.1359507800000000 Au
atom 21.4900768400000004 19.8469605099999988 0.0479500600000000 Au
atom 24.3143779199999983 19.7708818499999985 0.0333054800000000 Au
atom 27.1597166200000011 19.7385665299999999 -0.0828493000000000 Au
atom 1.8402988499999999 19.7183255700000011 0.2386738500000000 Au
atom 4.6537633700000001 19.7856501000000016 0.0805949300000000 Au
atom 8.8259435800000006 22.1806528500000013 0.2041578100000000 Au
atom 11.6193036400000000 22.3035446600000000 -0.2993094300000000 Au
atom 14.4463632700000009 22.2166886999999988 -0.1099997900000000 Au
atom 17.3147927499999987 22.2140436399999999 -0.1416866000000000 Au
atom 20.1840926299999985 22.2741034400000011 -0.0983842500000000 Au
atom 23.0133034899999984 22.2993166199999990 -0.0401087100000000 Au
atom 25.7817877399999986 22.1957791600000007 0.0417042000000000 Au
atom 0.3912863800000000 22.2442533800000000 0.1145545200000000 Au
atom 3.2194482299999998 22.1845930699999982 0.1384442400000000 Au
atom 6.0357183699999997 22.1198276800000002 0.2669238100000000 Au
atom 7.4548345800000000 24.6435499299999989 0.2197550400000000 Au
atom 10.2575094799999995 24.7041151700000015 0.1753175000000000 Au
atom 13.0295815899999994 24.7588402400000014 -0.1509985800000000 Au
atom 15.9273642800000008 24.7233681599999997 -0.1367579600000000 Au
atom 18.7576635200000013 24.6534025999999997 -0.2567273500000000 Au
atom 21.5340282199999997 24.7091683800000013 -0.1474217800000000 Au
atom 24.4084176500000005 24.7475798000000005 0.0928074500000000 Au
atom 27.2073897299999992 24.7161977499999992 0.2393820400000000 Au
atom 1.8601698700000000 24.6932988000000009 0.2488118300000000 Au
atom 4.7147580199999997 24.6785458700000007 0.1829384100000000 Au
atom 8.8787300200000008 27.1794366799999985 -0.0952842000000000 Au
atom 11.6991796299999997 27.2181334899999996 -0.0651082800000000 Au
atom 14.4341981599999993 27.1961271000000018 -0.1416473300000000 Au
atom 17.2808005300000005 27.2060978099999993 -0.1966116400000000 Au
atom 20.0816165799999986 27.1681735400000015 -0.2290843600000000 Au
atom 22.8629269099999988 27.1708674600000002 0.1624765400000000 Au
atom 25.8022179200000004 27.1686021400000008 0.2796205900000000 Au
atom 0.4184339900000000 27.1211340599999993 0.1000843700000000 Au
atom 3.3068689299999998 27.1261349400000000 0.1550273600000000 Au
atom 6.1211389000000000 27.1920688000000013 0.1521642700000000 Au
atom 7.5277102899999999 29.7030359100000005 0.0591142000000000 Au
atom 10.2946709100000007 29.6381985199999995 0.0734818600000000 Au
atom 13.1188501100000003 29.6638642399999988 0.0155075300000000 Au
atom 15.9225635099999998 29.6404699299999983 -0.1664877500000000 Au
atom 18.7549319499999996 29.5788525500000006 -0.0138804900000000 Au
atom 21.5316009900000012 29.5976416399999991 0.1236901300000000 Au
atom 24.4071927500000001 29.6103908800000006 0.1154766900000000 Au
atom 27.1913560799999985 29.6237653899999991 0.1640522800000000 Au
atom 1.8682726700000001 29.5118807600000004 0.0272451700000000 Au
atom 4.7072493199999998 29.6440824700000007 0.1229034900000000 Au
atom 8.9113123600000002 32.1340776600000027 0.0193554100000000 Au
atom 11.7397127900000005 32.1576503300000027 -0.0434007100000000 Au
atom 14.5593380799999998 32.1072718799999990 0.0187917100000000 Au
atom 17.3414406999999997 32.0525630500000034 -0.0231641900000000 Au
atom 20.2409726499999998 32.0660808200000034 0.0898875800000000 Au
atom 22.9844502000000013 32.0902377700000017 -0.0372190700000000 Au
atom 25.7390886600000002 32.1434007399999970 -0.0542361500000000 Au
atom 0.4630255200000000 31.9322649399999996 -0.0296607100000000 Au
atom 3.2649040999999999 32.0273385500000032 -0.0902303000000000 Au
atom 6.1043053499999997 32.1264161599999980 -0.0666530100000000 Au
atom 7.5619911799999997 34.5208775700000032 0.0812236700000000 Au
atom 10.3321407099999991 34.5661464100000018 0.2516117700000000 Au
atom 13.1185500499999996 34.6086021799999983 -0.0562369200000000 Au
atom 15.9888048000000005 34.6082340399999993 -0.0504797500000000 Au
atom 18.7957784699999984 34.5625946400000004 0.0087931200000000 Au
atom 21.6481647200000005 34.6087657699999980 -0.1040732100000000 Au
atom 24.5641777099999992 34.5684968400000017 -0.3307441200000000 Au
atom 27.3545536899999995 34.4119057099999992 -0.1436132300000000 Au
atom 1.9331567900000000 34.5322421300000002 -0.0529320200000000 Au
atom 4.6381769600000000 34.5153287700000035 -0.0610873300000000 Au
atom 8.9737994800000003 37.0243126399999980 -0.0822667700000000 Au
atom 11.7256284900000001 37.0137239399999984 -0.0327739700000000 Au
atom 14.5853719599999998 37.0017785799999999 -0.1447880300000000 Au
atom 17.4122189300000016 37.0327391699999993 0.1600094600000000 Au
atom 20.1526271199999982 37.0308101199999982 0.0411144800000000 Au
atom 23.0329055300000007 37.1229562099999981 -0.0930180000000000 Au
atom 25.9306849100000001 37.0221789400000034 -0.0178570200000000 Au
atom 0.5098633500000000 36.9948464400000034 -0.0962151200000000 Au
atom 3.3741260000000000 37.0082288600000027 0.1329904600000000 Au
atom 6.1563758799999997 36.9790836199999973 0.0136634600000000 Au
atom 7.4721740800000003 0.0192445400000000 -0.0275163700000000 Au
atom 10.3510303300000004 -0.0221602100000000 -0.0634471800000000 Au
atom 13.1599655500000008 0.0391264900000000 -0.1361796800000000 Au
atom 15.9399619200000000 0.0309862000000000 0.1421575300000000 Au
atom 18.7608764299999997 0.0959525100000000 0.1605689800000000 Au
atom 21.5245194799999986 0.0168851000000000 0.0012091600000000 Au
atom 24.3890595099999992 0.0407144500000000 0.0881150400000000 Au
atom 27.2293399100000002 0.0061880200000000 0.1200680300000000 Au
atom 1.8367830700000001 0.0038795000000000 0.0316347800000000 Au
atom 4.6507378399999997 0.0038539000000000 0.1258185000000000 Au
atom 8.9234957900000005 2.4551794400000002 -0.0109085300000000 Au
atom 11.8168110700000000 2.4332876500000000 0.1346782900000000 Au
atom 14.5773179200000005 2.4847880999999998 0.1415210100000000 Au
atom 17.3683510299999995 2.4938679399999999 0.0284362700000000 Au
atom 20.1818464499999983 2.4632602800000001 0.0838362500000000 Au
atom 22.9452571399999989 2.4972091700000001 0.0134844200000000 Au
atom 25.8108750399999991 2.5228869000000000 0.1455618000000000 Au
atom 0.3583965600000000 2.4847717199999999 0.1510333900000000 Au
atom 3.2170224200000002 2.4969275700000000 0.1337270900000000 Au
atom 6.0961695899999997 2.4545273200000000 -0.0529171700000000 Au
atom 7.5503616400000002 4.8737474299999999 0.0251072700000000 Au
atom 10.3442884599999996 4.9650233600000000 0.0286646900000000 Au
atom 13.1620341399999994 4.9728685500000003 0.1418598300000000 Au
atom 16.0289217099999988 4.9866064500000000 0.2164207600000000 Au
atom 18.8048666199999985 4.9207658399999996 0.1515177800000000 Au
atom 21.5892234000000016 4.9873602100000003 0.1083494200000000 Au
atom 24.4194447799999992 5.0235962499999998 0.3535641000000000 Au
atom 27.1555063499999996 4.9773912600000001 0.1736012000000000 Au
atom 1.7731313799999999 4.8734711500000003 0.2983960900000000 Au
atom 4.6803245000000002 4.8976095800000001 0.2852310800000000 Au
atom 8.8756722799999999 7.4510131700000004 0.0569154200000000 Au
atom 11.7234616500000008 7.4860546499999998 0.1306015900000000 Au
atom 14.5540226300000004 7.5002693100000002 0.1956561100000000 Au
atom 17.4144012000000004 7.4191753399999998 0.0088373600000000 Au
atom 20.1885558500000002 7.4331590399999996 0.0870649100000000 Au
atom 23.0114835900000010 7.3876297700000002 0.2156305300000000 Au
atom 25.8469749600000007 7.4083934300000003 0.1701953000000000 Au
atom 0.4845428600000000 7.3463963999999997 0.1877932700000000 Au
atom 3.2098797499999998 7.3627070999999997 0.1236566900000000 Au
atom 6.0907850600000000 7.3113552200000003 -0.0441594700000000 Au
atom 7.4604942999999997 9.8713413699999997 -0.0492998500000000 Au
atom 10.2442580499999991 9.8659765400000001 -0.0388474100000000 Au
atom 13.0816594100000003 9.8695830200000003 -0.2310050800000000 Au
atom 15.9340701199999994 9.8706606600000004 -0.2489034100000000 Au
atom 18.7897820899999992 9.8254927500000004 -0.1483450700000000 Au
atom 21.5978885600000012 9.8625105299999998 0.0610627100000000 Au
atom 24.4353128400000017 9.8199382800000006 0.0395653300000000 Au
atom 27.2235246900000014 9.8266037399999995 0.1105466100000000 Au
atom 1.8371361799999999 9.8066360199999991 0.0152705300000000 Au
atom 4.6630447600000000 9.8331820499999996 0.1718748100000000 Au
atom 8.8410835599999995 12.3607357699999998 -0.0369450500000000 Au
atom 11.6548966699999994 12.3302621200000004 -0.1524324400000000 Au
atom 14.4681268500000009 12.3889493300000009 -0.2324399700000000 Au
atom 17.2986228900000008 12.3460653199999992 -0.3383344100000000 Au
atom 20.2142924499999985 12.2788551199999993 -0.1762235200000000 Au
atom 22.9421084200000003 12.3416699100000002 -0.0708101300000000 Au
atom 25.7810773100000006 12.2467079900000009 -0.1848810900000000 Au
atom 0.4129381300000000 12.3776923399999994 -0.0695260900000000 Au
atom 3.2540013900000000 12.2839299099999995 -0.0863079000000000 Au
atom 6.0044358300000003 12.3596035999999998 -0.0178014200000000 Au
atom 7.5277033900000001 13.1890121699999998 2.5975571700000000 Au
atom 10.3934511100000009 13.1474336699999999 2.4071576800000001 Au
atom 13.1647192900000007 13.2484301299999991 2.3269310200000000 Au
atom 15.9467295100000008 13.1819258300000008 2.2604207500000002 Au
atom 18.7746154499999989 13.2934730600000002 2.3796379399999998 Au
atom 21.5480691799999988 13.2868692999999993 2.3389891299999999 Au
atom 24.3738745100000003 13.2215805399999997 2.4996598500000000 Au
atom 27.2271030799999991 13.2795798600000001 2.4130410900000001 Au
atom 1.8725188100000001 13.2255942700000002 2.4782967899999999 Au
atom 4.6656745300000004 13.2685385599999996 2.3805729699999998 Au
atom 8.9012533800000000 15.5992005500000008 2.4121022499999998 Au
atom 11.7064330800000000 15.7000541800000004 2.3108639300000000 Au
atom 14.5620047199999991 15.6522365800000003 2.2463095900000001 Au
atom 17.3285072500000012 15.7168176499999994 2.4705591800000000 Au
atom 20.1165461500000013 15.6853611100000006 2.5683194299999998 Au
atom 22.9467944800000012 15.7035861499999996 2.4483098100000000 Au
atom 25.7600683699999990 15.7229506400000005 2.3968229499999998 Au
atom 0.4044097100000000 15.6725846000000004 2.3273136499999998 Au
atom 3.1779128100000000 15.6704278400000003 2.1941546199999999 Au
atom 6.0891044000000001 15.5871358900000008 2.5234206900000000 Au
atom 7.4372678900000002 18.0575144399999985 2.5612628499999999 Au
atom 10.2691288899999993 18.0446154000000014 2.3982360200000001 Au
atom 13.0372468000000001 18.0849721400000014 2.2252764200000001 Au
atom 15.8525799700000007 18.2005017500000008 2.4038067200000000 Au
atom 18.7017976799999985 18.1280025900000012 2.4730256200000000 Au
atom 21.4779061700000007 18.1611162200000003 2.4747168700000000 Au
atom 24.3070116200000008 18.1382499000000017 2.5582808699999999 Au
atom 27.1930939599999988 18.1892171699999992 2.4324308399999999 Au
atom 1.8655018800000001 18.1317736799999984 2.7395703700000000 Au
atom 4.6627415200000000 18.0974468900000005 2.5916328800000001 Au
atom 8.8836258200000007 20.4560509800000005 2.7884498799999999 Au
atom 11.6682933099999993 20.6003474900000008 2.3276500900000001 Au
atom 14.4835710300000002 20.7029538100000003 2.3724583099999998 Au
atom 17.2837591999999987 20.5903280799999990 2.5042935700000002 Au
atom 20.0690755199999984 20.6998107699999991 2.6548293200000002 Au
atom 22.9242871000000008 20.6258046899999989 2.6482681399999999 Au
atom 25.7305288200000000 20.5825222299999986 2.6952574600000001 Au
atom 0.3933129600000000 20.5749001500000013 2.6748775600000001 Au
atom 3.3305361100000002 20.6075924999999991 2.7692709500000001 Au
atom 6.1007110600000001 20.5507863300000011 2.9623138500000001 Au
atom 7.5578184000000004 22.9639904199999982 2.8573709500000000 Au
atom 10.3838773999999994 23.0795576699999998 2.6987960900000001 Au
atom 13.0989157400000007 23.1531160100000015 2.4776176200000002 Au
atom 15.9053958800000004 23.0590961800000009 2.5030478899999999 Au
atom 18.7125473400000004 23.1276026500000000 2.4160285600000000 Au
atom 21.5112877699999991 23.1050970699999993 2.4728215400000000 Au
atom 24.4006070699999995 23.0922404400000012 2.6886767699999998 Au
atom 27.2260883900000010 23.0520952799999996 2.6000401300000000 Au
atom 1.8920730699999999 22.9627203500000014 2.7868199599999999 Au
atom 4.7726476000000000 23.1223243300000014 2.6174831300000001 Au
atom 8.9044092900000003 25.5393005200000012 2.6896453500000002 Au
atom 11.7458634100000001 25.6229278299999983 2.5466321700000001 Au
atom 14.4942050200000008 25.4958907799999999 2.3554738600000000 Au
atom 17.3209805599999989 25.5391347300000007 2.3488516499999998 Au
atom 20.1884228099999987 25.5840181700000002 2.2880850399999999 Au
atom 22.9136099699999995 25.5508980399999999 2.7984967900000002 Au
atom 25.7754028899999987 25.6397565400000005 2.8065287500000000 Au
atom 0.3967161300000000 25.5693279800000006 2.8149135799999998 Au
atom 3.2688122599999998 25.4769903299999996 2.8128535299999999 Au
atom 6.1363260100000003 25.5469216500000016 2.6831369399999998 Au
atom 7.5292746499999996 28.0030692700000010 2.6690643999999999 Au
atom 10.3382362699999995 28.0787664899999996 2.5370198899999998 Au
atom 13.1470922300000002 28.0502362900000008 2.5045924899999998 Au
atom 15.9175141000000000 27.9774703100000011 2.4461408400000000 Au
atom 18.7179683799999985 27.9511801499999990 2.6432693899999999 Au
atom 21.4738993299999983 28.0295802199999997 2.7435232799999998 Au
atom 24.2663989200000003 28.0729421499999994 2.6916805699999999 Au
atom 27.1901089599999999 28.1000120500000001 2.7703280200000000 Au
atom 1.8722139600000001 27.9701852600000009 2.6973565499999999 Au
atom 4.7162566200000002 28.0343213899999988 2.7200551200000000 Au
atom 8.9315351599999993 30.5050532899999993 2.7112957600000001 Au
atom 11.7472613799999994 30.5262646999999987 2.7037841800000000 Au
atom 14.5852928300000002 30.4974388099999985 2.6817988399999999 Au
atom 17.3111175499999987 30.4278435599999995 2.6428940399999998 Au
atom 20.0878618099999997 30.5200425200000005 2.7037056900000001 Au
atom 22.9690524799999984 30.5492112400000018 2.7734364000000000 Au
atom 25.7870508500000000 30.5618403299999990 2.6952881999999998 Au
atom 0.4156502600000000 30.4439241000000003 2.5909254200000000 Au
atom 3.2758837999999999 30.4898403199999990 2.6548718500000001 Au
atom 6.1205011699999998 30.4883552699999996 2.7227311200000002 Au
atom 7.5400304100000000 32.9223127200000008 2.5712857699999998 Au
atom 10.3663984100000004 32.9757027599999972 2.8211197700000001 Au
atom 13.2117851399999999 32.9131798100000026 2.5499222700000002 Au
atom 16.0555725799999998 33.0513910800000019 2.5929384299999998 Au
atom 18.7858116399999986 32.9375044900000020 2.5898588000000000 Au
atom 21.6227139900000012 32.9666901200000027 2.5804497099999999 Au
atom 24.4141457600000003 33.0250061599999967 2.5372178700000001 Au
atom 27.2341976000000017 32.8536792700000007 2.5571692000000001 Au
atom 1.8168025800000001 32.9065646999999970 2.5094046600000000 Au
atom 4.6962244300000000 32.8821046699999968 2.6017522199999998 Au
atom 8.8983595500000003 35.3985967599999967 2.7195062800000001 Au
atom 11.7429131899999994 35.4424757000000028 2.6502878900000000 Au
atom 14.5896566900000000 35.4222003200000017 2.4955022100000002 Au
atom 17.4572746599999995 35.4871645200000003 2.7102018299999999 Au
atom 20.2709474400000005 35.4676694200000000 2.5528477299999999 Au
atom 23.0641580099999999 35.4508736599999992 2.3621405400000000 Au
atom 25.8947728899999987 35.3855243499999972 2.3793408199999999 Au
atom 0.5221108800000001 35.4083015699999990 2.5648051900000000 Au
atom 3.2661094400000001 35.3406190800000033 2.6622919299999999 Au
atom 6.0193650600000002 35.3810002399999988 2.6192532599999998 Au
atom 7.5362643399999998 37.8297068299999992 2.5577368699999998 Au
atom 10.2988140000000001 37.8749969599999972 2.7138935800000001 Au
atom 13.1768144199999995 37.8333512099999965 2.4207938400000000 Au
atom 15.9979785400000001 37.8463883499999980 2.7723253300000001 Au
atom 18.8831673799999997 37.9731256199999976 2.7219268599999999 Au
atom 21.7112322499999983 37.9241688099999976 2.5500307200000001 Au
atom 24.4495461499999998 37.8671412699999976 2.5820113199999999 Au
atom 27.3339516600000003 37.8334228200000027 2.7023528899999998 Au
atom 1.8927152199999999 37.8851759499999972 2.5566353799999999 Au
atom 4.7036747800000001 37.8375239000000008 2.8052870200000002 Au
atom 8.9346504400000004 0.8586518000000000 2.5574856700000002 Au
atom 11.7356569700000009 0.8097610900000000 2.5694078800000000 Au
atom 14.5915891099999993 0.7888801600000001 2.7103297000000000 Au
atom 17.4086625899999987 0.9653867699999999 2.7489188800000002 Au
atom 20.2531725400000013 0.8882671900000000 2.7903996499999999 Au
atom 23.0656615699999996 0.9119832300000000 2.7084418499999998 Au
atom 25.8423272699999984 0.8777148100000000 2.7361675800000000 Au
atom 0.4954529800000000 0.7991072200000000 2.7535287199999998 Au
atom 3.2944858199999998 0.7729204800000000 2.7113081200000000 Au
atom 6.1030721999999997 0.7027343100000000 2.6999277699999999 Au
atom 7.4647564199999996 3.2584991600000000 2.4755226499999998 Au
atom 10.3735123300000005 3.3384027999999999 2.5688339500000001 Au
atom 13.1057323100000005 3.3064543199999998 2.7542821800000001 Au
atom 15.9523957799999998 3.3446701200000000 2.6397104800000002 Au
atom 18.8097493699999987 3.3787359800000001 2.6802765800000001 Au
atom 21.7068000000000012 3.3617665600000000 2.6513235399999999 Au
atom 24.4570783399999989 3.3132063199999999 2.7860252200000000 Au
atom 27.2840407300000010 3.3064423600000001 2.7133204499999999 Au
atom 1.8632822200000001 3.2535670099999998 2.8160847499999999 Au
atom 4.7080558999999997 3.2299422299999998 2.8986953600000001 Au
atom 8.9122593800000001 5.7565105699999997 2.6147210300000001 Au
atom 11.6591135799999996 5.8131872900000001 2.7440175700000000 Au
atom 14.4982460799999995 5.7293522899999996 2.7967103600000001 Au
atom 17.3292248800000017 5.8536179900000000 2.8826777400000001 Au
atom 20.2087794400000007 5.8538943100000003 2.7294323100000000 Au
atom 23.0070585799999989 5.8035488700000002 2.8365307299999998 Au
atom 25.8755106599999998 5.8304111499999998 2.9131808299999999 Au
atom 0.5372212200000001 5.8109834800000000 2.8707660900000000 Au
atom 3.3187540300000000 5.7868048200000004 2.7874685399999999 Au
atom 6.1409311899999999 5.7999033200000003 2.6872176699999999 Au
atom 7.5586514100000004 8.2519913900000006 2.5948334200000001 Au
atom 10.2958931800000002 8.2675047100000008 2.7500400500000000 Au
atom 13.1449759099999994 8.2565407200000003 2.7129052900000001 Au
atom 15.9701366500000006 8.3181675199999994 2.6543768600000002 Au
atom 18.7638929800000014 8.3443683400000008 2.6932157100000000 Au
atom 21.6254997700000011 8.3129738700000004 2.7561168299999999 Au
atom 24.5235200900000017 8.2663932599999992 2.7445394599999999 Au
atom 27.3283523300000013 8.2359830800000005 2.6339945400000002 Au
atom 1.9421176800000000 8.3077045399999996 2.8112318200000002 Au
atom 4.7591944899999996 8.2341195400000000 2.6104157899999998 Au
atom 8.8900974200000000 10.7715718500000008 2.6281618899999999 Au
atom 11.7637215000000008 10.6525941399999997 2.5268716900000001 Au
atom 14.5470418800000001 10.6729839099999992 2.3307057800000002 Au
atom 17.4199968799999994 10.7940982200000004 2.2889141300000002 Au
atom 20.2266929799999993 10.8016486900000004 2.4706899299999998 Au
atom 23.0806146000000005 10.7764855100000005 2.6645068599999999 Au
atom 25.9161208800000011 10.7745554099999996 2.6094901600000000 Au
atom 0.5626628100000000 10.7610237499999997 2.6284186200000001 Au
atom 3.3597509500000000 10.8060133199999999 2.6187299300000002 Au
atom 6.1071592499999996 10.7174764400000004 2.6666069200000000 Au
atom 7.5906701600000002 13.1365135599999991 5.8606757900000002 Cl
atom 7.4825868900000003 16.0305327300000009 8.3020477699999997 Cl
atom 7.6380178599999997 13.1351674799999998 8.7258539000000006 Na
atom 7.6232999200000000 16.0089936699999988 5.6502812000000002 Na
atom 7.6341726000000003 18.8265502900000001 5.7478304700000002 Cl
atom 7.6063297099999998 21.5499397100000003 8.6746510600000004 Cl
atom 7.5087943299999997 18.8414405199999990 8.4192605300000007 Na
atom 7.6962948899999999 21.5274350199999986 5.9812986400000003 Na
atom 7.7762545699999999 24.3493668599999999 5.8019369000000003 Cl
atom 7.5165437400000004 27.1077236699999986 8.7283263899999994 Cl
atom 7.5510108799999998 24.2659658299999990 8.4943778099999996 Na
atom 7.6629901900000004 27.0369320100000010 5.9864289599999996 Na
atom 7.6445931199999997 29.7324541800000013 5.7209949099999999 Cl
atom 7.4359536899999998 32.8197619199999977 8.6251894799999995 Cl
atom 7.6125913599999997 29.8438365599999997 8.4043319400000005 Na
atom 7.6618358000000004 32.6104173900000021 5.7973091900000000 Na
atom 7.6684853799999999 35.5952867199999972 5.7863190299999996 Cl
atom 7.3780421100000000 38.3835164700000036 8.5842913099999993 Cl
atom 7.5140003999999996 35.5226731099999995 8.4134465800000005 Na
atom 7.5907408299999997 38.3983986499999972 5.8441865699999997 Na
atom 7.6266774100000001 1.7386371500000000 5.7166914999999996 Cl
atom 7.5566628099999997 4.4694322399999997 8.5894326700000008 Cl
atom 7.6140418700000003 1.7329075400000000 8.3486074899999991 Na
atom 7.7307235500000004 4.5519562699999998 5.7680839199999996 Na
atom 7.5105432299999997 7.2015129099999999 5.7022355400000002 Cl
atom 7.4206757300000001 10.0151497000000003 8.5093804300000002 Cl
atom 7.4863198500000001 7.3066110999999996 8.3660989299999997 Na
atom 7.6765486899999997 10.2520873300000002 5.8121653200000001 Na
atom 10.2554232699999996 13.1116151599999995 5.7104444200000000 Na
atom 13.2006076799999992 13.1910317799999994 5.6351299299999997 Cl
atom 10.3082303799999995 15.9857030899999994 8.5552164000000008 Na
atom 13.2694708099999996 15.9233726499999992 8.4707420700000000 Cl
atom 13.3385801199999996 13.2233788000000008 8.2417095099999997 Na
atom 10.5050909200000007 13.2681457999999992 8.3568598499999993 Cl
atom 13.3274188200000001 15.9555511600000006 5.8600543399999996 Na
atom 10.5515287000000004 16.2877121100000011 5.6822114600000004 Cl
atom 10.4423297500000007 18.8016425799999993 5.8540847400000002 Na
atom 13.3000083300000007 18.7535692500000017 5.6377525200000003 Cl
atom 10.3949594899999997 21.2191636000000017 8.6880726999999993 Na
atom 13.1781946699999999 21.5411924100000007 8.6298786100000004 Cl
atom 13.2712398300000007 18.7095375399999995 8.5181192699999997 Na
atom 10.2378179199999995 18.6660770000000014 8.7014108799999992 Cl
atom 13.4847201600000002 21.6699921999999994 5.9560268000000001 Na
atom 10.4453191899999993 21.4118198200000016 5.8513439500000004 Cl
atom 10.4865271999999994 24.2315153099999989 6.0328627199999998 Na
atom 13.3244814599999994 24.3722091300000017 5.9029599099999999 Cl
atom 10.4897692500000002 27.1988334899999984 8.6709642500000008 Na
atom 13.0965315300000000 27.2111321599999982 8.8609235900000005 Cl
atom 13.2565482100000001 24.4147867199999986 8.5564501699999997 Na
atom 10.3975223900000007 24.1459453800000006 8.6936910300000001 Cl
atom 13.3198231400000004 27.4182826599999991 6.0726476500000004 Na
atom 10.5009798799999992 27.2946099099999984 6.0205518800000002 Cl
atom 10.4727539600000004 29.8615795800000008 5.9621631700000002 Na
atom 13.2507910199999994 29.9870252700000002 5.9711574199999999 Cl
atom 10.2476912799999997 32.8131389099999993 8.4398914299999994 Na
atom 13.1583584699999996 32.9333433700000029 8.6429276200000000 Cl
atom 13.1180145400000008 29.9869440199999993 8.7170794899999997 Na
atom 10.3256313700000000 30.1602609599999987 8.6636040500000000 Cl
atom 13.3499232400000007 32.7273824700000020 5.8727275199999998 Na
atom 10.4817454300000001 32.6891248299999972 5.8214177800000000 Cl
atom 10.4518401599999997 35.5476328000000024 5.8518142099999997 Na
atom 13.0822436300000007 35.6044139500000014 5.5829692700000004 Cl
atom 10.3440551299999992 38.4134663900000035 8.5809605500000004 Na
atom 13.1824505500000004 38.4845391300000017 8.5008036600000008 Cl
atom 13.1593183099999997 35.6798896600000006 8.3747641999999995 Na
atom 10.3099453699999994 35.5822008000000025 8.5420423499999991 Cl
atom 13.1212465500000004 38.4621673400000006 5.8051305099999997 Na
atom 10.3928607999999993 38.4962073100000026 5.8256530399999997 Cl
atom 10.4460329600000001 1.7657965600000001 5.7071865099999997 Na
atom 13.2350486499999995 1.8471031499999999 5.7304871600000000 Cl
atom 10.4560130900000008 4.5409074699999996 8.3232954100000001 Na
atom 13.3392160000000004 4.5989027299999998 8.6797870300000000 Cl
atom 13.2586578900000003 1.7445185200000000 8.3476820800000002 Na
atom 10.4129814599999992 1.8691280699999999 8.4530684199999993 Cl
atom 13.2786279300000007 4.5449292600000000 5.8364160900000002 Na
atom 10.4838397499999996 4.6601278800000001 5.7289648199999998 Cl
atom 10.3955083100000003 7.6231879400000002 6.0730031000000002 Na
atom 13.2711963500000003 7.3671469800000002 5.7724471099999999 Cl
atom 10.1734157500000002 10.5461532499999997 8.7941527300000004 Na
atom 13.2351319800000002 10.3754758299999992 8.5438584700000000 Cl
atom 13.3154982600000000 7.5104987500000000 8.4652072500000006 Na
atom 10.2321298899999995 7.3906979899999996 8.7370830399999999 Cl
atom 13.1574067200000009 10.2801156799999998 5.8065073600000003 Na
atom 10.3853328800000000 10.2084889400000005 5.8161034699999998 Cl
atom 16.1341280400000002 13.2578554200000003 5.7601461599999997 Na
atom 18.7246733899999995 13.3049389199999997 5.6649888199999996 Cl
atom 16.3257729500000011 15.9951186300000003 8.6976290499999998 Na
atom 19.0727645000000017 16.0566672500000003 8.5852068500000005 Cl
atom 18.9220470799999987 13.0887822299999996 8.3634684700000008 Na
atom 16.1482856000000012 13.0623784900000004 8.4117055700000005 Cl
atom 18.8656902200000012 16.0251780100000012 5.9183327099999996 Na
atom 16.1749279699999988 16.0650169600000012 5.9700915999999999 Cl
atom 16.1481439100000017 18.7172130900000013 5.9142536000000003 Na
atom 18.9166805499999988 18.8795937299999999 5.9582849700000002 Cl
atom 16.0999150299999982 21.4029406900000012 8.7044268400000000 Na
atom 19.0418865100000012 21.6391722999999985 8.8793943500000001 Cl
atom 19.0297554600000005 18.9039876299999996 8.5563293999999992 Na
atom 16.1307177199999998 18.7230634599999988 8.5407360200000007 Cl
atom 18.9536655600000010 21.6423629200000001 6.0252196500000004 Na
atom 16.3065210500000006 21.6814383600000014 6.0535247700000001 Cl
atom 16.0164612599999998 24.4751439600000005 6.0396138099999996 Na
atom 18.9803726799999986 24.3367673300000007 5.9864991200000004 Cl
atom 15.8894014600000002 27.3079620100000007 9.1690612300000005 Na
atom 18.8212617400000006 27.2672979399999988 8.7864416199999997 Cl
atom 18.8877317699999985 24.3524334700000011 8.7214251800000007 Na
atom 16.2196862899999985 24.3328565099999992 8.7754807699999997 Cl
atom 18.7427948499999992 27.1190686800000016 6.1108800199999997 Na
atom 16.0453719200000009 27.2433957800000002 5.9937216299999996 Cl
atom 16.1262935700000014 30.0262295899999998 6.0866067199999998 Na
atom 19.0110495099999994 29.8331733800000016 5.8245587499999996 Cl
atom 15.9815504799999992 32.8440713999999971 8.5027918000000007 Na
atom 18.8094268999999983 33.0653649799999982 8.7711887500000003 Cl
atom 18.9224601899999989 30.0183693699999985 8.5133569100000006 Na
atom 16.1512384800000000 30.0409401100000011 8.7892558500000000 Cl
atom 18.7920366299999984 32.8694222800000020 5.8773974100000004 Na
atom 16.0309431999999994 32.8361641500000019 5.8374953900000000 Cl
atom 15.8647885300000002 35.6503943000000021 5.8379904199999997 Na
atom 18.8660416099999999 35.6576406200000022 5.7583379499999996 Cl
atom 16.0188223699999988 38.5602594599999975 8.3253952200000008 Na
atom 18.8507780700000005 38.4695417000000006 8.5037067200000003 Cl
atom 18.8318751599999992 35.6348475400000027 8.3629372600000007 Na
atom 15.9980800199999997 35.7364427400000011 8.5031858200000006 Cl
atom 18.8373852100000008 38.5374379499999975 5.8018578999999999 Na