#===============================================================================
# Created using the Atomic Simulation Environment (ASE)

# Tue Dec 23 22:26:21 2025

#=======================================================
lattice_vector 28.1999999999999993 0.0000000000000000 0.0000000000000000 
lattice_vector 0.0000000000000000 39.4799999999999969 0.0000000000000000 
lattice_vector 0.0000000000000000 0.0000000000000000 62.3296083400000001 
atom 7.7457212999999996 14.7532785299999993 -0.2390009300000000 Au
atom 10.3520065100000007 14.8270333599999997 -0.4386339100000000 Au
atom 13.2183280500000002 14.7133383299999991 -0.2243815000000000 Au
atom 15.9363828999999999 14.7408671600000005 -0.0771360000000000 Au
atom 18.7914667000000009 14.7586454899999993 -0.0869318600000000 Au
atom 21.5950224700000000 14.8841060800000005 -0.0102131900000000 Au
atom 24.4755584599999985 14.9507606400000004 0.1386501500000000 Au
atom 27.2380439199999991 14.8044943900000003 -0.0173606600000000 Au
atom 1.7883453499999999 14.8209261300000001 -0.2067197800000000 Au
atom 4.5250730800000003 14.8865308400000007 0.0499094300000000 Au
atom 8.9973018000000007 17.1438460100000007 -0.2224126300000000 Au
atom 11.7654276299999996 17.3274098700000003 -0.2616415100000000 Au
atom 14.5738097199999999 17.3328858399999994 -0.0394470700000000 Au
atom 17.4657144600000009 17.2246452999999988 0.0812181700000000 Au
atom 20.4103001500000012 17.1719343500000008 -0.3537700300000000 Au
atom 22.9403121399999996 17.3051816000000009 0.1093280600000000 Au
atom 25.9225762400000015 17.1937225699999985 -0.0688808800000000 Au
atom 0.3809331300000000 17.3249782000000003 -0.1284275100000000 Au
atom 3.1746697899999998 17.0337692199999999 0.0765816000000000 Au
atom 6.0188759500000000 17.2772780600000004 -0.0725280000000000 Au
atom 7.3815509500000003 19.6842697800000010 -0.0057824300000000 Au
atom 10.2766020200000003 19.7524854900000015 -0.0442858200000000 Au
atom 13.1165170700000004 19.6439458500000015 -0.0563647200000000 Au
atom 16.1380287200000012 19.7320613199999997 -0.0813982300000000 Au
atom 18.6992667300000015 19.8489283400000005 0.0340195700000000 Au
atom 21.6200590599999991 19.7869865000000011 0.0226566600000000 Au
atom 24.4246649399999995 19.6546089600000009 -0.0196808000000000 Au
atom 27.2858468199999997 19.7815371099999986 0.1576154800000000 Au
atom 1.7740881200000000 19.7988237200000015 0.2072108100000000 Au
atom 4.7878654999999997 19.8410699400000006 0.0818027200000000 Au
atom 8.8080334899999997 22.0735426699999984 -0.0036814800000000 Au
atom 11.7713097700000002 22.4100598300000016 -0.0851363200000000 Au
atom 14.6011405700000001 22.2936139599999983 -0.0237965000000000 Au
atom 17.6084277900000004 22.2436431900000002 -0.2159684500000000 Au
atom 20.1587150800000003 22.0861348100000008 -0.2510877900000000 Au
atom 22.9446733099999989 22.2133199899999987 0.0812706500000000 Au
atom 25.8793621000000016 22.1770588000000011 -0.0096459300000000 Au
atom 0.5443712700000000 22.2521394199999989 0.0578863800000000 Au
atom 3.2300723400000000 22.0171226199999985 -0.0635769200000000 Au
atom 6.1743176200000001 22.2471858900000008 0.0412594900000000 Au
atom 7.4575625299999997 24.4512108400000017 0.0042081200000000 Au
atom 10.3860388500000003 24.7477363399999994 -0.1568952200000000 Au
atom 13.1095637699999994 24.7548097499999997 0.1223765400000000 Au
atom 15.9824691600000008 24.6834696700000009 -0.1780241100000000 Au
atom 18.8048369999999991 24.7453734400000016 -0.0630571900000000 Au
atom 21.6974368899999988 24.7418745099999988 0.0769911800000000 Au
atom 24.5944438500000011 24.7693964199999996 -0.1439498000000000 Au
atom 27.3301029000000000 24.6634187199999992 0.1194058100000000 Au
atom 1.7002897800000001 24.6572127600000002 0.2045727400000000 Au
atom 4.6549287499999998 24.5540123399999999 0.0785951700000000 Au
atom 8.9504761100000003 27.3137146400000006 -0.1326788100000000 Au
atom 11.7263059700000003 27.0349419699999984 -0.0095574900000000 Au
atom 14.4965665099999992 26.9067810899999991 -0.1845026900000000 Au
atom 17.5210273799999996 27.0117101400000017 -0.1685210100000000 Au
atom 20.3308487400000004 27.1305917900000004 0.1800728800000000 Au
atom 22.9776503699999992 27.1838061800000013 -0.1317339700000000 Au
atom 25.5417018999999996 27.0780308800000000 0.0780494300000000 Au
atom 0.3104303500000000 27.1975529499999986 0.1370744500000000 Au
atom 3.1755715000000002 27.0496501999999985 0.0843200700000000 Au
atom 6.1494415499999997 27.1567659100000007 -0.1892860900000000 Au
atom 7.4855396299999999 29.5845032400000001 -0.1639756300000000 Au
atom 10.4781031200000001 29.6395050200000014 -0.2028448900000000 Au
atom 13.1644512099999993 29.5841080599999984 0.0197046800000000 Au
atom 15.9394348299999997 29.5657443300000011 -0.1896460500000000 Au
atom 18.7655096300000004 29.6986117400000005 -0.1156346100000000 Au
atom 21.5011972500000006 29.7433570500000002 -0.0417050200000000 Au
atom 24.6353432199999993 29.5896472999999993 0.0788818100000000 Au
atom 27.1776042099999984 29.4662391100000001 0.0693740900000000 Au
atom 1.7021188700000001 29.6619822500000012 0.0205671700000000 Au
atom 4.6781152500000003 29.5471434899999998 0.1869260100000000 Au
atom 8.9164437599999999 31.9096571100000013 0.1180998300000000 Au
atom 11.6784933199999994 32.0857519999999994 0.1093276300000000 Au
atom 14.4274004500000004 32.4222448800000009 0.0558850400000000 Au
atom 17.3572810000000004 31.9472157199999991 0.0288402700000000 Au
atom 20.2079337700000004 31.9304251500000014 0.0560245600000000 Au
atom 22.9634805799999988 32.1046392499999982 0.0652847700000000 Au
atom 25.7771701100000001 32.0057252699999992 0.1126527100000000 Au
atom 0.5385791900000000 32.1748022900000024 0.1228465500000000 Au
atom 3.3137225600000000 32.1685784699999999 -0.2318457000000000 Au
atom 6.1271237699999999 32.0898904900000019 -0.1206842200000000 Au
atom 7.4780638899999996 34.5055624199999968 -0.0646011300000000 Au
atom 10.2361462999999997 34.8876380499999996 0.1199767600000000 Au
atom 12.9294882199999996 34.5589073800000008 -0.1509085600000000 Au
atom 15.8106847399999992 34.6942638200000033 -0.0324835000000000 Au
atom 18.8447494999999989 34.6120581899999991 0.1608262100000000 Au
atom 21.8565818900000011 34.4975299399999997 -0.0008529900000000 Au
atom 24.3358835599999992 34.6254309099999986 0.0672493700000000 Au
atom 27.2781550000000017 34.5889245199999991 0.1168684700000000 Au
atom 2.0567921100000000 34.5063088799999989 0.0489026500000000 Au
atom 4.6336849400000002 34.7479202299999983 0.1301118900000000 Au
atom 8.7685683000000001 36.8981645000000000 0.0469617800000000 Au
atom 11.7825997900000008 36.9738829200000012 -0.1265008400000000 Au
atom 14.5142370500000002 36.8418308500000009 -0.0286312400000000 Au
atom 17.3229329700000001 37.0750510299999974 0.1510460800000000 Au
atom 19.9953309700000013 37.1166148200000023 0.0713737800000000 Au
atom 23.0568928900000003 37.2698035200000035 -0.0053801400000000 Au
atom 25.8372806900000000 37.1029928000000027 -0.1041899500000000 Au
atom 0.4270529300000000 36.9630304399999972 0.0359388000000000 Au
atom 3.1951903300000000 37.1300930299999976 0.0307845100000000 Au
atom 6.1626983099999997 36.8897955099999990 0.0320920900000000 Au
atom 7.6494716499999997 0.2127538600000000 0.0492353300000000 Au
atom 10.4007120200000003 -0.1819392100000000 0.0216016000000000 Au
atom 13.2660301799999996 -0.1417168200000000 0.1056643000000000 Au
atom 16.1252119399999998 0.0834187300000000 0.1962378100000000 Au
atom 18.8514798200000016 0.1354687300000000 0.2676416000000000 Au
atom 21.4786324499999992 -0.0457054000000000 0.3711245900000000 Au
atom 24.5724136299999998 0.1076080000000000 0.1262083600000000 Au
atom 27.2042545000000011 -0.0142176500000000 0.0234800800000000 Au
atom 1.9486298399999999 -0.1710823600000000 0.0390911300000000 Au
atom 4.7502743000000001 -0.1324856900000000 0.1484890200000000 Au
atom 9.0444825200000007 2.4742215100000000 -0.0068756300000000 Au
atom 11.7277943600000008 2.6349028699999999 0.1165210600000000 Au
atom 14.5888336499999998 2.3652842800000000 0.3354490000000000 Au
atom 17.3119433299999983 2.4277897600000000 0.2422895200000000 Au
atom 20.3036375500000013 2.5666118700000000 0.0259010900000000 Au
atom 23.0825268600000015 2.6738259300000000 0.0356795800000000 Au
atom 26.0190808099999984 2.5388005699999998 0.0363934900000000 Au
atom 0.4400268800000000 2.3086772000000000 -0.0244817400000000 Au
atom 3.4236998500000002 2.5381540199999999 0.0777232500000000 Au
atom 6.1497803199999996 2.4710442399999999 0.1802201500000000 Au
atom 7.5347316199999996 4.9558657699999999 0.1917990700000000 Au
atom 10.3025100399999996 5.0112283800000004 0.0324586300000000 Au
atom 13.3325004099999997 5.0428073600000003 0.0429798800000000 Au
atom 16.0347051000000000 5.0937426400000003 0.1702910500000000 Au
atom 19.0400898900000008 4.9526062299999998 0.1551539900000000 Au
atom 21.6196240300000007 4.8391735999999996 0.1187706300000000 Au
atom 24.3052138199999987 4.8573364400000001 -0.0194603600000000 Au
atom 27.3012319000000012 5.0136000899999997 0.3583936700000000 Au
atom 1.9538625100000000 4.7992380399999996 -0.1171975600000000 Au
atom 4.7611587399999999 4.9153671599999997 0.0543566700000000 Au
atom 8.9832737599999994 7.2490722200000004 -0.1701693500000000 Au
atom 11.7599461699999992 7.1834265600000000 0.2051725100000000 Au
atom 14.5958459400000002 7.3888125799999997 -0.1430707300000000 Au
atom 17.5160937799999985 7.3773475299999998 0.1730527200000000 Au
atom 20.1594656000000008 7.4045712400000001 -0.0021596800000000 Au
atom 23.0065545699999987 7.3911132899999998 0.0846916400000000 Au
atom 25.6023901699999996 7.4785398199999999 -0.0439238700000000 Au
atom 0.7616752300000000 7.4482207499999999 0.1388872400000000 Au
atom 3.1680631600000000 7.5995287400000002 0.0795461400000000 Au
atom 5.9383647000000002 7.2927224300000004 -0.0248847500000000 Au
atom 7.4655028799999998 10.0283999200000000 -0.0122270600000000 Au
atom 10.3568151099999994 9.7603031399999995 -0.0673159800000000 Au
atom 12.9588999400000002 9.8303260899999998 0.0073572800000000 Au
atom 16.0685237500000007 9.8403600600000001 0.2526952400000000 Au
atom 18.7965039900000015 9.8277554400000007 -0.2686943300000000 Au
atom 21.4555214200000002 9.8454774799999996 -0.0227934900000000 Au
atom 24.5524604599999989 9.9529917999999995 0.3417531600000000 Au
atom 27.2144778800000005 9.8496770500000004 -0.0708222900000000 Au
atom 1.9032976699999999 9.9076098300000002 0.1894931000000000 Au
atom 4.7023181400000000 9.7482471900000007 -0.0000710200000000 Au
atom 8.8416353900000004 12.2323196599999999 0.0059859900000000 Au
atom 11.7733234099999997 12.4069698099999997 0.0063444500000000 Au
atom 14.7008372999999999 12.3720460100000000 0.0916760800000000 Au
atom 17.1838837300000016 12.3792441699999998 -0.0821066900000000 Au
atom 20.1873693500000009 12.2362125200000005 -0.1081679600000000 Au
atom 22.9765450700000002 12.4437423700000007 0.0143656400000000 Au
atom 25.8166064599999991 12.4887648299999992 0.1107704900000000 Au
atom 0.3672240100000000 12.2682690500000007 0.2466249300000000 Au
atom 3.2966023600000001 12.3666533800000007 0.0982938400000000 Au
atom 5.9848897699999997 12.2216059700000006 0.0325947300000000 Au
atom 7.5029407099999998 13.0499302400000001 2.3197471799999998 Au
atom 10.4930405300000000 13.2968677900000003 2.3808331800000002 Au
atom 13.1678369400000008 12.9621601799999997 2.5093638800000000 Au
atom 16.0507721900000000 13.2041284099999991 2.5792347800000002 Au
atom 18.7374657099999986 12.9184932999999997 2.5596407299999999 Au
atom 21.6636978199999994 13.3113630399999998 2.5017083300000000 Au
atom 24.5518382099999997 13.2546363300000003 2.7744401500000002 Au
atom 27.2241876599999983 13.4353096799999996 2.5742988800000002 Au
atom 1.8374735099999999 13.1887789400000006 2.5772754700000000 Au
atom 4.7803830899999999 13.0379728600000000 2.3842071599999999 Au
atom 8.9370583900000007 15.5999302899999996 2.4643863900000000 Au
atom 11.7928643700000002 15.6008178599999994 2.5857490300000001 Au
atom 14.4622434299999991 15.6715539899999996 2.2355222100000001 Au
atom 17.3184402400000010 15.6747033200000008 2.6600383700000001 Au
atom 20.4258182099999992 15.7087451399999996 2.2532598699999999 Au
atom 22.9433485600000004 15.7467412899999992 2.6472984199999998 Au
atom 25.7141958700000011 15.6191821399999995 2.6554795900000001 Au
atom 0.4771054200000000 15.5779785499999992 2.4777771700000000 Au
atom 3.3076085300000000 15.4324554400000000 2.6011946300000002 Au
atom 6.2690851900000002 15.7414182000000000 2.3880354600000002 Au
atom 7.4554347500000002 17.9975061799999985 2.7285564500000001 Au
atom 10.3012085700000000 18.0674204699999983 2.6806124200000001 Au
atom 13.0028825500000007 18.0228026999999997 2.4775140599999999 Au
atom 15.9182294100000004 18.1027722199999985 2.3727493100000001 Au
atom 18.8338243799999994 17.9910320199999987 2.7133730599999999 Au
atom 21.6619029500000018 18.1771811300000010 2.6713377899999999 Au
atom 24.5021908500000016 18.3412115799999995 2.6173966800000001 Au
atom 27.4817163399999984 18.1623650699999999 2.8269332999999999 Au
atom 1.9055747000000001 18.0761946800000004 2.6249330000000000 Au
atom 4.7002959300000002 18.2927214000000014 2.6354352799999998 Au
atom 8.9319844199999991 20.6559845499999994 2.7440244200000001 Au
atom 11.7232638100000006 20.5163734200000007 2.5432550900000002 Au
atom 14.7133514600000002 20.5719263699999999 2.6825668100000000 Au
atom 17.5365017499999993 20.6076495599999987 2.3691450500000002 Au
atom 20.1834476100000018 20.5733034500000009 2.6534837200000001 Au
atom 23.0023981100000015 20.4356481300000006 2.6531109399999999 Au
atom 25.8428198299999998 20.7823413099999996 2.4823850699999999 Au
atom 0.4887800900000000 20.7585684300000004 2.8288863200000001 Au
atom 3.4977684400000002 20.4798326099999990 2.6633659600000001 Au
atom 6.0916020700000004 20.5163066200000017 2.5068894600000000 Au
atom 7.6265233300000004 23.0145652900000002 2.7343088899999999 Au
atom 10.3166719899999997 23.1739390100000016 2.5520092299999999 Au
atom 13.1432925300000001 22.8897705100000017 2.7571074100000001 Au
atom 15.8740134699999995 22.9995995300000011 2.4020197699999999 Au
atom 18.8113489300000012 23.0831979899999986 2.4571347200000000 Au
atom 21.5275477399999993 23.0076777600000000 2.5625937699999999 Au
atom 24.5184789099999989 22.9341873099999987 2.8555733100000000 Au
atom 27.2694537600000011 23.2182666500000003 2.6074985100000001 Au
atom 2.0504658500000001 23.1737816999999993 2.7641066799999998 Au
atom 4.5756363100000002 22.8918633299999996 2.5246626999999999 Au
atom 9.0304996600000003 25.6851249199999998 2.3680896599999999 Au
atom 11.5992486600000007 25.4150945700000008 2.5071384700000001 Au
atom 14.6147266499999997 25.7246861299999985 2.5061498400000000 Au
atom 17.2722679399999990 25.5834360399999987 2.5249004899999998 Au
atom 20.1768606999999989 25.5572303599999984 2.9502937600000001 Au
atom 23.1820107899999996 25.6057296200000017 2.7197801699999999 Au
atom 25.8993804400000016 25.4782933900000010 2.6590201699999998 Au
atom 0.3272436800000000 25.4137376999999987 2.6254243300000000 Au
atom 3.2550238899999999 25.5132187600000009 2.7002674500000001 Au
atom 6.0850364099999998 25.4910557699999991 2.7792545099999999 Au
atom 7.3616175300000002 28.0434058300000011 2.5162506800000002 Au
atom 10.3533088499999995 27.8671142500000002 2.7342532600000000 Au
atom 13.0578415400000001 28.0665284799999988 2.6821663400000002 Au
atom 15.9138643700000006 27.9224204900000004 2.2094903000000001 Au
atom 18.7424642400000003 28.0958723900000003 2.5043539799999999 Au
atom 21.6486898600000011 28.0150348200000003 2.5786695200000000 Au
atom 24.5416334200000001 27.8702622399999989 2.7833802900000002 Au
atom 27.3829920700000002 28.0770960299999999 2.4673226700000002 Au
atom 1.6546138500000001 28.0156486600000001 2.5279584800000001 Au
atom 4.7389986000000004 28.1074967099999995 2.7759840699999998 Au
atom 8.9169395799999993 30.2615982199999998 2.5587108100000000 Au
atom 11.7673574999999992 30.3431779800000001 2.6775206599999999 Au
atom 14.4625237700000007 30.5422811799999998 2.6602590199999998 Au
atom 17.5107691500000016 30.5628975400000016 2.7644267999999999 Au
atom 20.3009329200000010 30.4386246699999994 2.6040380299999999 Au
atom 23.1390976200000011 30.4276932400000000 2.6585042500000000 Au
atom 25.8802632099999990 30.5257601399999992 2.5183464099999999 Au
atom 0.4172904200000000 30.6458017699999985 2.6074220299999999 Au
atom 3.3874763400000001 30.5241589699999984 2.3281344000000002 Au
atom 6.1450634500000003 30.3340209499999993 2.7879629399999999 Au
atom 7.4064515699999998 32.8464758100000012 2.4708046800000001 Au
atom 10.3426160800000009 32.6879510999999994 2.6496971299999998 Au
atom 13.1077030899999993 32.9515010499999974 2.5980883800000001 Au
atom 15.8419307299999996 32.9706208599999968 2.7487683600000001 Au
atom 18.8017056199999999 33.0506029699999999 2.7868338900000000 Au
atom 21.4487558500000013 32.9382779600000006 2.5288119099999999 Au
atom 24.4478921800000002 32.9316127700000010 2.6825378299999998 Au
atom 27.1305762100000010 32.9234857499999976 2.5788745999999998 Au
atom 1.7919222299999999 32.9936044100000032 2.3464036199999998 Au
atom 4.7327959999999996 33.0083479600000018 2.7022148100000001 Au
atom 8.8410226400000003 35.3930932000000027 2.6644869299999998 Au
atom 11.7038104999999995 35.2663326099999992 2.7044444300000001 Au
atom 14.5131034600000000 35.4466036900000034 2.6337647400000002 Au
atom 17.3060171800000013 35.2576402999999985 2.5066972800000000 Au
atom 19.9883008400000008 35.2581058600000006 2.6234944200000001 Au
atom 22.8808770099999990 35.3358641299999974 2.6956549399999998 Au
atom 25.6506007099999991 35.4252604599999970 2.6707818699999999 Au
atom 0.4288436300000000 35.3747993899999997 2.5823172200000002 Au
atom 3.1813366200000002 35.3708098500000006 2.7565701599999999 Au
atom 6.1860673700000000 35.3957032200000015 2.6051892600000000 Au
atom 7.6879032299999999 37.7263641199999995 2.4788467800000000 Au
atom 10.3236953800000002 37.7395304499999966 2.7178944600000001 Au
atom 13.1027343900000002 37.6882157200000023 2.4312936600000001 Au
atom 15.7733162100000008 37.8385796900000031 2.6709295399999999 Au
atom 18.9309670300000015 37.7115066900000002 2.7628440699999999 Au
atom 21.5151524899999984 37.8019087899999988 2.7203307300000001 Au
atom 24.2617689100000007 37.8479908400000014 2.5843552200000000 Au
atom 27.3078705500000005 37.7672911100000022 2.7206661400000001 Au
atom 2.0330141700000000 37.8865961699999971 2.7844826800000000 Au
atom 4.5927756899999999 38.0236368099999993 2.7428791399999999 Au
atom 9.0316400500000000 0.8426636300000000 2.6559095500000001 Au
atom 11.6737309800000002 0.9590068700000000 2.7430727600000000 Au
atom 14.5753166499999995 0.9368723500000000 2.7663574899999999 Au
atom 17.2473769399999988 0.9185017300000000 2.7869642699999999 Au
atom 20.2038146199999993 0.8244843300000000 2.6046016999999999 Au
atom 22.9301664500000015 0.8284157000000000 2.6089811699999998 Au
atom 25.9179613899999985 0.7935295900000000 2.9269491099999998 Au
atom 0.4839631800000000 0.8741668000000000 2.5997108899999999 Au
atom 3.3451414200000000 0.8884382199999999 2.6655297700000000 Au
atom 6.2134380299999998 0.8636597200000000 2.5603062799999998 Au
atom 7.6243246400000002 3.2978922700000002 2.7014159300000000 Au
atom 10.3726784700000003 3.2870519100000002 2.6930100700000001 Au
atom 13.2219232200000008 3.2603721800000001 2.6396406699999999 Au
atom 16.0912700899999983 3.3069152000000002 2.5215790500000002 Au
atom 19.0006784499999988 3.3050082000000001 2.7964242900000000 Au
atom 21.5857662499999989 3.2538879999999999 2.5825053699999998 Au
atom 24.5040237800000007 3.3864725400000002 2.6916938300000002 Au
atom 27.2279717499999983 3.2730461300000000 2.7228289600000002 Au
atom 1.8551844600000000 3.2473725500000001 2.5527857500000000 Au
atom 4.6760808200000001 3.4128966100000002 2.7695164800000001 Au
atom 8.9792409099999997 5.7545621100000002 3.1022816000000000 Au
atom 11.6928848300000006 5.6702123499999999 2.8625002899999998 Au
atom 14.6199697600000000 5.6608822400000003 2.7638459599999998 Au
atom 17.2788392100000010 5.7675930900000001 2.7724679800000001 Au
atom 20.0045226900000017 5.8255243400000003 2.7717155800000000 Au
atom 23.1216124200000017 5.7647754000000004 2.6116242100000000 Au
atom 25.8279177000000004 5.6515263600000001 2.5149795400000001 Au
atom 0.3973675800000000 5.8630416199999997 2.6951932599999999 Au
atom 3.2913798100000000 5.7041045800000001 2.6514689400000000 Au
atom 6.0245964699999996 5.9593075100000004 2.8093161200000001 Au
atom 7.4558480200000004 8.3384112199999993 2.3959583599999998 Au
atom 10.3665562500000004 8.3903648900000007 2.6386246099999999 Au
atom 13.2649319800000001 8.3993458600000004 2.7902759800000001 Au
atom 15.9686845300000009 8.1157066199999992 2.8229258800000001 Au
atom 18.8955000999999996 8.1676786400000001 2.6935369900000001 Au
atom 21.6213249999999988 8.3306437599999992 2.6945941200000001 Au
atom 24.5120207800000003 8.3625011800000006 2.9708754800000001 Au
atom 27.0619292899999984 8.2499050399999998 2.6804238400000000 Au
atom 1.9513655500000000 8.3274262399999994 2.6143616399999998 Au
atom 4.6000008100000001 8.2705492599999992 2.6840389800000000 Au
atom 8.8472921400000004 10.7315834999999993 2.6310220300000000 Au
atom 11.5568855199999998 10.8209425100000001 2.7081191100000002 Au
atom 14.7596281200000004 10.6804199200000003 2.8402949500000001 Au
atom 17.3279856400000014 10.5727379999999993 2.6743040400000000 Au
atom 20.3124591099999989 10.8346114100000008 2.7075990600000002 Au
atom 23.2528314800000011 11.0088138000000004 2.6317582000000002 Au
atom 26.0116715099999993 10.6726214400000003 2.7833089200000001 Au
atom 0.5745264700000000 10.4024812000000004 2.6286042100000002 Au
atom 3.3070825400000001 10.7609297399999999 2.7176824800000001 Au
atom 6.1147276699999997 10.6957625200000006 2.5801115100000001 Au
atom 7.5873995000000001 13.1928338499999995 5.8738790900000000 Cl
atom 7.4797480399999996 16.2992651600000009 8.7300333699999992 Cl
atom 7.2009026000000000 13.1410042199999992 8.7462783700000006 Na
atom 7.6146682500000002 16.0641219000000000 6.1260257200000003 Na
atom 7.6670938700000004 18.4166442299999993 5.9567406900000002 Cl
atom 7.4494331699999998 21.6833056900000010 8.6020219299999994 Cl
atom 7.2105600100000000 18.9724185600000013 8.6091419200000008 Na
atom 7.4998339700000001 21.4384313099999986 5.8674033999999997 Na
atom 7.4130368000000004 24.5235510699999999 5.8458213900000002 Cl
atom 7.4524881000000001 27.4052172499999998 8.5781544299999997 Cl
atom 7.3973454700000003 24.6515114900000007 8.3055045700000001 Na
atom 7.5716237599999996 27.3895644099999984 5.8573603500000004 Na
atom 7.3884166899999997 30.2538650599999990 5.8067199000000000 Cl
atom 7.4775390000000002 32.9357556900000006 8.5547231999999997 Cl
atom 7.6076592999999999 30.2018368099999996 8.4681743500000000 Na
atom 7.3145615499999996 33.0386384899999968 5.8855180699999998 Na
atom 7.4539798700000004 35.9150144199999986 5.7851492100000002 Cl
atom 7.3427222700000003 38.5909508599999995 8.6435627700000008 Cl
atom 7.5538771699999998 35.8353627299999999 8.1838917599999998 Na
atom 7.6136544099999997 38.6837901399999993 5.9691864700000004 Na
atom 7.4886088600000003 1.6756135200000000 5.7829404899999997 Cl
atom 7.3154936499999996 4.9269282499999996 8.8421691199999994 Cl
atom 7.3278858400000004 2.0032198200000000 8.3689967000000003 Na
atom 7.4604546699999998 4.7184048100000000 5.8157614200000003 Na
atom 7.4672791199999997 7.5143095000000004 5.9065500300000000 Cl
atom 7.3817643100000003 10.1916560900000004 8.6903642300000001 Cl
atom 7.3872594200000004 7.3994702400000003 8.3841843600000008 Na
atom 7.4154821699999998 10.4336074500000002 6.1821675599999999 Na
atom 10.2390090699999998 12.9950919400000000 5.7796837300000004 Na
atom 12.9079671600000001 13.3267261599999998 6.1297177200000004 Cl
atom 10.1087387199999998 16.1904814700000017 7.9761005200000001 Na
atom 13.0997023099999996 16.0921449199999991 8.8946053599999999 Cl
atom 12.7758774699999993 13.4155976599999995 9.1067156699999998 Na
atom 10.2831835399999996 13.5463079000000004 8.6181065700000001 Cl
atom 13.0745647300000005 15.7607015199999996 6.0341813799999997 Na
atom 10.3008149699999993 15.9917104499999994 5.4498255599999998 Cl
atom 10.0079692799999993 18.6472937099999996 6.1281561800000004 Na
atom 12.7078273700000004 18.1631912799999995 5.4125307400000002 Cl
atom 10.1701618200000006 21.7374733099999986 8.4558043600000001 Na
atom 12.7426103499999996 21.3322881600000009 8.5846012799999993 Cl
atom 12.9334205099999995 18.7188251000000001 8.3721135699999998 Na
atom 10.1816243800000006 18.7027827000000002 8.7585379000000003 Cl
atom 12.7333878400000007 21.6427532700000000 5.7895233099999999 Na
atom 10.2435958100000004 21.7537371999999998 5.6924759800000002 Cl
atom 10.1900969200000002 24.3994226900000015 5.5592520499999996 Na
atom 13.1901366299999996 24.4851331099999996 5.5288226500000004 Cl
atom 10.4329386300000007 27.3919269000000014 8.3333278199999992 Na
atom 12.9575413899999994 27.3009178599999984 8.5581052799999995 Cl
atom 13.2215009699999992 24.3669006199999991 8.2662440600000000 Na
atom 10.1173106599999993 24.3884529199999989 8.3515846600000003 Cl
atom 13.0676539799999993 27.5102634399999992 5.8336390099999997 Na
atom 10.2432124099999999 27.3674293599999991 5.6131195500000004 Cl
atom 10.4250441600000006 30.0768707400000004 5.7013959400000003 Na
atom 13.3918305400000008 30.1337696400000006 5.8096268599999998 Cl
atom 10.4274900800000001 32.9915668299999965 8.3264560900000006 Na
atom 13.1101287499999994 33.0727999499999967 8.6584670399999997 Cl
atom 13.1047717699999993 30.1127217400000013 8.3824335600000008 Na
atom 10.0929839999999995 30.0946675299999988 8.8083044600000004 Cl
atom 13.2793423900000001 33.0672209299999977 5.6096705000000000 Na
atom 10.3547880400000007 32.7687663900000032 5.7741393099999998 Cl
atom 10.3912262399999999 35.6590786200000025 5.7277697300000003 Na
atom 13.2120068100000001 35.7366258899999991 5.6358659099999997 Cl
atom 10.4303503099999997 38.4631645999999989 8.4561701599999992 Na
atom 13.2871289899999994 38.5640780800000016 8.6205929599999997 Cl
atom 13.2559180800000007 35.7560170100000008 8.3642121899999999 Na
atom 10.4870433500000004 35.6266818400000034 8.5728303100000005 Cl
atom 13.3298287599999998 38.6193230399999976 5.8942068699999997 Na
atom 10.3274319099999996 38.5567794999999975 5.6290609600000003 Cl
atom 10.2395720200000007 1.6996685700000000 5.8593312299999996 Na
atom 13.1227760700000005 1.7603472800000000 5.6884466800000002 Cl
atom 10.3464325200000005 4.5587862200000000 8.4801531299999997 Na
atom 13.2641447600000006 4.7985595500000002 8.6557599500000002 Cl
atom 13.3076080000000001 1.6635983400000001 8.4922835299999999 Na
atom 10.3368708199999997 1.8925959600000000 8.8230675800000000 Cl
atom 13.2138851699999993 4.6981591199999997 5.8558293099999998 Na
atom 10.4423979800000009 4.6405134600000002 6.1052404100000004 Cl
atom 10.3296646800000005 7.5363725700000002 5.8567524400000002 Na
atom 13.0913661999999995 7.4572750699999997 5.8484108399999997 Cl
atom 10.2300045599999994 10.6250961099999994 8.9411278799999998 Na
atom 13.2121197800000001 10.2603559299999993 8.7834312899999993 Cl
atom 13.1178592199999997 7.4311749999999996 8.4659817999999998 Na
atom 10.2853940300000009 7.6091881299999997 8.7268599200000008 Cl
atom 12.8954843700000001 10.2224602900000008 6.2612024799999997 Na
atom 10.2370811800000006 10.2690087000000005 5.9730080200000000 Cl
atom 15.5931209499999994 13.1099712000000004 5.7501532800000001 Na
atom 18.9849195100000010 13.0276762900000005 5.5718219900000001 Cl
atom 16.0350321999999998 15.9358005800000004 8.2558856200000008 Na
atom 18.9844770099999991 16.0230073900000001 8.0720133000000001 Cl
atom 18.8772195300000014 13.1605520800000004 8.3217931299999996 Na
atom 16.0370637699999996 13.1081934499999999 8.5517383900000006 Cl
atom 18.6551729199999983 16.0998443100000017 5.4592336699999997 Na
atom 15.7483354500000008 15.7413594799999998 5.4975530600000004 Cl
atom 15.8057170899999999 19.0756338999999997 5.7652629500000003 Na
atom 18.6500338499999998 18.9541098999999988 5.5406234100000002 Cl
atom 15.7833035099999996 21.4439045399999983 8.4699940399999996 Na
atom 18.7735173700000004 21.3134764099999998 8.9439326799999996 Cl
atom 18.9185913100000000 18.7564407200000005 8.1672199899999995 Na
atom 15.8884399100000007 18.8616173399999987 8.4041087599999997 Cl
atom 18.4870914100000014 21.9873095899999988 5.8438000299999997 Na
atom 15.5946534299999993 21.7844020100000009 5.9710069499999996 Cl
atom 15.6473138699999996 24.4046590999999999 5.8251619300000002 Na
atom 18.4951170699999992 24.6523135700000005 5.5826090500000003 Cl
atom 16.0274976600000016 27.2043831000000011 8.7388564800000008 Na
atom 18.8960204599999990 27.4483696299999984 8.4427511899999992 Cl
atom 18.8637329300000012 24.4763147600000011 8.2754231399999991 Na
atom 15.8078782600000007 24.4178942100000000 8.6445259100000005 Cl
atom 18.7120242899999987 27.2816394799999991 5.9729061999999997 Na
atom 15.9681995899999993 27.1222003100000002 5.9207483600000002 Cl
atom 16.0894286400000013 29.9726681699999986 5.7625467800000001 Na
atom 18.8163923699999991 29.7507414600000004 5.8302722300000003 Cl
atom 15.8536178400000001 32.9215224499999977 8.4292336300000006 Na
atom 18.7876326499999990 32.7515132199999996 8.6473575100000009 Cl
atom 18.9458256300000016 30.1186770599999996 8.3362865599999996 Na
atom 15.9482137999999996 30.0451516900000009 8.6132542700000005 Cl
atom 18.6224173399999984 33.0501875300000023 5.8531068700000004 Na
atom 16.0347533899999988 32.8783856599999993 5.8738295400000000 Cl
atom 16.1514864799999991 35.7594804399999973 5.9342375900000004 Na
atom 18.9301077800000002 35.6130456599999974 5.8229870400000001 Cl
atom 16.0990187899999988 38.4377156600000021 8.4853631800000002 Na
atom 18.8932072300000016 38.4156296999999967 8.6659685100000008 Cl
atom 18.8465692800000006 35.5763829899999990 8.6651277899999997 Na
atom 16.0884340299999984 35.7039274099999986 8.4947404899999999 Cl
atom 18.9249096299999984 38.4854113800000022 6.0449569600000004 Na