#===============================================================================
# Created using the Atomic Simulation Environment (ASE)

# Tue Dec 23 22:26:41 2025

#=======================================================
lattice_vector 28.1999999999999993 0.0000000000000000 0.0000000000000000 
lattice_vector 0.0000000000000000 39.4799999999999969 0.0000000000000000 
lattice_vector 0.0000000000000000 0.0000000000000000 62.3296083400000001 
atom 7.5061671800000003 14.7095206500000000 -0.0196291900000000 Au
atom 10.3041280200000003 14.6524298900000005 -0.1200127700000000 Au
atom 13.2202017900000008 14.7351322099999997 -0.2224335700000000 Au
atom 15.9031180699999997 14.7556433400000007 -0.1356082100000000 Au
atom 18.6250095599999987 14.7241954600000007 0.1036791900000000 Au
atom 21.5388198200000005 14.7993083999999993 -0.3405081200000000 Au
atom 24.4220418099999996 14.8791785099999991 -0.2343944700000000 Au
atom 27.2522688899999999 14.9003654900000004 -0.2265439300000000 Au
atom 1.8940214799999999 14.6382823000000002 -0.1935460700000000 Au
atom 4.6795107800000002 14.8480563900000000 -0.1433751800000000 Au
atom 8.9894800299999993 17.2460902199999992 -0.3190042000000000 Au
atom 11.7112999200000001 17.2554979899999985 0.0932430900000000 Au
atom 14.5512255100000001 17.2962025200000014 -0.2128501600000000 Au
atom 17.4888026299999986 17.3869047399999985 0.0790221600000000 Au
atom 20.0979023999999988 17.3904725300000003 0.0232693700000000 Au
atom 22.9985260700000005 17.2983049700000002 -0.0798494200000000 Au
atom 25.7654061100000007 17.3466167999999996 0.0145434600000000 Au
atom 0.3545620600000000 17.2448432599999997 -0.0206312600000000 Au
atom 3.1295977100000001 17.2551386999999998 -0.3335804800000000 Au
atom 5.9810232599999997 17.3897278899999996 -0.0666049200000000 Au
atom 7.4611976400000000 19.7114430799999987 0.0478322100000000 Au
atom 10.3075717000000004 19.9926235699999992 -0.2219994300000000 Au
atom 13.0805955600000008 19.6876587900000004 -0.0379879500000000 Au
atom 15.8536983399999993 19.8846698999999987 -0.0810339000000000 Au
atom 18.9109883299999986 19.7294771400000002 -0.1426944300000000 Au
atom 21.5838824699999989 19.6356374400000000 0.0465658600000000 Au
atom 24.6031512899999996 19.7239120899999989 0.1603899400000000 Au
atom 27.1913206699999996 19.7274303999999994 -0.2369643200000000 Au
atom 1.9205076400000001 19.8620158800000013 0.2340057700000000 Au
atom 4.4570036599999998 19.7125608800000016 0.2050197000000000 Au
atom 9.0216309700000004 22.1166704299999992 -0.0227306400000000 Au
atom 11.6394210499999993 22.2209640099999994 -0.1953838800000000 Au
atom 14.3653170200000009 22.3562082699999998 -0.3315348700000000 Au
atom 17.2314437100000006 22.2585613799999997 -0.0541395300000000 Au
atom 20.1749064900000015 22.1042014900000012 -0.0213289200000000 Au
atom 22.8980203099999997 21.9370569499999988 -0.2075087400000000 Au
atom 25.7918910100000005 22.1557502799999995 0.1536444200000000 Au
atom 0.6273464399999999 22.2810805199999997 -0.0862747800000000 Au
atom 3.3408663299999999 22.2699585400000011 0.3659403200000000 Au
atom 5.9632528100000002 22.3284618700000017 0.0264396300000000 Au
atom 7.6371858000000001 24.8550152500000010 -0.0376565800000000 Au
atom 10.2758777099999996 24.4701936000000018 0.0334118500000000 Au
atom 13.0448323100000003 24.8893695500000014 -0.0566341800000000 Au
atom 15.9494290099999994 24.6800462899999999 -0.2952071900000000 Au
atom 18.7620266999999998 24.5965591199999984 -0.2859120500000000 Au
atom 21.5459449999999997 24.7783228000000015 -0.1908476300000000 Au
atom 24.3142067900000001 24.5098995799999990 -0.0206764300000000 Au
atom 27.3615385800000013 24.5360096200000015 -0.1147420500000000 Au
atom 1.8446826900000000 24.7872376199999991 0.1114794800000000 Au
atom 4.5921009899999996 24.6126560499999982 -0.0430912100000000 Au
atom 8.9751938100000004 27.2195170200000014 0.0532773000000000 Au
atom 11.8077598399999992 27.3794135499999989 -0.2274557700000000 Au
atom 14.5179253300000006 27.2384509399999999 -0.3058665300000000 Au
atom 17.2451304800000003 27.1136439600000010 -0.0954679900000000 Au
atom 20.1740428600000001 27.1042361800000009 -0.0966265000000000 Au
atom 22.9700775800000017 27.0407661399999988 0.2095084900000000 Au
atom 25.7360045000000000 27.0186018099999998 0.2727906000000000 Au
atom 0.4349147700000000 26.9997780499999998 0.0632641100000000 Au
atom 3.0694311399999998 27.0443886499999984 0.1537671800000000 Au
atom 6.1819647900000003 27.0777732299999983 0.1641460800000000 Au
atom 7.6106775700000000 29.7711107800000008 0.0227128600000000 Au
atom 10.3396137199999991 29.6331807100000013 -0.0127412000000000 Au
atom 13.1455460899999999 29.4682782299999992 0.0193669800000000 Au
atom 15.8785447800000004 29.4513195199999984 -0.0323306400000000 Au
atom 18.6342723300000017 29.5281782700000015 -0.0246657100000000 Au
atom 21.4012195900000002 29.5438059099999997 -0.0164587800000000 Au
atom 24.3079517100000011 29.5889750900000017 -0.1834548400000000 Au
atom 27.3241381799999985 29.3673399099999983 -0.0168914100000000 Au
atom 1.8777219500000000 29.7009012100000014 0.0900760700000000 Au
atom 4.7234292599999996 29.5245196400000012 0.3161915400000000 Au
atom 8.9847131099999995 32.2000250500000007 -0.1201774600000000 Au
atom 11.6439052299999997 32.0587338799999984 0.1386200500000000 Au
atom 14.6211148400000006 32.0545165200000000 -0.0916475800000000 Au
atom 17.2941638200000014 32.0533162300000001 0.1247149900000000 Au
atom 20.2156320700000016 32.0780699900000030 0.0636833700000000 Au
atom 22.9447373500000005 32.2116289300000034 -0.1522476100000000 Au
atom 25.9336186200000007 32.1394270199999994 -0.0269579200000000 Au
atom 0.3518032300000000 31.9382751899999988 0.0483728800000000 Au
atom 3.1797420700000001 32.1154034999999993 0.0375794500000000 Au
atom 6.0013935600000003 31.8809937599999991 -0.0049741100000000 Au
atom 7.3349985100000001 34.6479903199999981 0.2470181100000000 Au
atom 10.2952267000000006 34.6608883299999988 0.2187925700000000 Au
atom 13.1355903999999999 34.4739352300000022 -0.1261549200000000 Au
atom 16.1275805400000003 34.4258042299999971 -0.0675253800000000 Au
atom 18.8182126300000014 34.6685170800000009 -0.1312426800000000 Au
atom 21.5193231199999992 34.6247726499999970 -0.1769302800000000 Au
atom 24.3968476800000005 34.5585541700000007 -0.1504719600000000 Au
atom 27.2466542999999994 34.5356348299999993 -0.2160711500000000 Au
atom 1.9121579399999999 34.4483802000000026 -0.1106709500000000 Au
atom 4.5822291300000000 34.7417919000000026 0.1318868600000000 Au
atom 8.8926286700000006 37.3896078300000028 0.0274207100000000 Au
atom 11.8286164199999995 36.8113464799999974 -0.0553808100000000 Au
atom 14.6552128899999996 37.1223252699999975 -0.2095114800000000 Au
atom 17.4897621200000017 37.1979957799999994 0.2109496700000000 Au
atom 20.4724498200000014 37.1068718100000012 -0.0892979300000000 Au
atom 23.0396600800000009 36.8676953499999982 -0.0200405400000000 Au
atom 25.9798971799999983 36.9106034100000002 -0.1672265200000000 Au
atom 0.3135411600000000 37.0220682300000021 -0.0887584000000000 Au
atom 3.3636321200000001 36.9677288199999978 0.1485066400000000 Au
atom 6.0928140300000004 36.9502641799999978 0.1168846800000000 Au
atom 7.6924559199999996 -0.0024998000000000 0.0004063600000000 Au
atom 10.4241518699999993 0.0658304000000000 0.1726681300000000 Au
atom 13.2153739199999993 0.0042511900000000 -0.0315823000000000 Au
atom 16.1267966600000001 0.0905755100000000 0.2471334000000000 Au
atom 18.9242792900000012 -0.0357203900000000 0.1474885100000000 Au
atom 21.7092166900000016 -0.0288173800000000 -0.1152721200000000 Au
atom 24.5286716100000000 -0.1168716600000000 -0.0073934800000000 Au
atom 27.3086091999999994 0.0360892700000000 0.0912620600000000 Au
atom 1.8277439000000000 0.0238749900000000 0.2578863800000000 Au
atom 4.7250114099999996 0.0223118200000000 0.2021988600000000 Au
atom 8.7407482299999995 2.6162410899999999 0.0415183800000000 Au
atom 11.5744488400000005 2.4767721699999998 -0.0140060200000000 Au
atom 14.5920624300000004 2.4802859800000001 -0.0634429700000000 Au
atom 17.4454944500000018 2.4199622399999998 0.0794780500000000 Au
atom 20.1840907799999982 2.5949694200000000 -0.0137330700000000 Au
atom 23.0258837700000001 2.5622327999999999 -0.0875389200000000 Au
atom 25.8145051899999984 2.4578986000000000 0.0594675400000000 Au
atom 0.3729764900000000 2.4428844800000000 0.2733992600000000 Au
atom 3.0765542899999998 2.3693766799999998 0.2274677300000000 Au
atom 5.8481994300000002 2.6287808500000001 -0.0166391500000000 Au
atom 7.6747751600000003 5.1519591000000000 0.0425140800000000 Au
atom 10.3730709399999999 4.9556554999999998 0.0700243700000000 Au
atom 13.2037069400000000 4.9007488199999996 0.2660720300000000 Au
atom 15.7960768100000006 5.0030901600000002 0.2170632600000000 Au
atom 18.6794623000000009 4.9203472699999997 0.0562418300000000 Au
atom 21.6626495500000011 4.9605493000000003 0.2701627400000000 Au
atom 24.2709723400000001 4.8679242100000000 0.1274228300000000 Au
atom 27.3918044499999986 4.9714204999999998 0.1650014700000000 Au
atom 1.9662850500000000 4.9089701300000002 0.2477479200000000 Au
atom 4.7360897900000003 4.9892739500000003 0.1737369700000000 Au
atom 9.0356908800000006 7.5949279799999996 0.0210024000000000 Au
atom 11.8828676800000004 7.4187331500000004 0.1058827600000000 Au
atom 14.5037769900000004 7.4286784299999997 0.0114050900000000 Au
atom 17.2965124999999986 7.5281936099999998 0.1460818300000000 Au
atom 20.3148859100000010 7.2291503800000001 -0.0107192700000000 Au
atom 23.1787578600000010 7.4503724199999999 0.0757338900000000 Au
atom 25.7828000999999993 7.2059395200000003 0.0356216500000000 Au
atom 0.4209564800000000 7.4670869700000004 0.1910994300000000 Au
atom 3.4375514500000000 7.5358545499999998 -0.0831537500000000 Au
atom 5.9981486500000001 7.4530539999999998 -0.1924016200000000 Au
atom 7.5445236400000004 9.6784503300000004 0.1178067200000000 Au
atom 10.3769387200000001 9.6909767999999996 -0.1008813500000000 Au
atom 13.0851524700000006 9.7897088399999994 0.0023957800000000 Au
atom 15.9661563199999996 9.7709174500000007 -0.2332144500000000 Au
atom 18.7846319199999989 10.1020243900000004 -0.2075437700000000 Au
atom 21.6763847299999988 9.9239148999999998 0.0815171900000000 Au
atom 24.3346798799999995 9.8909816300000006 0.4354364800000000 Au
atom 27.2167689999999993 9.7250015500000000 0.0753927400000000 Au
atom 1.7339281300000000 9.8495486000000003 0.3010844600000000 Au
atom 4.5893122000000002 9.8800281999999999 -0.1684894000000000 Au
atom 8.6815410100000001 12.2989408299999994 -0.0442053700000000 Au
atom 11.6389766600000009 12.3481537400000008 -0.3563398800000000 Au
atom 14.5871466699999992 12.3435704099999999 -0.2506733400000000 Au
atom 17.4885070499999991 12.2497046100000002 -0.0961972500000000 Au
atom 20.1176159000000006 12.3211561599999992 0.0365855000000000 Au
atom 23.0955633099999993 12.3466403499999995 0.0870255600000000 Au
atom 25.8092896100000004 12.1650365300000001 -0.1339682100000000 Au
atom 0.4346755300000000 12.1764098999999995 -0.1393275700000000 Au
atom 3.3491694999999999 12.2880707999999998 -0.1963949500000000 Au
atom 5.9008521800000002 12.4405578699999992 -0.0765743000000000 Au
atom 7.4681226399999998 13.1828943899999995 2.7025750799999999 Au
atom 10.2862212999999993 12.9966583799999995 2.4443654499999998 Au
atom 13.1526532500000002 13.2337124300000006 2.3191421200000000 Au
atom 16.0081446999999990 13.1105135100000005 2.3363773499999998 Au
atom 18.8127971299999999 13.2064474500000006 2.5577956199999998 Au
atom 21.7100963500000006 13.2737700200000006 2.4035403000000000 Au
atom 24.3534946999999988 13.0783891699999995 2.4965464900000001 Au
atom 27.2495674000000001 13.1259623399999992 2.5423290800000000 Au
atom 1.7940587800000001 13.1963788399999995 2.4569686300000000 Au
atom 4.5531144899999996 13.2992438600000007 2.4422061400000001 Au
atom 8.8274430200000005 15.5935365699999995 2.6016918499999999 Au
atom 11.7981806799999998 15.7305238999999997 2.6010412000000001 Au
atom 14.5883341400000006 15.8366210600000006 2.4653803399999998 Au
atom 17.2380601899999988 15.6715681000000000 2.4127925600000002 Au
atom 20.1810764899999988 15.6594789799999994 2.1435149099999999 Au
atom 23.0215906299999986 15.7687465600000003 2.6437728300000001 Au
atom 25.9911174699999989 15.5209441399999992 2.5431270700000002 Au
atom 0.2745638200000000 15.6643343999999995 2.4377062500000002 Au
atom 3.2376306000000001 15.6020069400000008 2.2497271300000001 Au
atom 6.0930808299999999 15.5056379599999996 2.7540111100000000 Au
atom 7.5184811099999997 18.1444357099999998 2.7129591400000002 Au
atom 10.3084420300000001 18.1835290299999990 2.1972529800000000 Au
atom 12.9642292900000005 18.0967301999999997 2.4815519199999998 Au
atom 15.8337572299999998 18.1019178300000014 2.5649985800000001 Au
atom 18.7440786199999998 18.0968680800000001 2.8084496699999999 Au
atom 21.6505977499999993 18.1385949699999998 2.6045169000000001 Au
atom 24.3661125699999985 18.0838684100000009 2.8358855799999998 Au
atom 27.0547383000000004 18.1039262900000004 2.4608246500000002 Au
atom 1.9881010100000001 18.1465083100000015 2.7045510199999998 Au
atom 4.7878779800000002 18.0664503500000002 2.7367996099999998 Au
atom 8.8867539999999998 20.6392505499999999 2.8166013300000001 Au
atom 11.7195505299999994 20.6797161699999990 2.4313445100000002 Au
atom 14.4273475599999994 20.4405520500000009 2.6977957400000001 Au
atom 17.4301817999999997 20.6941301200000005 2.6077896100000002 Au
atom 20.0681006300000000 20.8155366599999994 2.5536927600000001 Au
atom 22.9341766000000007 20.7169347799999990 2.8784508899999999 Au
atom 25.8513678599999999 20.6334377999999994 2.7247865899999999 Au
atom 0.4190101900000000 20.5863708599999988 2.6891690900000000 Au
atom 3.0346193499999998 20.6785324099999990 2.8504343400000001 Au
atom 6.0661147900000003 20.4349101100000006 2.7129023000000001 Au
atom 7.2887458499999997 23.0758916499999991 2.6213659100000002 Au
atom 10.1978924299999996 22.9919130699999990 2.6474842700000001 Au
atom 13.2409632700000000 23.1826907499999990 2.3019713899999998 Au
atom 15.8881879999999995 23.2644140800000017 2.4852782800000002 Au
atom 18.6359050400000008 23.0920751499999994 2.5406857600000001 Au
atom 21.5733501300000015 22.9042174299999992 2.5117264800000001 Au
atom 24.2501388599999999 22.9601714000000001 2.6888675100000001 Au
atom 27.2764811099999989 23.1528063400000015 2.5519407400000000 Au
atom 1.9777841199999999 22.9579256200000010 2.9780867999999998 Au
atom 4.7357049499999997 23.0253622100000008 2.9467088000000001 Au
atom 8.8055325900000003 25.6158524300000003 2.7272511200000000 Au
atom 11.8060685799999998 25.5357650400000011 2.7678899499999998 Au
atom 14.2791892499999999 25.5739871399999998 2.4512430400000000 Au
atom 17.4859554599999996 25.4127041300000016 2.7127554699999998 Au
atom 20.1177470099999987 25.5262146600000008 2.6535571700000000 Au
atom 22.8181372399999987 25.3711006800000014 2.6848346300000001 Au
atom 26.0747533099999984 25.5457610600000002 2.9011746299999999 Au
atom 0.3611443100000000 25.6066303099999999 2.5972291599999999 Au
atom 3.3153919200000002 25.6016560099999992 2.6813699000000000 Au
atom 6.1603493599999997 25.5659929999999989 2.9187788200000000 Au
atom 7.6471006299999997 27.9455986199999984 2.5787114899999999 Au
atom 10.3694232599999996 27.8132360200000015 2.6519852199999998 Au
atom 13.2183003200000009 27.8686474900000007 2.4427623500000002 Au
atom 15.9768705999999998 27.9989442500000010 2.4713553899999998 Au
atom 18.7694903500000017 27.9032282400000007 2.5230393000000002 Au
atom 21.6996104699999997 28.0445452000000017 2.5846125400000002 Au
atom 24.1417139600000006 28.0126739499999999 2.6978786299999999 Au
atom 27.0959471600000015 27.8973054599999983 2.9077517199999998 Au
atom 1.8789435999999999 27.9398403900000005 2.7268518400000001 Au
atom 4.8729500600000000 28.1306161299999999 2.8187692700000002 Au
atom 8.9664494300000008 30.4806467300000001 2.6076946900000002 Au
atom 11.9111643399999991 30.4667682699999993 2.6945949800000002 Au
atom 14.5067379800000005 30.4283813499999987 2.4781265499999998 Au
atom 17.2576881600000007 30.3599128100000009 2.6658192999999999 Au
atom 20.0021983200000015 30.5296181699999991 2.8033332400000002 Au
atom 23.0088921100000015 30.3253114600000018 2.4592549899999998 Au
atom 25.9067665600000012 30.5881478599999994 2.6061868700000002 Au
atom 0.5250302000000000 30.4752061900000015 2.5810599600000002 Au
atom 3.1776070000000001 30.5558484999999997 2.7172141299999999 Au
atom 6.0878339300000004 30.3627110100000017 2.6244401300000000 Au
atom 7.5868544599999996 33.0068037699999977 2.5780395299999999 Au
atom 10.3912799200000006 32.9487039099999990 2.8327016899999999 Au
atom 13.2401289000000002 32.9928700299999988 2.7218846800000001 Au
atom 15.8562528599999997 32.7610251999999988 2.7272145700000001 Au
atom 18.8904120900000017 32.9525920099999965 2.6926729900000002 Au
atom 21.6595020500000004 32.9486145099999987 2.7817836800000002 Au
atom 24.2792876399999997 32.9217743700000014 2.3674801699999999 Au
atom 27.3874251499999986 32.9352614200000033 2.4928329200000001 Au
atom 1.9460860700000000 32.9027968299999998 2.4552879600000002 Au
atom 4.9521501299999997 33.0292089300000029 2.5668735599999999 Au
atom 8.8819802299999999 35.3153996400000025 2.7548114699999999 Au
atom 11.8104915800000008 35.4489338599999968 2.5972071300000001 Au
atom 14.8629467500000008 35.2481778900000009 2.6030111300000001 Au
atom 17.4220388200000009 35.4951083999999994 2.4733863899999999 Au
atom 20.2353750000000012 35.4355439300000015 2.6815656699999999 Au
atom 23.1863060599999997 35.1633285699999973 2.4702167799999999 Au
atom 26.0135038300000012 35.3287550200000027 2.4986526400000000 Au
atom 0.4620699800000000 35.4858486400000004 2.5062904399999999 Au
atom 3.5532077000000002 35.1966302000000013 2.7463709900000000 Au
atom 6.0517797800000004 35.4035519299999990 2.7717928399999998 Au
atom 7.4606738500000001 37.9602238599999993 2.6528630799999999 Au
atom 10.5210332199999996 37.7160883900000030 2.6331314799999999 Au
atom 13.1864165700000004 37.9033028200000004 2.5354842400000002 Au
atom 16.0958498399999996 37.8664250699999982 2.8643125500000002 Au
atom 18.8313032500000013 37.8548247499999988 2.8405538199999998 Au
atom 21.5429310200000010 38.0273712799999970 2.5943879999999999 Au
atom 24.3034296400000009 37.6882642200000006 2.6231325999999999 Au
atom 27.2478328199999993 37.9693763499999974 2.6603047900000001 Au
atom 1.7520991200000000 37.8612003400000035 2.7343361000000002 Au
atom 4.4521877200000004 37.8214522000000031 2.6246674600000000 Au
atom 9.0445749400000004 0.7332293800000000 2.5787553399999998 Au
atom 11.7878194599999997 0.8441382600000000 2.7890858100000000 Au
atom 14.4200083400000008 0.8499895200000001 2.8208692100000001 Au
atom 17.6120419000000012 0.8628484199999999 2.8478747000000002 Au
atom 20.1350148699999991 0.8574350900000000 2.7573148999999999 Au
atom 23.1282747800000017 0.8256144100000000 2.5574933199999998 Au
atom 25.7521054599999992 0.8007822600000000 2.6402613800000001 Au
atom 0.3599289900000000 0.9832086000000000 2.4475193499999999 Au
atom 3.1664958500000000 0.5591326700000000 2.6113442299999998 Au
atom 5.8765358799999996 0.9028110800000000 2.6189260700000001 Au
atom 7.6406353200000003 3.4135375799999998 2.5580692100000002 Au
atom 10.2299882199999992 3.3832901600000000 2.7570114600000002 Au
atom 13.1615374299999992 3.5090820400000000 2.5606337699999999 Au
atom 15.9621101999999997 3.2910463600000002 2.8307512799999999 Au
atom 18.8960926499999999 3.4668822100000001 2.4928496000000000 Au
atom 21.5840825999999986 3.3309413299999999 2.5075372800000002 Au
atom 24.4640160699999996 3.3808269800000001 2.6005825599999999 Au
atom 27.3276258600000013 3.3256629300000000 2.6158214100000001 Au
atom 1.7938036799999999 3.4272312899999999 2.5616104000000002 Au
atom 4.6540845600000003 3.3890573000000002 2.9548196700000000 Au
atom 8.7225427599999996 5.9771824799999997 2.6922774000000000 Au
atom 11.5937522499999996 5.9825186900000000 2.5193176700000000 Au
atom 14.3391030599999993 5.8469632000000002 2.7360938099999998 Au
atom 17.6452250100000008 5.9446853099999997 2.8010715099999999 Au
atom 20.1933739199999991 5.8678059400000002 2.8880009200000001 Au
atom 23.0220020500000011 5.6997405700000003 2.9501577000000001 Au
atom 25.7787634300000015 5.9634036999999998 2.5630242299999999 Au
atom 0.2841064700000000 5.8665620900000004 2.8775618500000002 Au
atom 3.1721083299999999 5.7233273000000002 2.8834200900000000 Au
atom 6.2248002400000004 5.8637403600000004 2.9756283799999999 Au
atom 7.6140592399999996 8.3220682299999993 2.5920473400000001 Au
atom 10.3364968400000006 8.0354304400000007 2.6519290799999999 Au
atom 12.9463150599999999 8.3559820299999998 2.5955260199999999 Au
atom 16.1140978299999986 8.3202057200000006 2.4513373500000002 Au
atom 18.8113788699999986 8.2072908400000006 2.7248152499999998 Au
atom 21.6620538399999987 8.3698415300000004 2.6351328100000000 Au
atom 24.5531991599999984 8.4520267800000006 2.8912427599999999 Au
atom 27.3041083499999999 8.3722669300000003 2.6230346600000001 Au
atom 1.8742762700000000 8.1442093500000006 2.4874733700000000 Au
atom 4.6177512900000002 8.3826059399999995 2.7412118200000002 Au
atom 8.8823888899999996 10.6335424900000000 2.5850310200000002 Au
atom 11.8311901899999992 10.6138340899999992 2.5819460500000000 Au
atom 14.5871316600000007 10.5852309000000009 2.5326672399999999 Au
atom 17.3600313899999996 10.7544945999999992 2.2289241600000000 Au
atom 20.0486599100000014 10.7378340199999993 2.5565611900000000 Au
atom 22.9411584099999999 10.7698640599999997 2.5920804099999999 Au
atom 25.8664390600000011 10.7604172100000000 2.4556807100000002 Au
atom 0.3538918100000000 10.8662335300000006 2.6029480199999999 Au
atom 3.2499205600000001 10.6336500399999991 2.5495659800000001 Au
atom 6.2623395700000000 10.6223412100000001 2.6720045300000002 Au
atom 7.5852923700000003 13.3758809700000008 5.9132062899999998 Cl
atom 7.6379584200000004 15.7720272399999999 8.8042113600000000 Cl
atom 7.7032444199999999 12.9380775099999994 8.5986223600000002 Na
atom 7.7914020700000002 15.9455028599999995 5.9793220399999996 Na
atom 7.8473626400000001 18.5838466500000017 5.7613713200000003 Cl
atom 7.5154896999999998 21.5998777799999999 8.6960508799999996 Cl
atom 7.6737785499999998 18.7359204499999983 8.6868028099999997 Na
atom 7.5320700799999996 21.5738557600000007 6.0773646899999996 Na
atom 7.5263883600000003 24.5182732200000011 5.7321665199999998 Cl
atom 7.7892714400000003 27.2954799900000005 8.9187169900000001 Cl
atom 7.4641989899999999 24.5622685199999999 8.4423935500000002 Na
atom 7.6595804300000001 27.1229726900000010 5.9133594599999997 Na
atom 7.7672987400000002 30.0825908700000006 5.8292674000000000 Cl
atom 7.5166953400000001 33.2384969800000007 8.8029762199999997 Cl
atom 7.4145189199999999 30.4176297200000008 8.5917028500000008 Na
atom 7.6645873000000000 32.9850124600000001 6.1088142899999998 Na
atom 7.5703487400000000 35.6720799499999970 5.7871153800000004 Cl
atom 7.3844178700000001 38.6029568399999974 8.6514462499999993 Cl
atom 7.4117737600000000 35.8771414400000026 8.5111476699999997 Na
atom 7.5866362100000000 38.6683349099999987 5.8880982599999996 Na
atom 7.4554154300000004 1.7988753799999999 5.6060257699999996 Cl
atom 7.4565291499999997 4.7588053900000000 8.5197909900000006 Cl
atom 7.6942865899999999 1.9112096500000000 8.5535478600000001 Na
atom 7.5644016699999996 4.4690596400000002 5.8393139600000001 Na
atom 7.4333887599999997 7.2942575200000004 5.5427115799999997 Cl
atom 7.2594672400000002 10.1861520199999998 8.1945011599999997 Cl
atom 7.3942793499999997 7.4192656100000001 8.1193224300000004 Na
atom 7.6873040000000001 10.2049192600000005 5.6780612300000000 Na
atom 10.5484503899999993 13.1026816900000007 5.6169620499999997 Na
atom 13.3109535500000007 13.1252705699999996 5.5479239900000001 Cl
atom 10.4485061899999998 15.8696815099999995 8.4340647000000004 Na
atom 13.3966431999999998 16.0282660600000000 8.6432475400000008 Cl
atom 13.1977471099999999 13.2159318799999994 8.6391279999999995 Na
atom 10.4951795800000003 13.0853805100000002 8.3155026400000001 Cl
atom 13.2498923400000006 15.9262351700000000 5.5753747200000001 Na
atom 10.4103268399999997 16.1798299199999995 5.8194527300000001 Cl
atom 10.5033161699999997 18.7651112500000004 6.0223319200000001 Na
atom 13.0633696900000000 18.8178981699999994 5.5179377299999999 Cl
atom 10.1552052100000001 21.7022936699999995 8.5649368500000005 Na
atom 13.1633420099999991 21.8502198700000001 9.0527915100000005 Cl
atom 13.1820953500000009 18.5829642600000007 8.2900454499999991 Na
atom 10.2344169600000008 18.6999633900000006 8.7775945499999999 Cl
atom 13.2197967500000004 21.9277281100000003 6.0947883400000000 Na
atom 10.6377593699999995 21.6695855699999989 5.7010866000000000 Cl
atom 10.3416975200000003 24.5022984500000014 6.0520737799999997 Na
atom 12.9160246500000007 24.5248277200000011 5.9894925600000004 Cl
atom 10.5662440899999996 27.3223639200000008 8.2366134700000000 Na
atom 12.8735660999999997 27.3153138800000015 8.5817758000000008 Cl
atom 13.3428035499999993 24.2593649599999992 8.7555186200000001 Na
atom 10.0927765399999991 24.3422656300000000 8.8060919299999991 Cl
atom 13.1760647399999993 27.2288942399999989 5.8427366799999998 Na
atom 10.4812872899999991 27.3695743200000017 5.7617464600000003 Cl
atom 10.3222152200000004 30.3559014599999983 5.8947541599999997 Na
atom 13.2375540300000001 30.3028612799999983 5.8112065599999996 Cl
atom 10.4396455699999997 33.0944117700000007 8.7934876299999996 Na
atom 13.3510894800000006 32.8697217799999990 8.5999741400000005 Cl
atom 13.2524127499999995 30.2257589899999992 8.3842492800000006 Na
atom 10.3416156000000008 30.3025109199999996 8.7629009900000003 Cl
atom 13.3196182099999998 32.9383737100000005 5.9434406600000003 Na
atom 10.4144811700000002 32.8850886199999977 5.9407079300000003 Cl
atom 10.4129692800000004 35.6743472100000005 5.8357703299999999 Na
atom 13.3651908499999994 35.6843740199999999 5.9111682500000002 Cl
atom 10.4572325399999997 38.4477618499999991 8.4963986600000005 Na
atom 13.1974835000000006 38.4561784699999976 8.6043236000000007 Cl
atom 13.1801930600000006 35.7310317100000034 8.4854658199999999 Na
atom 10.4726609400000008 35.3220184899999978 8.6423623799999998 Cl
atom 13.2413460199999999 38.2743552700000009 5.9208136600000003 Na
atom 10.3834858099999998 38.4245980600000010 5.8352423000000000 Cl
atom 10.4389672999999998 1.8873813699999999 5.9769316799999999 Na
atom 13.0466689900000006 2.0202406499999999 5.6149463900000001 Cl
atom 10.2535800699999999 4.8394283900000001 8.5706595500000002 Na
atom 13.0348305100000008 4.8160026800000004 8.8058577800000002 Cl
atom 13.1214615400000003 1.9962334600000000 8.4569949900000001 Na
atom 10.4109815900000005 1.9694112800000001 8.6220995800000004 Cl
atom 13.1076045099999998 4.5594359500000001 5.8231731299999998 Na
atom 10.4749389300000004 4.7304742700000002 5.8473659800000002 Cl
atom 10.3065220100000001 7.4876827600000002 5.7117705799999996 Na
atom 13.3261182399999996 7.2938649099999999 5.7808660300000003 Cl
atom 10.5324083500000008 10.1895122800000006 8.2755054900000005 Na
atom 12.9739673000000000 10.3770544400000002 8.6368715900000002 Cl
atom 13.0595608900000002 7.2895859700000001 8.3457982499999996 Na
atom 9.9739848099999993 7.5338783400000002 8.4683584300000003 Cl
atom 13.2006687199999995 10.6710799699999992 5.7633861900000003 Na
atom 10.5154102799999993 10.4672190300000008 5.7680353100000001 Cl
atom 16.1321547999999986 13.1998247499999994 5.7579630399999999 Na
atom 18.8280762599999996 12.9814034899999999 5.5111165199999999 Cl
atom 15.9455240200000006 15.9474933199999995 8.2273878899999993 Na
atom 18.8879650699999999 15.9296895500000009 8.4842206800000000 Cl
atom 18.9767417400000014 13.3342756199999997 8.1972361199999995 Na
atom 15.9040174000000007 13.1160832200000002 8.3621109300000001 Cl
atom 18.7843188900000015 15.7646239599999998 5.6921019700000004 Na
atom 15.9878980199999994 15.8632946199999996 5.8167190399999997 Cl
atom 15.8880398799999991 18.4648772100000009 5.5068927499999996 Na
atom 18.8199328100000010 18.8344206999999990 5.7549624000000001 Cl
atom 16.0828151000000013 21.4317014899999982 8.6559757499999996 Na
atom 19.0398581900000003 21.5206326099999998 8.8871388800000002 Cl
atom 18.8437031600000005 18.6729997400000016 8.3144099400000009 Na
atom 15.7793963799999997 18.8776302300000012 8.4992497500000006 Cl
atom 18.6780855999999993 21.8393470200000017 6.1445596900000004 Na
atom 15.6109192599999993 21.6177141599999985 5.9911594600000004 Cl
atom 15.9330881699999996 24.4635855000000006 6.1469474499999999 Na
atom 18.6859467899999991 24.6407545299999988 5.7990400099999997 Cl
atom 16.1274651800000015 27.4673518100000003 9.0838655199999998 Na
atom 18.8990950300000016 27.3792305700000007 8.7378173100000005 Cl
atom 18.9489750199999989 24.2501680399999984 8.6715609400000009 Na
atom 15.9018682200000008 24.4840895100000004 9.0429233199999999 Cl
atom 18.7742610200000009 27.3604023100000013 5.7815817899999997 Na
atom 15.9735488300000004 27.2894641799999995 6.2686713500000000 Cl
atom 16.0758208600000003 29.9952957699999985 5.7894852999999999 Na
atom 18.7569124800000004 29.9247738900000009 5.8743293899999998 Cl
atom 16.1971542100000008 33.0021419699999967 8.3947905299999999 Na
atom 19.0988123700000010 32.7945172499999984 8.4380793399999998 Cl
atom 19.2033082399999984 30.2830829900000005 8.4618724099999998 Na
atom 16.0207321299999990 30.2076856099999986 8.6320348800000009 Cl
atom 18.7898639299999992 32.6604357900000011 5.8547260200000002 Na
atom 16.0319104999999986 33.0430889900000011 5.8135571300000004 Cl
atom 16.0495947500000007 35.6373247499999977 5.6108222300000001 Na
atom 18.9636934000000004 35.6862563299999991 5.8629353899999996 Cl
atom 16.0481385000000003 38.4062711600000029 8.6042049699999996 Na
atom 18.7256124799999988 38.4846128000000007 8.7662789900000000 Cl
atom 19.1247334400000000 35.5323576299999999 8.5221342599999996 Na
atom 15.9242177199999997 35.7135911900000025 8.9015650700000002 Cl
atom 18.8984665700000001 38.5533550399999996 6.0057434399999998 Na