#===============================================================================
# Created using the Atomic Simulation Environment (ASE)

# Sat Nov  1 21:48:31 2025

#=======================================================
lattice_vector 28.1999999999999993 0.0000000000000000 0.0000000000000000 
lattice_vector 0.0000000000000000 39.4799999999999969 0.0000000000000000 
lattice_vector 0.0000000000000000 0.0000000000000000 62.3296083400000001 
atom 7.5052527600000003 14.8185560699999996 0.0522864400000000 Au
atom 10.3240890000000007 14.8252300399999992 -0.0163095300000000 Au
atom 13.1462766500000008 14.8183629999999997 0.0525811600000000 Au
atom 15.9647801999999999 14.8246421099999992 -0.0117476000000000 Au
atom 18.7866395600000011 14.8179812700000006 0.0570365500000000 Au
atom 21.6053472100000015 14.8253193700000008 -0.0094660600000000 Au
atom 24.4266041700000009 14.8180929900000002 0.0587490600000000 Au
atom 27.2439108300000008 14.8265360400000006 -0.0105426000000000 Au
atom 1.8660030900000000 14.8181773299999993 0.0560796100000000 Au
atom 4.6848612400000000 14.8264232299999996 -0.0159511100000000 Au
atom 8.9119933099999997 17.2898209499999993 0.0343876500000000 Au
atom 11.7375768800000007 17.2899372999999983 0.0331111900000000 Au
atom 14.5524834599999995 17.2893584300000001 0.0303743800000000 Au
atom 17.3786431199999996 17.2893140800000005 0.0334213400000000 Au
atom 20.1931310999999987 17.2890825200000009 0.0375764700000000 Au
atom 23.0180723100000009 17.2897079600000012 0.0399323700000000 Au
atom 25.8335518300000011 17.2898143600000012 0.0425224800000000 Au
atom 0.4565118600000000 17.2905994800000009 0.0422293400000000 Au
atom 3.2729958099999998 17.2907770700000007 0.0420014400000000 Au
atom 6.0967858899999996 17.2901861500000003 0.0402731200000000 Au
atom 7.5050693700000002 19.7601618799999983 0.1103533300000000 Au
atom 10.3250279299999992 19.7641645900000000 0.0555178600000000 Au
atom 13.1461529200000005 19.7601333500000003 0.0988907900000000 Au
atom 15.9645907400000002 19.7635744899999999 0.0499518400000000 Au
atom 18.7857185000000015 19.7588464500000001 0.1032931700000000 Au
atom 21.6060733300000010 19.7631640399999995 0.0586506700000000 Au
atom 24.4258466600000013 19.7594335799999996 0.1111582800000000 Au
atom 27.2449362000000015 19.7638952900000007 0.0649449700000000 Au
atom 1.8653557800000000 19.7600884199999989 0.1143959400000000 Au
atom 4.6847916800000000 19.7644478399999990 0.0660896500000000 Au
atom 8.9140913899999994 22.2232648399999988 0.0861740000000000 Au
atom 11.7357268500000007 22.2233718899999992 0.0786188900000000 Au
atom 14.5545518800000000 22.2225729899999997 0.0762563700000000 Au
atom 17.3757437800000005 22.2232683000000009 0.0788877500000000 Au
atom 20.1948272799999984 22.2226272300000005 0.0817151000000000 Au
atom 23.0159614200000000 22.2231892500000008 0.0861861400000000 Au
atom 25.8350993200000012 22.2223630999999990 0.0881551600000000 Au
atom 0.4551008900000000 22.2234506399999994 0.0898113300000000 Au
atom 3.2744239899999998 22.2227749299999999 0.0909634700000000 Au
atom 6.0957136099999998 22.2236052599999994 0.0899121300000000 Au
atom 7.5048113200000000 24.6930137499999987 0.0980836800000000 Au
atom 10.3253763500000009 24.6907813900000015 0.1013748400000000 Au
atom 13.1452751499999998 24.6932316999999983 0.0903842600000000 Au
atom 15.9656929000000005 24.6906743700000000 0.0980034700000000 Au
atom 18.7849332999999987 24.6933490999999989 0.0927941500000000 Au
atom 21.6062835100000008 24.6901244800000015 0.1020743200000000 Au
atom 24.4245617999999993 24.6929768100000011 0.0971995400000000 Au
atom 27.2455281700000000 24.6895841400000009 0.1043167400000000 Au
atom 1.8649173299999999 24.6925530100000010 0.0989394900000000 Au
atom 4.6854713300000004 24.6900688399999986 0.1056886800000000 Au
atom 8.9168596699999991 27.1526292699999985 0.0685713600000000 Au
atom 11.7329386299999996 27.1540998000000009 0.0680835400000000 Au
atom 14.5576829100000005 27.1536261299999993 0.0681683900000000 Au
atom 17.3730807300000016 27.1536615300000008 0.0682859600000000 Au
atom 20.1972042199999997 27.1528400099999985 0.0688711200000000 Au
atom 23.0130818499999990 27.1528914000000015 0.0687761000000000 Au
atom 25.8370839100000005 27.1521702400000002 0.0688134600000000 Au
atom 0.4523645600000000 27.1528865400000008 0.0679492400000000 Au
atom 3.2768862200000002 27.1521722099999998 0.0681974900000000 Au
atom 6.0934548599999996 27.1530908000000011 0.0687907000000000 Au
atom 7.5045269299999999 29.6249361399999991 0.0125380300000000 Au
atom 10.3260271600000006 29.6187760500000010 0.0655645900000000 Au
atom 13.1447628999999999 29.6257307599999997 0.0139482200000000 Au
atom 15.9663889599999997 29.6187305400000014 0.0676273200000000 Au
atom 18.7845594499999997 29.6255218000000013 0.0144700000000000 Au
atom 21.6062699000000009 29.6184072799999996 0.0666539800000000 Au
atom 24.4241942399999985 29.6251164799999991 0.0133288200000000 Au
atom 27.2456829300000010 29.6182379800000000 0.0650236400000000 Au
atom 1.8643880200000000 29.6247955099999984 0.0115305500000000 Au
atom 4.6858801300000001 29.6185964800000008 0.0635753700000000 Au
atom 8.9174114699999993 32.0888451799999999 0.0152631900000000 Au
atom 11.7327063200000001 32.0892702599999993 0.0170019700000000 Au
atom 14.5576987199999994 32.0890245800000002 0.0180986100000000 Au
atom 17.3728091199999994 32.0891517399999984 0.0186436400000000 Au
atom 20.1974459999999993 32.0885713500000023 0.0182379300000000 Au
atom 23.0125818899999999 32.0886228700000018 0.0177405500000000 Au
atom 25.8377467199999984 32.0883015300000025 0.0168491600000000 Au
atom 0.4516364000000000 32.0887393699999990 0.0155270100000000 Au
atom 3.2776018900000001 32.0884611399999997 0.0145836800000000 Au
atom 6.0925301000000003 32.0888645499999967 0.0148836600000000 Au
atom 7.5042049400000002 34.5664429899999988 -0.0111461200000000 Au
atom 10.3262174600000005 34.5589222600000028 0.0572782200000000 Au
atom 13.1447163200000006 34.5662702199999998 -0.0092849500000000 Au
atom 15.9660538499999998 34.5586444500000027 0.0595386100000000 Au
atom 18.7845573899999998 34.5663032699999988 -0.0082560800000000 Au
atom 21.6063860699999992 34.5588347999999996 0.0594117600000000 Au
atom 24.4241886800000003 34.5663460299999983 -0.0091318800000000 Au
atom 27.2459005199999993 34.5587514200000001 0.0584363500000000 Au
atom 1.8643823300000000 34.5663312699999992 -0.0110806000000000 Au
atom 4.6859798200000000 34.5591783500000034 0.0563961700000000 Au
atom 8.9171182699999996 37.0308194699999973 0.0401083600000000 Au
atom 11.7327381499999994 37.0303139199999976 0.0408612100000000 Au
atom 14.5574846999999998 37.0305520300000026 0.0413882300000000 Au
atom 17.3732286400000007 37.0302823500000002 0.0419766100000000 Au
atom 20.1970942999999998 37.0301451200000002 0.0415654000000000 Au
atom 23.0128578399999988 37.0298741699999994 0.0418980100000000 Au
atom 25.8375649799999998 37.0301626299999995 0.0414562400000000 Au
atom 0.4519863900000000 37.0299180000000021 0.0410820000000000 Au
atom 3.2775738300000001 37.0304171000000011 0.0399681300000000 Au
atom 6.0928946100000001 37.0301750599999977 0.0405788000000000 Au
atom 7.5048340400000004 0.0236978800000000 0.0632340000000000 Au
atom 10.3257393799999999 0.0195698600000000 0.1115939800000000 Au
atom 13.1450558399999995 0.0236621800000000 0.0630249500000000 Au
atom 15.9655444600000003 0.0189142000000000 0.1115090700000000 Au
atom 18.7847419000000002 0.0231888600000000 0.0629726200000000 Au
atom 21.6059657700000010 0.0190390000000000 0.1111472000000000 Au
atom 24.4245955600000002 0.0233032100000000 0.0630181300000000 Au
atom 27.2452126800000016 0.0191392600000000 0.1113521000000000 Au
atom 1.8651282700000000 0.0237298300000000 0.0626323900000000 Au
atom 4.6855856400000002 0.0197958700000000 0.1111618400000000 Au
atom 8.9155196199999995 2.4836895399999999 0.0889678000000000 Au
atom 11.7349469000000006 2.4827079900000002 0.0889892000000000 Au
atom 14.5554355599999994 2.4835517100000000 0.0883551000000000 Au
atom 17.3751621100000015 2.4827945499999999 0.0878337900000000 Au
atom 20.1950796699999984 2.4831971300000002 0.0873838800000000 Au
atom 23.0146636399999984 2.4826270099999999 0.0876049100000000 Au
atom 25.8354136700000012 2.4832422900000002 0.0876124300000000 Au
atom 0.4539618700000000 2.4826748599999999 0.0876933000000000 Au
atom 3.2756987099999999 2.4832647500000000 0.0877322900000000 Au
atom 6.0948881400000001 2.4828312700000001 0.0892816700000000 Au
atom 7.5058708999999997 4.9498123600000001 0.1050787600000000 Au
atom 10.3253602699999991 4.9526249199999999 0.0983610200000000 Au
atom 13.1464462799999993 4.9496864800000004 0.1054863900000000 Au
atom 15.9650749899999997 4.9528324200000000 0.0987131000000000 Au
atom 18.7852878399999987 4.9494047400000003 0.1042804100000000 Au
atom 21.6053659899999992 4.9526699599999997 0.0976369100000000 Au
atom 24.4249423899999982 4.9496428999999997 0.1036063100000000 Au
atom 27.2442807400000007 4.9526002099999999 0.0966388000000000 Au
atom 1.8652875799999999 4.9500085800000004 0.1030198000000000 Au
atom 4.6848818799999998 4.9525511399999997 0.0961718300000000 Au
atom 8.9137177199999993 7.4130897800000000 0.0668891300000000 Au
atom 11.7379127600000004 7.4122940399999999 0.0693795200000000 Au
atom 14.5536313199999991 7.4127271700000001 0.0711587100000000 Au
atom 17.3774089099999998 7.4122838700000004 0.0710087400000000 Au
atom 20.1929097199999994 7.4130423299999997 0.0698490000000000 Au
atom 23.0167085000000000 7.4121761499999996 0.0692529800000000 Au
atom 25.8322846699999999 7.4126881500000001 0.0672585500000000 Au
atom 0.4563851000000000 7.4119264700000000 0.0657497300000000 Au
atom 3.2725206299999998 7.4130362999999999 0.0638705500000000 Au
atom 6.0974797499999998 7.4124945999999996 0.0643526100000000 Au
atom 7.5059223099999999 9.8787314599999991 0.0569542000000000 Au
atom 10.3249498800000001 9.8838208800000000 0.0097017600000000 Au
atom 13.1475941800000005 9.8780046899999991 0.0672979500000000 Au
atom 15.9647729300000005 9.8838190699999995 0.0160967200000000 Au
atom 18.7863566300000002 9.8775367999999997 0.0693878700000000 Au
atom 21.6046555399999995 9.8844943000000001 0.0145452900000000 Au
atom 24.4252662500000000 9.8776895600000003 0.0653694900000000 Au
atom 27.2434617000000010 9.8844518200000007 0.0094328000000000 Au
atom 1.8656147300000001 9.8781090200000001 0.0578784300000000 Au
atom 4.6849935100000000 9.8844244200000002 0.0046058100000000 Au
atom 8.9119894399999993 12.3488367399999994 0.0086719900000000 Au
atom 11.7385383099999991 12.3482507600000009 0.0130127200000000 Au
atom 14.5524201899999994 12.3485216199999996 0.0174770000000000 Au
atom 17.3787905100000017 12.3486635800000002 0.0192493300000000 Au
atom 20.1926305200000016 12.3484802600000005 0.0187063300000000 Au
atom 23.0175951800000007 12.3486617100000000 0.0179098800000000 Au
atom 25.8322627699999998 12.3492450700000003 0.0151598000000000 Au
atom 0.4573513300000000 12.3489150700000003 0.0122517200000000 Au
atom 3.2719169600000000 12.3492010899999993 0.0076126800000000 Au
atom 6.0979288000000000 12.3482298200000002 0.0069687200000000 Au
atom 7.5046363100000004 13.1806687700000005 2.6553324800000002 Au
atom 10.3256043799999997 13.1846895400000008 2.5501147300000002 Au
atom 13.1444711000000005 13.1821721899999993 2.6633568099999998 Au
atom 15.9656754200000002 13.1855891300000003 2.5583445999999999 Au
atom 18.7850410200000013 13.1819514499999997 2.6686352400000000 Au
atom 21.6059908000000007 13.1846985799999992 2.5607695700000002 Au
atom 24.4256565300000013 13.1805192099999999 2.6673919000000001 Au
atom 27.2455606900000014 13.1837953799999994 2.5549641599999999 Au
atom 1.8658921700000000 13.1802372900000009 2.6596429100000001 Au
atom 4.6858883699999998 13.1834972500000003 2.5471295500000002 Au
atom 8.9161394200000004 15.6425535300000007 2.6354184799999998 Au
atom 11.7336846099999992 15.6433874399999997 2.6357598699999998 Au
atom 14.5561464500000000 15.6444993500000002 2.6345647300000001 Au
atom 17.3737399000000003 15.6444437300000008 2.6395422399999999 Au
atom 20.1962835200000015 15.6441040200000003 2.6416030500000001 Au
atom 23.0134475800000011 15.6437875099999992 2.6456098799999999 Au
atom 25.8373603100000011 15.6432992100000003 2.6448231400000002 Au
atom 0.4534977400000000 15.6422898099999994 2.6439142499999999 Au
atom 3.2766978700000000 15.6421837600000000 2.6409301900000002 Au
atom 6.0941918299999998 15.6416346100000005 2.6382229000000001 Au
atom 7.5057305400000001 18.0954739599999996 2.6931653899999999 Au
atom 10.3258219499999999 18.1143210400000001 2.6016542999999999 Au
atom 13.1453561600000004 18.0959355500000001 2.6823995100000002 Au
atom 15.9651119300000008 18.1150166500000012 2.5978264200000001 Au
atom 18.7844828399999990 18.0958963200000014 2.6877597299999998 Au
atom 21.6053463000000008 18.1144518400000010 2.6077325999999998 Au
atom 24.4255025799999999 18.0958808900000001 2.6967931100000002 Au
atom 27.2451783899999995 18.1145242899999985 2.6137346500000000 Au
atom 1.8659361900000000 18.0957005500000001 2.6986676900000002 Au
atom 4.6858490599999998 18.1139155199999990 2.6129181300000002 Au
atom 8.9173424499999996 20.5770903700000005 2.7137487100000000 Au
atom 11.7338692099999999 20.5773360499999995 2.7058922900000000 Au
atom 14.5566740200000009 20.5775438500000014 2.7016335800000002 Au
atom 17.3734698600000002 20.5774464100000003 2.7048166700000000 Au
atom 20.1958440599999989 20.5773882999999991 2.7092459400000002 Au
atom 23.0133078299999987 20.5773298500000017 2.7161533000000002 Au
atom 25.8366901899999988 20.5772774799999993 2.7178432600000000 Au
atom 0.4533285400000000 20.5771053399999992 2.7211336600000000 Au
atom 3.2767350500000001 20.5771273199999989 2.7210313799999999 Au
atom 6.0943366399999999 20.5766446499999986 2.7193139899999998 Au
atom 7.5058627800000002 23.0387036499999986 2.6864872499999999 Au
atom 10.3262321400000001 23.0616223699999985 2.6819161700000000 Au
atom 13.1461567899999991 23.0384785299999990 2.6768674400000001 Au
atom 15.9645024699999993 23.0621089499999989 2.6760401400000000 Au
atom 18.7847043999999990 23.0377304299999999 2.6793374700000001 Au
atom 21.6049304400000004 23.0617537800000001 2.6849634000000000 Au
atom 24.4251037900000014 23.0383098599999983 2.6873685100000002 Au
atom 27.2443744700000003 23.0622527499999990 2.6888786499999999 Au
atom 1.8655907400000000 23.0392745300000001 2.6904212599999999 Au
atom 4.6855808400000001 23.0622261900000005 2.6907475500000002 Au
atom 8.9170958799999998 25.5281505399999986 2.7171102899999999 Au
atom 11.7336986700000008 25.5280993500000015 2.7145400700000000 Au
atom 14.5568344799999991 25.5278302900000007 2.7126244700000002 Au
atom 17.3729639700000007 25.5283470000000001 2.7138868700000001 Au
atom 20.1959813900000000 25.5282388299999994 2.7169042399999999 Au
atom 23.0136468000000001 25.5283370199999986 2.7180664700000001 Au
atom 25.8356539000000005 25.5279823300000004 2.7189775300000001 Au
atom 0.4541609400000000 25.5277392200000008 2.7192297000000001 Au
atom 3.2754006599999999 25.5279348299999995 2.7198962899999999 Au
atom 6.0942786000000000 25.5279001000000001 2.7193238499999999 Au
atom 7.5051495800000003 27.9910171699999992 2.6171557999999999 Au
atom 10.3256376599999999 28.0049411100000007 2.7001612800000001 Au
atom 13.1461397299999998 27.9906851900000007 2.6161253300000000 Au
atom 15.9644976900000000 28.0049364199999999 2.7008138900000001 Au
atom 18.7854830799999988 27.9907104199999992 2.6180541700000002 Au
atom 21.6051118399999993 28.0053370999999984 2.7012369100000000 Au
atom 24.4256807900000013 27.9904606800000018 2.6178655300000000 Au
atom 27.2443631599999989 28.0059657400000006 2.6996754699999999 Au
atom 1.8659410200000000 27.9905299300000010 2.6168175599999999 Au
atom 4.6851767400000002 28.0058240500000011 2.6993017400000001 Au
atom 8.9142687400000007 30.4629161199999992 2.6446058300000002 Au
atom 11.7343425900000007 30.4631730800000007 2.6460441200000000 Au
atom 14.5548480500000004 30.4631480900000007 2.6466746600000000 Au
atom 17.3751589799999984 30.4633685499999984 2.6477054500000001 Au
atom 20.1944158700000003 30.4632443799999990 2.6467039300000001 Au
atom 23.0149256000000015 30.4633438400000003 2.6461970699999999 Au
atom 25.8347420800000016 30.4628630399999984 2.6444784900000000 Au
atom 0.4544976700000000 30.4627802599999988 2.6441004000000001 Au
atom 3.2746587699999998 30.4626552299999993 2.6426344099999999 Au
atom 6.0948976500000001 30.4626147399999994 2.6431723400000000 Au
atom 7.5049367900000004 32.9243952699999980 2.5565388300000000 Au
atom 10.3250751100000002 32.9214876400000023 2.6662409899999999 Au
atom 13.1457699100000003 32.9246241000000026 2.5595931300000001 Au
atom 15.9647043600000007 32.9218165699999972 2.6685412700000000 Au
atom 18.7855844400000009 32.9245358300000035 2.5603022000000002 Au
atom 21.6053686999999996 32.9210970099999969 2.6686293600000002 Au
atom 24.4255611600000009 32.9240789500000020 2.5592541000000000 Au
atom 27.2447590499999990 32.9211456700000014 2.6666775000000000 Au
atom 1.8656925900000001 32.9242258199999966 2.5571766299999998 Au
atom 4.6852390300000000 32.9209783599999994 2.6648054200000000 Au
atom 8.9130615399999993 35.3830316299999978 2.6430766399999999 Au
atom 11.7353705799999997 35.3832752400000032 2.6443458199999998 Au
atom 14.5535335299999993 35.3831322500000027 2.6447231400000000 Au
atom 17.3759497699999983 35.3833118900000017 2.6457987799999998 Au
atom 20.1929436699999982 35.3834192699999974 2.6453837400000002 Au
atom 23.0161564600000013 35.3833904999999973 2.6458073600000001 Au
atom 25.8338190599999997 35.3835457099999999 2.6443769100000001 Au
atom 0.4554553100000000 35.3833844700000029 2.6444549400000001 Au
atom 3.2735723499999998 35.3833612000000031 2.6427259300000001 Au
atom 6.0960801000000000 35.3834569699999975 2.6427642499999999 Au
atom 7.5048469200000003 37.8547069199999981 2.6109234500000000 Au
atom 10.3252276100000007 37.8358987100000022 2.6955899799999998 Au
atom 13.1452614600000004 37.8546993699999987 2.6116579000000000 Au
atom 15.9649562199999995 37.8360443199999992 2.6963159600000002 Au
atom 18.7851618199999990 37.8548534099999969 2.6115114500000001 Au
atom 21.6054709900000006 37.8357270699999972 2.6968513700000001 Au
atom 24.4254764000000009 37.8549327899999994 2.6116975800000000 Au
atom 27.2449480400000006 37.8353526799999997 2.6960389100000000 Au
atom 1.8656947200000000 37.8549858800000010 2.6113402600000000 Au
atom 4.6853998600000004 37.8353531899999993 2.6951658200000002 Au
atom 8.9128433200000003 0.8373814700000000 2.7187343600000000 Au
atom 11.7360835899999998 0.8373169400000000 2.7187508500000002 Au
atom 14.5531790799999996 0.8373028200000000 2.7180844700000000 Au
atom 17.3766574799999987 0.8370977100000000 2.7176491000000000 Au
atom 20.1922816900000015 0.8375478600000000 2.7177253600000002 Au
atom 23.0172692499999982 0.8372434000000000 2.7177253499999998 Au
atom 25.8329565400000014 0.8380066900000001 2.7175361699999998 Au
atom 0.4564334800000000 0.8378242200000000 2.7178507000000001 Au
atom 3.2729573300000001 0.8378639500000000 2.7180171000000000 Au
atom 6.0968306900000000 0.8379357600000000 2.7180061700000002 Au
atom 7.5044434100000004 3.3227548599999999 2.6890760199999999 Au
atom 10.3256634599999995 3.2997659200000000 2.6894034000000002 Au
atom 13.1453471600000000 3.3225700100000002 2.6902898700000000 Au
atom 15.9652838599999995 3.2997646100000000 2.6882069700000000 Au
atom 18.7851704800000014 3.3224076999999999 2.6881505300000001 Au
atom 21.6054022199999984 3.2992210499999999 2.6879793500000000 Au
atom 24.4249175399999991 3.3220274500000002 2.6879309899999999 Au
atom 27.2449780500000003 3.2983033700000002 2.6873801799999999 Au
atom 1.8651004600000001 3.3226049999999998 2.6882768800000001 Au
atom 4.6856823199999997 3.2989510499999999 2.6880529800000001 Au
atom 8.9140562499999998 5.7887573500000000 2.7188481400000000 Au
atom 11.7352010700000005 5.7879184199999996 2.7204424299999999 Au
atom 14.5556247200000008 5.7878680700000000 2.7205967700000002 Au
atom 17.3753281900000012 5.7876716999999998 2.7199123400000000 Au
atom 20.1939402900000005 5.7877358200000000 2.7199725699999999 Au
atom 23.0155615500000010 5.7877922000000002 2.7191056300000001 Au
atom 25.8337161100000010 5.7882926899999996 2.7184595699999998 Au
atom 0.4556753900000000 5.7885024100000004 2.7173832400000002 Au
atom 3.2732266900000000 5.7888297099999999 2.7167922000000000 Au
atom 6.0966430599999999 5.7889710000000001 2.7175810600000001 Au
atom 7.5045870099999998 8.2671628699999999 2.6938576699999999 Au
atom 10.3258776500000007 8.2521158299999993 2.6150075699999999 Au
atom 13.1454578899999994 8.2672207699999998 2.7020685599999998 Au
atom 15.9656924599999996 8.2510121900000009 2.6205903899999998 Au
atom 18.7851315399999983 8.2666211599999997 2.7032487700000001 Au
atom 21.6058337400000013 8.2509640100000006 2.6194812299999999 Au
atom 24.4245574599999991 8.2663653299999993 2.7000401699999999 Au
atom 27.2454458799999983 8.2511572599999994 2.6147979700000001 Au
atom 1.8651773500000000 8.2668007400000008 2.6939803000000002 Au
atom 4.6860103700000000 8.2519248600000008 2.6095421399999998 Au
atom 8.9139984099999996 10.7224574199999996 2.6359537300000002 Au
atom 11.7347232800000008 10.7230681600000004 2.6434391200000000 Au
atom 14.5548117000000001 10.7229621599999998 2.6466519499999999 Au
atom 17.3757133400000008 10.7230390700000005 2.6491763499999998 Au
atom 20.1943577599999990 10.7229676099999995 2.6486538600000000 Au
atom 23.0154569400000000 10.7227410899999995 2.6464912300000001 Au
atom 25.8348506100000002 10.7231263800000001 2.6432273300000002 Au
atom 0.4552292200000000 10.7225375100000004 2.6378655000000002 Au
atom 3.2744006200000002 10.7228203600000001 2.6330857900000000 Au
atom 6.0960243199999997 10.7227218700000009 2.6330661200000001 Au
atom 7.5021961499999996 13.1707396400000007 5.6865773600000002 Cl
atom 7.5025988999999997 15.9876314700000002 8.5446889200000005 Cl
atom 7.5008705700000000 13.1714366500000004 8.3731545700000005 Na
atom 7.5000639800000002 16.0053789100000010 5.7966876799999998 Na
atom 7.5010348899999997 18.8206735000000016 5.7519121100000001 Cl
atom 7.5028815599999996 21.6221823700000009 8.5736720900000005 Cl
atom 7.5039675900000002 18.8073955300000009 8.3565766999999997 Na
atom 7.4981718400000004 21.6297381900000012 5.8220622300000002 Na
atom 7.4966208500000002 24.4424178199999993 5.7106267300000004 Cl
atom 7.4942101299999999 27.2616470799999995 8.5780620600000006 Cl
atom 7.4992297399999996 24.4362573900000015 8.4341392400000004 Na
atom 7.4934524600000003 27.2409467300000010 5.8332254099999998 Na
atom 7.4925239100000001 30.0727235700000008 5.6079272900000001 Cl
atom 7.4904137700000000 32.9060951299999971 8.5648119400000002 Cl
atom 7.4915318199999996 30.0786200699999995 8.4873420199999998 Na
atom 7.4910807799999999 32.9048911200000020 5.8316107099999996 Na
atom 7.4917858500000003 35.7381003300000017 5.7547389100000004 Cl
atom 7.4917318399999999 38.5519367400000021 8.5748642999999998 Cl
atom 7.4909348099999997 35.7345511400000007 8.3399101299999998 Na
atom 7.4922888499999996 38.5736079699999976 5.8317710299999996 Na
atom 7.4947334100000003 1.8947077200000000 5.2158568399999998 Cl
atom 7.4954283899999998 4.7172671099999999 8.5751200700000005 Cl
atom 7.4932934600000003 1.9011385800000000 8.9328359499999994 Na
atom 7.4965314999999997 4.7107855699999996 5.8245864899999997 Na
atom 7.4985796400000000 7.5220021199999998 5.8471544800000004 Cl
atom 7.4950421499999997 10.3580216099999998 8.5499243699999994 Cl
atom 7.4959624299999996 7.5345080400000004 8.2679883400000005 Na
atom 7.4996321999999997 10.3367236400000007 5.7956163800000002 Na
atom 10.3228970499999999 13.1674441499999997 5.8268722300000002 Na
atom 13.1424982700000008 13.1666298299999998 5.7657646099999997 Cl
atom 10.3234548400000001 15.9975150799999994 8.4203907000000005 Na
atom 13.1435690300000001 15.9866129499999996 8.5425370600000008 Cl
atom 13.1406598199999998 13.1703851099999998 8.3009734200000000 Na
atom 10.3217516099999997 13.1699357599999995 8.5622211999999998 Cl
atom 13.1463292700000007 16.0003641700000010 5.7954816999999998 Na
atom 10.3230349500000003 16.0002686300000008 5.6586191499999998 Cl
atom 10.3212922000000002 18.8354361200000007 5.8246187300000001 Na
atom 13.1426232400000007 18.8182936800000000 5.6786493100000000 Cl
atom 10.3232713300000007 21.6351530899999993 8.2704938899999991 Na
atom 13.1454587699999994 21.6161273799999982 8.5713809100000002 Cl
atom 13.1438927299999992 18.8056028700000013 8.4194463099999997 Na
atom 10.3229820599999993 18.8127998599999984 8.5688593599999994 Cl
atom 13.1414994800000002 21.6274615499999996 5.8126068200000001 Na
atom 10.3213410400000001 21.6340622700000011 5.8640396499999996 Cl
atom 10.3146944999999999 24.4507457799999983 5.8188293099999999 Na
atom 13.1374551400000001 24.4400176800000004 5.9343611599999999 Cl
atom 10.3143518200000006 27.2657104799999992 8.4129707400000004 Na
atom 13.1341043499999994 27.2584925499999997 8.5752623499999991 Cl
atom 13.1392102800000004 24.4332842200000009 8.1937057200000005 Na
atom 10.3195173400000009 24.4499365399999995 8.5706809300000000 Cl
atom 13.1336875200000005 27.2415965799999995 5.8324634099999999 Na
atom 10.3134864700000008 27.2556252500000014 5.7113118299999996 Cl
atom 10.3119496599999998 30.0712136799999996 5.8044724700000003 Na
atom 13.1319296399999992 30.0723904399999995 5.5517017500000003 Cl
atom 10.3097285900000006 32.9059662700000004 8.4321132500000004 Na
atom 13.1299127200000001 32.9046089499999965 8.5669857399999998 Cl
atom 13.1313264600000004 30.0756154900000006 8.5475091400000007 Na
atom 10.3114047200000005 30.0881711199999984 8.5542961900000005 Cl
atom 13.1301304099999996 32.9042359700000020 5.8336903500000004 Na
atom 10.3108775399999999 32.9048225499999987 5.6431352500000003 Cl
atom 10.3116105000000005 35.7401799200000028 5.8037831300000002 Na
atom 13.1308999499999999 35.7366069400000015 5.4468653700000003 Cl
atom 10.3111301399999995 38.5466693600000028 8.4540762300000001 Na
atom 13.1307655200000006 38.5499151200000014 8.5755845300000004 Cl
atom 13.1298671900000006 35.7325372399999992 8.6508463599999992 Na
atom 10.3102234199999998 35.7245347400000028 8.5522811799999996 Cl
atom 13.1307183999999992 38.5722437299999967 5.8325520600000003 Na
atom 10.3116173500000006 38.5592728100000031 5.6640598899999999 Cl
atom 10.3142926799999994 1.8897682499999999 5.8238040000000000 Na
atom 13.1328831699999995 1.8937402600000000 5.6841170300000003 Cl
atom 10.3146741300000002 4.7019634699999999 8.4111646499999999 Na
atom 13.1342815399999999 4.7131809200000001 8.5785335800000002 Cl
atom 13.1327448499999999 1.8969214999999999 8.4645727500000003 Na
atom 10.3128454999999999 1.8846013800000001 8.5759332100000005 Cl
atom 13.1353950600000005 4.7099799500000001 5.8263661400000002 Na
atom 10.3160388899999997 4.7060354100000001 5.7340911800000001 Cl
atom 10.3201742400000001 7.5033142100000001 5.8307476800000000 Na
atom 13.1373210500000006 7.5181827099999996 5.5925879600000004 Cl
atom 10.3167216600000007 10.3446447500000005 8.2091150000000006 Na
atom 13.1365876600000000 10.3538960000000007 8.5548840899999998 Cl
atom 13.1350474599999991 7.5321063099999996 8.5395839200000001 Na
atom 10.3152656000000000 7.5279696999999999 8.5749105199999995 Cl
atom 13.1414763200000007 10.3325249199999991 5.8045377100000000 Na
atom 10.3194746800000008 10.3387280399999995 5.8800641300000001 Cl
atom 15.9642552999999996 13.1628105699999995 5.8318239700000003 Na
atom 18.7818060200000012 13.1612504300000008 5.4490901799999998 Cl
atom 15.9615871800000004 15.9954917000000005 8.3932678999999997 Na
atom 18.7824293199999985 15.9838773399999994 8.5487418200000000 Cl
atom 18.7799657700000004 13.1654091999999991 8.6312884699999994 Na
atom 15.9618522899999995 13.1682943500000000 8.5639956999999995 Cl
atom 18.7854921300000015 15.9945220799999994 5.7999363300000004 Na
atom 15.9645883899999994 15.9953124599999992 5.6903681099999996 Cl
atom 15.9655225400000003 18.8288459699999997 5.8202880500000003 Na
atom 18.7841883100000011 18.8126264600000006 5.7253733400000000 Cl
atom 15.9606146199999994 21.6325408299999999 8.1933157500000000 Na
atom 18.7806424400000012 21.6175241599999985 8.5640160699999992 Cl
atom 18.7806440499999994 18.8039175100000016 8.3759058199999998 Na
atom 15.9584590199999994 18.8117391100000013 8.5675382899999999 Cl
atom 18.7828640799999995 21.6235843400000007 5.8140648600000002 Na
atom 15.9607929500000001 21.6302499499999996 5.9350244500000002 Cl
atom 15.9600380800000003 24.4467670499999983 5.8161258000000000 Na
atom 18.7798761600000006 24.4403202800000017 5.5917694800000000 Cl
atom 15.9536610599999999 27.2627538899999990 8.3595124599999995 Na
atom 18.7744557699999994 27.2572457499999992 8.5765446700000005 Cl
atom 18.7768289400000015 24.4307823800000001 8.5406814499999992 Na
atom 15.9582316599999992 24.4471743600000018 8.5659047400000006 Cl
atom 18.7749935500000014 27.2388382500000006 5.8323771899999999 Na
atom 15.9541097500000006 27.2545472400000008 5.7617921299999999 Cl
atom 15.9528448500000000 30.0691911300000001 5.8060056600000003 Na
atom 18.7725081399999993 30.0702646099999988 5.6041273100000000 Cl
atom 15.9499491700000000 32.9037949200000028 8.7550207300000000 Na
atom 18.7705961700000010 32.9025302100000019 8.5674185499999993 Cl
atom 18.7720522800000005 30.0745193999999998 8.4949219100000004 Na
atom 15.9515963500000009 30.0857249799999984 8.5551909399999992 Cl
atom 18.7701617300000017 32.9014234699999975 5.8344778000000002 Na
atom 15.9503323199999993 32.9025769200000013 5.3235309500000003 Cl
atom 15.9509473199999992 35.7374330900000032 5.8053411400000003 Na
atom 18.7707539399999987 35.7335484600000015 5.8922725700000003 Cl
atom 15.9505547199999995 38.5456209199999975 8.0529298800000007 Na
atom 18.7708141200000007 38.5474672400000031 8.5755125299999992 Cl
atom 18.7703925200000015 35.7308023699999993 8.2067680299999992 Na
atom 15.9500420799999993 35.7222598800000029 8.5535477600000007 Cl
atom 18.7706878099999983 38.5687789500000022 5.8326980800000001 Na
atom 15.9506624299999995 38.5541508900000025 6.0654141700000004 Cl