#===============================================================================
# Created using the Atomic Simulation Environment (ASE)

# Tue Dec 23 22:26:15 2025

#=======================================================
lattice_vector 28.1999999999999993 0.0000000000000000 0.0000000000000000 
lattice_vector 0.0000000000000000 39.4799999999999969 0.0000000000000000 
lattice_vector 0.0000000000000000 0.0000000000000000 62.3296083400000001 
atom 7.5003764700000000 14.7827642600000004 0.0674410400000000 Au
atom 10.3028406799999992 14.8387958199999996 -0.1430627000000000 Au
atom 13.1440003300000008 14.8094881100000002 -0.0413389500000000 Au
atom 15.9122731999999996 14.8399211500000003 0.0170978400000000 Au
atom 18.6579914199999983 14.5614351099999997 -0.2481590700000000 Au
atom 21.7057134000000005 14.7092182200000003 -0.1396507200000000 Au
atom 24.2459655900000008 14.6368989099999993 -0.3070848400000000 Au
atom 27.3406566600000005 14.7408613000000006 -0.1959480900000000 Au
atom 1.8687589099999999 14.8220513900000004 -0.0033502100000000 Au
atom 4.6887576700000002 14.7957897700000007 0.0649098100000000 Au
atom 8.8629023399999998 17.2774536500000018 0.0239160000000000 Au
atom 11.7452181499999995 17.2930427000000009 0.0580138400000000 Au
atom 14.5764352600000002 17.3039630299999985 0.0819197300000000 Au
atom 17.4293168300000012 17.3243308399999982 0.0212463400000000 Au
atom 20.2890434100000014 17.5468085999999985 -0.2841351600000000 Au
atom 23.0550064500000005 17.2371798500000004 0.0657834800000000 Au
atom 25.8068920499999983 17.5863701500000005 -0.2827295100000000 Au
atom 0.4515094900000000 17.2944060200000003 -0.0460280800000000 Au
atom 3.2517313400000001 17.2815189300000007 -0.0189423500000000 Au
atom 6.0762381699999999 17.2585694700000012 -0.0200363200000000 Au
atom 7.4897616800000000 19.7685198299999989 0.1751908200000000 Au
atom 10.2937993799999994 19.7496529699999996 0.0907534300000000 Au
atom 13.1388031200000004 19.7623457500000015 0.0898457500000000 Au
atom 15.9517139100000005 19.7706844299999993 0.0579876000000000 Au
atom 18.7747995500000009 19.7783440699999993 0.0683403600000000 Au
atom 21.5721249099999994 19.6598271400000009 -0.0061639800000000 Au
atom 24.4779937600000004 19.6112232700000000 0.1142126100000000 Au
atom 27.2652456100000009 19.7980414499999995 0.0651374900000000 Au
atom 1.8709744800000001 19.7570636899999990 0.0520640100000000 Au
atom 4.6975186799999999 19.7796065500000005 0.0470249800000000 Au
atom 8.9500696400000006 22.2141037499999996 0.0501524100000000 Au
atom 11.7614213599999999 22.2144946999999995 0.0118952700000000 Au
atom 14.5685966600000008 22.2387392300000002 0.0979298200000000 Au
atom 17.3733276799999992 22.2550236999999989 0.0503932500000000 Au
atom 20.1975100599999990 22.2028228900000002 0.0425973800000000 Au
atom 23.0532010800000009 22.1731166000000002 0.0596702600000000 Au
atom 25.8179515299999984 22.1968351199999994 0.0617130600000000 Au
atom 0.4683300600000000 22.2605639699999998 0.0792814000000000 Au
atom 3.2784042400000000 22.2825129000000004 0.2167397000000000 Au
atom 6.1142145599999997 22.2577487100000013 -0.0208503600000000 Au
atom 7.5315613900000002 24.6835501199999996 0.0818348500000000 Au
atom 10.3378830599999993 24.6844533599999991 0.0684640900000000 Au
atom 13.1290147099999999 24.6827857000000002 0.0224119000000000 Au
atom 15.9681941900000002 24.7184534800000009 0.0096240200000000 Au
atom 18.7778808099999992 24.6767156000000014 0.1221588500000000 Au
atom 21.6199338599999997 24.6814360700000002 0.1033421200000000 Au
atom 24.4324697999999998 24.6929828899999997 0.0926486200000000 Au
atom 27.2284612999999993 24.6573261899999991 0.0763954300000000 Au
atom 1.8686252200000000 24.7267653199999984 0.1045957600000000 Au
atom 4.7191627599999997 24.7309112499999983 0.0847400900000000 Au
atom 8.9434429899999994 27.1561257400000002 0.0991870200000000 Au
atom 11.7427815500000001 27.1866248800000001 0.0950251200000000 Au
atom 14.5487283499999993 27.1447200399999993 0.0713930900000000 Au
atom 17.3843284000000011 27.1565595799999997 0.0462245700000000 Au
atom 20.2246376800000007 27.1688528799999993 0.0572743300000000 Au
atom 23.0214253299999996 27.1655653400000006 0.0583904700000000 Au
atom 25.8514757800000012 27.1230806899999983 0.0933947200000000 Au
atom 0.4231730800000000 27.1408019799999991 0.0919316800000000 Au
atom 3.2460095000000000 27.1756030799999984 0.0903092600000000 Au
atom 6.1031639999999996 27.1694189900000005 0.0474354400000000 Au
atom 7.5238227599999998 29.6098593200000018 0.0296745900000000 Au
atom 10.3609135400000003 29.6331871599999985 0.0744857100000000 Au
atom 13.1926679199999999 29.6503553800000006 0.1148488900000000 Au
atom 15.9861678800000000 29.6190242099999992 0.0644808100000000 Au
atom 18.8134570600000011 29.5996222300000014 -0.0446194100000000 Au
atom 21.6306350999999992 29.6071396900000003 0.0202310700000000 Au
atom 24.4490125599999999 29.6025447700000015 -0.0026307700000000 Au
atom 27.2171971100000007 29.6259381899999994 0.0018781300000000 Au
atom 1.8362758400000001 29.6534283099999989 0.0076121400000000 Au
atom 4.6750857899999998 29.6172558499999994 0.0220628500000000 Au
atom 8.9061602499999992 32.1032065899999992 -0.0032560000000000 Au
atom 11.7325067900000004 32.1287471799999977 -0.0070753500000000 Au
atom 14.5144629399999996 32.1038848399999992 0.0211106700000000 Au
atom 17.3665293399999996 32.0622002699999982 -0.0437121900000000 Au
atom 20.2092290699999992 32.0639436499999988 0.0276628000000000 Au
atom 23.0554208100000011 32.1339735600000012 -0.0140000700000000 Au
atom 25.8514390799999987 32.0901232499999978 0.0459298200000000 Au
atom 0.4411083200000000 32.0814106799999976 0.0100246900000000 Au
atom 3.2859436799999999 32.0888657699999982 -0.0569334500000000 Au
atom 6.1155477300000003 32.0542788200000004 0.0182618600000000 Au
atom 7.4932840299999999 34.6026269500000012 0.0135217000000000 Au
atom 10.3139348700000006 34.5818961900000019 0.0126579500000000 Au
atom 13.1312440600000002 34.5807434000000029 -0.0234491900000000 Au
atom 15.9588722700000005 34.5222915800000010 0.1185102100000000 Au
atom 18.7938473799999990 34.5676246700000007 0.0069820900000000 Au
atom 21.5973169200000008 34.5725862199999980 0.0394978600000000 Au
atom 24.4120986400000000 34.6079404400000001 -0.0683204800000000 Au
atom 27.2416366299999986 34.5886289099999971 -0.0105100300000000 Au
atom 1.8399054900000000 34.5548648999999983 0.0537417600000000 Au
atom 4.6685732800000004 34.5418136199999992 0.0405424300000000 Au
atom 8.8983673999999997 37.0608606899999984 0.0065043100000000 Au
atom 11.7422774899999993 37.0730957199999978 0.0104860200000000 Au
atom 14.5689093100000004 37.0035570200000024 -0.0318610300000000 Au
atom 17.3497145199999991 37.0373337899999981 0.0318499700000000 Au
atom 20.1719502400000010 37.0340758800000032 0.1491223300000000 Au
atom 22.9919066600000015 37.0577585400000018 -0.0206331400000000 Au
atom 25.8434841499999983 37.0677729700000000 -0.0212027400000000 Au
atom 0.4379222600000000 37.0442072900000028 0.0059674200000000 Au
atom 3.2616415100000000 37.0268169599999979 -0.0013510700000000 Au
atom 6.0674314100000002 37.0067771100000016 0.0318590200000000 Au
atom 7.4961023100000004 -0.0085180900000000 0.0622134100000000 Au
atom 10.3548860499999993 0.0141064700000000 0.1127266100000000 Au
atom 13.1688834099999994 0.0053514400000000 0.0614320200000000 Au
atom 15.9568674599999998 0.0125650300000000 0.0994478000000000 Au
atom 18.7985675900000011 0.0398479400000000 0.0867403200000000 Au
atom 21.5984184600000013 0.0128462300000000 0.0716033000000000 Au
atom 24.4400311200000004 0.0141675300000000 -0.0011256400000000 Au
atom 27.2462852200000007 0.0267540700000000 0.1343738800000000 Au
atom 1.8593520500000000 0.0100685800000000 0.1564113600000000 Au
atom 4.6972207499999996 0.0195848000000000 0.0748845000000000 Au
atom 8.9282522699999998 2.4527452200000002 0.1153391400000000 Au
atom 11.7609324599999994 2.4581453899999999 0.1351157400000000 Au
atom 14.5700207899999992 2.4743842500000000 0.0701662600000000 Au
atom 17.3892359799999987 2.4880172800000002 0.1284169400000000 Au
atom 20.2081948500000017 2.4958600000000000 0.0910189700000000 Au
atom 23.0045347599999985 2.4765676200000000 0.1062652000000000 Au
atom 25.8349015599999987 2.4725572100000002 0.0776154100000000 Au
atom 0.4819177900000000 2.4629480699999999 0.0292258800000000 Au
atom 3.3090907000000001 2.4574089899999998 0.1435811500000000 Au
atom 6.1089004800000000 2.4770068599999999 0.0705146100000000 Au
atom 7.5330672999999999 4.9105090699999998 -0.0624691600000000 Au
atom 10.3224818200000001 4.8758434399999997 0.1190790200000000 Au
atom 13.1060517300000008 4.9179097299999999 0.0341356100000000 Au
atom 15.9633644799999992 4.9528945300000000 0.1180473500000000 Au
atom 18.7780853199999989 4.9399583800000002 0.0909479800000000 Au
atom 21.5526246999999991 4.9798992699999998 0.1739060800000000 Au
atom 24.4076679500000004 4.9364738399999997 0.0816613800000000 Au
atom 27.2206962200000007 4.9232287499999998 0.1335752100000000 Au
atom 1.8777468100000001 4.9365132999999997 0.0822398400000000 Au
atom 4.7369699799999996 4.9073792500000000 0.0947065200000000 Au
atom 8.9494212599999994 7.4042177400000000 0.0180828100000000 Au
atom 11.7635068799999996 7.4013270899999997 0.0572185100000000 Au
atom 14.5606216199999992 7.4063018700000001 0.0117406500000000 Au
atom 17.3623002299999989 7.4188166899999999 0.0628121500000000 Au
atom 20.1548337599999989 7.4248510799999998 0.0705525800000000 Au
atom 23.0020979700000012 7.4143329700000002 0.0753924000000000 Au
atom 25.8093139899999997 7.3968229200000000 0.1239400900000000 Au
atom 0.4380019400000000 7.3613661500000003 0.0497386900000000 Au
atom 3.2615534899999998 7.3865992499999997 0.0191377500000000 Au
atom 6.1199095300000002 7.4150469299999999 0.0771742500000000 Au
atom 7.5211870999999997 9.8687933000000001 0.0269921700000000 Au
atom 10.3087167999999991 9.9112274100000004 0.0930935800000000 Au
atom 13.1761865300000007 9.8642875700000001 0.0363593700000000 Au
atom 16.0026114700000015 9.8967477000000006 0.1396099000000000 Au
atom 18.7843342799999995 9.8757146999999996 0.0560588300000000 Au
atom 21.5672138800000006 9.8440172900000000 0.0201936300000000 Au
atom 24.4289708700000006 9.8803341600000003 0.0571056600000000 Au
atom 27.2349032000000015 9.8808139500000003 0.0372758400000000 Au
atom 1.8666104600000000 9.8463314400000002 0.0016307100000000 Au
atom 4.6694446899999997 9.8636466800000004 -0.0094421700000000 Au
atom 8.8995589400000004 12.3594861399999996 -0.0207886900000000 Au
atom 11.7467026299999997 12.3653265999999995 -0.0312649600000000 Au
atom 14.5683725600000002 12.3464655000000008 0.0652398600000000 Au
atom 17.4672780000000003 12.4943214800000000 -0.0113860000000000 Au
atom 20.1661851299999988 12.3573740599999997 -0.0421325800000000 Au
atom 23.0052514799999983 12.2523137799999997 0.0378925200000000 Au
atom 25.8033168900000014 12.3289326999999993 0.0615652200000000 Au
atom 0.4599375300000000 12.2982300400000000 0.0454511100000000 Au
atom 3.2307856799999999 12.3509596199999994 0.0437805000000000 Au
atom 6.0550034799999999 12.2947784999999996 -0.0729736800000000 Au
atom 7.5228364900000004 13.1277553499999993 2.6775741800000001 Au
atom 10.3201306200000005 13.2206692199999996 2.4941340400000001 Au
atom 13.1485159399999993 13.1656580099999996 2.6690221599999999 Au
atom 15.9507079899999997 13.1590925799999994 2.6399927100000000 Au
atom 18.7639994799999990 13.2137095000000002 2.7458170900000001 Au
atom 21.5714540399999990 13.1874171600000007 2.6622873600000001 Au
atom 24.4199312699999993 13.2036735899999993 2.8449241600000001 Au
atom 27.2285875299999987 13.2660745599999998 2.5632059200000001 Au
atom 1.8408839200000000 13.1899220100000001 2.7481977099999999 Au
atom 4.6620415399999997 13.1801724900000004 2.6466208099999999 Au
atom 8.9203797199999997 15.6317606900000001 2.6302757799999998 Au
atom 11.7195697600000006 15.6167104200000004 2.5749263199999999 Au
atom 14.5229386700000003 15.6274745300000006 2.5884406499999999 Au
atom 17.3736190099999988 15.6236779600000002 2.5828240800000000 Au
atom 20.2163010599999993 15.6579339900000001 1.8645582500000000 Au
atom 22.8972810899999999 15.6267969400000002 2.7826291400000001 Au
atom 25.7005559599999991 15.6859804599999997 1.8187118600000001 Au
atom 0.4315331600000000 15.6607053700000005 2.5271158200000001 Au
atom 3.3086523300000001 15.6481003399999992 2.6035250400000001 Au
atom 6.1022212199999997 15.6085853399999994 2.6748800500000001 Au
atom 7.5103069400000004 18.0911946400000012 2.6390741900000001 Au
atom 10.3306814199999994 18.0980452900000017 2.6841242799999998 Au
atom 13.1787871600000006 18.0779898400000008 2.7202501899999998 Au
atom 16.0055178299999987 18.0948938699999999 2.6513102200000001 Au
atom 18.7957135599999994 18.0782723599999997 2.7004743499999999 Au
atom 21.6101963999999995 18.0166392399999999 2.5564465500000000 Au
atom 24.4162111099999990 18.0620027500000013 2.7937666000000001 Au
atom 27.2451010300000007 18.0927058800000005 2.5986153600000002 Au
atom 1.8671604200000000 18.1140394899999997 2.6905256999999998 Au
atom 4.7034074900000000 18.0953077600000007 2.6225666099999998 Au
atom 8.9187685099999996 20.5778169200000001 2.7959502899999999 Au
atom 11.7234736799999997 20.6029646299999989 2.6170741400000002 Au
atom 14.5603825899999997 20.5825427599999990 2.6601435599999999 Au
atom 17.4014843200000016 20.5958802900000002 2.6986707499999998 Au
atom 20.2226136499999996 20.5481838699999990 2.6672076699999998 Au
atom 23.0261298500000002 20.5195709800000010 2.6674669500000001 Au
atom 25.8172649999999990 20.5606400700000016 2.6934848599999999 Au
atom 0.4722303900000000 20.6197647400000008 2.6459412800000002 Au
atom 3.2872733900000002 20.5814277600000004 2.7132854399999999 Au
atom 6.0777822900000000 20.5740377999999993 2.6851340800000001 Au
atom 7.5077913299999999 23.0081361700000002 2.6638883400000002 Au
atom 10.3555603299999994 23.0645020999999986 2.6712301799999998 Au
atom 13.1459591200000006 23.0875031399999990 2.6594602599999999 Au
atom 16.0056022599999999 23.1043386700000006 2.6049980499999998 Au
atom 18.7960579199999991 23.0791594400000015 2.7358354800000000 Au
atom 21.6468331099999993 23.0577174000000014 2.5788224999999998 Au
atom 24.3920018499999998 23.0301625700000017 2.7476061000000001 Au
atom 27.2085059899999990 23.0575736499999984 2.7123939199999998 Au
atom 1.8577378000000000 23.0420187600000013 2.7097790499999999 Au
atom 4.7019600400000003 23.0489898199999992 2.7003978300000000 Au
atom 8.9169060099999999 25.5415775499999995 2.7296220800000000 Au
atom 11.7047413200000001 25.5883635500000004 2.6647119500000001 Au
atom 14.5399683900000003 25.4893868800000014 2.6782321300000000 Au
atom 17.3274473200000010 25.5518338500000013 2.6966327400000001 Au
atom 20.1287859299999994 25.5754020500000010 2.6179145799999999 Au
atom 23.0011920900000000 25.5605555500000001 2.6829195800000001 Au
atom 25.8168480100000011 25.5188877800000000 2.7020511599999999 Au
atom 0.4499159300000000 25.5239950200000010 2.7174405099999999 Au
atom 3.2657850499999999 25.5524753500000017 2.7723798500000001 Au
atom 6.1225754400000003 25.4921772500000010 2.7372132800000002 Au
atom 7.4551344700000000 28.0070107600000000 2.6351180200000002 Au
atom 10.2927897300000009 28.0624385200000006 2.7803644900000002 Au
atom 13.1441945300000000 27.9649455300000014 2.6767003800000002 Au
atom 15.9412938099999995 27.9783346900000005 2.7300230499999998 Au
atom 18.7659713799999999 28.0159502499999995 2.6228556500000000 Au
atom 21.6282441600000013 27.9793335899999995 2.7428920500000000 Au
atom 24.4472224199999992 28.0062412199999997 2.6524960499999999 Au
atom 27.2468071999999992 28.0136109299999987 2.6681201099999998 Au
atom 1.8277395599999999 28.0155341000000000 2.6431936100000000 Au
atom 4.6666806100000002 27.9902606700000014 2.6942301199999998 Au
atom 8.8898671999999994 30.4328529100000011 2.6455285100000001 Au
atom 11.7379463699999995 30.4950142900000003 2.6194699099999998 Au
atom 14.5753665500000000 30.4630228800000005 2.6359242200000002 Au
atom 17.3734944999999996 30.4248028099999992 2.6374695300000002 Au
atom 20.2197801400000010 30.4336134499999993 2.6005550999999998 Au
atom 23.0233378799999997 30.4451444000000002 2.5991499700000000 Au
atom 25.8158576800000006 30.4929154099999984 2.6351084400000002 Au
atom 0.4049688500000000 30.4847887100000001 2.6457182499999998 Au
atom 3.2236445499999999 30.4730643199999989 2.5862504999999998 Au
atom 6.0728820099999998 30.4939033500000001 2.6238019499999998 Au
atom 7.4770630200000001 32.9592043899999965 2.5922019399999998 Au
atom 10.3259514299999999 32.9236246899999969 2.6764477499999999 Au
atom 13.1553488000000005 32.9200847199999984 2.6068433999999998 Au
atom 15.9923135799999994 32.9085038400000016 2.7265564800000002 Au
atom 18.7661433100000004 32.8840871399999983 2.5757032600000000 Au
atom 21.6037039200000009 32.8838470999999970 2.6979989999999998 Au
atom 24.3931361699999982 32.9683520099999967 2.5588680199999998 Au
atom 27.2271467399999985 32.9464678800000002 2.6788269599999999 Au
atom 1.8560271900000000 32.9334605199999970 2.6250312800000000 Au
atom 4.6418215399999996 32.9170928599999968 2.5489971400000000 Au
atom 8.9294971099999998 35.4109600800000024 2.6203696299999999 Au
atom 11.7007704500000003 35.3770970699999978 2.5899403200000002 Au
atom 14.5571125800000001 35.3633090300000035 2.5961983200000001 Au
atom 17.4089126299999997 35.3725664999999978 2.6067042800000002 Au
atom 20.2105511100000008 35.3450535799999983 2.6770611999999998 Au
atom 23.0260276200000007 35.3583775399999993 2.6174208299999999 Au
atom 25.8239056600000012 35.4050616600000012 2.5588149599999999 Au
atom 0.4653670200000000 35.4131054200000008 2.6478685400000002 Au
atom 3.2652164799999999 35.4135285099999990 2.6111234300000001 Au
atom 6.0614392600000002 35.3978954600000009 2.6691742700000001 Au
atom 7.4994501400000004 37.8328487599999974 2.5892239799999999 Au
atom 10.3489551100000003 37.8397763299999994 2.6952091600000001 Au
atom 13.1860856000000002 37.8004776699999994 2.5874504800000002 Au
atom 15.9821137800000006 37.8450293699999989 2.7165862299999999 Au
atom 18.7765102599999985 37.8827134599999980 2.6566119300000000 Au
atom 21.5872482900000016 37.8360532399999983 2.7095063100000001 Au
atom 24.4080245299999987 37.8617396699999986 2.5699470099999999 Au
atom 27.2528450999999983 37.8562734599999970 2.6910226200000000 Au
atom 1.8651456500000001 37.8629963099999998 2.6250713100000000 Au
atom 4.6999393100000004 37.8742533799999990 2.7097092699999998 Au
atom 8.9427231799999998 0.8615029700000000 2.7705678100000002 Au
atom 11.7818722099999995 0.8115603800000000 2.6837358000000000 Au
atom 14.5937975899999994 0.8257925300000000 2.6614423000000000 Au
atom 17.3950681899999999 0.8885813900000000 2.7663821500000001 Au
atom 20.2081117799999994 0.8392726400000000 2.6827625500000001 Au
atom 23.0341247500000001 0.7951039100000000 2.6992869200000000 Au
atom 25.8383763199999983 0.8171037600000000 2.7299044800000001 Au
atom 0.4479655200000000 0.8909797699999999 2.7520803500000000 Au
atom 3.2545870200000002 0.8577381300000000 2.7692351300000002 Au
atom 6.1033562400000001 0.8426204800000000 2.6875202200000001 Au
atom 7.5248184900000004 3.3193347499999999 2.6061943599999999 Au
atom 10.3355003900000000 3.3041682300000002 2.7646800900000001 Au
atom 13.1456098499999996 3.3148540999999998 2.6901027900000001 Au
atom 15.9821524000000004 3.3405659399999998 2.6620860400000002 Au
atom 18.8064165900000013 3.3372307000000001 2.6967770700000000 Au
atom 21.6515693400000018 3.2808283700000000 2.7560560199999999 Au
atom 24.4513312099999993 3.3001412000000001 2.6797550299999999 Au
atom 27.2397828900000007 3.3124025300000000 2.7183881200000002 Au
atom 1.8736627299999999 3.3592401399999998 2.6524025400000002 Au
atom 4.6999009400000000 3.2875672900000001 2.7511993100000001 Au
atom 8.8891816499999994 5.8157491300000004 2.6219677899999998 Au
atom 11.7282457000000004 5.7758730800000002 2.6422521799999998 Au
atom 14.4583822699999995 5.7892750399999997 2.6506526400000001 Au
atom 17.3590733499999992 5.7817885100000002 2.7634806599999999 Au
atom 20.2040113300000002 5.8236405299999996 2.7142754800000000 Au
atom 23.0543350999999994 5.8038770000000000 2.6763561999999999 Au
atom 25.8340147500000015 5.8040207600000002 2.7531388400000001 Au
atom 0.4594216200000000 5.7896719499999998 2.7061416399999998 Au
atom 3.2838242200000001 5.7839736999999998 2.6694820899999998 Au
atom 6.0990831099999996 5.7727727299999998 2.7459627800000002 Au
atom 7.4856537799999998 8.2572957099999993 2.6734627999999998 Au
atom 10.3262411400000005 8.2559306100000001 2.6737526699999998 Au
atom 13.1097453900000005 8.2737680299999994 2.6960335799999999 Au
atom 15.9217493399999999 8.2254412000000006 2.6208663200000002 Au
atom 18.7569259600000002 8.2798795199999997 2.6756561900000002 Au
atom 21.5847504500000014 8.2486214100000002 2.6401077599999998 Au
atom 24.4054041800000014 8.2700486800000004 2.7690138200000001 Au
atom 27.2242605200000014 8.2709175300000002 2.6644348500000001 Au
atom 1.8974192500000000 8.2282348699999996 2.6641335300000000 Au
atom 4.6956073500000004 8.2840276900000003 2.6120867500000000 Au
atom 8.9316998200000004 10.7382197500000007 2.6875149000000000 Au
atom 11.7234748199999999 10.7537565199999996 2.6190892500000000 Au
atom 14.5467654799999995 10.7132476000000008 2.7041759700000001 Au
atom 17.3714330399999994 10.7373593700000001 2.6862067100000000 Au
atom 20.1558143100000002 10.7387990999999996 2.6131824600000000 Au
atom 23.0074326300000003 10.7230610899999999 2.6261945099999999 Au
atom 25.8554274699999986 10.7156337399999995 2.6010222100000000 Au
atom 0.4878360500000000 10.7246779399999994 2.6212694700000001 Au
atom 3.2820747500000000 10.7329310000000007 2.6360242899999999 Au
atom 6.0869934700000004 10.7230440100000006 2.5431127999999998 Au
atom 7.5394099700000003 13.0644130599999997 5.6993647799999998 Cl
atom 7.3159631500000000 15.9447756100000007 8.6856174100000008 Cl
atom 7.9767797500000004 13.1146336500000000 8.4086074100000001 Na
atom 8.1130861500000009 16.0326098200000011 5.8191440200000004 Na
atom 7.4336721600000004 18.9699675100000000 5.7734123700000000 Cl
atom 7.6380656099999999 21.6531170499999988 8.7342986299999996 Cl
atom 7.6000407499999998 18.8807034499999986 8.4862537299999996 Na
atom 7.2335976600000000 21.7665288500000003 5.8982727300000004 Na
atom 7.5043994800000000 24.5506140299999984 5.8453144999999997 Cl
atom 7.4795093799999997 27.2665889200000002 8.5894255600000005 Cl
atom 7.4860116200000002 24.5090567399999983 8.5318657200000008 Na
atom 7.5164596299999999 27.3341270600000001 5.8386036600000004 Na
atom 7.4588358399999999 30.0894852999999998 5.7126007300000001 Cl
atom 7.5489199200000003 32.9430132000000029 8.6109400500000000 Cl
atom 7.4762943399999999 30.1183548300000012 8.4412243700000005 Na
atom 7.5512266600000002 32.9244112700000002 5.8493661200000000 Na
atom 7.5091550399999996 35.7319615099999979 5.6953770199999996 Cl
atom 7.5052801400000000 38.5383833400000029 8.6111204099999998 Cl
atom 7.4661210400000000 35.7598064700000009 8.3965733999999994 Na
atom 7.4800633100000002 38.5070638299999999 5.7837561500000003 Na
atom 7.5025625199999997 1.8647777100000000 5.3348791200000001 Cl
atom 7.5080468600000003 4.6671932500000004 8.6878216599999991 Cl
atom 7.5535686599999998 1.8582593000000001 8.8540770900000005 Na
atom 7.4960703200000003 4.6521272900000001 5.9247567400000003 Na
atom 7.6133745399999997 7.4777483599999996 5.8277049600000002 Cl
atom 7.5598451100000004 10.3495337599999999 8.6153773800000000 Cl
atom 7.4644988699999999 7.4526659899999999 8.4379516900000002 Na
atom 7.3401205100000002 10.2128349899999993 5.8114343699999997 Na
atom 10.6165003599999999 13.0492443700000003 5.6959205400000004 Na
atom 12.6284948000000004 13.0084323400000006 5.5940020400000003 Cl
atom 10.4313588999999993 15.9095412799999991 8.5420331300000001 Na
atom 12.8408082599999993 15.9806668700000003 8.6336248199999996 Cl
atom 12.7909603500000006 13.0513089200000003 8.3010840500000000 Na
atom 10.4173995599999998 13.0976136800000003 8.5712146400000009 Cl
atom 12.9305039399999995 16.0098858899999996 5.8214690400000002 Na
atom 9.9144580799999993 16.0588470900000004 5.7083504100000004 Cl
atom 10.1746161399999995 19.0099926000000004 5.8246125500000003 Na
atom 12.7616751900000001 18.8434634099999982 5.6815641799999996 Cl
atom 10.0279229599999997 21.6878219200000011 8.4877957199999994 Na
atom 12.9129112700000004 21.6043061200000004 8.5035422000000001 Cl
atom 13.1473385000000000 18.8419383600000003 8.1821983700000001 Na
atom 10.0492439099999995 18.7505109800000014 8.6515636699999998 Cl
atom 12.8081632299999999 21.7821201900000005 5.7524359900000004 Na
atom 10.2007858599999999 21.7054319500000013 5.7658929099999998 Cl
atom 10.2485302800000007 24.5208826900000005 5.8336842600000001 Na
atom 12.9822284700000008 24.5359838500000009 5.7555949699999998 Cl
atom 10.2551383600000001 27.3106164800000002 8.4201920700000006 Na
atom 12.9668568200000003 27.4482635299999984 8.6531187900000006 Cl
atom 12.9168039100000005 24.5547934400000010 8.4016532700000006 Na
atom 10.2578085300000001 24.5020088800000018 8.7456309300000008 Cl
atom 13.0454941600000005 27.3018641500000001 5.8289415800000004 Na
atom 10.3058493099999993 27.2414756699999998 5.6980462300000001 Cl
atom 10.2359281400000004 30.0739103999999990 5.8075513000000001 Na
atom 13.0996834300000007 30.1505687299999998 5.3991048900000003 Cl
atom 10.3026692700000009 32.9431528699999987 8.3562812700000002 Na
atom 13.0944955299999997 32.9835729699999973 8.5155286799999992 Cl
atom 12.8901125899999993 30.2366485000000011 8.6054585199999991 Na
atom 10.1944453799999994 30.0894536799999983 8.5345452599999998 Cl
atom 13.1024493999999994 32.9547192899999999 5.7656295300000000 Na
atom 10.3096870400000000 32.8691355899999991 5.6594713299999997 Cl
atom 10.3474260499999993 35.7452195199999991 5.7204694199999997 Na
atom 13.0824075799999999 35.8451882800000021 5.7004546800000000 Cl
atom 10.3123410399999997 38.5118707399999991 8.2030990500000005 Na
atom 13.1705012900000007 38.7105316099999968 8.5605136399999999 Cl
atom 13.1438281099999994 35.6323232700000005 8.3235717000000005 Na
atom 10.3195840800000003 35.7387428899999975 8.4786836500000007 Cl
atom 13.2061483499999994 38.6463068099999987 5.7876969500000000 Na
atom 10.2909190699999993 38.5825798500000019 5.7827503099999999 Cl
atom 10.3111422000000008 1.9108696800000000 5.8123137299999996 Na
atom 13.1600605200000000 1.8864844700000001 5.7903725899999996 Cl
atom 10.3305043500000000 4.6477372800000003 8.1143422500000000 Na
atom 13.1060446000000006 4.7113827500000003 8.6921004499999999 Cl
atom 13.1262992399999998 1.8802475599999999 8.4027673000000007 Na
atom 10.3502328499999994 1.8325205600000001 8.5937544500000005 Cl
atom 13.1025309799999992 4.6920748000000003 5.8342928900000004 Na
atom 10.3222939500000006 4.6746842199999996 6.1826796899999996 Cl
atom 10.2505615999999993 7.4027079699999998 5.8289435799999998 Na
atom 13.0385389499999995 7.4374828800000001 5.7036415700000003 Cl
atom 10.5388763500000007 10.2452922500000003 8.3692786300000002 Na
atom 12.7263586899999996 10.1759740000000001 8.5405519999999999 Cl
atom 13.0777445599999993 7.4187536800000000 8.4407891399999997 Na
atom 10.2612084699999997 7.4822171900000001 8.6666453099999998 Cl
atom 13.1942297199999992 10.1708846600000005 5.7735268299999998 Na
atom 10.1879928599999996 10.2360898599999999 5.6362976099999997 Cl
atom 15.4978518100000002 13.0125375800000000 6.2463169299999999 Na
atom 18.1615604200000007 11.8822698300000003 5.9224037300000001 Cl
atom 15.5653064099999998 15.7519333899999996 8.4959052899999996 Na
atom 18.2480309100000007 14.9874417700000002 9.4355461399999996 Cl
atom 18.5970103800000004 13.5190097999999992 8.6054689500000006 Na
atom 15.6117346900000005 12.9504132799999994 8.3791405999999995 Cl
atom 18.3738700699999988 16.0613533900000007 6.1958327400000002 Na
atom 15.5442583100000000 15.8484278799999991 5.5668571399999998 Cl
atom 15.5531316200000003 18.9431291399999999 5.5650108800000000 Na
atom 18.9231361599999985 18.8163793199999994 5.8854649200000004 Cl
atom 15.6378097500000006 21.8237118499999987 7.9553718599999996 Na
atom 18.5285437799999997 21.5654404900000003 8.3884678499999996 Cl
atom 18.2966857500000017 19.4013217500000010 8.2722435599999997 Na
atom 15.4522331499999996 18.8221803799999989 8.2666547200000000 Cl
atom 18.9381421699999990 21.7023229899999990 5.6681658099999996 Na
atom 15.5237003900000001 21.7905363600000008 5.6667897299999996 Cl
atom 15.8990629299999995 24.6538239499999996 5.9272632600000001 Na
atom 18.7712772100000009 24.7888154900000011 5.8974484900000004 Cl
atom 15.7550894600000007 27.5266866700000001 8.6624868500000005 Na
atom 18.7209034400000007 27.6233724699999996 8.6030281100000003 Cl
atom 18.6777815199999999 24.6260089999999998 8.6413518899999993 Na
atom 15.7093525300000003 24.5541760700000005 8.4183851099999991 Cl
atom 18.6517276999999986 27.5729570099999997 5.9052565299999999 Na
atom 15.7857598800000005 27.3996798999999989 5.4058130499999999 Cl
atom 15.8149414299999993 30.2204110700000008 5.8060436299999996 Na
atom 18.5599097200000003 30.2994852399999992 5.6631371399999999 Cl
atom 15.8370078299999992 32.9706308000000021 8.1334024500000002 Na
atom 18.5938246499999984 33.1078539199999966 8.6479569999999999 Cl
atom 18.7563389399999991 30.4132023300000007 8.3595035400000004 Na
atom 15.6917799599999999 30.2567147799999994 8.6306056499999997 Cl
atom 18.7615985999999992 33.0388159999999971 5.7596704299999999 Na
atom 15.9086148200000004 32.9902444700000004 5.8365555699999998 Cl
atom 15.9226685099999994 35.7900044499999979 5.7625001500000002 Na
atom 18.8117331599999993 35.8913594599999968 5.8406621500000000 Cl
atom 15.8855176500000006 38.5152252500000003 8.3913852200000001 Na
atom 18.7492652900000003 39.9570719600000004 8.6443144499999995 Cl
atom 18.6487766800000010 35.7990919599999984 8.2835423000000006 Na
atom 15.9247551000000005 35.7652183200000024 8.5082568700000003 Cl
atom 18.7183714300000013 38.5908137600000032 5.8653783500000003 Na
atom 16.0044245399999987 38.5618965000000031 5.7078783499999997 Cl