#===============================================================================
# Created using the Atomic Simulation Environment (ASE)

# Sat Nov  1 21:48:36 2025

#=======================================================
lattice_vector 28.1999999999999993 0.0000000000000000 0.0000000000000000 
lattice_vector 0.0000000000000000 39.4799999999999969 0.0000000000000000 
lattice_vector 0.0000000000000000 0.0000000000000000 62.3296083400000001 
atom 7.5452162700000001 14.8321307600000001 0.0435023500000000 Au
atom 10.3278844900000006 14.8831530900000004 -0.0112356000000000 Au
atom 13.1459666800000008 14.8109612700000000 0.0617715900000000 Au
atom 15.9609484899999998 14.8154990899999994 0.0355527700000000 Au
atom 18.7596112599999998 14.7907509400000006 0.0651402800000000 Au
atom 21.5873601499999985 14.8470129899999996 -0.0419724100000000 Au
atom 24.4000461599999987 14.8112434999999998 0.0727852300000000 Au
atom 27.2457904400000004 14.7245271300000002 0.1033939400000000 Au
atom 1.9019082199999999 14.7980721600000003 0.0084460400000000 Au
atom 4.6688786799999997 14.8188982800000009 -0.0178619600000000 Au
atom 8.9134685600000001 17.2466869299999992 0.0393278900000000 Au
atom 11.7340691400000008 17.2681389799999998 0.0060596400000000 Au
atom 14.5437274900000002 17.2811415500000010 0.0468453100000000 Au
atom 17.3711614800000014 17.2932111599999985 0.0165359400000000 Au
atom 20.2095259100000000 17.2725966100000008 0.0254876300000000 Au
atom 23.0395803500000014 17.3017617299999991 0.0388990300000000 Au
atom 25.8279121600000003 17.2795295099999997 0.0291868700000000 Au
atom 0.4632437100000000 17.2396944300000001 -0.0191493300000000 Au
atom 3.2795933800000001 17.2997231599999992 0.0309363400000000 Au
atom 6.1025069800000002 17.3052877100000018 0.0433437400000000 Au
atom 7.5041988699999997 19.7447414099999996 0.1042520000000000 Au
atom 10.2752260900000003 19.7132338599999990 0.0582219300000000 Au
atom 13.1790838699999995 19.7561220499999983 0.0682942100000000 Au
atom 15.9503870699999997 19.7703226200000017 0.0780348100000000 Au
atom 18.7811163299999997 19.7662150700000012 0.1323365800000000 Au
atom 21.6079069900000000 19.7613787099999989 0.0634521900000000 Au
atom 24.4559310100000005 19.7550244600000013 0.1229183800000000 Au
atom 27.2474392099999996 19.7818700000000014 0.1368289700000000 Au
atom 1.8308923300000000 19.7455334600000008 0.1588159800000000 Au
atom 4.6831741899999999 19.7685019799999999 0.0487548100000000 Au
atom 8.9266795900000009 22.2199499100000004 0.1193905200000000 Au
atom 11.7601729000000006 22.2491735199999994 0.0516800900000000 Au
atom 14.5473891299999991 22.1864475699999986 0.0398159200000000 Au
atom 17.3856489399999994 22.2313069200000015 0.0661205900000000 Au
atom 20.1895012099999995 22.2184934500000004 0.0746858100000000 Au
atom 23.0463033899999985 22.2274621500000009 0.0674026800000000 Au
atom 25.8402758000000006 22.1892747399999983 0.0808389800000000 Au
atom 0.4994159700000000 22.2720384299999985 -0.1535481800000000 Au
atom 3.2718991800000001 22.2191061099999985 0.1032873200000000 Au
atom 6.0859280199999999 22.2337003600000003 0.0836034900000000 Au
atom 7.5085762200000001 24.6746502599999999 0.0848371900000000 Au
atom 10.3092125600000006 24.6808503399999992 0.1252494200000000 Au
atom 13.1601756000000005 24.6723955500000010 0.0865963400000000 Au
atom 15.9745288100000007 24.6728986799999994 0.0956810800000000 Au
atom 18.7999074999999998 24.7053330600000010 0.0889811700000000 Au
atom 21.6066725099999992 24.6708456699999985 0.1117158000000000 Au
atom 24.4408797100000008 24.6989437199999990 0.0949735800000000 Au
atom 27.2796766499999990 24.6616310299999988 0.1320174500000000 Au
atom 1.8460062800000001 24.6651038699999994 0.1244868200000000 Au
atom 4.6805498500000002 24.6883246000000014 0.1150662300000000 Au
atom 8.9517640000000007 27.1472090399999999 0.0930254500000000 Au
atom 11.7102930099999991 27.1337700999999996 0.0945253600000000 Au
atom 14.5330079399999992 27.1623069900000012 0.0895040800000000 Au
atom 17.3541719699999994 27.1496492799999984 0.0557864700000000 Au
atom 20.2034532599999999 27.1227576200000016 0.0824952200000000 Au
atom 23.0347702100000014 27.1402412499999990 0.0686224000000000 Au
atom 25.8270574599999989 27.2394020700000006 0.0654110400000000 Au
atom 0.4701945600000000 26.9200240000000015 0.0819759800000000 Au
atom 3.2908162999999999 27.1597070900000013 0.0308026600000000 Au
atom 6.0724854500000003 27.1403571499999998 0.0782320300000000 Au
atom 7.4872299599999996 29.5713707700000015 -0.0203321900000000 Au
atom 10.3475749300000004 29.6116252499999995 0.0676635200000000 Au
atom 13.1588962299999999 29.6456525999999982 0.0460864100000000 Au
atom 15.9722222899999995 29.6343819300000000 0.0933423200000000 Au
atom 18.7963153200000015 29.6291609300000012 0.0133572000000000 Au
atom 21.6068066600000002 29.6084384900000011 0.0552543000000000 Au
atom 24.4388349799999993 29.6069131600000013 0.0230468400000000 Au
atom 27.2722250899999992 29.3984675399999986 0.1745875300000000 Au
atom 1.8727884600000000 29.6112944899999988 0.0160541900000000 Au
atom 4.7099503499999997 29.6073441899999992 0.0627625900000000 Au
atom 8.9350742499999996 32.0703821199999979 0.0685678700000000 Au
atom 11.7040552699999996 32.0984625800000032 0.0110427800000000 Au
atom 14.5553143600000006 32.0930484699999994 0.0022782700000000 Au
atom 17.3829615699999991 32.1095998199999997 0.0098001100000000 Au
atom 20.2351968400000004 32.0872198499999968 0.0494775700000000 Au
atom 23.0213229800000008 32.0751694599999979 0.0341805800000000 Au
atom 25.8317393899999992 32.1501208899999966 0.0318676200000000 Au
atom 0.4550215300000000 32.0075207399999968 0.2431211400000000 Au
atom 3.2610852900000000 32.0851134500000015 -0.0174656900000000 Au
atom 6.1005894899999999 32.1047331700000029 0.0251819600000000 Au
atom 7.5093573999999998 34.6261376900000002 0.0308810200000000 Au
atom 10.3072998200000008 34.5765235599999983 0.0703766300000000 Au
atom 13.1388479399999998 34.5519023100000027 0.0004480100000000 Au
atom 15.9608605200000007 34.5565705200000011 0.0559475100000000 Au
atom 18.7781118800000009 34.5581462900000034 -0.0221767200000000 Au
atom 21.6372610300000012 34.5661200899999983 0.1006408300000000 Au
atom 24.4446367799999997 34.5991808300000017 -0.0092821100000000 Au
atom 27.2548571200000005 34.4694979200000020 0.0504115900000000 Au
atom 1.8632602300000001 34.5877235600000006 -0.0822945100000000 Au
atom 4.6735768200000001 34.5354645600000012 0.0646552400000000 Au
atom 8.9089348099999999 37.0494547600000033 0.0440182900000000 Au
atom 11.7754136900000006 37.0339506899999975 -0.0422034500000000 Au
atom 14.7392819100000008 37.0340073400000023 0.0913965800000000 Au
atom 17.5426212200000009 37.0335787799999991 -0.0793336400000000 Au
atom 20.2594102499999984 37.0666057099999975 0.1725604900000000 Au
atom 22.9598360600000007 37.0448469199999977 0.1392563000000000 Au
atom 25.8842798700000003 37.0837298300000029 -0.0054769600000000 Au
atom 0.4473464000000000 37.1318701799999999 0.2883069900000000 Au
atom 3.1859089799999998 37.0231487900000005 -0.0136524700000000 Au
atom 5.9332657600000003 37.0386919000000034 0.0751551800000000 Au
atom 7.5731445199999996 0.0662528700000000 -0.1056697300000000 Au
atom 10.4973467599999992 0.0472452000000000 0.0014663200000000 Au
atom 13.1753779000000009 0.0774691800000000 -0.1507577300000000 Au
atom 15.7764689400000009 0.0249487200000000 0.0543746900000000 Au
atom 18.9411151599999990 0.0149843500000000 0.0148115700000000 Au
atom 21.6065032600000002 0.0139460300000000 0.1315259900000000 Au
atom 24.4133832700000006 0.0367111900000000 0.1879286700000000 Au
atom 27.1411100500000018 0.1133374000000000 0.0946409500000000 Au
atom 1.8872854299999999 0.0681149100000000 -0.1571474900000000 Au
atom 4.7074778200000003 0.0194768500000000 0.2148832600000000 Au
atom 8.9044455300000003 2.4907528100000000 0.0523227700000000 Au
atom 11.6907674299999993 2.4891877400000002 0.0999522400000000 Au
atom 14.5429630299999992 2.4833615299999998 0.0935099100000000 Au
atom 17.3935240299999982 2.5025954000000001 0.0825177900000000 Au
atom 20.1754435600000015 2.4771283700000000 0.0767996900000000 Au
atom 23.0195812400000008 2.4661196699999999 0.1121433500000000 Au
atom 25.8657847799999985 2.4951532099999998 0.1266138100000000 Au
atom 0.4353204100000000 2.6484683800000002 0.0742527000000000 Au
atom 3.2799103800000000 2.5048367300000001 0.1068026800000000 Au
atom 6.0810680699999997 2.4925233599999999 0.0530797800000000 Au
atom 7.5030539500000000 4.9571802700000003 0.0977806100000000 Au
atom 10.3138367500000001 4.9333817800000004 0.0957739600000000 Au
atom 13.1508629100000007 4.9609846600000003 0.1094808500000000 Au
atom 15.9549983999999991 4.9536754600000004 0.0862935700000000 Au
atom 18.7998631699999983 4.9360328500000001 0.1032928700000000 Au
atom 21.6404185300000016 4.9249926100000003 0.0958878700000000 Au
atom 24.4166917199999993 4.9648521700000003 0.0878016500000000 Au
atom 27.2612306500000017 5.0406967299999996 0.1271232700000000 Au
atom 1.8962886800000001 5.0157469800000003 0.1299845500000000 Au
atom 4.6774708100000000 4.9397937499999998 0.0989914000000000 Au
atom 8.8884733300000001 7.4304881800000002 0.0780872300000000 Au
atom 11.7003129599999998 7.4163530299999998 0.0400507500000000 Au
atom 14.5596765900000005 7.4109632599999999 0.0758676300000000 Au
atom 17.3951778200000007 7.4139625499999999 0.0761847700000000 Au
atom 20.1756769899999995 7.4108917700000001 0.0767476500000000 Au
atom 23.0229655099999988 7.4164375199999997 0.0597664400000000 Au
atom 25.8258616600000011 7.4382716000000002 -0.0169106900000000 Au
atom 0.4490374300000000 7.4000264299999996 0.3716491000000000 Au
atom 3.2673557899999999 7.4172115999999999 0.0519732300000000 Au
atom 6.1192898700000002 7.4180244899999996 0.0522413400000000 Au
atom 7.5298683100000003 9.8781063299999996 0.0570714100000000 Au
atom 10.3291931300000002 9.8821127299999993 -0.0045162500000000 Au
atom 13.1861709299999994 9.8607707500000004 0.0407865400000000 Au
atom 15.9694765000000007 9.9073656700000008 0.0144800100000000 Au
atom 18.7976475600000015 9.8548048900000005 0.0561186100000000 Au
atom 21.5863616699999987 9.8939293300000006 0.0122367400000000 Au
atom 24.3919292699999986 9.8706541399999992 0.0398464300000000 Au
atom 27.2420305099999993 9.6314072700000004 -0.0715612500000000 Au
atom 1.8616539200000000 9.8917762400000004 0.1018680000000000 Au
atom 4.6642929100000003 9.8802472500000000 -0.0252403400000000 Au
atom 8.9226018099999997 12.3482020800000001 -0.0122256900000000 Au
atom 11.7294210600000000 12.3216671299999998 0.0444373800000000 Au
atom 14.5375064599999995 12.3741449800000005 -0.0001550100000000 Au
atom 17.3894020500000011 12.3460567599999997 0.0348329500000000 Au
atom 20.1664631900000018 12.3539132499999997 0.0692279300000000 Au
atom 22.9960015800000015 12.3411413799999998 0.0187898700000000 Au
atom 25.8685404100000014 12.3287604500000008 0.0114841800000000 Au
atom 0.4344647400000000 12.3079487099999998 0.1024541100000000 Au
atom 3.2745791600000000 12.3469875899999995 0.0209850700000000 Au
atom 6.0796431799999997 12.3494107900000003 0.0097593300000000 Au
atom 7.5183511699999999 13.2024355599999996 2.6747876000000002 Au
atom 10.3236772800000001 13.2034795900000006 2.5453118199999998 Au
atom 13.1707164900000002 13.2041044200000002 2.6971674399999999 Au
atom 15.9522438199999996 13.1874536100000004 2.5671686600000001 Au
atom 18.7562441299999989 13.2047201300000001 2.6691690399999999 Au
atom 21.5578425699999983 13.1577743199999997 2.5598166800000000 Au
atom 24.4187232600000002 13.1851096699999992 2.6891510400000000 Au
atom 27.2206049400000012 13.2595046300000003 2.6844378000000000 Au
atom 1.8481443200000001 13.1503662299999995 2.6899950200000000 Au
atom 4.6764837100000003 13.2023070899999997 2.5254512400000002 Au
atom 8.9438315100000008 15.6514673700000007 2.6334550499999998 Au
atom 11.7123767900000004 15.6358537399999999 2.6746991599999999 Au
atom 14.5566250999999998 15.6506419399999999 2.6333260699999999 Au
atom 17.3888831099999983 15.6366750099999994 2.6433583500000002 Au
atom 20.2024637100000000 15.6367031999999995 2.6330589899999999 Au
atom 23.0021188899999984 15.6760324499999992 2.6818118900000001 Au
atom 25.8193708499999985 15.6920879000000006 2.6872035099999998 Au
atom 0.4324743800000000 15.6244419200000006 2.4955092300000001 Au
atom 3.2762492200000000 15.6389004699999994 2.6313212400000001 Au
atom 6.0802719800000000 15.6410505799999999 2.6558999999999999 Au
atom 7.5275056600000001 18.0938462800000011 2.6545439200000001 Au
atom 10.3293551299999997 18.1169440100000010 2.6072911300000001 Au
atom 13.1376615300000008 18.0639046500000013 2.6595402300000002 Au
atom 15.9653053299999996 18.1019498799999994 2.6460071100000002 Au
atom 18.7786248100000002 18.1175312599999998 2.7084455300000001 Au
atom 21.6410720499999982 18.1332450300000012 2.6304147499999999 Au
atom 24.4131110900000010 18.0970344800000014 2.7074734600000001 Au
atom 27.2354155099999993 18.2648989700000008 2.6479665899999998 Au
atom 1.8615557400000000 18.0991174699999995 2.6886925200000000 Au
atom 4.6967321200000001 18.0953633499999995 2.6004747899999998 Au
atom 8.8742070399999999 20.5695315699999988 2.7086694499999999 Au
atom 11.7044835700000007 20.5979598599999996 2.6801520700000001 Au
atom 14.5441032999999997 20.5871125799999994 2.6922735200000001 Au
atom 17.3784621500000007 20.5405769499999984 2.6950273400000002 Au
atom 20.1882285099999983 20.5699697899999983 2.7068124999999998 Au
atom 23.0226313900000008 20.6038843900000010 2.6828523899999999 Au
atom 25.8337966100000003 20.6147295100000001 2.7057583200000002 Au
atom 0.4471673100000000 20.6115722099999985 2.6846617099999999 Au
atom 3.2642817399999999 20.5997405200000010 2.7215785000000001 Au
atom 6.0936104999999996 20.5721483499999991 2.7293263400000001 Au
atom 7.4737592399999997 23.0485462599999984 2.6878733399999999 Au
atom 10.3185116200000007 23.0593734099999992 2.7094757700000001 Au
atom 13.1394668899999996 23.0413102599999995 2.6726606600000000 Au
atom 15.9594759400000008 23.0713885800000007 2.6751108100000001 Au
atom 18.7696830800000001 23.0319272599999998 2.6733726700000000 Au
atom 21.6280246600000012 23.0427923800000016 2.6817657499999998 Au
atom 24.4263246100000018 23.0308551299999991 2.6845863900000002 Au
atom 27.2513395400000000 23.1281008999999997 2.6236953900000000 Au
atom 1.8830227799999999 23.0763551599999985 2.6928520499999999 Au
atom 4.6957165300000003 23.0496963299999997 2.6574181700000001 Au
atom 8.8949673800000006 25.5308059800000002 2.7103510399999999 Au
atom 11.7178808100000005 25.5117500399999990 2.6849015999999999 Au
atom 14.5772855000000003 25.5267871600000014 2.7085866699999999 Au
atom 17.3895481700000012 25.5372701900000010 2.7136077500000000 Au
atom 20.1592509900000003 25.5035810800000000 2.7261848700000000 Au
atom 23.0114106199999995 25.5492951800000014 2.6723577199999999 Au
atom 25.8298879200000009 25.4953079000000002 2.7712972499999999 Au
atom 0.4821882900000000 25.6036439800000011 2.6742229800000001 Au
atom 3.2485121200000000 25.5232020700000000 2.7039633900000002 Au
atom 6.1165181100000003 25.5379496099999983 2.7112819400000001 Au
atom 7.4880357599999998 27.9892738600000008 2.5800605800000000 Au
atom 10.3156183200000005 28.0135386500000010 2.6924632300000000 Au
atom 13.1504490500000006 27.9816742699999992 2.5971536600000000 Au
atom 15.9737863999999998 27.9890611699999994 2.7365289700000002 Au
atom 18.7702561500000016 27.9855531100000015 2.6554550899999998 Au
atom 21.5767883500000011 28.0148581400000012 2.6573427700000001 Au
atom 24.4443256700000013 27.9947739300000009 2.6192326700000002 Au
atom 27.2442282200000001 27.9562990499999984 2.5905321799999999 Au
atom 1.8643594800000001 27.9896050099999982 2.6078697100000001 Au
atom 4.7004609799999999 28.0159951900000017 2.6999095299999998 Au
atom 8.9048114900000002 30.4607290199999987 2.6205477699999999 Au
atom 11.7337589799999993 30.4827610100000008 2.6604055299999998 Au
atom 14.5914259099999999 30.4651834500000014 2.6335942299999999 Au
atom 17.3511115700000005 30.4793751499999992 2.6445137700000001 Au
atom 20.2062199400000004 30.4472676799999995 2.6720695999999999 Au
atom 22.9926320000000004 30.4550981999999983 2.6526797200000001 Au
atom 25.8191268399999991 30.4284236499999992 2.6899309800000002 Au
atom 0.4584925600000000 30.4267946999999985 2.6650198100000000 Au
atom 3.2879127100000001 30.4548331400000016 2.6457418800000001 Au
atom 6.0670692500000003 30.4616403099999999 2.6596620899999999 Au
atom 7.5054816000000004 32.9184235900000033 2.5687962000000000 Au
atom 10.3058158599999992 32.9127680900000001 2.6768108100000001 Au
atom 13.1583321099999999 32.9077984500000014 2.5540843000000000 Au
atom 15.9600460500000008 32.9063326599999968 2.6623497000000000 Au
atom 18.7761944599999993 32.9488311100000004 2.5863955600000001 Au
atom 21.6310895899999984 32.9444475999999966 2.6879178900000000 Au
atom 24.4253734999999992 32.9171563299999974 2.5935743800000002 Au
atom 27.2403262700000006 32.9085391699999974 2.3541606800000001 Au
atom 1.8696471400000001 32.9200507700000031 2.5521132999999998 Au
atom 4.6906136299999996 32.9225152499999965 2.6708174300000000 Au
atom 8.8897894199999996 35.3866926999999976 2.6654265599999998 Au
atom 11.7392816399999997 35.3819206200000025 2.6534610600000001 Au
atom 14.5331568299999994 35.3822909599999988 2.6322716499999999 Au
atom 17.3453800499999993 35.4100375000000014 2.6393175499999999 Au
atom 20.1825252999999982 35.4068125599999988 2.6672250000000002 Au
atom 23.0013498299999988 35.3920798300000001 2.6453552500000002 Au
atom 25.8438468199999996 35.4774024999999966 2.6926115700000000 Au
atom 0.4537633300000000 35.4154481699999977 2.6991553300000000 Au
atom 3.2744040100000000 35.3936944900000015 2.6237589300000002 Au
atom 6.1033553500000002 35.3990873300000004 2.6273810399999999 Au
atom 7.5946829700000000 37.8726031799999987 2.6931082100000001 Au
atom 10.6824641499999995 37.8618125400000025 2.8746003600000001 Au
atom 13.0742067399999993 37.8689428699999979 2.6200162699999998 Au
atom 15.7948994400000000 37.8486453399999974 2.4074907300000001 Au
atom 18.7576221600000004 37.8451997399999982 2.5719382799999999 Au
atom 21.5870955500000008 37.8296924099999998 2.6141371300000000 Au
atom 24.2102830299999994 37.8772370300000034 2.6677697500000002 Au
atom 27.1399522200000014 37.9635389800000027 2.4562315300000002 Au
atom 1.7928033999999999 37.8958542499999993 2.5571594700000002 Au
atom 4.4887214899999996 37.8348386700000034 3.0140155900000001 Au
atom 8.8893147199999998 0.8713283300000000 2.8438688600000002 Au
atom 11.6218333900000008 0.8397906900000000 2.6736283400000000 Au
atom 14.6331228499999995 0.8111326400000000 2.6797630300000002 Au
atom 17.3211349100000014 0.8225103700000000 2.8242783100000000 Au
atom 20.1745396399999990 0.8201196700000000 2.7160801399999999 Au
atom 22.9374207199999987 0.8457777700000000 2.6519196300000001 Au
atom 25.7993998799999993 0.7895103700000000 2.6625187900000000 Au
atom 0.3597403600000000 0.7757746400000000 2.5395698100000001 Au
atom 3.2946189499999998 0.8221157100000001 2.7907859899999998 Au
atom 6.0797165599999996 0.8138592600000000 2.6668607899999999 Au
atom 7.5006966400000001 3.3238944799999999 2.6910533700000001 Au
atom 10.3052209399999999 3.3153396100000001 2.7236399599999999 Au
atom 13.1696929500000000 3.2887692700000000 2.6889988599999999 Au
atom 15.9593977099999993 3.2959942600000001 2.6890006299999998 Au
atom 18.7770922499999990 3.3183962199999999 2.6612499199999999 Au
atom 21.6378705700000005 3.2669150500000002 2.6743235300000001 Au
atom 24.4449901599999997 3.3353322799999998 2.7219851099999999 Au
atom 27.2475119899999996 3.3944244499999998 2.6467605900000000 Au
atom 1.8873045700000000 3.3507769199999999 2.6483809200000001 Au
atom 4.6938702399999999 3.2840052900000001 2.6888344300000000 Au
atom 8.9336874000000002 5.7830208399999998 2.7296345000000000 Au
atom 11.7290645300000005 5.7939783299999998 2.7179479799999999 Au
atom 14.5450147699999999 5.8035338400000001 2.6965787600000000 Au
atom 17.3854667200000002 5.7732790400000003 2.7122873699999999 Au
atom 20.1855803999999992 5.7909119599999999 2.7135918900000000 Au
atom 23.0897455799999989 5.8163514899999997 2.7265674899999999 Au
atom 25.8040182499999986 5.8195388599999998 2.7501787499999999 Au
atom 0.4302925600000000 5.9174010299999997 2.6551602600000002 Au
atom 3.2831122399999999 5.7758336500000000 2.7183560099999999 Au
atom 6.0510782900000004 5.8040269100000002 2.7021779700000002 Au
atom 7.4895330800000002 8.2825962000000004 2.7308017800000002 Au
atom 10.3407344499999994 8.2404036900000008 2.6158760100000000 Au
atom 13.1484347400000008 8.2593074699999995 2.7255147900000001 Au
atom 15.9443756600000004 8.2442949900000002 2.6274631600000000 Au
atom 18.7973483100000003 8.2590698699999994 2.7103127300000001 Au
atom 21.6024135699999995 8.2336580799999997 2.6180508699999998 Au
atom 24.4283371000000002 8.2488676000000005 2.7162506300000002 Au
atom 27.2526539700000008 8.2519607199999996 2.4875558799999999 Au
atom 1.8668186800000000 8.2436229099999991 2.6148045099999999 Au
atom 4.7030184999999998 8.2245494000000008 2.6097047799999999 Au
atom 8.8628673599999992 10.7225214799999993 2.6441645000000000 Au
atom 11.7156109599999994 10.7349165699999993 2.6609828200000001 Au
atom 14.5476744000000000 10.7415141599999995 2.6605033800000002 Au
atom 17.3751573099999987 10.7166277700000006 2.6556112800000000 Au
atom 20.2047230300000003 10.7333221299999995 2.6769963899999998 Au
atom 22.9977445500000002 10.7145389000000009 2.6352438199999999 Au
atom 25.8191098900000000 10.7522045899999998 2.6457925699999998 Au
atom 0.4361802000000000 10.6858757299999994 2.6576355700000001 Au
atom 3.2744833099999999 10.7257721700000008 2.6138178999999999 Au
atom 6.0888107600000003 10.7147939599999997 2.6550050500000002 Au
atom 7.5046355199999999 13.1575715100000004 5.6974056400000004 Cl
atom 7.4789457900000000 15.9754047900000007 8.5099751599999998 Cl
atom 7.5179884699999997 13.1691213200000004 8.3602739899999996 Na
atom 7.5267336699999996 16.0142124899999985 5.7820683700000002 Na
atom 7.4990622199999999 18.8136690000000009 5.7622806500000001 Cl
atom 7.4897405600000004 21.6184132600000005 8.5863192399999999 Cl
atom 7.5082931899999998 18.8107472099999988 8.3905384400000003 Na
atom 7.4892019000000003 21.6494776299999998 5.8354468199999996 Na
atom 7.4925640600000003 24.4257455899999982 5.7326159700000003 Cl
atom 7.5016944099999998 27.2601355000000005 8.5695672799999993 Cl
atom 7.5052832000000000 24.4340103199999987 8.4284469200000007 Na
atom 7.4901713200000000 27.2131018900000008 5.8452028900000004 Na
atom 7.4973218499999996 30.0620803300000006 5.7108118000000001 Cl
atom 7.5126826199999996 32.8839047600000001 8.5895437000000001 Cl
atom 7.5025559299999998 30.0737693300000011 8.3486498200000003 Na
atom 7.4923977900000001 32.8786255799999978 5.8401702499999999 Na
atom 7.4963838899999997 35.7365074100000015 5.7061916100000003 Cl
atom 7.3986739400000001 38.5555755099999971 8.5737800600000007 Cl
atom 7.5055535700000000 35.7003879000000026 8.3361344200000005 Na
atom 7.6737628000000004 38.5485435599999988 5.7431080699999999 Na
atom 7.5263675699999997 1.8781333099999999 5.7386328400000002 Cl
atom 7.4914514199999998 4.7093370400000003 8.5737669200000006 Cl
atom 7.5653827400000004 1.8900517500000000 8.4017240399999995 Na
atom 7.4627508899999997 4.6659815099999999 5.8387749900000001 Na
atom 7.4858492999999999 7.5042170800000001 5.7419484799999996 Cl
atom 7.4918539900000001 10.3493232000000006 8.5616733099999998 Cl
atom 7.4926232199999996 7.5271942100000002 8.4067414399999993 Na
atom 7.5053424900000003 10.3208104100000000 5.8062338999999996 Na
atom 10.2975598700000006 13.1568815499999996 5.8435599500000004 Na
atom 13.1559691200000000 13.1707308399999992 5.7010695900000004 Cl
atom 10.3330127699999998 15.9822154300000001 8.3699748700000001 Na
atom 13.1607510199999993 15.9971610999999996 8.5673062400000006 Cl
atom 13.1243582599999993 13.1324589700000001 8.3380432599999992 Na
atom 10.3151373199999998 13.1682993699999997 8.5751274100000003 Cl
atom 13.1755825899999994 15.9929675600000003 5.7976067699999998 Na
atom 10.3157023999999993 16.0149170500000011 5.7022306499999997 Cl
atom 10.3333938199999995 18.8626699900000006 5.8215033199999997 Na
atom 13.1363461600000004 18.8233395799999990 5.7395202599999999 Cl
atom 10.3138954799999993 21.6502843100000000 8.3909134600000002 Na
atom 13.1578584299999992 21.6194543000000010 8.5843449399999994 Cl
atom 13.1331462200000004 18.8087085800000011 8.3770753300000003 Na
atom 10.3172589699999993 18.8184771799999986 8.5630482699999995 Cl
atom 13.1518918199999995 21.6007736600000015 5.8191025600000001 Na
atom 10.3368721499999996 21.6307911299999986 5.7465192900000002 Cl
atom 10.3473578800000006 24.4268648000000006 5.8051848100000001 Na
atom 13.1437089300000007 24.4308788499999991 5.7040007599999996 Cl
atom 10.3298263699999993 27.2339668999999986 8.3923086700000002 Na
atom 13.1224097200000003 27.2736813500000004 8.5925412500000000 Cl
atom 13.1363464899999993 24.4641178100000012 8.3952796099999993 Na
atom 10.3156011099999994 24.4500353900000000 8.5845194100000004 Cl
atom 13.1410564900000004 27.2648765900000001 5.8340176000000001 Na
atom 10.3199542300000005 27.2545144099999987 5.7166511399999997 Cl
atom 10.3028544499999999 30.0665894499999986 5.7808939700000002 Na
atom 13.1279124399999993 30.0665925200000004 5.7288496499999999 Cl
atom 10.2955040400000009 32.9125366900000031 8.3554564599999992 Na
atom 13.1284329100000008 32.9046725700000025 8.5519925200000007 Cl
atom 13.1495699399999992 30.0650083600000002 8.3708408199999997 Na
atom 10.3173412500000001 30.0821839100000012 8.5534502000000003 Cl
atom 13.0899055999999998 32.9173650999999978 5.8516348499999999 Na
atom 10.3128882300000004 32.9070506899999984 5.7234067199999998 Cl
atom 10.3524949999999993 35.7533064499999966 5.8040393000000003 Na
atom 13.1385097500000008 35.7324379399999970 5.7408676999999999 Cl
atom 10.4130240199999999 38.5532996900000029 8.1501349600000008 Na
atom 13.1687273900000008 38.5529620900000012 8.5794555999999993 Cl
atom 13.1492881199999996 35.7614190800000031 8.4043933499999994 Na
atom 10.3165761099999997 35.7231092600000011 8.5396191300000002 Cl
atom 12.8663313299999995 38.5791340399999996 5.9302203400000000 Na
atom 10.0623817899999999 38.5564691800000006 5.8368544900000003 Cl
atom 10.3301063200000005 1.8844402200000001 6.0241785099999996 Na
atom 13.2271323200000008 1.8938282600000000 5.7657122799999998 Cl
atom 10.2874826200000005 4.7551678900000001 8.3880604200000004 Na
atom 13.1469888400000006 4.7139804099999996 8.5557262699999992 Cl
atom 13.0528564199999995 1.9090161500000000 8.4736412899999998 Na
atom 10.3013563900000005 1.8824041300000001 8.6513651899999999 Cl
atom 13.1380780300000009 4.7020694499999998 5.8018809100000004 Na
atom 10.3208079900000005 4.7041238400000003 5.7767723899999996 Cl
atom 10.3276234200000001 7.5018530999999999 5.8152656800000004 Na
atom 13.1438046100000001 7.5172304199999997 5.7348190299999997 Cl
atom 10.3001203500000003 10.3619235500000002 8.3717795800000001 Na
atom 13.1695954099999994 10.3471763100000000 8.5469033200000002 Cl
atom 13.1462180100000001 7.5371703400000003 8.3746914199999996 Na
atom 10.3211902599999998 7.5261359099999998 8.5672693899999999 Cl
atom 13.1266540099999993 10.3491524399999992 5.8264632799999996 Na
atom 10.3057899899999992 10.3335982600000005 5.7126838199999996 Cl
atom 15.9429462799999992 13.1555847099999994 5.8557783800000003 Na
atom 18.7922362999999990 13.1379514299999993 5.6904277299999997 Cl
atom 15.9355474899999994 15.9955777599999998 8.3492281599999991 Na
atom 18.7908822099999995 15.9837557399999994 8.5669282399999993 Cl
atom 18.8127323900000007 13.1653536500000001 8.3442215999999991 Na
atom 15.9528116099999995 13.1568228600000001 8.5717330199999999 Cl
atom 18.7766575099999997 16.0025281799999988 5.8026159300000000 Na
atom 15.9630842099999999 15.9831796700000002 5.7034412999999997 Cl
atom 15.9855640500000007 18.8224969199999990 5.8312477700000001 Na
atom 18.7933101200000010 18.7954892800000017 5.7367058300000000 Cl
atom 16.0003534800000011 21.6791553199999996 8.4379143600000006 Na
atom 18.7803567300000012 21.6370012299999992 8.5836839400000002 Cl
atom 18.8111484799999999 18.8305270200000017 8.4554003200000007 Na
atom 15.9562200300000008 18.8085936199999999 8.5826264999999999 Cl
atom 18.7759935499999990 21.6286866199999999 5.8144529499999997 Na
atom 15.9655827499999994 21.6229153399999987 5.7345816999999997 Cl
atom 15.9415475799999999 24.4396563899999997 5.8136140200000002 Na
atom 18.7612671199999994 24.4323535900000017 5.7630676000000003 Cl
atom 15.9580690199999999 27.2756843199999999 8.3560629700000000 Na
atom 18.7661501900000012 27.2233769499999987 8.5544586900000006 Cl
atom 18.7553818300000010 24.4160554999999988 8.3622928900000009 Na
atom 15.9634960499999998 24.4397330500000010 8.5677097399999997 Cl
atom 18.7888420499999995 27.2393528399999987 5.8269197799999999 Na
atom 15.9523912699999997 27.2473120199999990 5.7184401700000000 Cl
atom 15.9517172200000008 30.0420399899999992 5.8077201499999997 Na
atom 18.7709572300000005 30.0557678199999998 5.7233857099999996 Cl
atom 15.9302931000000001 32.9129027700000023 8.3360415099999994 Na
atom 18.7852011099999991 32.8951279300000010 8.5667207800000007 Cl
atom 18.7484786999999997 30.0961928599999986 8.3842529300000006 Na
atom 15.9472088400000001 30.0828729899999985 8.5732983500000000 Cl
atom 18.7568259099999999 32.9139705899999981 5.8427537400000000 Na
atom 15.9414852899999993 32.9103272099999984 5.6912171400000000 Cl
atom 15.9561983800000000 35.7181769299999985 5.7732176400000004 Na
atom 18.7656536699999990 35.7410739299999989 5.7349242800000004 Cl
atom 16.0707120600000017 38.5364689299999981 8.4146009700000004 Na
atom 18.7237109000000004 38.5545533299999974 8.5146785800000000 Cl
atom 18.7607480200000012 35.7430175200000022 8.3788533899999997 Na
atom 15.9624026499999996 35.7278352200000029 8.5571614700000005 Cl
atom 18.6486108799999997 38.5689219799999989 5.8287261700000004 Na
atom 16.0366546300000010 38.5501589200000012 5.6691120399999999 Cl