#===============================================================================
# Created using the Atomic Simulation Environment (ASE)

# Tue Dec 23 21:42:01 2025

#=======================================================
lattice_vector 28.1999999999999993 0.0000000000000000 0.0000000000000000 
lattice_vector 0.0000000000000000 39.4799999999999969 0.0000000000000000 
lattice_vector 0.0000000000000000 0.0000000000000000 62.3296083400000001 
atom 7.5388701400000002 14.7840238399999997 0.0891396000000000 Au
atom 10.2987919699999999 14.7975206200000002 0.0204958100000000 Au
atom 13.1025203200000000 14.8353371299999992 -0.0114514900000000 Au
atom 15.9680582399999995 14.8575499799999999 -0.0557029900000000 Au
atom 18.7893919300000007 14.8007000499999997 -0.0259665200000000 Au
atom 21.5979052899999999 14.8381308999999995 -0.0699236900000000 Au
atom 24.4509278300000013 14.8134941900000001 -0.0230124100000000 Au
atom 27.2193545800000010 14.8589795599999999 -0.0788443700000000 Au
atom 1.8511997000000000 14.8131491200000003 0.0059507900000000 Au
atom 4.6982570299999997 14.8110238800000005 -0.0063708900000000 Au
atom 8.8660206400000003 17.2523080700000015 0.0075052200000000 Au
atom 11.6762048000000007 17.2829089200000006 -0.0122379800000000 Au
atom 14.4776306300000002 17.2716378699999993 -0.0540907100000000 Au
atom 17.3755223699999988 17.2945629300000014 0.0368601700000000 Au
atom 20.1599111999999998 17.2901883100000013 0.1034118700000000 Au
atom 23.0166300499999998 17.2647161199999992 -0.0016267600000000 Au
atom 25.7939218299999986 17.3078394799999984 -0.0241234000000000 Au
atom 0.4686514700000000 17.3090149199999992 0.0240596800000000 Au
atom 3.2590067399999998 17.3146173599999997 -0.0387153300000000 Au
atom 6.0733987100000002 17.2943124300000015 0.0660801100000000 Au
atom 7.5206143799999996 19.7144208600000006 0.2149083000000000 Au
atom 10.3196601700000006 19.8287724200000000 -0.0293797800000000 Au
atom 13.1228396400000005 19.7550700200000016 0.0945900300000000 Au
atom 15.9312001799999994 19.7845264500000013 0.0087202500000000 Au
atom 18.7427726399999983 19.7536059699999988 0.0686814800000000 Au
atom 21.6095738500000003 19.7050116600000003 0.0379459600000000 Au
atom 24.3785272900000010 19.7423562600000011 0.1561558100000000 Au
atom 27.2277594500000006 19.7784932100000006 -0.0378855600000000 Au
atom 1.8398298000000000 19.7847481599999995 0.2056883400000000 Au
atom 4.6768460699999999 19.7637988799999995 0.0595137900000000 Au
atom 8.8927581300000007 22.2517613999999995 0.1026074800000000 Au
atom 11.7327028000000002 22.2374223099999995 0.0358047900000000 Au
atom 14.5500925399999996 22.1973383899999988 0.0523215500000000 Au
atom 17.3792161000000007 22.1953697000000005 0.0176237700000000 Au
atom 20.1887326099999989 22.2111048900000014 0.0275931000000000 Au
atom 22.9974695800000006 22.2089456500000004 0.0155057000000000 Au
atom 25.8301356700000007 22.1621717899999986 0.0371473300000000 Au
atom 0.4427296300000000 22.2013570199999997 0.0547274100000000 Au
atom 3.2783154799999998 22.1752556900000002 0.2282464200000000 Au
atom 6.0980334300000001 22.1894979300000017 0.1338474600000000 Au
atom 7.4799997800000000 24.6882471099999989 0.0946882000000000 Au
atom 10.3256017300000007 24.7075154200000000 0.0921461100000000 Au
atom 13.1477735500000001 24.6788093599999989 0.0431909500000000 Au
atom 15.9870526200000000 24.6605789900000012 -0.0455309700000000 Au
atom 18.7780721499999999 24.6588632700000012 0.0532694600000000 Au
atom 21.6319487200000005 24.6707997699999986 -0.0462226200000000 Au
atom 24.4311273600000014 24.6094174999999993 0.0894068000000000 Au
atom 27.2460826800000007 24.6295927900000002 0.0921365000000000 Au
atom 1.8432627800000001 24.6409654499999995 0.0567199700000000 Au
atom 4.6802086899999997 24.6411334900000014 0.0823330600000000 Au
atom 8.8592635800000004 27.1216144499999992 0.1159591100000000 Au
atom 11.7081015500000003 27.1451546800000010 0.0447916900000000 Au
atom 14.5547906400000002 27.1897043899999993 -0.0586236900000000 Au
atom 17.3704612800000007 27.1551818300000001 -0.1181386000000000 Au
atom 20.1844541200000016 27.1177275400000006 -0.0236048700000000 Au
atom 22.9922250000000012 27.1143775100000006 0.1394246300000000 Au
atom 25.8374534400000009 27.1199070999999989 0.1378153400000000 Au
atom 0.4354198000000000 27.1468274500000000 0.1446029700000000 Au
atom 3.2234726600000001 27.1578215800000002 0.0627535700000000 Au
atom 6.0411224600000004 27.1283911199999999 0.0866239800000000 Au
atom 7.4931937299999998 29.6166359800000016 0.0242271900000000 Au
atom 10.3002052699999993 29.6249151399999988 -0.0210220300000000 Au
atom 13.1228200899999994 29.6670667399999992 -0.0784504100000000 Au
atom 15.9611856900000006 29.6096439899999986 0.0306742100000000 Au
atom 18.7644754399999982 29.6556871400000013 0.0679136900000000 Au
atom 21.5681399700000007 29.5593748000000005 0.0201738100000000 Au
atom 24.4416164599999988 29.5595742100000010 0.0089732600000000 Au
atom 27.2312606499999994 29.6195715700000015 0.0295885700000000 Au
atom 1.8520549100000001 29.6321695600000012 -0.0418624600000000 Au
atom 4.6922092400000004 29.5819185100000013 0.0288437800000000 Au
atom 8.9409901800000000 32.0641566700000027 0.0670969700000000 Au
atom 11.7402450700000003 32.0983884999999987 0.0236965500000000 Au
atom 14.5716597599999993 32.1064430099999996 -0.0662729700000000 Au
atom 17.3564906199999989 32.1228486099999984 -0.0159238100000000 Au
atom 20.1716021699999999 32.0754956500000006 0.0824178800000000 Au
atom 22.9899704400000005 32.0104784400000000 -0.1240325100000000 Au
atom 25.8253906999999998 32.0719788399999999 0.0431710700000000 Au
atom 0.4503649500000000 32.0900466900000012 -0.0520162800000000 Au
atom 3.3038001000000001 32.0502461999999966 -0.0314709400000000 Au
atom 6.1125451000000002 32.0963822699999994 -0.0562030400000000 Au
atom 7.4758842599999999 34.5520892700000033 0.0713305500000000 Au
atom 10.2895939999999992 34.5973099599999969 0.0336548400000000 Au
atom 13.1684075299999996 34.5912623500000009 0.0362735100000000 Au
atom 15.9717526400000001 34.5875759700000032 -0.0405682200000000 Au
atom 18.7839033899999990 34.5548324199999968 -0.0234325700000000 Au
atom 21.6091596199999998 34.5660260399999970 0.0203105200000000 Au
atom 24.4471166300000000 34.5466752399999990 0.0183678100000000 Au
atom 27.2496026700000016 34.5025205700000015 -0.0736170300000000 Au
atom 1.8445236899999999 34.5760867600000026 -0.0023040600000000 Au
atom 4.6111159800000001 34.5379249400000035 0.0705177500000000 Au
atom 8.9343561800000000 37.0178104499999989 0.0511532900000000 Au
atom 11.7684795799999993 37.0811618400000000 -0.1356473200000000 Au
atom 14.6054468699999997 37.0646565199999998 0.0013948300000000 Au
atom 17.3816284400000001 37.0461048700000006 0.0536213300000000 Au
atom 20.1643581900000015 37.0456715500000016 0.1063260000000000 Au
atom 23.0440444900000010 37.0555301500000027 -0.0943626200000000 Au
atom 25.8358069499999985 37.0162198499999988 0.0068184400000000 Au
atom 0.4196153300000000 37.0791547500000007 -0.0038899000000000 Au
atom 3.2644937700000001 37.0104658300000011 0.0510513100000000 Au
atom 6.0708374200000002 37.0135646399999985 0.0818615800000000 Au
atom 7.4766494100000003 -0.0020338800000000 0.0520667700000000 Au
atom 10.3081998800000001 0.0140865900000000 0.0583226700000000 Au
atom 13.1650473300000002 0.0590966400000000 0.0546412500000000 Au
atom 16.0056608800000006 0.0456894500000000 0.1716322900000000 Au
atom 18.8211578499999987 0.0516063700000000 0.0727409000000000 Au
atom 21.6088683599999989 0.0227466800000000 0.0832338900000000 Au
atom 24.4208121200000008 0.0342491500000000 0.0780030600000000 Au
atom 27.2557657499999983 0.0778406400000000 0.0787268400000000 Au
atom 1.8338719000000001 0.0228610700000000 0.0897625700000000 Au
atom 4.6856169599999999 0.0499160400000000 0.0286309300000000 Au
atom 8.8991037199999994 2.4865782699999999 0.0073412100000000 Au
atom 11.7254925599999993 2.4762608600000000 0.0497636700000000 Au
atom 14.5980881999999994 2.5309453000000000 0.0398150500000000 Au
atom 17.4408877800000006 2.4955754799999998 0.1178852300000000 Au
atom 20.2143232499999996 2.5268364399999999 -0.0090220000000000 Au
atom 23.0165928599999994 2.5063818599999999 -0.0299052100000000 Au
atom 25.8631131500000002 2.5005530700000000 0.0590599000000000 Au
atom 0.4733425600000000 2.5127943300000002 0.0916025600000000 Au
atom 3.3023180499999998 2.5234094599999999 0.0955324800000000 Au
atom 6.1103243400000000 2.5063047200000002 0.0640865400000000 Au
atom 7.4794204300000002 4.9886975700000002 0.0604771500000000 Au
atom 10.2805833199999999 4.9144577299999996 0.1263253000000000 Au
atom 13.1417677299999998 4.9659073700000000 0.1109112400000000 Au
atom 16.0042042100000010 4.9736981599999996 0.1537621800000000 Au
atom 18.8039376500000017 4.9988800900000001 0.1431421200000000 Au
atom 21.6382662100000012 5.0003102300000002 0.1238327300000000 Au
atom 24.3945342899999993 4.9506824600000003 0.0642428200000000 Au
atom 27.2366372299999995 4.9488709799999997 0.1383137900000000 Au
atom 1.9157832500000000 4.9675030500000004 0.1631378600000000 Au
atom 4.6780965600000002 4.9342167400000001 0.0996170200000000 Au
atom 8.9261410399999992 7.4295698000000003 0.0173677400000000 Au
atom 11.7384932600000003 7.3771089099999996 0.0332827700000000 Au
atom 14.5644893500000006 7.3976297000000004 0.0352815600000000 Au
atom 17.3838344400000011 7.4273206099999998 0.0675477700000000 Au
atom 20.2015559899999992 7.4761283000000001 0.0616440600000000 Au
atom 23.0631370999999987 7.4215870900000001 0.1312122600000000 Au
atom 25.8316787199999993 7.4361347100000001 0.0437056600000000 Au
atom 0.4771769500000000 7.3979500500000004 0.0441877300000000 Au
atom 3.2440263599999999 7.4494104300000004 0.0227586400000000 Au
atom 6.0622699700000000 7.4290560000000001 0.0624502300000000 Au
atom 7.5146075799999998 9.8706897799999993 -0.0286674000000000 Au
atom 10.3584937799999999 9.9051985400000007 -0.0480848600000000 Au
atom 13.1828706800000006 9.8760146500000001 0.0533687600000000 Au
atom 16.0045031900000012 9.8413638100000007 -0.0450844200000000 Au
atom 18.8005368699999984 9.8714389499999999 -0.0188700900000000 Au
atom 21.5984875199999991 9.9193582399999993 0.0351469500000000 Au
atom 24.4193965999999989 9.8821108599999992 0.0785555800000000 Au
atom 27.1855298599999990 9.9267483399999996 0.0796491000000000 Au
atom 1.7836949200000001 9.8699163799999994 0.0982812000000000 Au
atom 4.6492288799999999 9.8747980999999996 0.0261734000000000 Au
atom 8.9501948700000007 12.3111027199999992 -0.0698554300000000 Au
atom 11.7735217599999995 12.3037985100000000 -0.1649548700000000 Au
atom 14.6384521999999997 12.3542012999999997 -0.0864539800000000 Au
atom 17.4208023300000008 12.3303148500000006 -0.0219446400000000 Au
atom 20.2002040200000010 12.3586678800000005 0.0014787800000000 Au
atom 23.0358822799999992 12.3862580799999993 -0.0929544000000000 Au
atom 25.7995175000000003 12.3675695200000000 -0.0131821000000000 Au
atom 0.4168862600000000 12.3769152600000005 -0.0736557900000000 Au
atom 3.2494358399999999 12.3336718399999992 0.0332022000000000 Au
atom 6.1440877000000000 12.3101753600000006 0.0383294900000000 Au
atom 7.5562243999999996 13.1641227500000007 2.5856191200000000 Au
atom 10.3521601800000003 13.1675597799999995 2.4561587299999998 Au
atom 13.1536019999999994 13.2019511000000005 2.4232692600000001 Au
atom 15.9501582499999994 13.1447699900000003 2.4985309800000000 Au
atom 18.7067970400000014 13.1944119799999999 2.7135870899999999 Au
atom 21.5433396299999984 13.1869777999999993 2.5403876500000000 Au
atom 24.4178648799999998 13.2286840699999999 2.6504174699999998 Au
atom 27.2194738399999991 13.2302883500000004 2.4938030000000002 Au
atom 1.8507936899999999 13.1414122800000008 2.6448011100000000 Au
atom 4.6939297099999999 13.1946029899999999 2.5665752199999998 Au
atom 8.9114940800000007 15.5797101100000006 2.6359218499999999 Au
atom 11.7272266500000004 15.6439241599999992 2.6638191800000000 Au
atom 14.5168005000000004 15.6224901500000009 2.5510607799999998 Au
atom 17.3637616100000010 15.6521804400000004 2.6254386200000002 Au
atom 20.1633653700000011 15.6089513699999998 2.5619885099999999 Au
atom 22.9770080499999985 15.6227228399999998 2.5491313899999999 Au
atom 25.8319807899999994 15.6734198100000004 2.5807450599999999 Au
atom 0.4764129700000000 15.6726690000000008 2.5920381400000001 Au
atom 3.2659320400000000 15.6464555200000000 2.5823901600000001 Au
atom 6.0855163599999997 15.6289191200000008 2.5964001900000002 Au
atom 7.4741292899999996 18.0420386899999983 2.7023055500000002 Au
atom 10.2741188799999996 18.1530717199999998 2.3676168000000000 Au
atom 13.1322155200000008 18.0890693200000001 2.5143868500000002 Au
atom 15.9486464899999998 18.1201504000000000 2.4999256700000001 Au
atom 18.7751184900000005 18.0286653100000009 2.6780938200000000 Au
atom 21.6122511199999998 18.1069599900000000 2.6881454200000001 Au
atom 24.4187948000000006 18.0643545600000017 2.7101335600000001 Au
atom 27.2626202800000002 18.1321257299999985 2.5291148899999998 Au
atom 1.8904683600000001 18.0902905899999986 2.6628991900000001 Au
atom 4.6787806099999996 18.0946177800000001 2.5636192599999998 Au
atom 8.9137123099999993 20.5783150799999994 2.7225946500000000 Au
atom 11.7282171099999992 20.5630919399999996 2.6368111800000000 Au
atom 14.5192654999999995 20.5761664000000017 2.5693192400000000 Au
atom 17.4187713100000003 20.5119560599999993 2.6451746599999999 Au
atom 20.2032268899999998 20.5532954600000011 2.5378177599999998 Au
atom 23.0055325999999987 20.5246584399999996 2.7043599999999999 Au
atom 25.8352055699999994 20.5745090300000015 2.6862831400000000 Au
atom 0.4718222500000000 20.5600178599999985 2.7509466499999999 Au
atom 3.3019543699999998 20.5830738999999987 2.8579497599999999 Au
atom 6.0523808499999996 20.5836899600000010 2.6634619000000002 Au
atom 7.5031352800000004 23.0119930500000009 2.7111361199999999 Au
atom 10.3409103800000004 23.0878092600000002 2.6661995300000001 Au
atom 13.1541516800000000 23.1227618700000015 2.5129288999999999 Au
atom 15.9337693799999993 23.0991945299999983 2.5201108099999998 Au
atom 18.7383830499999995 23.0059736699999995 2.5633988400000001 Au
atom 21.5920006399999984 23.0485446600000010 2.5145743100000000 Au
atom 24.4350824700000011 23.0292495099999996 2.6788901300000001 Au
atom 27.2480469999999997 23.0717888000000002 2.6558323700000002 Au
atom 1.8061546500000001 23.0461684700000013 2.7267572000000002 Au
atom 4.6467031600000004 23.1295321300000012 2.7601024999999999 Au
atom 8.9035632200000006 25.4926762800000013 2.6713017400000001 Au
atom 11.6987298400000004 25.5832066100000013 2.6136194200000000 Au
atom 14.5633868300000007 25.5827404300000012 2.5566171500000001 Au
atom 17.3907940500000002 25.5351662200000007 2.5219907899999998 Au
atom 20.2111773100000001 25.5485984600000009 2.5731115000000000 Au
atom 23.0258429999999983 25.4748222899999988 2.6481074699999998 Au
atom 25.8609214999999999 25.5280366100000009 2.7042172700000000 Au
atom 0.4784287500000000 25.5349400200000005 2.7073308900000002 Au
atom 3.2792914700000000 25.5577937000000013 2.6507441799999998 Au
atom 6.0752450199999997 25.5380341000000008 2.6720363800000002 Au
atom 7.4936916800000004 27.9518599399999985 2.5522427500000000 Au
atom 10.3501241000000004 28.0261866700000013 2.7079931799999999 Au
atom 13.1677617300000005 28.0275112799999988 2.5145907900000002 Au
atom 15.9774720200000004 28.0258990600000004 2.6001399100000002 Au
atom 18.7703298600000004 28.0329875100000017 2.5101569300000000 Au
atom 21.6061266100000005 28.0234174600000010 2.7353572000000002 Au
atom 24.4058270499999992 27.9719646200000014 2.6869203599999998 Au
atom 27.2510836900000015 27.9915938400000002 2.7409880700000002 Au
atom 1.8934707300000000 27.9979245399999996 2.6140366400000001 Au
atom 4.6883734400000003 28.0328426499999992 2.7897379899999999 Au
atom 8.9117757599999994 30.4342499099999984 2.6428273700000000 Au
atom 11.6843531100000000 30.4606752800000002 2.5837290899999998 Au
atom 14.5298303900000008 30.4624526200000005 2.5682919200000001 Au
atom 17.3811523200000018 30.4630973199999993 2.6584110000000001 Au
atom 20.2548882600000013 30.5023133299999998 2.6992001499999998 Au
atom 23.0469790500000009 30.4432130100000009 2.5045282400000000 Au
atom 25.8587828100000010 30.4482925800000004 2.6690020400000001 Au
atom 0.4636938500000000 30.4178817799999983 2.6597057400000002 Au
atom 3.2938611999999998 30.4426237899999990 2.5746451499999998 Au
atom 6.1156618700000003 30.4729935900000015 2.6432101800000001 Au
atom 7.5441475899999997 32.9435081499999995 2.6151644300000001 Au
atom 10.3270814299999998 32.9560396400000002 2.7702560400000000 Au
atom 13.1430047099999996 32.9367429799999982 2.5987482900000001 Au
atom 15.9843846599999999 32.9255247099999977 2.6842363900000001 Au
atom 18.7912450600000014 32.9117099300000007 2.6020746400000001 Au
atom 21.6578577400000007 32.8881516800000000 2.6571263200000002 Au
atom 24.3961449299999984 32.9600493499999985 2.5480633300000002 Au
atom 27.2229051999999996 32.9285823800000017 2.6684442800000001 Au
atom 1.8971323800000000 32.8903423300000028 2.5384339900000001 Au
atom 4.7177357000000004 32.9257632200000003 2.6023338800000002 Au
atom 8.9510845700000008 35.3894974000000033 2.7088774799999999 Au
atom 11.7756933000000004 35.4333945600000035 2.5768635199999999 Au
atom 14.5833297700000006 35.4437742400000033 2.6254061700000002 Au
atom 17.3886455700000013 35.3620897300000010 2.6567379000000000 Au
atom 20.1996110100000017 35.3764547099999973 2.6605088000000001 Au
atom 22.9919964300000004 35.3827241700000030 2.5823542000000002 Au
atom 25.8317414899999989 35.3938829299999966 2.6058754799999999 Au
atom 0.4127330500000000 35.3499148000000005 2.5698984700000000 Au
atom 3.2633391000000000 35.3766137499999971 2.6848097700000002 Au
atom 6.1052607200000004 35.4074065300000029 2.6452337799999999 Au
atom 7.5648509099999997 37.8562014000000033 2.7127068500000000 Au
atom 10.3505727899999993 37.8633682999999976 2.5751634499999998 Au
atom 13.1725595799999997 37.9105326600000012 2.5280076999999999 Au
atom 15.9878619099999995 37.8238013300000020 2.7327360800000000 Au
atom 18.8057601800000000 37.8736670099999984 2.7098772200000001 Au
atom 21.6107503799999989 37.8536308700000035 2.6492519500000000 Au
atom 24.3869159000000018 37.8751793500000034 2.5318459799999999 Au
atom 27.2043566599999984 37.8349677000000000 2.5783308599999999 Au
atom 1.8496583400000000 37.8277071400000011 2.6869855399999998 Au
atom 4.6874662100000002 37.8288089200000002 2.6344896800000002 Au
atom 8.8977461299999998 0.8757987400000000 2.6837716600000001 Au
atom 11.7332085399999997 0.8593206000000000 2.7494293000000001 Au
atom 14.5938366700000000 0.8694835100000000 2.7106182599999999 Au
atom 17.3718784299999989 0.8518421000000000 2.8171716000000000 Au
atom 20.2119056999999991 0.8604957300000000 2.6931904200000001 Au
atom 23.0277470000000015 0.8859633900000000 2.6604164500000000 Au
atom 25.8309969099999996 0.8747577300000000 2.7640652900000000 Au
atom 0.4391165000000000 0.8566636200000000 2.7007176799999999 Au
atom 3.2766923499999998 0.8579349700000000 2.7427077000000000 Au
atom 6.0971444899999998 0.8249386300000000 2.6142329599999998 Au
atom 7.4720058900000002 3.3421879500000000 2.5792932500000001 Au
atom 10.3025527599999993 3.2901428400000001 2.6498056999999999 Au
atom 13.1407143000000008 3.2998691899999999 2.6970736099999999 Au
atom 15.9539542200000000 3.3313776700000002 2.6803432599999999 Au
atom 18.8066281500000017 3.3136794200000002 2.6471085599999999 Au
atom 21.6050959700000007 3.3204254299999998 2.6317978900000001 Au
atom 24.3987580199999989 3.3703247099999998 2.6692060999999998 Au
atom 27.2044586700000011 3.3808413800000001 2.7492793799999999 Au
atom 1.8423745600000001 3.3509531199999998 2.7772004899999998 Au
atom 4.6915417599999998 3.3332329299999999 2.7011073600000000 Au
atom 8.8838393000000000 5.7674578399999996 2.7356781799999998 Au
atom 11.7065147899999999 5.8263081100000003 2.7800477400000001 Au
atom 14.5039349800000004 5.8150883799999997 2.7360152300000000 Au
atom 17.3845291099999990 5.8147845699999996 2.7860972099999999 Au
atom 20.2158005299999992 5.8218215700000000 2.7528252200000001 Au
atom 23.0103728499999995 5.8345548699999998 2.7323794499999998 Au
atom 25.8014284600000003 5.8248736200000000 2.7173919799999999 Au
atom 0.4359072600000000 5.7963763300000002 2.7566243500000001 Au
atom 3.2611708300000002 5.8358519800000002 2.8034192000000000 Au
atom 6.1093577200000002 5.8258866200000003 2.6989960399999999 Au
atom 7.4911399400000001 8.2729807999999991 2.6808742699999999 Au
atom 10.2936472800000001 8.2788531499999998 2.5922594999999999 Au
atom 13.0893257500000004 8.3097811400000001 2.6804799500000001 Au
atom 15.9362734499999998 8.2599675500000007 2.6697051699999998 Au
atom 18.7400175000000004 8.2986230699999997 2.7671225700000002 Au
atom 21.6072943500000001 8.2950906999999994 2.6615024100000002 Au
atom 24.4222249900000001 8.3382300499999999 2.8254576800000000 Au
atom 27.2216240800000016 8.2967575300000007 2.5866478499999999 Au
atom 1.8230624799999999 8.2528029000000007 2.7303993400000000 Au
atom 4.6406394600000000 8.2697074900000000 2.6260549599999998 Au
atom 8.8777940700000002 10.7580414500000003 2.6312069000000000 Au
atom 11.6596347999999992 10.7385558299999992 2.5908914400000000 Au
atom 14.4696378100000000 10.7345513399999994 2.6129135699999999 Au
atom 17.3066929300000005 10.6803335300000004 2.5565860800000002 Au
atom 20.1750669599999988 10.7192258400000000 2.6016793699999998 Au
atom 23.0447960000000016 10.7898896700000009 2.6442738200000000 Au
atom 25.8265014700000002 10.7929303599999997 2.6321966799999998 Au
atom 0.4528053300000000 10.7549641400000002 2.6631028400000001 Au
atom 3.2321669399999999 10.7343417500000005 2.6558335700000000 Au
atom 6.0644879100000004 10.6948134100000001 2.6118163999999999 Au
atom 7.3985726600000001 13.0066726500000005 5.7505568100000000 Cl
atom 7.3716738700000004 15.9850478799999998 8.0736830299999998 Cl
atom 7.5475237599999998 13.1159887899999994 8.3627711100000006 Na
atom 7.3171274999999998 15.9010214500000000 5.4620098500000003 Na
atom 7.2486645300000001 19.0353285399999983 5.7287580499999997 Cl
atom 7.6032571500000001 21.5886170100000001 8.3256142700000009 Cl
atom 7.4525583400000004 18.8307895400000014 8.2688929099999999 Na
atom 7.1715507199999999 21.8450339299999996 5.7125693599999998 Na
atom 7.2774617499999996 24.6437480800000017 5.7149971500000003 Cl
atom 7.4095706999999997 27.3981817899999989 8.5975734199999998 Cl
atom 7.5040276099999996 24.4944748200000006 8.3628566499999994 Na
atom 7.3489724100000000 27.4578695900000014 5.8810965599999996 Na
atom 7.3535085300000000 30.2081058300000009 5.6691445199999997 Cl
atom 7.5405157899999997 32.9584921300000033 8.5539493600000007 Cl
atom 7.4863103600000001 30.2096862600000016 8.3721988799999991 Na
atom 7.4728090099999998 33.0544072200000016 5.8071942800000000 Na
atom 7.4751016600000000 35.8348853500000004 5.7234645799999999 Cl
atom 7.5017769100000002 38.5550227599999999 8.6305321199999998 Cl
atom 7.4742280499999998 35.7753790300000034 8.4091498599999994 Na
atom 7.4984794700000004 38.5333611499999975 5.8242997100000000 Na
atom 7.5275967799999997 1.9287411900000000 5.7902258700000004 Cl
atom 7.4250358199999997 4.6007872599999997 8.6331901700000007 Cl
atom 7.4786518199999996 1.9137071000000001 8.4691275400000006 Na
atom 7.4869231300000001 4.6682264099999999 5.9599174799999997 Na
atom 7.4236314300000004 7.3808164800000000 5.8053158199999997 Cl
atom 7.2510265499999997 10.3689733000000004 8.2999235700000007 Cl
atom 7.5755405099999997 7.6216860400000002 8.3991574900000003 Na
atom 7.2305072800000003 10.2165501600000006 5.6797591000000001 Na
atom 10.3954456999999998 13.0197941400000001 5.6057792099999997 Na
atom 13.1525284899999999 12.9804588699999996 5.4799674400000002 Cl
atom 10.2736214700000001 16.0264496799999989 8.1986903099999999 Na
atom 13.2498569300000000 16.1086190699999996 8.2824650700000007 Cl
atom 13.1814891999999997 13.0248437100000007 8.5066848499999992 Na
atom 10.4730725699999994 13.3622478099999995 8.4813552899999998 Cl
atom 13.0891730000000006 15.8766672399999997 5.5830986600000001 Na
atom 10.1462718499999998 16.1293266700000011 5.5750782599999997 Cl
atom 10.0526490499999994 18.9970219200000017 5.4374421499999999 Na
atom 13.0986070399999992 18.8825002700000013 5.7477475399999998 Cl
atom 10.3122666899999995 21.4736795700000016 8.1649368199999994 Na
atom 13.1799719599999996 21.5013265400000009 8.0017154700000006 Cl
atom 13.2153874899999995 18.6603758599999985 8.2993804000000004 Na
atom 10.4060749000000001 18.7104198900000007 8.3979358699999995 Cl
atom 12.9237262899999994 21.6416829799999988 5.2083715399999999 Na
atom 10.0076640599999998 21.8663971299999993 5.6815821299999998 Cl
atom 10.1940175899999996 24.6712458999999988 5.6286826100000003 Na
atom 12.9683915200000008 24.7932870200000011 5.4994136600000001 Cl
atom 10.3837576600000006 27.3471878699999991 8.4390648000000006 Na
atom 13.2527538000000007 27.4230425099999984 8.5846947999999994 Cl
atom 13.1922059300000001 24.6100102099999987 8.3358226799999997 Na
atom 10.4058990300000005 24.6213648800000016 8.3546642099999993 Cl
atom 13.1176799099999997 27.3937322799999983 5.8063168000000003 Na
atom 10.1819346900000003 27.5899004900000016 5.8542362900000002 Cl
atom 10.2790232199999991 30.2706494799999994 5.7342768499999996 Na
atom 13.0706221700000000 30.1302469399999993 5.7984507699999996 Cl
atom 10.3421300699999996 32.9566042200000027 8.4318551700000004 Na
atom 13.0901718099999993 32.9543396600000023 8.5750736900000000 Cl
atom 13.1928103300000004 30.1586834699999997 8.4614517800000009 Na
atom 10.4157968899999993 30.0972411599999994 8.5647585599999996 Cl
atom 13.1099499900000005 32.9233369600000003 5.8078862300000003 Na
atom 10.2679093699999999 33.0802254099999971 5.6615023799999999 Cl
atom 10.3095980699999998 35.8117125899999991 5.9269762400000001 Na
atom 13.1446318499999997 35.7988895499999984 5.7764480999999996 Cl
atom 10.2715025299999994 38.5780321599999994 8.4923370899999995 Na
atom 13.0960993099999996 38.5484001299999974 8.6625734899999998 Cl
atom 13.1454281000000002 35.7711195199999992 8.4401412499999999 Na
atom 10.3156543700000007 35.8385453100000007 8.6698536799999992 Cl
atom 13.1790308700000001 38.5605202100000000 5.9216074699999997 Na
atom 10.3407888799999998 38.5939772600000026 5.7919589699999996 Cl
atom 10.3088230200000002 1.8698475000000001 5.8647926500000001 Na
atom 13.1473284600000007 1.8201780200000000 5.8785179899999997 Cl
atom 10.3334904400000003 4.6926207700000004 8.4652900700000000 Na
atom 13.2225035500000008 4.5963242099999997 8.6422708400000001 Cl
atom 13.1690793799999994 1.8070420400000000 8.4644568699999994 Na
atom 10.3375799599999993 1.8936249000000001 8.6322199699999995 Cl
atom 13.1970346200000002 4.6375650400000001 5.8855196500000000 Na
atom 10.2941802899999999 4.5941181400000000 5.8206139099999996 Cl
atom 10.3003093600000000 7.3846991900000001 5.8782592899999999 Na
atom 13.1620578600000009 7.5601680199999999 5.8647635700000000 Cl
atom 10.4308667899999996 10.4867238399999998 8.3594024499999993 Na
atom 13.1941536500000005 10.4831696000000001 8.6145858000000004 Cl
atom 13.0887155699999997 7.4089417700000002 8.5097731299999992 Na
atom 10.3755532899999992 7.4428201100000004 8.6248673700000005 Cl
atom 13.1411278700000000 10.2663183799999995 5.7153219599999998 Na
atom 10.0238697200000004 10.0949690800000003 5.5888444499999999 Cl
atom 16.0086168099999995 12.9861478699999999 5.7046795200000000 Na
atom 18.8353182900000000 12.9367283200000003 5.7630373099999996 Cl
atom 16.0845013600000009 15.9012232000000004 8.0307997600000007 Na
atom 18.6725636299999991 15.8211624700000009 8.2547011700000006 Cl
atom 18.7258000100000004 13.1289940800000000 8.3743718299999994 Na
atom 15.9258965000000003 13.2105881200000006 8.4881142300000008 Cl
atom 18.9338735900000010 15.8544797600000003 5.5883114200000001 Na
atom 16.0664149000000016 15.7835134400000001 5.4685828799999996 Cl
atom 16.0025322299999999 18.8014837499999992 5.4056976600000004 Na
atom 19.1090109599999991 18.6924575100000006 5.6336069799999997 Cl
atom 15.7918612599999992 21.8187837500000015 7.9956438199999997 Na
atom 18.5652865300000016 21.6448099599999999 8.2021215600000001 Cl
atom 18.9975388400000007 18.6776221500000013 8.1883664500000002 Na
atom 16.0563779800000006 18.6714381799999991 8.0929804000000001 Cl
atom 19.2987177699999997 21.4430709899999989 5.4908686400000004 Na
atom 16.1633302999999984 21.9156126499999999 5.4654977599999999 Cl
atom 15.7945722400000008 24.6195400000000006 5.3546643300000003 Na
atom 19.0385809399999992 24.1335354700000018 5.7190976500000001 Cl
atom 15.9981291799999994 27.3436494299999993 8.2603252099999995 Na
atom 18.9383702199999995 27.1693605699999985 8.2972291800000004 Cl
atom 18.5989271199999990 24.2998708900000011 8.3535736800000002 Na
atom 15.6784884400000006 24.4350376199999992 8.5905369599999997 Cl
atom 19.0509183100000001 27.1396285900000009 5.4963782300000004 Na
atom 16.0592563999999989 27.4135839899999993 5.5576817800000002 Cl
atom 15.9395354200000003 30.0924331400000007 5.6870838099999999 Na
atom 18.9540750799999991 30.0897142600000009 5.8118859799999996 Cl
atom 16.0426269700000006 32.8380581300000003 8.4595892799999994 Na
atom 18.7859174799999984 32.9572245800000019 8.7399959799999998 Cl
atom 18.8293455899999991 30.0018459899999996 8.3904573199999994 Na
atom 15.9246237199999996 29.9853494100000013 8.4789690899999997 Cl
atom 18.8617904100000011 32.9452181199999998 6.0457629500000003 Na
atom 16.1100249499999997 32.9242557999999974 5.8511004700000004 Cl
atom 16.0471375499999986 35.6592504700000035 5.8703801200000001 Na
atom 18.8597506300000006 35.7144862900000035 5.8122373200000004 Cl
atom 16.0017036300000015 38.4914021499999990 8.5465012999999992 Na
atom 18.8677806299999986 38.5618217399999992 8.6558951000000004 Cl
atom 18.8330111600000016 35.6846552499999987 8.5042241999999995 Na
atom 16.0274413299999985 35.7426874900000016 8.7272369500000000 Cl
atom 18.8153841300000018 38.5256522399999994 5.8859409200000004 Na
atom 16.0419923699999991 38.5211838399999991 5.8802012000000001 Cl