#===============================================================================
# Created using the Atomic Simulation Environment (ASE)

# Sat Nov  1 21:48:38 2025

#=======================================================
lattice_vector 28.1999999999999993 0.0000000000000000 0.0000000000000000 
lattice_vector 0.0000000000000000 39.4799999999999969 0.0000000000000000 
lattice_vector 0.0000000000000000 0.0000000000000000 62.3296083400000001 
atom 7.4891055000000000 14.8204515699999995 0.0771303000000000 Au
atom 10.3245887300000003 14.8476132700000001 0.0163620800000000 Au
atom 13.1295955299999996 14.8038688900000004 0.0576117200000000 Au
atom 15.9798010399999999 14.8480457799999996 0.0272995300000000 Au
atom 18.7927212600000004 14.8214063800000009 0.0951187700000000 Au
atom 21.5878127500000012 14.8276935999999999 -0.0463799800000000 Au
atom 24.4420619899999991 14.8057170100000004 0.0709176400000000 Au
atom 27.2277839600000000 14.7704777899999993 -0.1031067500000000 Au
atom 1.8597606600000001 14.8759144800000005 0.0145354200000000 Au
atom 4.6830092099999998 14.8020852000000005 -0.0265081100000000 Au
atom 8.8781249700000000 17.3267146600000004 0.0237629400000000 Au
atom 11.7395669100000006 17.2997511400000015 0.0278384300000000 Au
atom 14.5268572200000001 17.2902735000000014 0.0124888300000000 Au
atom 17.3997179600000003 17.2763758100000011 0.0489368900000000 Au
atom 20.1938915100000003 17.3120631399999994 0.0524135600000000 Au
atom 23.0247744700000005 17.2682658499999988 0.0487943400000000 Au
atom 25.8179807500000003 17.3039484399999992 0.0109208300000000 Au
atom 0.4636660800000000 17.3561251299999988 -0.0248582300000000 Au
atom 3.2743784599999999 17.3125532500000006 0.0736127400000000 Au
atom 6.1277854200000004 17.2792163599999995 0.0495532000000000 Au
atom 7.4992052500000002 19.7451329300000005 0.1148376600000000 Au
atom 10.3073971400000008 19.7271049599999984 0.0500183100000000 Au
atom 13.1332275900000006 19.7412246499999995 0.1161185600000000 Au
atom 15.9749146000000000 19.7606526600000016 0.0341103200000000 Au
atom 18.7566575700000016 19.7496115100000011 0.0920420000000000 Au
atom 21.6070030700000011 19.7585692000000002 0.0617583700000000 Au
atom 24.4306377200000000 19.7551614300000011 0.1247873900000000 Au
atom 27.2235291699999991 19.4030661299999991 0.0062055800000000 Au
atom 1.8869332100000000 19.7491233999999984 0.1206682500000000 Au
atom 4.7011773400000001 19.7646255099999983 0.0403452700000000 Au
atom 8.9219192300000003 22.2497589100000006 0.0735109500000000 Au
atom 11.7656696699999994 22.1941935400000006 0.0960287700000000 Au
atom 14.5813872700000005 22.2008976599999990 0.0634091400000000 Au
atom 17.3965177799999999 22.2290478200000017 0.0788126400000000 Au
atom 20.1983402199999986 22.2219009499999984 0.0658500100000000 Au
atom 22.9814758499999989 22.2377929399999985 0.0643096900000000 Au
atom 25.8344574499999986 22.2602642800000012 0.0508705800000000 Au
atom 0.4364504400000000 22.1845881899999995 0.1424928300000000 Au
atom 3.2926124600000000 22.2257644799999987 0.0860064000000000 Au
atom 6.1089056299999998 22.2464531799999996 0.0719841400000000 Au
atom 7.5147092500000001 24.6758793099999991 0.0793313200000000 Au
atom 10.3404615399999997 24.7071344000000011 0.0526762200000000 Au
atom 13.1466600099999997 24.6924729399999983 0.0853404100000000 Au
atom 15.9218250300000008 24.6948302499999990 0.0915648000000000 Au
atom 18.7822758999999984 24.6945104600000001 0.1036282200000000 Au
atom 21.5942082199999987 24.7019875199999994 0.0943053500000000 Au
atom 24.4159109100000009 24.7060242300000006 0.0890206500000000 Au
atom 27.2313895600000002 24.6536087399999992 0.1511672900000000 Au
atom 1.8673975899999999 24.6536182500000010 0.1051541900000000 Au
atom 4.7134852399999998 24.6692212200000007 0.1156539400000000 Au
atom 8.9046787500000004 27.1663392600000009 0.0568157000000000 Au
atom 11.7247321299999996 27.1623743900000001 0.0631801800000000 Au
atom 14.5480192600000002 27.1633719999999990 0.0919797800000000 Au
atom 17.3589401300000006 27.1356468600000014 0.0552844700000000 Au
atom 20.1752835499999996 27.1872222699999995 0.0858002700000000 Au
atom 22.9936221600000010 27.1708033700000016 0.0444112400000000 Au
atom 25.8282715200000013 27.1676532399999999 -0.0201967900000000 Au
atom 0.4662960200000000 26.9947264199999992 0.1674778500000000 Au
atom 3.3289276000000001 27.1575951800000013 0.0780556600000000 Au
atom 6.1062264700000002 27.1190656600000004 0.0641128100000000 Au
atom 7.4945467700000004 29.6287522900000013 0.0221841000000000 Au
atom 10.3332562800000005 29.5820817900000002 0.0740131300000000 Au
atom 13.1410155799999995 29.5787892700000015 0.0208109600000000 Au
atom 15.9678908699999997 29.6272665699999997 0.0604490300000000 Au
atom 18.7492183099999998 29.6389830399999994 0.0111094300000000 Au
atom 21.6084119399999999 29.6441543100000011 0.0839188500000000 Au
atom 24.4296040099999985 29.6239749900000007 0.0005659100000000 Au
atom 27.2634587800000006 29.6494810400000013 0.0059023000000000 Au
atom 1.8727491999999999 29.5933691799999998 -0.0012401700000000 Au
atom 4.6609469800000003 29.6303587099999994 0.0635957700000000 Au
atom 8.9513411200000004 32.0887515300000032 -0.0188382700000000 Au
atom 11.7223690299999994 32.0930188199999975 0.0292563200000000 Au
atom 14.5715322900000004 32.0679640600000013 0.0165153100000000 Au
atom 17.3714111600000010 32.0708871699999989 -0.0001940200000000 Au
atom 20.2155193599999983 32.0663948300000001 0.0153239300000000 Au
atom 22.9969710999999997 32.0790630199999995 0.0179401500000000 Au
atom 25.8308156900000014 32.1131418900000014 0.0294313400000000 Au
atom 0.4366615800000000 32.1765944699999977 -0.0234793900000000 Au
atom 3.2934633299999998 32.0857071100000013 -0.0002760400000000 Au
atom 6.0754490900000002 32.0983946799999984 0.0170396400000000 Au
atom 7.5426936199999997 34.5626983800000005 -0.0264746000000000 Au
atom 10.2995410700000001 34.5672939999999969 0.0646990800000000 Au
atom 13.1491344699999999 34.6121589999999983 0.0278139900000000 Au
atom 15.9297719900000008 34.5464392599999996 0.0538499200000000 Au
atom 18.7985397399999989 34.5475496399999997 -0.0016435100000000 Au
atom 21.6269461800000009 34.5613416099999995 0.0847270700000000 Au
atom 24.4309630700000007 34.5871771199999998 -0.0310282500000000 Au
atom 27.2515686300000013 34.5719141100000016 -0.1058280300000000 Au
atom 1.8683268600000000 34.5042505799999972 0.0240897200000000 Au
atom 4.7121317800000000 34.5715041699999972 0.0686392000000000 Au
atom 8.6557921199999992 37.0244059199999995 0.0661165700000000 Au
atom 11.5216094699999996 37.0491196099999982 0.2514947100000000 Au
atom 14.5788676200000005 37.0277588300000033 0.2085040000000000 Au
atom 17.4103114999999988 37.0344520399999979 0.0596982100000000 Au
atom 20.2667347800000002 37.0287418500000030 0.1463757700000000 Au
atom 23.1533123799999991 37.0044739499999977 0.1470456500000000 Au
atom 25.7375770300000006 36.9392841200000035 0.0440953100000000 Au
atom 0.4220792100000000 36.8506155099999972 0.0175519900000000 Au
atom 3.2211114599999999 37.0500067199999989 -0.0849871400000000 Au
atom 6.1334493999999999 37.0372233399999971 -0.0897708400000000 Au
atom 7.6580879800000003 0.0130873000000000 -0.1276552600000000 Au
atom 10.3486197099999995 0.0195372900000000 0.1668836900000000 Au
atom 13.2735389300000008 0.0295597400000000 0.1723000700000000 Au
atom 15.8928773700000008 0.0306541600000000 0.0046801400000000 Au
atom 18.8456016400000017 0.0181262100000000 0.0931733000000000 Au
atom 21.5582607999999993 0.0186948100000000 0.1902629900000000 Au
atom 24.3818141600000011 0.0302341000000000 0.1566518700000000 Au
atom 27.2353188499999987 0.1629854000000000 -0.0312302500000000 Au
atom 1.8145180700000001 0.0821809400000000 -0.1856899100000000 Au
atom 4.7068402499999999 0.0167860500000000 0.1492976300000000 Au
atom 8.8982875400000001 2.4481120900000000 0.0795122300000000 Au
atom 11.7135652700000001 2.4889048300000001 0.1312865200000000 Au
atom 14.5484609400000000 2.4758062600000001 0.1058537800000000 Au
atom 17.3775274599999996 2.4873558899999999 0.0923399200000000 Au
atom 20.1759175400000004 2.4787540799999999 0.0880325600000000 Au
atom 23.0007130199999992 2.4834347900000000 0.0501225600000000 Au
atom 25.8290880200000004 2.3765141399999998 0.2029377400000000 Au
atom 0.4703849200000000 2.5360778399999999 0.1886587900000000 Au
atom 3.2704033300000002 2.4807348299999998 0.1151133400000000 Au
atom 6.0937139199999999 2.4623950600000000 0.0925682200000000 Au
atom 7.4935694899999996 4.9548189699999998 0.1080475700000000 Au
atom 10.3334844900000000 4.9655444700000002 0.1093373300000000 Au
atom 13.1715112399999992 4.9470171000000001 0.0954777200000000 Au
atom 15.9622535100000000 4.9504712700000004 0.1000872400000000 Au
atom 18.7638239700000007 4.9098318599999997 0.0917909900000000 Au
atom 21.5937961799999982 4.9611358000000001 0.0847892400000000 Au
atom 24.3948691199999992 4.9693626200000001 0.1131210900000000 Au
atom 27.2418622600000013 4.8831556300000001 0.0881556400000000 Au
atom 1.8920003000000001 4.9890508000000002 0.1278530300000000 Au
atom 4.6721680599999997 4.9633919500000001 0.0767123400000000 Au
atom 8.8943879599999995 7.4003945399999997 0.0619872700000000 Au
atom 11.7595700500000007 7.4022175299999997 0.0721548000000000 Au
atom 14.5501554100000003 7.4132325000000003 0.0728304800000000 Au
atom 17.3588645100000001 7.3887805100000001 0.0927899300000000 Au
atom 20.1734174199999998 7.4112561399999999 0.0860187700000000 Au
atom 22.9962650599999989 7.4188821799999998 0.0764064700000000 Au
atom 25.8683862699999985 7.4302156799999999 0.1392548700000000 Au
atom 0.4633327300000000 7.3099504299999998 -0.0642087200000000 Au
atom 3.2633575499999998 7.4343221000000002 0.0553482500000000 Au
atom 6.1126905899999997 7.4215448000000004 0.0607898000000000 Au
atom 7.4913885000000002 9.8834906799999995 0.0548813300000000 Au
atom 10.3320233600000009 9.8777781200000003 -0.0009056500000000 Au
atom 13.1361025799999993 9.8934860199999992 0.0323721200000000 Au
atom 15.9636017599999995 9.9029978900000000 0.0458831600000000 Au
atom 18.7800446699999988 9.8684130799999998 0.0394125800000000 Au
atom 21.6095900599999986 9.9121304099999996 0.0495068500000000 Au
atom 24.4597805299999997 9.8698154500000008 0.0721383300000000 Au
atom 27.2401306599999984 10.0051763499999993 0.0564829000000000 Au
atom 1.9116140300000000 9.8427491899999993 0.0639061700000000 Au
atom 4.6864526399999997 9.9022951399999997 0.0156315900000000 Au
atom 8.9264777700000000 12.3539769600000007 -0.0225060300000000 Au
atom 11.6988733400000005 12.3489033999999993 0.0040749600000000 Au
atom 14.5601570700000007 12.3443644199999998 0.0115877800000000 Au
atom 17.3990446799999994 12.3629635300000000 0.0106857700000000 Au
atom 20.2041782400000010 12.3449389499999995 0.0167250200000000 Au
atom 23.0679229899999996 12.3605038900000004 0.0380591300000000 Au
atom 25.8615966399999984 12.2627991499999993 0.0672570400000000 Au
atom 0.4772530200000000 12.3399122400000003 0.0097366100000000 Au
atom 3.2771006300000001 12.3394635600000004 -0.0060774000000000 Au
atom 6.0792885600000002 12.3593755099999996 0.0043323200000000 Au
atom 7.5202261300000002 13.1515285800000008 2.6505343899999998 Au
atom 10.3103974800000007 13.1869549799999994 2.5840091799999998 Au
atom 13.1480528700000008 13.1704048599999997 2.6599592900000002 Au
atom 15.9812458900000003 13.1823493000000003 2.5378897800000000 Au
atom 18.7808787200000005 13.1532614300000006 2.6992064999999998 Au
atom 21.6028942199999996 13.1923595599999999 2.5202439700000001 Au
atom 24.4370101099999992 13.1721734999999995 2.6768765299999999 Au
atom 27.2375761499999989 12.9965246099999998 2.6035083900000000 Au
atom 1.8545053899999999 13.2155991400000001 2.7580297699999998 Au
atom 4.6747034500000000 13.1790652799999997 2.5262757200000001 Au
atom 8.8599779600000002 15.6523352700000000 2.6255842100000000 Au
atom 11.7353016100000005 15.6519401499999997 2.6379999900000000 Au
atom 14.5482458700000006 15.6267309999999995 2.6360970400000001 Au
atom 17.3924795900000007 15.6442908400000000 2.6203981299999999 Au
atom 20.2165255500000001 15.6482251699999999 2.6049891600000001 Au
atom 23.0027888800000007 15.6514475999999991 2.6310472699999998 Au
atom 25.8262546300000011 15.6499345499999993 2.5875540500000000 Au
atom 0.4453563400000000 15.4473320100000002 2.6272798900000001 Au
atom 3.2619557200000000 15.6412905299999991 2.6153236000000000 Au
atom 6.0838377100000001 15.6365454800000006 2.6236295599999999 Au
atom 7.5134814800000003 18.0819201000000014 2.7177173400000001 Au
atom 10.3349150999999999 18.1094781800000000 2.6147993999999999 Au
atom 13.1497126499999997 18.0891311500000000 2.6654723900000001 Au
atom 15.9549765800000003 18.1190919100000016 2.5880918899999998 Au
atom 18.7751445699999984 18.0887081800000011 2.6694386699999999 Au
atom 21.6008731900000015 18.1131880699999996 2.6653708300000001 Au
atom 24.4253146699999988 18.1217931800000009 2.7144081299999998 Au
atom 27.2319729300000013 18.0818959499999998 2.5205608200000000 Au
atom 1.8522336100000001 18.1408818399999987 2.6355884399999998 Au
atom 4.6957645399999999 18.1070823499999989 2.6569712600000002 Au
atom 8.9161597500000003 20.5269985000000013 2.7153068899999999 Au
atom 11.7406822799999997 20.6086380799999986 2.7241152000000000 Au
atom 14.5824494100000006 20.5853139399999989 2.7075771700000000 Au
atom 17.3676144500000014 20.5820352100000008 2.7097575400000000 Au
atom 20.1845041999999992 20.5587161300000005 2.7534915600000001 Au
atom 22.9698267899999991 20.5962055799999995 2.7420880200000002 Au
atom 25.8256705099999984 20.6059624200000009 2.6647523500000001 Au
atom 0.4468610000000000 20.5982633899999996 2.7341334499999999 Au
atom 3.2839509200000001 20.5807557999999986 2.7392150399999999 Au
atom 6.0905876000000001 20.5687084999999996 2.6961958699999999 Au
atom 7.4857283900000002 23.0509022700000017 2.6665009799999999 Au
atom 10.3343234499999994 23.0267107200000005 2.6843614800000002 Au
atom 13.1764635499999994 23.0345823000000003 2.6540399200000002 Au
atom 15.9704552199999998 23.0425435699999994 2.6678463799999999 Au
atom 18.7804168900000015 23.0499548499999989 2.6814005399999998 Au
atom 21.5833156300000013 23.0682805100000010 2.6801962600000002 Au
atom 24.4122065100000007 23.0350265800000003 2.6995866400000001 Au
atom 27.2337917800000007 22.9922564600000001 2.6764748100000002 Au
atom 1.8732255300000000 23.0448747199999993 2.6771196800000001 Au
atom 4.7140015899999996 23.0605248500000002 2.6700803299999998 Au
atom 8.9225052500000004 25.4878029499999990 2.7072194199999999 Au
atom 11.7400367299999999 25.5335744899999995 2.6950173099999999 Au
atom 14.5702270400000007 25.5143206700000000 2.7521208399999999 Au
atom 17.3913498500000010 25.5422647000000005 2.7224298000000000 Au
atom 20.1783776000000010 25.5265669300000013 2.7132257399999999 Au
atom 23.0413402299999994 25.5605642800000012 2.7224661000000001 Au
atom 25.8327435500000000 25.5306726899999994 2.7039831500000000 Au
atom 0.4474256900000000 25.6286652400000001 2.7218080400000000 Au
atom 3.2946423100000000 25.5207868799999993 2.7126982800000001 Au
atom 6.0679510099999998 25.5117527700000011 2.7087003300000001 Au
atom 7.4904949099999998 27.9769630800000009 2.6283838199999998 Au
atom 10.3207784399999998 28.0003999999999991 2.7019026500000001 Au
atom 13.1485545599999991 27.9999569100000016 2.6053205300000002 Au
atom 15.9915746399999996 27.9904859799999990 2.7449197500000002 Au
atom 18.8285537400000003 27.9612407599999990 2.5888897499999999 Au
atom 21.6189402400000006 28.0228706099999982 2.6924124100000002 Au
atom 24.4222190099999992 27.9977025300000015 2.6361989399999999 Au
atom 27.2374777200000011 28.2390350699999999 2.5582758900000000 Au
atom 1.8428685899999999 28.0322816800000005 2.5763440399999999 Au
atom 4.6717458499999998 27.9889338000000016 2.6971704299999999 Au
atom 8.9516290099999996 30.4787181899999986 2.6134112900000002 Au
atom 11.7625090100000005 30.4682585099999983 2.6266434099999998 Au
atom 14.5374256400000004 30.4544579199999994 2.6414304999999998 Au
atom 17.4057364800000016 30.4588623100000007 2.6506963600000000 Au
atom 20.1445947099999998 30.4514769799999989 2.6391126100000002 Au
atom 23.0159839099999992 30.4817590100000011 2.6488240699999999 Au
atom 25.8454596700000003 30.4815980599999996 2.6133775099999998 Au
atom 0.4774167500000000 30.4253587500000009 2.6944999100000002 Au
atom 3.2806713699999999 30.4346798400000011 2.6381554999999999 Au
atom 6.1206140600000003 30.4842400600000012 2.6362877700000000 Au
atom 7.5149925499999997 32.9350900100000032 2.5650827899999999 Au
atom 10.3128591499999995 32.9249022199999999 2.6539470600000001 Au
atom 13.1541609699999995 32.9336114899999970 2.5172368199999999 Au
atom 15.9380215500000002 32.9373288299999984 2.6449490500000001 Au
atom 18.8068662099999990 32.9250929999999968 2.5684217199999999 Au
atom 21.5914525200000007 32.9022757299999995 2.6522046200000000 Au
atom 24.4215585399999995 32.9377295800000027 2.5608914999999999 Au
atom 27.2363404500000001 32.9520828599999973 2.7875003399999998 Au
atom 1.8479129200000000 32.9430140400000013 2.5484925899999999 Au
atom 4.6891196300000004 32.9259710299999995 2.6413656799999998 Au
atom 8.8798186900000005 35.3883269000000027 2.6471896099999999 Au
atom 11.7787854400000001 35.3890561600000026 2.6738276100000000 Au
atom 14.5442315299999994 35.3867445500000031 2.6324619199999999 Au
atom 17.3774595800000000 35.3835615799999985 2.6411855900000001 Au
atom 20.2211615299999998 35.3542062300000026 2.6477252899999999 Au
atom 23.0481229200000008 35.3787948299999968 2.6535367700000001 Au
atom 25.8026348100000007 35.4370459699999998 2.6836496300000001 Au
atom 0.4569742400000000 35.2442025000000001 2.5280070399999999 Au
atom 3.2763776700000000 35.3803121899999979 2.6556367299999999 Au
atom 6.1044668599999996 35.3787915099999992 2.6632192799999999 Au
atom 7.6832313000000001 37.8889228999999972 2.6568717700000000 Au
atom 10.5791697100000004 37.8132136600000024 2.4678221200000001 Au
atom 13.2185644599999996 37.8793417700000035 2.8121695799999999 Au
atom 16.0641339700000003 37.8175892699999991 2.7719490000000002 Au
atom 18.8102425999999987 37.8263531599999965 2.6100246700000000 Au
atom 21.5967979200000002 37.8443916200000032 2.6804426600000002 Au
atom 24.3539413200000006 37.8487933400000003 2.6689706499999999 Au
atom 27.2776989900000011 38.1819394600000024 2.8822215799999999 Au
atom 2.0178422800000000 37.8232228800000030 2.4427588000000000 Au
atom 4.9948281200000002 37.8163963100000018 2.5449740799999998 Au
atom 8.9091691100000006 0.8720218300000000 2.7524842800000000 Au
atom 11.8423564700000004 0.8146204000000000 2.7813055699999998 Au
atom 14.4859065800000000 0.8298498200000000 2.6964063600000001 Au
atom 17.1557108700000001 0.8236208800000000 2.8517687500000002 Au
atom 20.0421910099999998 0.8582383400000000 2.6572833800000000 Au
atom 22.9298516499999998 0.8808439400000000 2.6681508500000000 Au
atom 25.9062808599999990 0.7863138100000000 2.6726084200000000 Au
atom 0.2701291100000000 0.9324905100000001 2.6176081800000000 Au
atom 3.2486224500000001 0.8354164600000000 2.6144121000000000 Au
atom 6.1534476700000003 0.8508730799999999 2.7235388800000000 Au
atom 7.5096778200000003 3.3286416499999998 2.6914049800000002 Au
atom 10.3383182999999992 3.2978085799999999 2.6825490500000000 Au
atom 13.1476386999999999 3.3088684000000002 2.6676669899999998 Au
atom 15.9480857500000006 3.2504286300000000 2.6787005000000002 Au
atom 18.8061558499999997 3.3295504199999999 2.7427226999999998 Au
atom 21.5790708500000008 3.2470897600000002 2.6934767300000000 Au
atom 24.4203254299999983 3.3354215300000001 2.6693903099999998 Au
atom 27.2488846299999992 3.5518789599999998 2.5612468200000000 Au
atom 1.9046033000000000 3.3608046900000002 2.6555224700000002 Au
atom 4.7035590200000001 3.2880888000000001 2.6761489300000001 Au
atom 8.9331020100000007 5.7956320000000003 2.7327725100000002 Au
atom 11.7353811500000003 5.7688512599999999 2.7118408600000001 Au
atom 14.5319901100000006 5.7820460799999998 2.7099860599999999 Au
atom 17.3660209200000004 5.7891903800000000 2.7310790100000002 Au
atom 20.2185112300000007 5.7679645700000002 2.7035122700000001 Au
atom 22.9954088200000015 5.7368091500000000 2.7210075599999999 Au
atom 25.8324297200000004 5.7577462300000004 2.6862896500000000 Au
atom 0.4719821300000000 5.9570374199999998 2.6597067399999998 Au
atom 3.2816792200000000 5.8203831800000003 2.7406223500000002 Au
atom 6.0744823099999996 5.7797698899999999 2.7166774700000000 Au
atom 7.5092790100000002 8.2811823300000000 2.6842427899999999 Au
atom 10.3253618100000004 8.2368352399999996 2.5934168299999998 Au
atom 13.1632611599999994 8.2807738000000004 2.7039709699999999 Au
atom 15.9569452300000005 8.2822671000000003 2.6335533899999999 Au
atom 18.7842073800000016 8.2635493100000001 2.6877898299999998 Au
atom 21.6158146500000008 8.2532581500000006 2.5955945900000001 Au
atom 24.4539449699999984 8.2696593400000005 2.7037518600000001 Au
atom 27.2542556900000008 8.1878459800000005 2.6399970000000001 Au
atom 1.8879889200000000 8.2228704500000003 2.7319494999999998 Au
atom 4.6945739399999997 8.2448236599999998 2.6188498700000000 Au
atom 8.9465378700000002 10.7351577099999993 2.6584650299999999 Au
atom 11.7415151800000004 10.7186495799999992 2.6358866100000000 Au
atom 14.5826132499999996 10.7375350500000000 2.6587589100000000 Au
atom 17.3519520199999988 10.7486313500000001 2.6553138299999999 Au
atom 20.1795024699999992 10.7024179999999998 2.6138264100000002 Au
atom 23.0164521499999992 10.7116587600000006 2.6249863100000002 Au
atom 25.8193614599999997 10.7266641899999993 2.7250934600000001 Au
atom 0.4707576600000000 10.8165375800000003 2.6305382800000001 Au
atom 3.2855674800000001 10.7389686700000002 2.6567413700000002 Au
atom 6.0459915100000003 10.7200591099999993 2.6324281599999999 Au
atom 7.4980844900000001 13.1620293000000004 5.6999076400000002 Cl
atom 7.5190279200000001 15.9899598500000000 8.5360054600000002 Cl
atom 7.4922862900000000 13.1683475600000008 8.3508037000000002 Na
atom 7.5111651000000004 16.0411554900000013 5.7927514400000000 Na
atom 7.5035297600000002 18.8086247600000007 5.7219523600000004 Cl
atom 7.4807539600000004 21.6160469599999985 8.5690917599999992 Cl
atom 7.5000229300000001 18.8001233700000014 8.3973144000000008 Na
atom 7.4863998900000004 21.6218870800000005 5.8035497400000002 Na
atom 7.4809207500000001 24.4358480600000014 5.7388471200000000 Cl
atom 7.4876144099999999 27.2484298500000008 8.6027285399999993 Cl
atom 7.4965486600000002 24.4412691200000012 8.3941792100000008 Na
atom 7.4853789600000002 27.2433332300000011 5.8230197900000000 Na
atom 7.5063521399999997 30.0667974200000003 5.7217937200000000 Cl
atom 7.5263816500000003 32.9221033600000013 8.5755419699999997 Cl
atom 7.4757049100000001 30.0709055800000016 8.3564862400000006 Na
atom 7.4977793699999999 32.9177459200000015 5.7912390299999998 Na
atom 7.4940762899999998 35.7579335300000025 5.6947608499999998 Cl
atom 7.2986029400000003 38.5436962400000027 8.6355785500000000 Cl
atom 7.4969185600000001 35.7245886600000020 8.3634644599999994 Na
atom 7.5808912900000003 38.5821807900000024 5.8393417200000002 Na
atom 7.4255477200000000 1.9084253000000000 5.7627785400000002 Cl
atom 7.5208768700000004 4.7255725499999999 8.5492087399999992 Cl
atom 7.3971435300000001 1.9066438699999999 8.3194850299999992 Na
atom 7.4835802400000002 4.7088013699999998 5.8203620699999998 Na
atom 7.5095179099999996 7.5329976500000004 5.7027459800000004 Cl
atom 7.4736446499999998 10.3444477700000004 8.5096106900000006 Cl
atom 7.4773196799999999 7.5364084399999998 8.3932114900000006 Na
atom 7.5066081000000002 10.3238546000000007 5.7768475500000003 Na
atom 10.3430551499999996 13.1825245800000008 5.8364818800000000 Na
atom 13.1426329499999994 13.1634520800000008 5.6837010100000001 Cl
atom 10.3477692500000007 15.9780799099999999 8.3367822399999998 Na
atom 13.1494386399999996 15.9834576599999991 8.5356034699999999 Cl
atom 13.1353435199999993 13.1731211600000009 8.3763480300000008 Na
atom 10.3172357500000000 13.1673442000000005 8.5547563699999998 Cl
atom 13.1724425800000002 15.9925757900000001 5.7864467700000004 Na
atom 10.2990854100000000 15.9941702899999996 5.7020615799999996 Cl
atom 10.3235765799999992 18.8220479800000007 5.7972572400000004 Na
atom 13.1369205999999998 18.8331849300000016 5.7171361000000003 Cl
atom 10.3325535399999993 21.6265653299999983 8.3856586400000008 Na
atom 13.1279646900000007 21.6279223599999995 8.5496884800000004 Cl
atom 13.1586136099999997 18.7728137400000001 8.3351469900000001 Na
atom 10.3186955099999995 18.8111702799999989 8.5788326300000008 Cl
atom 13.1214567100000004 21.6415378499999989 5.8488938700000004 Na
atom 10.3191036599999997 21.6427963000000005 5.7620895299999999 Cl
atom 10.3424169199999998 24.4435899300000017 5.7572671700000004 Na
atom 13.1213658899999999 24.4343978799999988 5.7251636699999997 Cl
atom 10.3173865300000003 27.2564486700000010 8.3639804899999994 Na
atom 13.1435053899999996 27.2594424400000008 8.5641712099999996 Cl
atom 13.1384583300000006 24.4200016399999988 8.4074841300000003 Na
atom 10.3247628400000000 24.4565802900000016 8.5489672199999998 Cl
atom 13.1553710600000002 27.2387660899999986 5.8004134599999997 Na
atom 10.3084750199999995 27.2669449700000008 5.7647222300000003 Cl
atom 10.3232407500000001 30.0696213199999995 5.7828995599999997 Na
atom 13.1103586599999993 30.0765898800000002 5.6960847100000001 Cl
atom 10.3309241499999995 32.8947159499999984 8.3475214900000001 Na
atom 13.0982197700000000 32.9077022700000015 8.5520602100000005 Cl
atom 13.1445697399999997 30.0786510400000004 8.3673533500000001 Na
atom 10.3066907800000003 30.0846712499999995 8.5668735799999993 Cl
atom 13.1285038299999997 32.9299784700000018 5.8128701300000003 Na
atom 10.2997902799999999 32.9074977100000012 5.7063052399999998 Cl
atom 10.3022167699999994 35.7355067299999973 5.8038762100000003 Na
atom 13.1304660599999998 35.7464739300000005 5.7136154499999998 Cl
atom 10.5133982100000001 38.5814464799999968 8.1984611100000002 Na
atom 13.1993898299999994 38.5565184499999987 8.6092822600000005 Cl
atom 13.1079609500000007 35.7201544200000001 8.3501277399999996 Na
atom 10.2943589200000005 35.7263922300000019 8.5518287999999991 Cl
atom 13.1984501099999996 38.5687751500000005 5.7578230699999997 Na
atom 10.3368791000000009 38.5573947700000019 5.9771312900000000 Cl
atom 10.3348411599999999 1.9208060600000001 5.8008241800000002 Na
atom 13.0007544700000004 1.8915410300000000 5.7430872099999997 Cl
atom 10.2892933299999996 4.7372943599999999 8.3946641900000003 Na
atom 13.1491115000000001 4.7047957800000004 8.5898394099999997 Cl
atom 12.9826992000000008 1.9081869600000001 8.4272481500000005 Na
atom 10.3402169300000004 1.8823253099999999 8.5474250499999993 Cl
atom 13.1328338400000000 4.7479084900000004 5.8294279800000002 Na
atom 10.3053788999999991 4.7028201799999998 5.7385125900000000 Cl
atom 10.3189163900000000 7.5006328099999999 5.8389461699999998 Na
atom 13.1493700499999999 7.5270217300000004 5.7309468099999998 Cl
atom 10.3256804800000008 10.3794333499999993 8.3954333900000009 Na
atom 13.1576955499999997 10.3425619300000005 8.5413699699999999 Cl
atom 13.1585012799999994 7.5633529800000003 8.3899786600000006 Na
atom 10.3253493200000008 7.5272782899999999 8.5886994899999998 Cl
atom 13.1365791499999993 10.3195877700000000 5.8142315800000004 Na
atom 10.3297985699999995 10.3338935799999998 5.7122622400000003 Cl
atom 15.9362188499999995 13.1865190400000003 5.8015083199999999 Na
atom 18.8162496499999996 13.1594130000000007 5.7193534100000001 Cl
atom 15.9415923999999993 16.0069383400000014 8.3776912299999999 Na
atom 18.7806843800000003 15.9798765500000002 8.5315810899999995 Cl
atom 18.7905486599999989 13.1645939799999994 8.4007016199999995 Na
atom 15.9553055500000003 13.1546041700000007 8.5616480999999993 Cl
atom 18.7990294099999993 16.0140567099999984 5.8206822699999998 Na
atom 15.9871350900000007 15.9833470200000001 5.7362658299999998 Cl
atom 15.9593374800000003 18.8383655499999989 5.8286137900000003 Na
atom 18.7827921800000013 18.8195401699999998 5.7321624399999997 Cl
atom 15.9589871100000007 21.6270491299999996 8.3898708800000001 Na
atom 18.8019703599999985 21.5998752299999985 8.5460777799999992 Cl
atom 18.7692160199999982 18.8077897599999986 8.3664495300000006 Na
atom 15.9562440599999995 18.8106093399999992 8.5806088700000007 Cl
atom 18.7939452200000012 21.5938224000000005 5.8123343800000002 Na
atom 15.9780272100000005 21.6184807399999990 5.7307475700000001 Cl
atom 15.9890083099999991 24.4546823899999985 5.8431582400000002 Na
atom 18.7780352499999985 24.4319604099999985 5.7336751200000000 Cl
atom 15.8963957499999999 27.2497470399999990 8.3383574800000009 Na
atom 18.7754945199999987 27.2674373099999983 8.5676285500000002 Cl
atom 18.7601886799999988 24.4289696099999993 8.3976504700000003 Na
atom 15.9394475300000007 24.4422145600000000 8.5754322500000004 Cl
atom 18.7649392000000006 27.2296169799999994 5.8482179700000003 Na
atom 15.9429675500000005 27.2401423399999985 5.7082321199999999 Cl
atom 15.9683407299999995 30.0471154300000016 5.7976806700000001 Na
atom 18.7594082100000001 30.0724723099999984 5.7054413400000001 Cl
atom 15.9656636699999996 32.9045776800000027 8.3837690200000008 Na
atom 18.7573869799999997 32.9157841299999987 8.5890477799999996 Cl
atom 18.7839974500000011 30.0732123599999994 8.3804086699999996 Na
atom 15.9639251600000005 30.0852057799999990 8.5521859500000001 Cl
atom 18.7922556800000002 32.9104012299999980 5.8072654799999999 Na
atom 15.9607280700000000 32.8973564699999983 5.7107918399999997 Cl
atom 15.9532514100000000 35.7269658600000000 5.8053698799999998 Na
atom 18.7641589300000007 35.7521538700000008 5.7128824399999996 Cl
atom 15.7172574300000001 38.5006942600000031 8.4658348700000001 Na
atom 18.7264816600000010 38.5368836000000030 8.5870084099999993 Cl
atom 18.7867138599999990 35.7463626999999988 8.3883976199999992 Na
atom 15.9403760600000002 35.7205345300000019 8.5332431000000000 Cl
atom 18.7363374200000017 38.5849864300000007 5.8281067799999997 Na
atom 15.8825821000000005 38.5537193899999977 5.6106242399999999 Cl