#===============================================================================
# Created using the Atomic Simulation Environment (ASE)

# Tue Dec 23 22:26:47 2025

#=======================================================
lattice_vector 28.1999999999999993 0.0000000000000000 0.0000000000000000 
lattice_vector 0.0000000000000000 39.4799999999999969 0.0000000000000000 
lattice_vector 0.0000000000000000 0.0000000000000000 62.3296083400000001 
atom 7.4050314400000001 14.7607212000000008 0.2675825900000000 Au
atom 10.2643401999999995 14.7722278399999993 -0.0538369700000000 Au
atom 13.0577697399999995 14.6771368500000001 0.2773387100000000 Au
atom 15.9112490599999994 14.6862788099999992 -0.1634287000000000 Au
atom 18.7775601999999999 14.8007624399999997 -0.2691360900000000 Au
atom 21.6651976899999994 14.8069766400000002 -0.1201489400000000 Au
atom 24.3883487000000017 14.7940711399999998 -0.1283839900000000 Au
atom 27.2556791599999997 14.8218196599999992 -0.1558416700000000 Au
atom 1.7446175799999999 14.8135701300000004 -0.0243173700000000 Au
atom 4.5566491200000003 14.7405577300000008 0.3222346100000000 Au
atom 8.9642322399999994 17.1837316899999983 0.3187157800000000 Au
atom 11.6774160100000000 17.1075754999999994 0.0765370000000000 Au
atom 14.5781457999999997 17.1436212200000000 0.0441925600000000 Au
atom 17.3659246500000002 17.2524617000000013 -0.1755374800000000 Au
atom 20.2026262400000007 17.2353030099999991 -0.1250479100000000 Au
atom 22.9876372700000005 17.2676835500000010 0.1763315400000000 Au
atom 25.8357750099999990 17.1714802499999983 -0.0357316500000000 Au
atom 0.3965461900000000 17.2611785100000006 -0.0899888600000000 Au
atom 3.1778241899999999 17.2493508700000007 0.2199529400000000 Au
atom 6.0492289399999999 17.2266174700000008 0.4671119500000000 Au
atom 7.4058122099999997 19.6043842099999992 0.0508574400000000 Au
atom 10.3038184699999995 19.5686038499999988 0.0598160500000000 Au
atom 13.1100402299999992 19.5403057800000006 0.2116714800000000 Au
atom 16.0447414500000001 19.5755453499999987 0.2173968300000000 Au
atom 18.8155836500000007 19.6371293800000011 0.0284634400000000 Au
atom 21.6624332099999997 19.8726292300000011 0.0143682100000000 Au
atom 24.5302239700000015 19.6396939099999983 0.0602663300000000 Au
atom 27.3296726899999989 19.9742040799999998 0.2170498300000000 Au
atom 1.8733490600000000 19.6542404300000015 0.4521964100000000 Au
atom 4.6601232499999998 19.6645096799999983 0.0952394000000000 Au
atom 9.0028115000000000 22.1318921499999988 -0.1375761900000000 Au
atom 11.6410360199999996 22.0875698500000013 -0.0039076100000000 Au
atom 14.5695668600000001 21.9843555500000001 0.1705352700000000 Au
atom 17.4211092799999996 21.9983389500000008 0.1906924100000000 Au
atom 20.1933676400000017 22.1499992699999986 0.0125009600000000 Au
atom 23.1739316899999999 22.1730304400000016 0.2352308900000000 Au
atom 25.9553924199999990 22.1846288200000004 0.2633810500000000 Au
atom 0.5000977500000000 22.2848061800000004 -0.0100381800000000 Au
atom 3.3380892599999998 22.1995620199999983 0.2786385500000000 Au
atom 6.1793445399999998 22.0420011699999989 0.0539611900000000 Au
atom 7.4720112500000004 24.6912922399999992 -0.0501188700000000 Au
atom 10.3276839200000001 24.6560440900000017 -0.0762931300000000 Au
atom 13.2234051499999996 24.5005071699999988 -0.1258567400000000 Au
atom 15.9657781199999995 24.5834957500000009 0.0568027800000000 Au
atom 18.8019099199999999 24.6690482700000011 -0.0824263200000000 Au
atom 21.6107188900000011 24.6000370400000001 0.0263781700000000 Au
atom 24.4391814700000012 24.6123583100000012 0.0497763700000000 Au
atom 27.2412860700000010 24.6642943800000012 0.1345004200000000 Au
atom 1.8566269300000000 24.6127728499999989 -0.1238832800000000 Au
atom 4.6979639300000002 24.5159182700000002 -0.1125886700000000 Au
atom 8.9187778600000005 27.1342307799999993 -0.0915189700000000 Au
atom 11.7496509800000002 27.0856735499999992 0.0522671500000000 Au
atom 14.5183652199999997 27.0138759099999994 -0.1254652300000000 Au
atom 17.4083159999999992 27.0963299299999996 0.0098003800000000 Au
atom 20.1135818999999998 27.0688414100000010 -0.0497560500000000 Au
atom 23.0238124800000001 26.9792570299999994 -0.1244614400000000 Au
atom 25.8371953900000015 27.1121672800000013 -0.1943331700000000 Au
atom 0.4574649000000000 27.0083278200000017 -0.2401362200000000 Au
atom 3.2393764500000000 27.0924869100000016 -0.0800895300000000 Au
atom 6.0508212700000001 27.0133753399999996 -0.0640924800000000 Au
atom 7.5081542900000002 29.6805930300000007 -0.0808827200000000 Au
atom 10.2677096199999998 29.6433326900000012 0.1695450800000000 Au
atom 13.0340288399999995 29.5233099599999989 -0.2209704100000000 Au
atom 15.9450719099999993 29.4533563500000000 -0.2451398700000000 Au
atom 18.7689367400000009 29.6068723899999995 -0.2622383800000000 Au
atom 21.6044528000000007 29.5709707799999997 -0.0388408400000000 Au
atom 24.4466588000000016 29.4748670299999986 0.0298661100000000 Au
atom 27.2658987599999989 29.4768344800000008 0.0232408500000000 Au
atom 1.8921191900000001 29.7161438699999998 -0.0127462800000000 Au
atom 4.7062365200000000 29.6455565099999987 0.1317021300000000 Au
atom 8.8906974499999993 32.0773417699999968 -0.0085974100000000 Au
atom 11.7758728099999992 31.9468825400000007 0.0616470500000000 Au
atom 14.5281146799999998 31.9526821199999986 0.1342244900000000 Au
atom 17.2844704299999989 32.0252481400000022 -0.0932332200000000 Au
atom 20.1578979599999997 32.0571192000000025 -0.1655164800000000 Au
atom 23.0671121100000001 32.0197323200000028 -0.2093706800000000 Au
atom 25.7823837699999991 32.1057176600000034 -0.1451374600000000 Au
atom 0.2963135100000000 32.0177832899999970 0.0512575700000000 Au
atom 3.1440943600000000 32.1489712600000033 -0.1069112800000000 Au
atom 6.0256034400000003 32.0759758499999990 -0.0100912900000000 Au
atom 7.5624418200000001 34.5100826299999994 -0.1295385200000000 Au
atom 10.2558823199999996 34.4633250600000025 -0.0452742900000000 Au
atom 12.9964885100000007 34.4217989400000022 -0.0319617000000000 Au
atom 15.7949063499999998 34.3993370800000022 -0.3175886200000000 Au
atom 18.7848043599999990 34.4779003900000021 -0.2032650600000000 Au
atom 21.5882988599999983 34.5544544600000023 -0.2491310900000000 Au
atom 24.4366172500000012 34.5618675999999994 0.1177243000000000 Au
atom 27.1964818199999989 34.5614004600000015 -0.1620925200000000 Au
atom 1.6889864900000000 34.5506678300000019 0.0472347900000000 Au
atom 4.7431116099999997 34.4838044099999976 0.0595692600000000 Au
atom 8.7668780900000005 37.0203850099999983 0.0067819900000000 Au
atom 11.5938698099999993 36.9716200299999969 -0.0395007200000000 Au
atom 14.4925216399999996 36.8997640300000000 0.0346026500000000 Au
atom 17.4169296699999983 36.9170357499999966 -0.0184540400000000 Au
atom 20.3887356000000004 37.0474601900000025 -0.0425786000000000 Au
atom 22.9104634099999984 37.0416352900000021 0.4936896100000000 Au
atom 25.7243578900000003 37.1140720499999972 0.2804220600000000 Au
atom 0.3530869800000000 37.0333432500000015 0.1322047400000000 Au
atom 3.1627657400000002 36.9731099600000022 -0.0826949100000000 Au
atom 6.1810791399999996 36.8231351700000005 0.4594350700000000 Au
atom 7.3313793199999999 -0.1084405300000000 0.3531405400000000 Au
atom 10.2981918799999992 -0.0219097000000000 0.1079437300000000 Au
atom 13.1447117900000006 -0.0338323700000000 -0.0825609500000000 Au
atom 16.1312396800000002 -0.1739286000000000 0.3795169600000000 Au
atom 18.7366778300000014 -0.0391444000000000 0.1651281000000000 Au
atom 21.5450077600000007 -0.0134657700000000 0.1971814300000000 Au
atom 24.1948053700000010 -0.0235614500000000 0.4344812800000000 Au
atom 27.2706708099999986 -0.0391898400000000 0.3011170600000000 Au
atom 1.7973707200000000 -0.0719005600000000 0.0474013500000000 Au
atom 4.7066634199999999 0.0168178800000000 0.3590281000000000 Au
atom 8.7261543899999996 2.4209362300000001 0.5329886900000000 Au
atom 11.5137444900000006 2.4984839999999999 0.0842270900000000 Au
atom 14.4456217700000007 2.5079344200000002 0.3418260100000000 Au
atom 17.4040559100000003 2.3939435499999999 0.1858169400000000 Au
atom 20.1531032699999990 2.3494319899999998 0.1550268700000000 Au
atom 22.8878619500000013 2.3416506199999998 -0.0849283900000000 Au
atom 25.7205717100000015 2.4231593600000001 -0.0432866200000000 Au
atom 0.2805509600000000 2.3313640599999998 0.1421922800000000 Au
atom 3.1596004400000002 2.4541585200000000 0.2072774200000000 Au
atom 5.9387409599999996 2.4821951300000000 0.1530344100000000 Au
atom 7.2934536200000002 4.8151990700000002 0.2448886300000000 Au
atom 10.1282477300000000 4.8553998800000002 0.1297698600000000 Au
atom 13.0638984899999997 4.8719312800000001 0.0681926300000000 Au
atom 15.8683724799999997 4.9695780899999997 0.2018930200000000 Au
atom 18.7682028000000010 4.9405757599999998 0.1618596300000000 Au
atom 21.4502446599999992 4.9094161200000004 0.0182230300000000 Au
atom 24.3224271700000010 4.9096530500000002 -0.1800962000000000 Au
atom 27.0904964799999988 4.8279351799999999 0.0438359500000000 Au
atom 1.8021754000000001 4.8300655900000002 0.0851747700000000 Au
atom 4.6150833499999999 4.9542930700000003 0.2102447800000000 Au
atom 8.8261303299999998 7.2873462599999996 -0.0752710400000000 Au
atom 11.6359777500000003 7.2960465499999998 0.0699595200000000 Au
atom 14.5200935700000002 7.3417324800000001 -0.1043347300000000 Au
atom 17.3787870200000008 7.3553495800000004 -0.2773468400000000 Au
atom 20.1678984399999983 7.3812673599999998 -0.2599851200000000 Au
atom 23.0655074099999986 7.3214405500000002 -0.2979917400000000 Au
atom 25.7888623400000014 7.3896302100000000 -0.1259668200000000 Au
atom 0.3441739500000000 7.1773431800000003 0.1586865900000000 Au
atom 3.2104206500000001 7.3872716599999997 0.1633717200000000 Au
atom 6.0664852800000002 7.3690256500000002 -0.1764876900000000 Au
atom 7.3229231600000002 9.9215837600000008 0.1906395800000000 Au
atom 10.2291911100000004 9.8544213599999999 0.0310913300000000 Au
atom 13.1508642800000004 9.8182193800000004 0.0053339300000000 Au
atom 15.9410495399999999 9.6932161000000008 -0.2261772000000000 Au
atom 18.7326464600000016 9.8217193300000005 -0.1062658800000000 Au
atom 21.6388420199999985 9.8627843399999993 -0.5262129000000000 Au
atom 24.2758468100000009 9.8454187799999993 -0.2361358600000000 Au
atom 27.1450235500000012 9.7928104200000003 -0.2597181400000000 Au
atom 1.7917410400000000 9.7515815099999994 0.1627877600000000 Au
atom 4.5797258599999999 10.0364491000000005 -0.1192024400000000 Au
atom 8.8027682400000007 12.3357203000000002 0.0447347000000000 Au
atom 11.6211896600000006 12.2893687200000006 0.1441973200000000 Au
atom 14.5085223899999995 12.2403127299999994 -0.0081345300000000 Au
atom 17.3527289899999992 12.3071824799999998 -0.2780459000000000 Au
atom 20.1317107700000015 12.2756872300000008 -0.2187748800000000 Au
atom 22.9174778299999993 12.3960484300000005 -0.2086984200000000 Au
atom 25.6639434299999998 12.4280746999999998 -0.1136950900000000 Au
atom 0.3557078000000000 12.3860242300000003 0.0524734500000000 Au
atom 3.1345660199999998 12.3588411300000001 -0.0438757600000000 Au
atom 6.0070254199999997 12.3589406299999993 0.1147153000000000 Au
atom 7.4099494899999998 13.2431773300000000 2.6579644099999999 Au
atom 10.2523936100000004 13.2022831099999998 2.7231978500000000 Au
atom 13.0557849899999994 13.0433239400000005 2.8336314599999999 Au
atom 15.9546259599999996 13.1389423000000001 2.4496378100000000 Au
atom 18.7685357800000006 13.0626634399999997 2.3124369499999999 Au
atom 21.6646596600000017 13.1905887600000007 2.4278320400000002 Au
atom 24.3939469399999993 13.0694124200000008 2.3613909300000002 Au
atom 27.2919570000000000 13.1666274699999999 2.4511620800000000 Au
atom 1.8502502199999999 13.2026530100000006 2.6043402100000002 Au
atom 4.6642324799999999 13.1403441900000004 2.7989832300000002 Au
atom 8.9026886600000008 15.6557804899999997 2.6683374299999998 Au
atom 11.6577149400000000 15.5237338699999992 2.7164782700000001 Au
atom 14.5062993400000000 15.4416440799999997 2.7463466699999999 Au
atom 17.3770922299999988 15.5663040299999995 2.4501647300000000 Au
atom 20.1308590299999999 15.5703322600000007 2.3902295400000000 Au
atom 22.9966252400000002 15.6501443400000007 2.4632155999999998 Au
atom 25.8291917099999999 15.6947380600000006 2.5802672699999998 Au
atom 0.4866041300000000 15.6409471799999995 2.5609131299999999 Au
atom 3.2007638200000001 15.7090623699999998 2.7638222099999998 Au
atom 5.9970099599999998 15.6027596699999993 3.0662590800000000 Au
atom 7.4696952500000000 18.2334247900000008 2.7972169800000000 Au
atom 10.2455733900000006 18.1134006300000010 2.7233738399999998 Au
atom 13.0870083699999995 17.8651309100000013 2.6920073900000001 Au
atom 15.8450432400000008 17.9119934600000015 2.8213149799999999 Au
atom 18.6576489300000006 18.0566339000000013 2.3684874699999998 Au
atom 21.3966579000000010 18.1530882499999997 2.6802445100000001 Au
atom 24.4316187700000000 18.1068460000000009 2.7677171999999999 Au
atom 27.1716310999999990 17.8701532400000005 2.7608244599999998 Au
atom 1.8117631000000001 18.1592054099999984 2.9792204099999999 Au
atom 4.6244006700000000 18.1555121899999996 2.9405855299999999 Au
atom 8.9055068199999994 20.6351803700000005 2.5404388500000001 Au
atom 11.7086937300000002 20.4462761800000017 2.7339576399999999 Au
atom 14.4905000899999994 20.3785077600000015 2.7610207700000000 Au
atom 17.1693270300000016 20.3728767200000007 2.8164315599999998 Au
atom 20.0055914799999996 20.6831364300000011 2.5593294700000002 Au
atom 22.9914364599999992 20.4908215799999986 2.6977814000000002 Au
atom 25.8248333700000003 20.7152443999999996 2.6489224000000000 Au
atom 0.3551685100000000 20.6313159199999987 2.9146887100000001 Au
atom 3.2522711100000001 20.6767904899999984 2.9483356299999999 Au
atom 6.1004449300000001 20.5968520099999992 2.6756507599999999 Au
atom 7.5036703400000002 23.0184189400000001 2.5047697000000002 Au
atom 10.4173845899999993 23.0404398300000004 2.5091468899999998 Au
atom 13.0465142699999994 22.9066003299999998 2.5618212100000002 Au
atom 15.8256071600000006 23.0454816899999990 2.6193903000000001 Au
atom 18.7017875199999999 23.1237871199999994 2.6141728700000000 Au
atom 21.5872894500000001 23.0062797199999984 2.7234905999999999 Au
atom 24.4311071999999996 23.0715773800000008 2.8522724300000002 Au
atom 27.2900805800000015 23.0265975999999988 2.5489663000000000 Au
atom 1.8792887700000001 23.0959476300000013 2.6822602700000000 Au
atom 4.7406808399999996 23.1153443199999984 2.7530478600000001 Au
atom 8.8927915399999993 25.5277856999999990 2.4953974200000002 Au
atom 11.6555206600000005 25.4941968599999988 2.5449861100000000 Au
atom 14.4714983400000001 25.4492130299999992 2.6193023100000001 Au
atom 17.2986884299999986 25.4699926000000012 2.6414745900000001 Au
atom 20.2159459300000002 25.5478020800000003 2.8402124799999999 Au
atom 23.0061686600000002 25.4411889500000008 2.5100668700000002 Au
atom 25.7689432300000014 25.6174652899999984 2.6491373700000000 Au
atom 0.4004652300000000 25.5628123100000018 2.6535104500000002 Au
atom 3.2274978700000001 25.5673067699999983 2.5600407500000002 Au
atom 6.1037640099999999 25.4939830900000004 2.4280730799999999 Au
atom 7.5925952800000003 28.0860850500000012 2.2496040700000002 Au
atom 10.3404062499999991 27.9250998700000004 2.7163016600000001 Au
atom 13.2155078600000007 27.9329070299999991 2.3994435799999998 Au
atom 15.9934994400000008 27.8398241400000011 2.4304965500000000 Au
atom 18.7942953899999985 27.9832764500000017 2.4661846100000000 Au
atom 21.6286463600000012 27.9701026500000012 2.4449564600000002 Au
atom 24.4235616299999982 27.9742987200000002 2.7624360800000001 Au
atom 27.2727037800000005 28.2187639700000013 2.5140092500000000 Au
atom 1.8679652600000001 28.0078543099999990 2.3067175899999999 Au
atom 4.6940793500000000 27.9215894300000009 2.6492525699999998 Au
atom 9.0363499100000002 30.4383210700000006 2.6857645400000001 Au
atom 11.7605817300000002 30.3253741999999988 2.5826259500000002 Au
atom 14.6075625099999993 30.3257048299999994 2.4915872499999998 Au
atom 17.4340521899999992 30.4565693000000017 2.3364286900000000 Au
atom 20.2192667600000000 30.4314314699999997 2.4171151200000001 Au
atom 23.0114327299999992 30.4244702199999999 2.5259269700000000 Au
atom 25.8742223899999999 30.6647400499999989 2.5028261800000000 Au
atom 0.4947757200000000 30.3240932500000007 2.5108348500000002 Au
atom 3.3438403499999998 30.5026795399999990 2.4982163700000002 Au
atom 6.2025561700000003 30.4474817900000012 2.7304754500000001 Au
atom 7.4335255000000000 32.8494103999999965 2.3813185300000002 Au
atom 10.2847985499999997 32.9124298300000007 2.4353711200000001 Au
atom 13.2234326899999992 32.8592003600000027 2.7095535800000001 Au
atom 15.9997865899999994 32.8335401499999975 2.5752183000000000 Au
atom 18.8881198999999995 32.8870178000000024 2.5467951200000001 Au
atom 21.7130659399999999 32.8578684000000010 2.3484523099999999 Au
atom 24.4022360399999982 32.8547097000000008 2.5457474300000000 Au
atom 27.2314483400000000 32.8718490899999978 2.5585471700000002 Au
atom 1.9277988200000000 32.8644078600000000 2.5547075100000001 Au
atom 4.6447633599999998 32.9378747800000014 2.5980486100000002 Au
atom 8.8473016300000005 35.2189770600000003 2.6708115900000000 Au
atom 11.7861155100000001 35.3076985499999978 2.6090783300000000 Au
atom 14.6396203899999993 35.2711617599999983 2.3964435800000001 Au
atom 17.4743311199999987 35.2777490900000004 2.4425036499999999 Au
atom 20.2937576600000007 35.3703777599999967 2.4278253699999999 Au
atom 23.0495753900000011 35.3207561299999995 2.9276938200000000 Au
atom 25.8185718199999990 35.2397099800000007 2.6101895599999998 Au
atom 0.5242741600000000 35.2644325300000006 2.5936368700000001 Au
atom 3.2362825700000002 35.4119284599999986 2.4859265100000001 Au
atom 6.0636524900000000 35.2730133800000019 2.8649095899999999 Au
atom 7.2440269400000004 37.8458675199999988 3.0771434300000000 Au
atom 9.9923223500000002 37.7500625699999972 2.6965063300000001 Au
atom 13.2925848400000000 37.8309615399999970 2.6821605700000002 Au
atom 15.9409814399999998 37.6095205900000025 2.8329464500000001 Au
atom 18.7668763200000015 37.7414022900000035 2.6125719699999999 Au
atom 21.5371407999999995 37.8497278999999978 2.8196201599999999 Au
atom 24.5231962400000008 37.7955922499999986 3.0739412100000001 Au
atom 27.3058944500000003 37.5897867199999993 2.7837969000000000 Au
atom 1.7129650000000001 37.8036081300000006 2.5323151899999998 Au
atom 4.5112246000000003 37.8328430500000010 2.8173562200000002 Au
atom 8.4547246699999992 0.7089783100000000 2.9556128500000001 Au
atom 11.6779985699999997 0.9507963500000000 2.6185949100000001 Au
atom 14.7437801400000001 0.7670135200000000 2.8560889899999999 Au
atom 17.2027320900000014 0.7566761100000000 2.7513888799999999 Au
atom 19.9905569700000001 0.8330075000000000 2.6538669200000000 Au
atom 23.1222940799999996 0.9175249599999999 2.7903330799999999 Au
atom 25.8812779299999995 0.8213710900000000 2.9492099000000001 Au
atom 0.5666410100000000 0.7805943500000000 2.7217769999999999 Au
atom 3.2399795400000002 0.9301003300000000 2.7752433299999999 Au
atom 6.0121787299999996 0.8564946300000000 2.7130397799999999 Au
atom 7.3434705200000003 3.2479631100000002 3.0097671799999999 Au
atom 10.2337662100000006 3.3358506200000000 2.9222692900000000 Au
atom 13.0316083400000000 3.2926979099999998 2.6819687800000001 Au
atom 15.9322601899999992 3.3182064400000000 2.6497351099999999 Au
atom 18.6808015699999999 3.3951014700000002 2.8510893899999998 Au
atom 21.5345042400000004 3.3297552600000002 2.4142489899999999 Au
atom 24.3460960799999988 3.2464086999999999 2.4161153199999998 Au
atom 27.1382883100000001 3.1089905700000000 2.6915096500000000 Au
atom 1.7286947600000000 3.4160388600000000 2.8049726200000000 Au
atom 4.6738492699999998 3.3812413299999999 2.7203943700000002 Au
atom 8.7640981900000003 5.6316056000000003 2.8009949700000001 Au
atom 11.6701640599999994 5.7535756300000003 2.8422577100000002 Au
atom 14.4627724200000003 5.7423467400000003 2.8283095199999999 Au
atom 17.3147724899999993 5.8977429900000002 2.7262503300000001 Au
atom 20.2242554100000014 5.7350352100000004 2.7424087300000002 Au
atom 23.0800514099999994 5.7040795900000001 2.3994922200000000 Au
atom 25.8676672699999983 5.7484498100000003 2.5748885700000002 Au
atom 0.3774708900000000 5.7638639800000000 2.7586699600000002 Au
atom 3.1484914200000000 5.7905504900000002 2.6956430100000000 Au
atom 6.0106367599999997 5.8187722800000001 2.9591329599999998 Au
atom 7.4064436000000002 8.1493753299999998 2.3641900499999999 Au
atom 10.1175908900000007 8.1136492400000009 2.5803140800000000 Au
atom 13.0182097399999996 8.0779766199999994 2.6277327900000000 Au
atom 15.8766079900000001 8.2319816600000006 2.4542016400000000 Au
atom 18.7178837000000016 8.3768823700000006 2.3713058500000002 Au
atom 21.5022454799999991 8.2404916299999993 2.2850714700000001 Au
atom 24.3825369599999995 8.1947217600000002 2.3506331899999999 Au
atom 27.2273015299999983 8.3523952500000007 2.2911124900000002 Au
atom 1.8455445399999999 8.2071833999999999 2.8062163800000000 Au
atom 4.6459689500000003 8.2397914500000002 2.4335419599999999 Au
atom 8.8282735900000002 10.6411890200000006 2.7304011300000002 Au
atom 11.5795622100000006 10.5360199500000000 2.6409850700000002 Au
atom 14.4923052999999999 10.5717867900000009 2.5126906600000001 Au
atom 17.2651931500000018 10.7603853699999998 2.4239653500000000 Au
atom 20.2855363000000004 10.6863503800000004 2.2875452500000000 Au
atom 22.9745236599999991 10.7154597000000003 2.2919638000000000 Au
atom 25.9138190500000007 10.7921875099999998 2.4410956499999998 Au
atom 0.3659702700000000 10.6022623199999995 2.7291927600000001 Au
atom 3.1959737200000000 10.6317812499999995 2.7474907700000002 Au
atom 6.0371525300000002 10.6499811999999991 2.8404122200000002 Au
atom 7.7050568999999998 13.5663026999999996 5.9372002400000001 Cl
atom 7.6007841799999998 16.3704131400000001 8.5540829299999999 Cl
atom 7.9375278099999997 13.3884255999999997 8.4702629700000003 Na
atom 7.6498558599999997 16.3538505299999990 5.8677894500000001 Na
atom 7.5214732099999999 19.1768312399999985 5.8652252400000000 Cl
atom 7.6182985700000003 22.2246810500000009 8.7620517800000002 Cl
atom 7.7050864900000002 19.1314493399999996 8.4430753099999993 Na
atom 7.5186183800000004 22.0869525300000014 5.9229934699999998 Na
atom 7.6091226799999996 24.8604047600000015 5.6270019600000003 Cl
atom 7.6433448400000001 27.6580964999999992 8.3953956699999992 Cl
atom 7.6353264899999997 24.8542871699999992 8.3928089499999992 Na
atom 7.6605184800000004 27.6385497399999984 5.8203486599999996 Na
atom 7.6788618099999999 30.3759727400000017 5.7420852499999997 Cl
atom 7.5178020900000000 33.2747509000000008 8.4592538299999998 Cl
atom 7.6603571500000003 30.3844209800000016 8.3460650899999997 Na
atom 7.5977875800000003 33.3959294699999987 5.7554112000000002 Na
atom 7.7895008099999998 36.1618745099999970 5.8248646199999996 Cl
atom 7.5598483900000000 38.7759197600000007 8.6076545200000005 Cl
atom 7.6220672000000000 36.0224190899999996 8.4299696399999995 Na
atom 7.8726519100000001 38.8868702600000020 6.2956688500000002 Na
atom 7.6751405699999999 2.1173903900000002 5.8986946099999997 Cl
atom 7.7667599699999998 4.8588578199999999 8.9196356899999998 Cl
atom 7.8239012700000004 2.0510179399999999 8.5712091299999997 Na
atom 7.7806138100000002 4.7648442800000002 6.0418403100000004 Na
atom 7.6510982099999998 7.4083919800000002 5.8253259399999999 Cl
atom 7.7340808799999996 10.5724003900000003 8.6891445699999998 Cl
atom 7.7622779299999998 7.6244016999999999 8.6081614700000006 Na
atom 7.8401317700000002 10.6345715799999994 5.8551234599999997 Na
atom 10.6154206599999998 13.4978608399999995 5.8470780600000003 Na
atom 13.3523261200000007 13.5308337200000004 5.7235304999999999 Cl
atom 10.4212352199999998 16.2970527599999997 8.5178948800000001 Na
atom 13.2215188500000007 16.5858018399999985 8.3419676500000008 Cl
atom 13.4577198399999993 13.4615743000000005 8.3750981499999995 Na
atom 10.6934108400000003 13.4530222300000002 8.6853368599999996 Cl
atom 13.2739451200000005 16.5534453600000013 5.5903103600000001 Na
atom 10.2187206100000001 16.1414626400000003 5.9291406200000001 Cl
atom 10.4827849400000002 19.0502146600000017 5.8061370500000002 Na
atom 13.2363710999999995 19.2531118100000000 5.8178166999999998 Cl
atom 10.5603293499999999 21.9928540699999999 8.2811353699999994 Na
atom 13.3537675999999994 22.2235591600000006 8.6400195699999998 Cl
atom 13.3487037500000003 19.2886018899999989 8.5739388900000009 Na
atom 10.4218489699999992 19.1698421600000017 8.5422839100000001 Cl
atom 13.3061962400000002 22.0035820700000002 5.6636644199999999 Na
atom 10.4790181499999999 22.1787448100000013 5.6104797399999997 Cl
atom 10.4867068999999997 24.8605807500000004 5.6013043600000003 Na
atom 13.2199835300000004 24.9312792300000012 5.5269375099999998 Cl
atom 10.3862665599999993 27.6577007600000009 8.4845348699999992 Na
atom 13.2969129699999993 27.7764382900000015 8.4345566200000004 Cl
atom 13.1906992800000005 24.9734423200000002 8.1411120500000003 Na
atom 10.4836627700000005 24.8272761799999984 8.3716214099999995 Cl
atom 13.2745556800000006 27.8022224300000005 5.6840432200000004 Na
atom 10.5945498499999999 27.9950658300000015 5.7709479699999999 Cl
atom 10.4526678000000004 30.5934950999999984 5.8009438700000002 Na
atom 13.1714078899999993 30.5475232800000001 5.8289211099999996 Cl
atom 10.5996444400000005 33.3327213099999966 8.4227288399999996 Na
atom 13.2614497999999994 33.4182509899999971 8.5288505400000005 Cl
atom 13.2040540199999992 30.5060884100000003 8.4426708999999995 Na
atom 10.5206625400000000 30.6696524400000001 8.5802615899999992 Cl
atom 13.3236790500000009 33.4304123599999983 5.8613686700000001 Na
atom 10.5382235899999994 33.4359800200000024 5.6378860199999998 Cl
atom 10.5008321700000007 36.1421745999999970 5.8148670400000002 Na
atom 13.3792960999999995 36.2502840499999976 5.6798314500000000 Cl
atom 10.4927655899999994 38.7400591399999996 8.5967989399999993 Na
atom 13.3409504800000001 38.9412848600000032 8.7279442100000004 Cl
atom 13.3529029700000006 36.2021375899999995 8.3894153599999992 Na
atom 10.5777633200000007 36.0073119500000018 8.7382018000000006 Cl
atom 13.2620883799999998 39.0196553800000032 5.6689393399999997 Na
atom 10.7134105200000000 38.9128016299999970 5.7716878400000002 Cl
atom 10.6797495100000006 2.1778564399999998 5.8594629300000003 Na
atom 13.4065639399999998 2.1429182099999999 5.8198896900000001 Cl
atom 10.6304573199999997 5.0095410700000000 8.4722760899999994 Na
atom 13.4876684299999994 4.9461596300000004 8.6496216100000005 Cl
atom 13.4313509799999995 2.3719083300000001 8.6412134799999993 Na
atom 10.7127426499999991 2.2118409400000001 8.5021428399999994 Cl
atom 13.4323100300000000 4.8938691900000002 5.8732260199999997 Na
atom 10.6065937899999998 4.9188580799999997 5.9873353099999997 Cl
atom 10.4375042100000002 7.7907818999999998 5.9769662900000000 Na
atom 13.2659469800000007 7.8435404000000002 5.8897522400000000 Cl
atom 10.5740805800000004 10.6073508099999998 8.5716892999999992 Na
atom 13.3399372599999992 10.5439165199999998 8.5734167600000006 Cl
atom 13.6598307600000002 7.8848542300000002 8.5219009200000002 Na
atom 10.6606119300000000 7.8634377000000004 8.6657354899999994 Cl
atom 13.3322436599999996 10.7959171000000005 5.6973747200000000 Na
atom 10.5174512900000003 10.7584509300000004 5.8312444899999996 Cl
atom 16.1409208100000008 13.8173314699999992 5.6267117300000002 Na
atom 19.0870156599999987 13.5477362299999999 5.6340071900000002 Cl
atom 16.2416386099999990 16.2634520500000015 8.5178147000000006 Na
atom 19.2260663899999997 16.2076360400000006 8.6890729600000007 Cl
atom 19.2114939299999996 13.4410215399999995 8.1500289800000001 Na
atom 16.2105873600000017 13.4779981800000002 8.2416040200000005 Cl
atom 19.1078243400000005 16.3080359199999982 5.7575026500000002 Na
atom 16.5062051099999998 16.5175321199999985 5.7772790299999999 Cl
atom 16.0485231900000009 19.2004258800000009 5.9663643600000000 Na
atom 19.0283149000000016 19.2764799800000013 5.6684105200000001 Cl
atom 16.1778017600000013 22.3820179400000008 8.6015773699999993 Na
atom 18.9650668200000005 22.0861098799999986 8.2885298299999999 Cl
atom 18.9984605000000002 19.2866135099999987 8.4367836399999998 Na
atom 16.2003596600000002 19.1917149199999990 8.5261732099999996 Cl
atom 19.1851499499999996 21.9448859100000000 5.6031801600000000 Na
atom 16.0559449399999998 21.9227487200000013 5.9456317600000004 Cl
atom 16.1334726500000016 24.9795819600000009 5.5915112200000001 Na
atom 19.2105732300000014 24.9253639299999996 5.8205625699999999 Cl
atom 16.0730571100000006 27.8448858299999991 8.2025323900000000 Na
atom 19.0324925900000004 27.8098124499999990 8.5256984300000003 Cl
atom 18.9626744000000009 24.7573415600000004 8.3877227699999999 Na
atom 16.0105854399999998 25.1774416000000016 8.1352163300000004 Cl
atom 18.9360200700000014 27.8539215700000007 5.8767470199999998 Na
atom 16.0770952899999990 27.7207982400000006 5.6371966799999997 Cl
atom 16.1566172600000009 30.5525571000000014 5.7666077700000002 Na
atom 19.1542251099999987 30.5662432600000002 5.6667764500000004 Cl
atom 16.2363696100000006 33.2889858099999998 8.3292421999999995 Na
atom 18.9430500399999993 33.2244908899999984 8.6779371699999999 Cl
atom 19.1107020299999988 30.5304938800000016 8.3070399800000008 Na
atom 16.0785616599999983 30.6743175199999989 8.6192172800000009 Cl
atom 18.9633360300000007 33.2845677600000016 5.8681985599999997 Na
atom 16.1329224800000013 33.3267512999999980 5.7017149500000004 Cl
atom 16.2462551300000015 35.9928289400000025 5.9263859400000003 Na
atom 19.0091836799999996 36.1041839299999978 5.8781495300000000 Cl
atom 15.9543785099999997 38.7555316099999985 8.5005246900000007 Na
atom 19.0802476200000015 38.9027017100000023 8.8032312000000008 Cl
atom 18.9811690599999991 36.0232755099999977 8.5019493300000004 Na
atom 16.2590707399999985 36.0929426300000031 8.5781985600000006 Cl
atom 18.9422129599999991 38.7350909000000030 5.8571935399999999 Na