#===============================================================================
# Created using the Atomic Simulation Environment (ASE)

# Tue Dec 23 21:42:04 2025

#=======================================================
lattice_vector 28.1999999999999993 0.0000000000000000 0.0000000000000000 
lattice_vector 0.0000000000000000 39.4799999999999969 0.0000000000000000 
lattice_vector 0.0000000000000000 0.0000000000000000 62.3296083400000001 
atom 7.4675715499999997 14.8289163899999998 -0.1096353800000000 Au
atom 10.3414983199999995 14.8581442399999997 0.0624289000000000 Au
atom 13.1720405500000002 14.8035915300000003 0.1189482900000000 Au
atom 15.9211541699999994 14.8813326600000000 -0.4452031200000000 Au
atom 18.7106352700000009 14.7622427500000004 -0.2759524700000000 Au
atom 21.6356562100000005 14.6608707500000008 0.0708546800000000 Au
atom 24.3569049799999995 14.7336328200000004 -0.6414361100000000 Au
atom 27.1561062299999989 14.6886461300000004 -0.5055363100000000 Au
atom 1.8148318299999999 14.7433926300000007 -0.7471870000000000 Au
atom 4.6363404800000003 14.7537188399999994 -0.1142583500000000 Au
atom 8.8996697000000005 17.1886666800000008 0.2418533900000000 Au
atom 11.8306027000000000 17.2980554899999994 0.1034896800000000 Au
atom 14.6103208299999991 17.3723564900000014 -0.3254521000000000 Au
atom 17.4319406100000016 17.3357977599999984 -0.4929342100000000 Au
atom 20.2447928499999996 17.2268529999999984 0.1914005300000000 Au
atom 23.1746178600000015 17.1145334399999989 0.0352170800000000 Au
atom 25.8767382499999989 17.2417439100000003 -1.0764691600000000 Au
atom 0.4503151500000000 17.2457643500000017 -0.4945493600000000 Au
atom 3.2044319600000000 17.2282520999999988 -0.2378584100000000 Au
atom 6.0637376500000002 17.2268126799999983 -0.1290845300000000 Au
atom 7.4482461799999999 19.7349117599999992 0.1483083100000000 Au
atom 10.2909331700000006 19.7060719800000008 0.0776713100000000 Au
atom 13.1701367999999999 19.8200126400000016 -0.1715699500000000 Au
atom 15.9298309600000003 19.7629782899999995 -0.4657852700000000 Au
atom 18.7986398100000009 19.6208223500000010 -0.0338978900000000 Au
atom 21.7073010900000014 19.5395135700000004 0.0410319200000000 Au
atom 24.6071948800000015 19.6031738199999985 0.2196362600000000 Au
atom 27.2122108699999998 19.7823473499999984 -0.7255310400000000 Au
atom 1.8764736099999999 19.7263802999999989 -0.2060391000000000 Au
atom 4.6316085999999999 19.6719715199999996 0.0291602900000000 Au
atom 8.9583106800000003 22.1725701499999985 0.0199855300000000 Au
atom 11.7153012099999998 22.2702824600000007 0.2499897200000000 Au
atom 14.5429966799999999 22.2696860799999996 -0.1783665300000000 Au
atom 17.2273710899999983 22.2980558199999983 -0.0132726600000000 Au
atom 20.1815286399999998 22.1585232300000001 -0.0599568500000000 Au
atom 23.0317235599999997 22.0485661899999990 0.3438520500000000 Au
atom 25.9137553099999991 22.1189746499999984 0.2701477700000000 Au
atom 0.4472654900000000 22.2235969199999985 -0.3139798900000000 Au
atom 3.3016749800000000 22.1880062500000008 -0.0419481200000000 Au
atom 6.0597424200000001 22.1684560600000005 0.0521726300000000 Au
atom 7.5343496099999996 24.6714319099999990 0.1284212700000000 Au
atom 10.3266020199999993 24.7411182099999998 0.3386183200000000 Au
atom 13.1969798600000008 24.6996553500000005 0.2957031600000000 Au
atom 15.9227114600000004 24.7521629899999986 0.1074000400000000 Au
atom 18.7789114999999995 24.6878197700000008 0.3831075300000000 Au
atom 21.5840468500000000 24.6012151900000013 0.2674089500000000 Au
atom 24.4324986499999994 24.5462634500000014 0.3399697700000000 Au
atom 27.2233727499999993 24.6608596200000001 0.1224275400000000 Au
atom 1.9762354900000001 24.7727098300000002 -0.1002912600000000 Au
atom 4.8053449500000003 24.6778224299999991 -0.0008977100000000 Au
atom 8.8842345599999994 27.2045040399999998 0.3387996600000000 Au
atom 11.7306309700000000 27.2112317099999999 0.2759101600000000 Au
atom 14.5628557500000007 27.0962934400000002 -0.0521452500000000 Au
atom 17.4532683599999991 27.1341793600000010 -0.0437631000000000 Au
atom 20.3410753900000003 27.0598177600000014 0.2868006600000000 Au
atom 23.1436452899999985 27.0656195400000001 0.0924701800000000 Au
atom 25.8671739800000005 27.1512358399999982 0.0697111100000000 Au
atom 0.5333420800000001 27.0977370600000000 0.0988648600000000 Au
atom 3.2909678200000001 27.1492558799999983 -0.0518941000000000 Au
atom 6.0610018500000002 27.2295866900000014 0.2381717400000000 Au
atom 7.5287941299999996 29.6935534700000012 -0.3480722500000000 Au
atom 10.3548643499999997 29.6902093299999983 -0.2384445500000000 Au
atom 13.1588613999999993 29.6046872400000005 -0.0807310600000000 Au
atom 15.9914031800000007 29.5407006500000016 -0.0619890700000000 Au
atom 18.8753714200000005 29.6514719100000015 -0.0477547000000000 Au
atom 21.6365393600000004 29.5884266199999999 0.2659809100000000 Au
atom 24.4914295300000013 29.5947217699999996 0.1841247100000000 Au
atom 27.3279448999999985 29.5770148800000001 0.1789779400000000 Au
atom 1.8844249500000001 29.6085748100000004 -0.0626305000000000 Au
atom 4.7063836700000001 29.6006209499999997 -0.2120382800000000 Au
atom 8.9032570300000007 32.1516752799999992 -0.3328386200000000 Au
atom 11.6776642200000005 32.1950162099999986 -0.1594401800000000 Au
atom 14.4473388099999998 32.0814712299999982 0.0662658700000000 Au
atom 17.3262907800000008 32.0945034499999977 0.0458896700000000 Au
atom 20.2988230700000010 32.0914640900000023 0.0585670200000000 Au
atom 23.0378811399999996 32.1015630999999999 -0.0808477900000000 Au
atom 25.9293820299999993 32.0860545000000030 0.0676470800000000 Au
atom 0.4291129200000000 32.1022124799999986 -0.1524165400000000 Au
atom 3.3063056000000000 32.1660707899999991 -0.1243732800000000 Au
atom 6.1126777299999997 32.0616081000000008 -0.4173038300000000 Au
atom 7.5867752199999998 34.5582190100000020 -0.2954693100000000 Au
atom 10.3033665200000009 34.5838244299999999 -0.0883597600000000 Au
atom 13.1963198700000000 34.6300485300000034 -0.1074325200000000 Au
atom 15.9576647400000002 34.5435964899999988 0.1773686000000000 Au
atom 18.8661723200000004 34.5826312599999994 -0.0944087900000000 Au
atom 21.7515051700000015 34.5677911499999979 0.1198157000000000 Au
atom 24.4332724600000013 34.6013052899999991 0.0284682000000000 Au
atom 27.2616453300000003 34.5988168000000016 -0.1487117500000000 Au
atom 1.7884482500000001 34.5560987699999984 -0.2678916300000000 Au
atom 4.6666416399999999 34.5792474699999985 -0.1769241400000000 Au
atom 8.9738744700000002 37.0428319999999971 -0.1626748500000000 Au
atom 11.7802595500000002 37.0551919500000011 -0.1025884700000000 Au
atom 14.5849470900000000 37.0352177299999994 0.0186500700000000 Au
atom 17.3095736799999997 37.0449576199999981 -0.0306797400000000 Au
atom 20.1288598000000007 37.0243638800000028 -0.1243718100000000 Au
atom 23.0248835999999990 37.0567909399999991 0.0963124700000000 Au
atom 25.8482716400000001 37.0032855899999973 0.0586676800000000 Au
atom 0.4395448700000000 37.0735332799999995 -0.1174457300000000 Au
atom 3.2265638800000001 36.9653398499999994 0.1572706900000000 Au
atom 6.1136748000000001 37.0630589000000015 -0.1153209000000000 Au
atom 7.4838514700000003 0.0226292600000000 -0.1889410200000000 Au
atom 10.4197464499999999 0.0609111700000000 -0.1833061900000000 Au
atom 13.2575223500000003 0.0633248000000000 -0.0663234400000000 Au
atom 16.0679266100000007 0.0731429900000000 0.1983976400000000 Au
atom 18.9117996899999987 0.0247725000000000 0.0345528000000000 Au
atom 21.6723099300000008 -0.0030874400000000 0.0595935500000000 Au
atom 24.4930859500000011 0.0079413600000000 0.4093016700000000 Au
atom 27.2600932200000017 0.0594403900000000 0.3595390800000000 Au
atom 1.8525019899999999 0.0443209000000000 0.0761317100000000 Au
atom 4.7253755599999998 -0.0326968000000000 0.2609706900000000 Au
atom 8.9088376500000006 2.5030361499999998 -0.0245656600000000 Au
atom 11.8078471900000004 2.5505195100000000 -0.0389132200000000 Au
atom 14.6548725900000001 2.5261302699999999 -0.0443949300000000 Au
atom 17.4316121399999986 2.4843544199999998 -0.0952674700000000 Au
atom 20.2526876499999986 2.5061457300000001 0.0749502500000000 Au
atom 23.0619622799999995 2.4615562899999999 0.3532497600000000 Au
atom 25.8702670099999992 2.4945167200000000 0.4947677200000000 Au
atom 0.4597975400000000 2.4347454300000000 0.3091051900000000 Au
atom 3.2583058399999998 2.4407901299999999 0.2980339100000000 Au
atom 6.0683915800000001 2.4999197999999998 0.2006986900000000 Au
atom 7.4206052500000004 4.9565901900000000 0.1848491700000000 Au
atom 10.3308218000000007 4.8781358800000003 0.0289874100000000 Au
atom 13.2090366899999996 5.0219166499999996 0.0415588000000000 Au
atom 16.0296587499999994 4.9282497899999997 0.1943650700000000 Au
atom 18.8132452500000014 4.9165729799999998 0.1800809000000000 Au
atom 21.5838485599999998 4.9663317100000004 0.2597542400000000 Au
atom 24.4586142500000001 4.8871518700000003 0.3037924200000000 Au
atom 27.2864480500000006 4.8942643700000001 0.3202719600000000 Au
atom 1.9037724499999999 4.8175689899999998 0.1769932000000000 Au
atom 4.6865417000000003 4.9518066200000002 0.1560840100000000 Au
atom 8.9295405199999998 7.4152257500000003 -0.0673727100000000 Au
atom 11.7388500199999992 7.3987198400000000 -0.1005743000000000 Au
atom 14.6305610000000001 7.4341482299999999 -0.0937662500000000 Au
atom 17.4010279200000006 7.4120654100000003 0.0687954700000000 Au
atom 20.1935193599999998 7.4201963099999997 0.4193298500000000 Au
atom 22.9759129199999990 7.3974006599999997 0.4403327800000000 Au
atom 25.8368537899999993 7.3651632800000000 0.2856152500000000 Au
atom 0.5621327100000000 7.3645585200000001 0.2143480500000000 Au
atom 3.3107690200000000 7.4352714999999998 0.1990532100000000 Au
atom 6.1309877500000001 7.4422716900000001 -0.0276853200000000 Au
atom 7.5588554700000001 9.8944192799999993 0.0267262700000000 Au
atom 10.4112693400000005 9.8979467600000000 -0.0228229400000000 Au
atom 13.1247883200000004 9.9008799599999993 -0.1217627100000000 Au
atom 15.9717442199999997 9.8977753800000006 -0.0656377400000000 Au
atom 18.6703142600000014 9.9494540100000002 0.1744654400000000 Au
atom 21.5893641299999999 9.8309787800000006 0.2188131200000000 Au
atom 24.4111683100000008 9.8895906399999998 0.2211828500000000 Au
atom 27.2791741300000012 9.8390042999999991 -0.0088863200000000 Au
atom 1.8954459699999999 9.9279449599999996 0.0016223100000000 Au
atom 4.7699780499999997 9.8772772999999994 -0.0306036200000000 Au
atom 8.9607843099999993 12.2975183799999996 0.0703808100000000 Au
atom 11.7144503199999992 12.4222537400000004 0.0744158800000000 Au
atom 14.4164601799999996 12.3093368499999993 -0.3061883400000000 Au
atom 17.2489607999999990 12.3486122700000003 -0.3666903500000000 Au
atom 20.1826812800000006 12.2814149300000004 -0.3326220700000000 Au
atom 22.9640054499999984 12.1394738899999997 -0.9781674500000000 Au
atom 25.9318595999999992 12.1217928500000003 -0.9477558300000000 Au
atom 0.5118180400000000 12.3223506100000009 -0.3975380000000000 Au
atom 3.4194779500000001 12.3091657300000001 -0.3342002500000000 Au
atom 6.1847481799999997 12.4295252000000005 0.0911927600000000 Au
atom 7.5090470700000003 13.1840616900000001 2.6643746500000001 Au
atom 10.3547198399999996 13.2073739900000007 2.6888828500000002 Au
atom 13.2214469000000001 13.2434850300000004 2.7004552199999998 Au
atom 16.0488988600000013 13.2342465899999997 2.2235569700000002 Au
atom 18.8536165400000009 13.1441123700000002 2.2584919299999999 Au
atom 21.7099294100000009 13.0948509200000007 2.5205135400000001 Au
atom 24.2857295899999990 13.0305563499999995 1.5739192200000001 Au
atom 27.3123394099999999 13.0547954900000001 2.0002764700000002 Au
atom 1.9475905099999999 13.2151753400000000 2.0734881199999999 Au
atom 4.6703996800000001 13.1601539200000008 2.6130622799999998 Au
atom 8.9223095800000003 15.5848866400000006 2.6689281600000001 Au
atom 11.8707381600000001 15.6457950900000000 2.5551305900000001 Au
atom 14.7323155099999994 15.7518729900000007 2.3405026499999999 Au
atom 17.4537502300000007 15.6379503500000006 2.3481319200000002 Au
atom 20.2155128300000015 15.4852193299999996 2.6323354499999998 Au
atom 23.1393003399999984 15.4900749799999993 2.6329729700000000 Au
atom 25.7450003100000018 15.5905034400000009 1.8533363199999999 Au
atom 0.4074051300000000 15.5316363800000001 2.0428729300000001 Au
atom 3.2335761100000000 15.7168857200000005 2.2579034400000002 Au
atom 6.0493541500000001 15.6129268799999998 2.4842130800000000 Au
atom 7.3833061100000004 18.0623113900000014 2.7467714399999998 Au
atom 10.3987687300000005 18.0129888499999993 2.6387311900000001 Au
atom 13.2510533299999995 18.1656010300000013 2.6625075300000001 Au
atom 16.0867673599999996 18.1194013600000012 2.0620141699999999 Au
atom 18.7984543600000009 18.0263219300000017 2.6823718099999998 Au
atom 21.6354612899999985 18.0188539900000002 2.8860959199999998 Au
atom 24.5348878900000003 17.9390510600000006 2.9642545999999999 Au
atom 27.1295577799999990 18.0706132100000012 1.7257355299999999 Au
atom 1.8180163199999999 18.0768275500000009 2.2968617600000001 Au
atom 4.6984842000000002 18.1237942200000006 2.4307736200000001 Au
atom 8.9984902499999997 20.5192029900000001 2.6501893900000000 Au
atom 11.8207336999999999 20.5104464700000015 2.6969673599999999 Au
atom 14.5921085300000009 20.5930560500000013 2.2490238699999998 Au
atom 17.4430427299999984 20.5830603799999992 2.2630025400000000 Au
atom 20.1860603099999985 20.4322878999999986 2.5492969500000000 Au
atom 23.0003702600000004 20.4363241900000006 2.8858360799999998 Au
atom 25.8443262900000015 20.3800638599999999 2.9233579999999999 Au
atom 0.3198794000000000 20.4469503500000016 2.1521772600000002 Au
atom 3.2561133999999998 20.5874400299999998 2.5827566300000000 Au
atom 6.0776588599999997 20.5372790300000005 2.7553969700000001 Au
atom 7.4234496700000001 23.0006239800000003 2.6219901000000001 Au
atom 10.3367374800000000 22.9980090299999986 2.7369182900000002 Au
atom 13.1937795100000006 22.9891769100000012 2.6543407399999999 Au
atom 15.9576542900000007 23.0863979499999985 2.7084481999999999 Au
atom 18.7901842899999991 23.0009104099999995 2.5723402000000002 Au
atom 21.5800230599999985 22.8936734199999989 2.7632572700000000 Au
atom 24.4085522300000015 22.9331625800000012 2.8565580200000000 Au
atom 27.2698613399999985 22.9131572400000003 2.8204859400000002 Au
atom 1.8254683400000000 22.9282501500000002 2.4657050800000002 Au
atom 4.6861580399999996 23.0805152699999994 2.6562627800000000 Au
atom 8.7713694600000007 25.4990064099999998 2.9645839899999999 Au
atom 11.6904509900000004 25.4510048200000014 2.9653861199999998 Au
atom 14.4936035699999994 25.5637702199999985 2.8549004299999998 Au
atom 17.3646684200000010 25.5227219800000000 2.7090539200000001 Au
atom 20.1560160999999987 25.4833025100000015 2.8613532899999998 Au
atom 22.9751656900000008 25.4438760399999993 2.9137720599999999 Au
atom 25.7660131099999994 25.4224769200000011 2.9393511900000000 Au
atom 0.4203055500000000 25.4337194000000011 2.6339565800000000 Au
atom 3.2472001100000001 25.4306989200000011 2.6856390700000001 Au
atom 5.9860285900000001 25.5095096999999988 2.8079218699999999 Au
atom 7.4586616399999999 27.9452755599999989 2.7918057799999998 Au
atom 10.2272690900000001 28.0345031800000015 2.8485728799999999 Au
atom 13.0789876300000003 28.0305919000000010 2.5638231800000000 Au
atom 15.9479236899999997 27.9779186700000011 2.5963986000000001 Au
atom 18.8309211400000009 27.9528687100000006 2.5130512299999999 Au
atom 21.6109533200000001 28.0683589600000012 2.8091403000000001 Au
atom 24.4768870499999984 27.9590270899999993 2.6748099399999998 Au
atom 27.2631356199999999 27.8486750799999996 2.7440936900000001 Au
atom 1.8305575400000000 27.8848098600000007 2.5440003000000000 Au
atom 4.6576583400000002 27.9557867299999998 2.6623219200000001 Au
atom 8.8819120500000004 30.3925850400000002 2.2139130800000002 Au
atom 11.6099985199999995 30.4619392100000006 2.4317907499999998 Au
atom 14.5525593400000002 30.4176613600000003 2.6722239000000001 Au
atom 17.3542366600000015 30.4307369700000017 2.3738212500000002 Au
atom 20.0836174199999995 30.4699820400000014 2.7056541599999999 Au
atom 23.0176397299999991 30.4650462799999993 2.7479029499999998 Au
atom 25.8911212299999995 30.4240750800000015 2.5637128400000000 Au
atom 0.5586021400000000 30.3760957100000013 2.7374684000000000 Au
atom 3.3241610100000001 30.4363505200000013 2.4138286500000001 Au
atom 6.1255243200000002 30.3778562000000001 2.3815184999999999 Au
atom 7.3748898000000001 32.9160887700000018 2.2181533199999999 Au
atom 10.1868188199999992 32.9457667400000034 2.3930917699999998 Au
atom 12.9415320099999995 32.9072888399999997 2.5092403299999999 Au
atom 15.8866162699999993 32.8897989800000019 2.7817646599999999 Au
atom 18.7030462200000009 32.9324028300000009 2.5188030800000001 Au
atom 21.5481115400000007 32.9000514000000024 2.6522569499999999 Au
atom 24.4101281499999985 32.9255293900000012 2.3698741499999998 Au
atom 27.2708478399999983 32.8326796699999974 2.6395869799999998 Au
atom 1.8339155199999999 32.8501691800000017 2.3246411999999999 Au
atom 4.6256780600000003 32.8469125599999998 2.4371381500000000 Au
atom 8.8197136799999996 35.3963547899999966 2.4255130199999999 Au
atom 11.6323170000000005 35.4368064399999980 2.6267591000000001 Au
atom 14.5695603299999998 35.3922766399999986 2.8815854999999999 Au
atom 17.3508922199999986 35.4191326099999984 2.5595859500000002 Au
atom 20.2300126599999999 35.4913124400000015 2.4655836600000001 Au
atom 23.0060728099999992 35.4193705100000003 2.7079824100000001 Au
atom 25.8742467500000011 35.2726099599999969 2.5478631599999999 Au
atom 0.3712297000000000 35.3478054899999989 2.3705378499999998 Au
atom 3.1378250300000001 35.3513292700000008 2.7742102300000000 Au
atom 5.9044088099999996 35.3626170799999997 2.3134475000000001 Au
atom 7.3921033899999999 37.8452575999999965 2.4466536799999998 Au
atom 10.2709980000000005 37.9193307099999970 2.4618022499999999 Au
atom 13.1757254899999996 37.9435702099999972 2.5174464699999999 Au
atom 15.9479751600000004 37.8641049599999988 2.7820468500000000 Au
atom 18.7953109599999983 37.8366610300000019 2.5103289400000000 Au
atom 21.6284683899999983 37.8696766300000007 2.6995994799999998 Au
atom 24.4596373900000010 37.7347142699999978 2.8978356000000001 Au
atom 27.1989648399999986 37.7084361000000001 2.7338479499999999 Au
atom 1.8178427900000000 37.9012514499999966 2.6167759500000001 Au
atom 4.6111228600000000 37.8897086200000004 2.7820906500000002 Au
atom 8.8882037700000005 0.9001656600000000 2.5213563799999998 Au
atom 11.7143713999999992 0.9005088300000000 2.6120937700000000 Au
atom 14.5793797600000001 0.8809493700000000 2.8089291300000001 Au
atom 17.3752744300000010 0.8444140600000000 2.6610960600000002 Au
atom 20.2263824600000000 0.8383696899999999 2.6525820900000001 Au
atom 23.0766439000000005 0.7871800600000000 2.9263853800000001 Au
atom 25.9463522500000003 0.7100796000000000 3.0036756599999999 Au
atom 0.4588521400000000 0.7923676500000000 2.8363624199999999 Au
atom 3.2730698600000001 0.7783063800000000 2.8698441400000001 Au
atom 6.0628685000000004 0.8030566900000000 2.8555456700000001 Au
atom 7.5686766099999998 3.3149180899999999 2.6194531500000000 Au
atom 10.3807289100000002 3.3586323000000000 2.6404637599999998 Au
atom 13.2140088999999996 3.3618353200000000 2.5184791600000000 Au
atom 16.0370759400000011 3.2995703500000002 2.8881225000000001 Au
atom 18.8514501199999991 3.3698282200000000 2.6027186100000002 Au
atom 21.6747345600000010 3.3012033399999998 2.7886225400000000 Au
atom 24.4448579399999986 3.2378439700000001 2.9363077199999998 Au
atom 27.2425332299999994 3.3488123700000001 2.9956824800000001 Au
atom 1.9189467200000001 3.3022344200000000 2.9017768899999998 Au
atom 4.7327740199999999 3.2969586999999998 2.7427821300000002 Au
atom 8.9852787799999998 5.7857275000000001 2.7059342300000000 Au
atom 11.7313645399999995 5.8636204400000000 2.6472903699999999 Au
atom 14.5626153800000004 5.8669412200000002 2.6205088600000002 Au
atom 17.4245662400000008 5.8491497900000002 2.8235261700000001 Au
atom 20.2662383599999991 5.8296571000000004 2.9702119100000002 Au
atom 23.0410568500000004 5.8435156900000003 3.0997136599999999 Au
atom 25.8127855500000010 5.7430849200000003 2.9283055800000000 Au
atom 0.4897498300000000 5.8577124300000003 2.9193770500000000 Au
atom 3.2921880500000000 5.7762534900000002 2.8229973300000002 Au
atom 6.1717041400000001 5.7525522599999999 2.7537875900000000 Au
atom 7.5052939700000003 8.2376772599999999 2.7238075199999998 Au
atom 10.3482217399999996 8.2913268700000007 2.5951366100000000 Au
atom 13.1465035300000004 8.3498703699999997 2.3996571300000000 Au
atom 15.8584042600000004 8.3375644599999994 2.6314749599999998 Au
atom 18.7377850799999983 8.3659688299999999 2.7519862900000001 Au
atom 21.6235726600000007 8.2481898900000008 2.9863138999999999 Au
atom 24.4730795599999986 8.3755202600000001 2.8019026000000000 Au
atom 27.1481259000000001 8.2476387500000001 2.6890348899999998 Au
atom 1.8412671000000000 8.2888524500000003 2.8793144100000001 Au
atom 4.7418557699999999 8.3279810899999998 2.5754009099999999 Au
atom 9.0054920900000006 10.7635032000000006 2.5963050100000000 Au
atom 11.7232372500000004 10.7771631200000009 2.7265020099999999 Au
atom 14.5102382799999994 10.8988764600000003 2.4087879100000000 Au
atom 17.2905462599999993 10.7805157200000004 2.5668242000000001 Au
atom 20.1052426900000007 10.7707691600000004 2.7258235300000000 Au
atom 23.0165358900000001 10.7272886599999993 2.8670963199999999 Au
atom 25.8553948399999989 10.8931126200000001 2.6468842800000001 Au
atom 0.4409362300000000 10.7098373500000008 2.4305210700000002 Au
atom 3.2763110200000001 10.7321454999999997 2.6387546000000000 Au
atom 6.1568002999999996 10.6660318400000005 2.6056330399999998 Au
atom 7.7773326799999998 13.0563589300000000 5.5968889199999996 Cl
atom 7.7329126700000002 15.7098529899999999 8.6471727400000002 Cl
atom 7.7113493100000001 12.9326594400000001 8.4712175700000003 Na
atom 7.8468020100000002 15.6926034899999998 5.7548643700000000 Na
atom 7.6472698000000001 18.6034145600000009 5.7507459799999996 Cl
atom 7.7327208699999996 21.3945295299999998 8.7133707099999995 Cl
atom 7.9455834799999998 18.6844770300000000 8.3210906900000001 Na
atom 8.0177735499999994 21.5887286100000004 5.7359743800000000 Na
atom 7.8502294399999997 24.2750503399999999 5.8898649199999999 Cl
atom 7.3657019400000001 27.0777466900000015 8.6301940599999991 Cl
atom 7.8320689000000003 24.2056747799999989 8.6517221299999996 Na
atom 7.6656421899999998 27.2774179299999986 5.8439341499999999 Na
atom 7.6394752500000003 29.8912392199999992 5.5394381099999999 Cl
atom 7.5609747499999997 32.7162999000000028 8.3128601599999996 Cl
atom 7.5251050199999998 29.8540688500000009 8.3484691099999999 Na
atom 7.6099560999999998 32.7622572000000005 5.7199722499999996 Na
atom 7.6238464500000003 35.8035117900000017 5.9755941000000004 Cl
atom 7.6773864900000000 38.4381663300000014 8.4732941400000001 Cl
atom 7.7340278199999997 35.6369921200000022 8.4842970100000006 Na
atom 7.5091968400000004 38.5026319400000006 5.8218803200000000 Na
atom 7.6374954199999996 1.8418383500000000 6.0914132800000003 Cl
atom 7.4388221400000001 4.3968553600000000 8.9114883999999996 Cl
atom 7.6795994500000004 1.6984263100000001 8.5606429700000000 Na
atom 7.5104977899999996 4.4076882599999996 6.1715284199999996 Na
atom 7.6763956799999997 6.9726008999999998 5.9640311700000002 Cl
atom 7.7775719199999997 10.0021868400000002 8.5516563899999998 Cl
atom 7.3258556400000003 7.1883926200000001 8.4642805400000007 Na
atom 7.4782612500000001 9.9294980499999994 5.6646627599999997 Na
atom 10.6432502699999993 12.8479485300000000 5.8673785000000001 Na
atom 13.3879654499999994 12.7294844800000000 5.9034587199999997 Cl
atom 10.4348173800000001 15.4898972100000005 8.6215138899999992 Na
atom 13.3115669400000005 15.8251364100000007 8.6837937899999993 Cl
atom 13.1130209000000004 12.7764807400000002 8.5429112400000005 Na
atom 10.4994448200000008 12.9018268599999999 8.4364940199999996 Cl
atom 13.2979254699999991 15.6343745999999992 5.8729421600000000 Na
atom 10.5948299899999991 15.8143031500000006 5.6480382699999998 Cl
atom 11.0338130799999998 18.7036147300000017 5.8519811900000001 Na
atom 13.7979331700000003 18.6118317299999987 6.1546742300000004 Cl
atom 10.5321063800000001 21.4472154599999989 8.6379352300000001 Na
atom 13.3527460900000001 21.4834352499999994 8.7617025599999998 Cl
atom 13.1651190600000003 18.7582276099999987 8.7983152499999999 Na
atom 10.6260304500000000 18.6697008900000014 8.7637341200000005 Cl
atom 13.4332519399999999 21.7225441699999990 5.9941968299999999 Na
atom 10.8650794499999996 21.4557426400000004 5.9795138799999998 Cl
atom 10.5237687900000001 24.4579953000000003 6.1102101199999996 Na
atom 13.2344595100000006 24.4615842599999986 6.0290704799999997 Cl
atom 10.3742970999999997 27.1807563700000010 8.4378763400000008 Na
atom 13.2366808299999992 27.3769197499999990 8.2505338300000002 Cl
atom 13.4319390500000004 24.7278962500000006 8.6106702300000002 Na
atom 10.3847049400000007 24.5474735200000005 8.8306058600000004 Cl
atom 13.3088629600000008 27.3332610100000011 5.7009208600000001 Na
atom 10.4632942799999995 27.2367013100000008 5.6918927600000000 Cl
atom 10.5214567799999994 30.0667880799999985 5.5907647499999999 Na
atom 13.5341570400000002 30.0634871900000000 5.4853157000000001 Cl
atom 10.3086374099999993 32.7735845899999987 8.0482020700000003 Na
atom 13.2655501999999998 32.7331406699999974 8.2931711900000007 Cl
atom 13.0990789099999994 30.0328227800000001 7.9905965999999999 Na
atom 10.3849302500000000 29.9936157700000017 8.2224867800000006 Cl
atom 13.3591172999999994 32.8327090800000008 5.6892329300000002 Na
atom 10.3729654599999996 32.9741511300000028 5.4432420600000002 Cl
atom 10.5734936699999995 35.7397239700000000 5.7841571399999996 Na
atom 13.5570601899999996 35.5949976200000009 5.6556302100000000 Cl
atom 10.6428016000000003 38.2954641099999975 8.4508868100000001 Na
atom 13.3286621400000005 38.3289182099999977 8.7848600300000008 Cl
atom 13.3669636500000006 35.4245078000000007 8.1787919099999993 Na
atom 10.6288998899999996 35.5504918500000002 8.4920447600000006 Cl
atom 13.5541888600000000 38.3987744100000015 5.8733858300000001 Na
atom 10.5980881799999995 38.4992285599999988 5.7595602200000000 Cl
atom 10.4996042400000000 1.6810170000000000 5.8424038400000002 Na
atom 13.5458831800000006 1.7631259600000000 5.7086528799999998 Cl
atom 10.3111241499999995 4.3548277899999999 8.6849358700000003 Na
atom 13.2700907000000008 4.3205610999999999 8.6962550400000005 Cl
atom 13.3985450799999999 1.5833744700000001 8.3802370499999999 Na
atom 10.5782820799999993 1.6898434200000001 8.6593922100000000 Cl
atom 13.3361301000000001 4.4416042300000003 6.0298950700000002 Na
atom 10.4932010800000004 4.4237276899999998 5.8184581000000000 Cl
atom 10.5968507499999998 7.0953438499999999 6.0411494000000001 Na
atom 13.2752093000000002 7.2225219400000000 5.7173728400000003 Cl
atom 10.4067502300000001 9.9241276599999999 8.3749777600000002 Na
atom 13.3436948500000003 9.6455283000000005 8.6014738699999995 Cl
atom 13.2416550799999992 7.1646159500000000 8.4766981300000008 Na
atom 10.4489129900000002 6.9489595099999999 8.6887423899999998 Cl
atom 13.3546962300000001 10.0047899499999993 5.9338729199999998 Na
atom 10.4685319299999993 9.7616606099999998 5.7388450700000000 Cl
atom 16.0832231300000004 12.9439380699999997 6.0371422299999997 Na
atom 18.7652287800000011 12.9484621799999999 5.9727102099999998 Cl
atom 16.0428640899999984 17.4590862099999988 6.9406175100000000 Na
atom 18.2790483299999984 16.0260298200000015 8.2180720500000000 Cl
atom 18.9691926399999993 13.0191836399999996 8.6005417299999998 Na
atom 15.9221178099999996 12.9490911600000000 8.8633475199999996 Cl
atom 18.8330631500000010 15.6178984599999993 5.6422722199999997 Na
atom 15.9499902700000007 15.4668663599999991 5.5395290099999999 Cl
atom 15.9805271100000006 19.3354826300000013 4.8085157799999996 Na
atom 18.6933023799999987 18.7481683600000011 5.8348504800000001 Cl
atom 16.0732180800000002 21.4882030499999992 8.6404872299999997 Na
atom 18.7075697199999986 21.6015758499999997 8.7174013200000005 Cl
atom 18.6537692600000007 18.7739060799999997 8.4075043600000008 Na
atom 16.0130230100000013 18.7415929500000011 9.1440519499999997 Cl
atom 18.8886656399999993 21.5152618099999984 5.9986454699999996 Na
atom 16.1920758199999995 21.9121261199999999 5.8683882299999999 Cl
atom 16.2468318799999984 24.5548192400000005 6.0344169499999998 Na
atom 19.0418637400000001 24.2117587999999984 5.8707916600000001 Cl
atom 16.2040120300000012 27.4457634299999995 8.3187217300000000 Na
atom 19.2319907800000003 27.1617026000000017 8.7189700000000006 Cl
atom 18.7863166899999996 24.4725014200000004 8.7271636299999997 Na
atom 16.1099430300000002 24.6538312200000007 8.6180666600000002 Cl
atom 19.1557778799999987 27.0760619300000016 5.8684096600000002 Na
atom 16.4618120200000000 27.2383798100000014 5.6923130999999998 Cl
atom 16.2911652300000007 30.1092640399999993 5.7522458099999998 Na
atom 19.0205980600000011 29.9475329700000010 5.6804103000000001 Cl
atom 16.0049014400000011 32.7553932000000003 8.3307665699999998 Na
atom 18.8681507000000011 32.7683758100000020 8.6822825199999993 Cl
atom 18.9530098699999989 29.9700970200000008 8.4300146999999992 Na
atom 16.1509763900000003 29.9821236599999992 8.4167845299999993 Cl
atom 18.9302403199999993 32.7210536899999980 5.8025479500000001 Na
atom 16.1997420299999995 32.8752321899999984 5.7145266299999999 Cl
atom 16.2069168400000017 35.6536037199999996 5.8227894999999998 Na
atom 18.8794985000000004 35.4320911599999988 5.6561099900000000 Cl
atom 16.2483374400000002 38.2510012899999978 8.6485710200000003 Na
atom 18.8111472199999987 38.2663785800000014 8.7957139099999999 Cl
atom 18.9229845999999995 35.4053221500000035 8.4357644399999998 Na
atom 16.1763265300000008 35.4947436300000021 8.5574019499999991 Cl
atom 18.8908267899999984 38.3048591900000019 6.1038526900000001 Na