#===============================================================================
# Created using the Atomic Simulation Environment (ASE)

# Tue Dec 23 22:25:57 2025

#=======================================================
lattice_vector 28.1999999999999993 0.0000000000000000 0.0000000000000000 
lattice_vector 0.0000000000000000 39.4799999999999969 0.0000000000000000 
lattice_vector 0.0000000000000000 0.0000000000000000 62.3296083400000001 
atom 7.5801084400000001 14.6787301899999996 0.1427574800000000 Au
atom 10.3740959700000008 14.8655807899999992 -0.1547822500000000 Au
atom 13.2081069899999992 14.9160836600000000 -0.3838977700000000 Au
atom 16.0759939400000000 14.8712755399999992 -0.2830019500000000 Au
atom 18.7379050099999986 14.8430523300000008 0.0058737900000000 Au
atom 21.5752547200000002 14.9600924400000004 -0.3596162300000000 Au
atom 24.4462656299999992 14.8933720199999993 -0.2460673300000000 Au
atom 27.1793546699999986 14.8820461599999998 0.1983781100000000 Au
atom 1.7914945700000000 14.9021393500000006 0.3221349400000000 Au
atom 4.6278323600000002 14.8130315400000008 0.1467101100000000 Au
atom 9.0017758699999995 17.2460331199999999 0.1271506700000000 Au
atom 11.9933363800000006 17.2854008300000004 0.2059933200000000 Au
atom 14.7564373700000004 17.3952216300000018 -0.3808007900000000 Au
atom 17.4614075699999987 17.3446433700000000 0.1679061600000000 Au
atom 20.1957578600000005 17.4400741799999999 0.0678924100000000 Au
atom 23.0181371500000012 17.4262288500000011 -0.1893173600000000 Au
atom 25.1348422700000000 17.3291327700000011 0.2005233700000000 Au
atom 1.1936439299999999 17.3585903399999992 0.1771267200000000 Au
atom 3.2298528000000002 17.2850127299999983 0.1970126500000000 Au
atom 6.1547655199999998 17.3084761299999990 0.1802558500000000 Au
atom 7.6651914699999999 19.6383750699999986 -0.1704998600000000 Au
atom 10.4910684399999994 19.6419322600000008 -0.0445559100000000 Au
atom 13.2341070900000002 19.8004361700000011 0.2167443600000000 Au
atom 16.1230841699999985 19.8530124100000016 0.2792748800000000 Au
atom 18.8658323400000008 19.8866819499999998 0.1712682500000000 Au
atom 21.7030399400000000 19.6726023099999985 0.1525435400000000 Au
atom 24.4531638200000003 19.8207748799999983 0.1485931200000000 Au
atom 23.7702759099999987 20.1496694299999994 0.3604252800000000 Au
atom 1.8838989700000000 19.6942046600000005 0.0965798700000000 Au
atom 4.5991801800000003 19.7129680000000000 -0.0927439800000000 Au
atom 8.8390294600000008 22.0684927699999989 0.3218117000000000 Au
atom 11.7722369400000009 22.1575035199999988 0.2143925500000000 Au
atom 14.6591209500000001 22.1541889599999990 0.4661772900000000 Au
atom 17.4305861700000015 22.3070994899999988 0.2881525600000000 Au
atom 20.2591656899999997 22.3232245800000015 0.1556289300000000 Au
atom 23.1254425099999992 22.3871729200000011 0.1815954700000000 Au
atom 25.7843374499999989 22.4402889300000012 0.1427244800000000 Au
atom 3.9464125100000000 21.8618724799999988 0.2195794900000000 Au
atom 3.3819609900000001 22.1000489199999990 0.0648925400000000 Au
atom 6.3552539699999997 22.4860684500000012 0.0860654800000000 Au
atom 7.2288187199999996 24.0506025699999988 0.1996841400000000 Au
atom 10.2850417499999995 24.5244432400000001 0.0152142900000000 Au
atom 13.1588488199999993 24.5554760799999983 0.3446051800000000 Au
atom 16.0021294099999984 24.6779183199999999 0.2432142000000000 Au
atom 18.8507692899999988 24.6561792400000002 -0.0582913100000000 Au
atom 21.8207380899999990 24.7261378399999998 -0.2798380900000000 Au
atom 24.5797102999999986 24.6015577900000011 0.1244879000000000 Au
atom 28.6400815500000014 24.6502588100000004 0.0494899500000000 Au
atom 0.6807375600000000 24.5756454799999986 0.4792062500000000 Au
atom 4.6870394099999997 24.5723405100000001 0.0964167900000000 Au
atom 8.9258773999999992 26.9954697099999983 0.0713319500000000 Au
atom 11.7764456400000004 26.9859341700000002 -0.1365085500000000 Au
atom 14.5786425299999998 27.0597506099999983 -0.1216618000000000 Au
atom 17.5011197000000003 27.1192445400000004 -0.0602786400000000 Au
atom 20.2285210699999993 27.2456914999999995 -0.1349360100000000 Au
atom 23.0704519700000006 27.2004635199999996 0.0545077700000000 Au
atom 25.9763614800000013 27.0245693600000010 -0.2327676900000000 Au
atom 0.5215735100000000 27.1487294299999995 -0.0722380300000000 Au
atom 3.2953229799999999 27.1570773699999997 0.1470194700000000 Au
atom 6.0389405299999996 26.9634644200000011 0.0280121700000000 Au
atom 7.5466590699999996 29.4288321599999989 -0.0667575700000000 Au
atom 10.3729044399999992 29.4287896899999986 -0.0312246800000000 Au
atom 13.1994416999999995 29.4547269500000013 -0.2742761900000000 Au
atom 16.0680621700000010 29.5784126500000006 -0.1347079300000000 Au
atom 18.8883226099999995 29.6800593500000005 -0.3186465200000000 Au
atom 21.6987861399999993 29.6455724600000003 -0.2442123300000000 Au
atom 24.5117103299999997 29.6106893900000010 -0.3644661100000000 Au
atom 27.2266538099999984 29.5636753500000005 0.0090260700000000 Au
atom 1.9362676700000001 29.6363964399999986 0.1771949700000000 Au
atom 4.7235500200000002 29.5487964199999986 0.1500461000000000 Au
atom 8.9068987300000000 32.0818756399999998 -0.1764852900000000 Au
atom 11.6749000800000005 31.9711444500000006 -0.2058430600000000 Au
atom 14.4714831700000008 32.1369082900000009 -0.1511383700000000 Au
atom 17.3327047000000007 32.1195025199999975 -0.1495587300000000 Au
atom 20.1457237300000003 32.1217522000000031 -0.3394675500000000 Au
atom 23.1179143099999997 32.0965830399999987 -0.0015875000000000 Au
atom 25.9002926699999989 32.1328504299999977 -0.0529344200000000 Au
atom 0.4986551000000000 32.1621499099999966 0.0125174900000000 Au
atom 3.3725864600000000 32.0951762099999982 0.0294582500000000 Au
atom 6.1751326899999999 31.9949640799999990 -0.1761850400000000 Au
atom 7.4829315300000001 34.6154324099999968 -0.3699768600000000 Au
atom 10.2798395800000009 34.5196238699999967 -0.2383749400000000 Au
atom 13.1104052000000006 34.5413033999999968 -0.2236970700000000 Au
atom 15.9072188899999993 34.5242150600000031 -0.2186015900000000 Au
atom 18.8187918900000000 34.7249848499999985 -0.3265174500000000 Au
atom 21.9725199000000018 34.5054976400000015 -0.0019728400000000 Au
atom 24.0811461800000011 34.5424314999999993 -0.0337974700000000 Au
atom 27.2786908699999984 34.6013143999999997 -0.0917614900000000 Au
atom 1.9536197900000001 34.4504151200000024 -0.1101368800000000 Au
atom 4.7233305699999999 34.6562431300000000 0.0031521700000000 Au
atom 8.9093972099999998 37.1191675800000027 -0.1960202500000000 Au
atom 11.6278693499999992 36.9815587399999970 -0.0279326900000000 Au
atom 14.5787721300000008 37.0381775600000012 -0.1915129800000000 Au
atom 17.4604407100000003 37.1387454300000002 0.0542584300000000 Au
atom 20.2242972200000004 37.1597181200000009 -0.1053470500000000 Au
atom 23.2115741000000000 37.1985602199999974 -0.1359940900000000 Au
atom 25.9872967300000006 37.1316747199999995 -0.1611536000000000 Au
atom 0.1935654200000000 36.9543766600000012 0.1433120400000000 Au
atom 3.7400069199999999 37.0785760600000032 -0.1208351500000000 Au
atom 6.0870396600000003 37.0696098299999974 0.0634983000000000 Au
atom 7.5667792100000000 0.0937817300000000 -0.2145731600000000 Au
atom 10.3523244499999993 0.0393446000000000 -0.1558266000000000 Au
atom 13.1508274200000006 -0.0510208200000000 -0.2219344300000000 Au
atom 15.9992411000000008 0.0259541700000000 0.1408276100000000 Au
atom 18.8797386299999985 0.0816864200000000 -0.0644412000000000 Au
atom 21.7059460500000014 0.1394184900000000 0.1396822400000000 Au
atom 24.5168865400000016 0.1312706300000000 0.2262379100000000 Au
atom 27.2017759800000007 0.0088315400000000 0.0242331400000000 Au
atom 1.8820552300000000 0.0318611400000000 -0.1687880500000000 Au
atom 4.7032476599999997 0.0909051900000000 -0.0177196000000000 Au
atom 8.9863920499999992 2.5253972199999999 -0.0355817800000000 Au
atom 11.7591153100000003 2.5013249100000001 -0.1464529500000000 Au
atom 14.5405295100000007 2.4419878300000000 0.2091414700000000 Au
atom 17.4822350100000001 2.5493471900000002 0.2066353000000000 Au
atom 20.3331886699999984 2.5508609600000001 0.1542672300000000 Au
atom 23.1156278200000003 2.6096650499999998 0.1844149300000000 Au
atom 25.9377322799999988 2.6078261399999998 0.0264301000000000 Au
atom 0.4940678800000000 2.6622572299999998 0.0615108500000000 Au
atom 3.2778282500000002 2.5428686500000000 -0.1394420200000000 Au
atom 6.1502205300000004 2.5132069399999999 0.2286107300000000 Au
atom 7.4833058000000001 5.0784200200000003 0.1004484800000000 Au
atom 10.3350937199999997 5.0100186200000003 0.2958560700000000 Au
atom 13.2392076099999993 4.9847058000000004 0.2522263900000000 Au
atom 16.0156636500000005 4.9408818999999999 0.2094106700000000 Au
atom 18.8492605399999995 5.0014837999999999 -0.0335497900000000 Au
atom 21.6961648099999991 4.9983222100000004 0.1262320000000000 Au
atom 24.5062706299999995 5.1102042599999997 0.1374088500000000 Au
atom 27.3504098099999986 5.0329715600000000 0.0022139100000000 Au
atom 2.2680030900000001 5.0482031400000000 0.0377206900000000 Au
atom 4.4674416900000002 5.0145187199999999 0.0572256600000000 Au
atom 9.0431837500000007 7.4817824999999996 0.2322498100000000 Au
atom 11.7774921199999998 7.4337929599999999 0.1376515000000000 Au
atom 14.5985059899999996 7.3635139499999998 -0.0269157600000000 Au
atom 17.4741502199999985 7.3958954300000004 -0.2910284700000000 Au
atom 20.2269114300000012 7.4755372700000002 -0.0005502500000000 Au
atom 23.0707413300000006 7.4791590000000001 0.2043353900000000 Au
atom 25.8374975300000003 7.5878766799999999 -0.0814216400000000 Au
atom 0.4309576400000000 7.5609187100000002 -0.0047979800000000 Au
atom 3.3795953100000000 7.4799531699999999 -0.2024130500000000 Au
atom 6.1171407400000000 7.4856500900000000 0.1354568000000000 Au
atom 7.6375232600000000 9.8724598799999992 0.3219915200000000 Au
atom 10.2508269300000006 10.0774495099999992 -0.1066410600000000 Au
atom 13.2298608000000009 9.8380193200000008 -0.2480973600000000 Au
atom 16.0765888799999992 9.8188475600000000 -0.2738954900000000 Au
atom 18.8227892700000012 9.9134824600000009 -0.1599303100000000 Au
atom 21.7289487299999990 9.9560221299999991 -0.0845641300000000 Au
atom 24.4950602400000008 10.1691789400000001 0.0358876600000000 Au
atom 27.2616069500000009 9.9632067200000005 0.0083089300000000 Au
atom 1.9506673999999999 9.9613613900000004 -0.2302359100000000 Au
atom 4.7515597600000001 9.9471854299999993 0.0092558800000000 Au
atom 9.1071162099999992 12.0669033100000007 0.1015868500000000 Au
atom 11.8379356999999992 12.3614391000000001 -0.1154757200000000 Au
atom 14.6163990199999994 12.3388840299999991 -0.2676413300000000 Au
atom 17.3933123899999984 12.3943405500000008 -0.3817115900000000 Au
atom 20.1933502500000017 12.4071996200000001 -0.2913594700000000 Au
atom 22.9228391800000004 12.4317390600000000 -0.4378952900000000 Au
atom 25.8190212800000012 12.3190343299999991 -0.2185347200000000 Au
atom 0.5451827100000000 12.3563571099999994 -0.2519954700000000 Au
atom 3.3077265200000001 12.3740554199999995 0.1810960400000000 Au
atom 6.1636651899999997 12.3381897499999997 -0.0458422700000000 Au
atom 7.5502322900000003 13.1261963500000007 2.7859656500000001 Au
atom 10.3824084200000009 13.0831832699999993 2.5562579500000000 Au
atom 13.2839503400000005 13.1776610200000004 2.3616030100000001 Au
atom 16.0579967600000018 13.2074076399999996 2.0707959400000000 Au
atom 18.8930441599999988 13.2472099300000004 2.4188247800000000 Au
atom 21.7304680099999992 13.1968888300000007 2.0954027900000001 Au
atom 24.5338429500000004 13.1493950099999992 2.2705609800000000 Au
atom 27.3539004800000001 13.2494710100000006 2.4762776500000001 Au
atom 1.9403421599999999 13.2114484999999995 2.7735588899999999 Au
atom 4.7153460400000000 13.1893742399999994 2.6215681499999999 Au
atom 9.0470842999999999 15.5234208000000002 2.5235248700000001 Au
atom 11.8517860699999993 15.4926068699999995 2.4495627700000000 Au
atom 14.6370422599999994 15.6723371700000005 2.1229201999999998 Au
atom 17.3183523000000008 15.6631208500000003 2.5820546499999999 Au
atom 20.1577085199999999 15.6867258199999995 2.4237862699999999 Au
atom 23.0407622399999994 15.6866438400000003 2.2743636899999999 Au
atom 25.7702642500000003 15.6926742699999995 2.8051338600000002 Au
atom 0.4683956500000000 15.7350303700000005 2.8215814500000000 Au
atom 3.3168372300000000 15.6662208599999992 2.9024739300000002 Au
atom 6.1097095100000001 15.5412754700000004 2.6570641899999998 Au
atom 7.6021811799999996 18.0340522499999985 2.6672952699999999 Au
atom 10.5006187099999995 18.0073649600000003 2.7045837499999998 Au
atom 13.3723831499999992 18.0493712600000009 2.6517640800000000 Au
atom 16.1150900300000011 18.1581703300000008 2.6149427200000002 Au
atom 18.9188359099999985 18.1665641499999992 2.8832810300000000 Au
atom 21.6234038999999996 18.1406996999999990 2.4676601200000001 Au
atom 24.3939801799999998 18.1453411100000004 2.7163533300000000 Au
atom 27.2694656400000000 18.1812357700000007 2.9758367500000000 Au
atom 1.9035484899999999 18.1086644099999994 2.8835600499999998 Au
atom 4.8368078199999998 18.0113030700000003 2.6110750999999999 Au
atom 8.9729601999999993 20.4354376600000016 2.6491136499999999 Au
atom 11.7441955100000008 20.6264219299999993 2.6266392999999999 Au
atom 14.6486677299999997 20.5399156500000011 2.9966981600000002 Au
atom 17.5649937099999995 20.7099390300000010 2.7920086000000000 Au
atom 20.3442610500000001 20.6682191599999996 2.6595667299999999 Au
atom 23.0807469199999993 20.7205906300000002 2.8291530200000001 Au
atom 25.9508269899999995 20.6032033599999984 2.7210932699999999 Au
atom 0.5671002800000000 20.5895594600000003 2.9721016499999999 Au
atom 3.3876586099999999 20.5665264800000003 2.7329526600000000 Au
atom 6.2591262800000003 20.5160535400000015 2.4787893400000001 Au
atom 7.4922606600000003 23.0197441199999986 2.9106479200000002 Au
atom 10.5701854199999996 22.9657096600000017 2.8898423000000002 Au
atom 13.2293263099999994 22.9977811000000010 2.9970028599999998 Au
atom 16.0515360499999993 23.1335090600000015 2.8719062900000001 Au
atom 18.9028658699999994 23.2670333199999995 2.6962548399999999 Au
atom 21.7279396200000008 23.2206148299999988 2.6515065999999998 Au
atom 24.5700474200000016 23.0952894499999992 2.8352855099999998 Au
atom 27.3668820900000007 23.0481857499999983 2.6403369400000001 Au
atom 2.0670584999999999 23.0145478799999985 3.0964030999999999 Au
atom 4.8146905499999999 23.1033713799999987 2.6967596600000001 Au
atom 8.9175137699999993 25.5545759699999984 2.7815416800000001 Au
atom 11.6761972400000005 25.5924169500000005 2.6927681400000001 Au
atom 14.4893407799999991 25.4799028099999987 2.7616706299999998 Au
atom 17.3988848800000007 25.6940371300000017 2.7217294600000002 Au
atom 20.3022093800000007 25.6810162099999992 2.3424437700000000 Au
atom 23.2194874599999999 25.5875404499999988 2.7150698700000002 Au
atom 26.0164598299999987 25.4908910099999986 2.6918600499999998 Au
atom 0.5679641000000000 25.5826108400000010 2.7642199199999999 Au
atom 3.3770324299999999 25.5028443600000010 2.9276565699999999 Au
atom 6.1694921799999998 25.5724034099999997 2.7779678099999998 Au
atom 7.5723676800000002 28.0863467200000017 2.5537031699999999 Au
atom 10.3074284800000004 28.0263717200000002 2.5855870699999999 Au
atom 13.1135513100000001 28.0425088000000002 2.3300432999999998 Au
atom 15.9209522700000008 28.0747783700000006 2.5018135500000001 Au
atom 18.8502526099999983 28.1160759899999988 2.4537228299999998 Au
atom 21.7373945999999982 28.0315795799999989 2.6267060799999999 Au
atom 24.5581964799999994 28.0533289699999990 2.3200781500000001 Au
atom 27.3701494899999993 28.0037919500000001 2.4343364799999998 Au
atom 1.9246029200000001 28.1042845200000002 2.7019159199999998 Au
atom 4.7010246400000000 27.9757045799999986 2.7930435800000000 Au
atom 8.9497181999999995 30.6190507200000006 2.5054745199999999 Au
atom 11.8420024700000006 30.4867737800000000 2.3364456800000002 Au
atom 14.7009011699999999 30.5292316700000015 2.3276737999999999 Au
atom 17.4845538800000000 30.5556490399999987 2.4664733800000000 Au
atom 20.3358746100000012 30.5490350799999995 2.2546373499999999 Au
atom 23.1022540999999997 30.4033006300000004 2.4536109100000001 Au
atom 25.8220064100000002 30.5186073799999988 2.6289541999999999 Au
atom 0.4574869900000000 30.4743004900000010 2.6258940599999998 Au
atom 3.3595058999999998 30.5707619699999995 2.6790261100000001 Au
atom 6.1322315800000000 30.5832926500000006 2.4412785600000002 Au
atom 7.0692830100000004 33.0488049699999991 2.3829733599999998 Au
atom 10.2687709199999997 32.9098074600000032 2.4142748100000002 Au
atom 13.1551317700000006 32.9198356699999977 2.4074042300000000 Au
atom 16.0799336900000007 33.0080029399999972 2.6176529600000000 Au
atom 18.8025078900000011 32.9827031900000023 2.2974071299999999 Au
atom 21.6565887699999990 33.0086817700000026 2.6542236500000000 Au
atom 24.4730135400000002 32.9313147399999977 2.7127932200000000 Au
atom 27.2869331499999994 32.9182634499999978 2.6579087900000000 Au
atom 1.8905693500000000 33.0056298399999974 2.4869358099999999 Au
atom 5.1173134899999999 33.0130815799999979 2.5548059900000002 Au
atom 8.8182680100000006 35.4491603999999967 2.2617265899999999 Au
atom 11.7476454900000000 35.3788192299999977 2.4998193799999999 Au
atom 14.5036597100000009 35.3529970399999982 2.3238145800000001 Au
atom 17.2967667499999997 35.5183354500000021 2.3056516199999999 Au
atom 20.1198564100000006 35.4106785500000001 2.5696279099999999 Au
atom 23.0565021700000017 35.3878631199999987 2.5744138900000002 Au
atom 25.8814400400000011 35.4643242900000004 2.4784539300000001 Au
atom 0.4971912800000000 35.3765952999999982 2.6673889300000000 Au
atom 3.2673033800000000 35.4038293400000015 2.5029048600000001 Au
atom 6.0868251500000001 35.4258864099999968 2.7174803100000000 Au
atom 7.5642351000000003 37.8147324299999994 2.4115780299999998 Au
atom 10.3736454499999997 37.9088277600000012 2.5692425100000000 Au
atom 13.2292447800000001 37.8730774499999967 2.2348938899999999 Au
atom 16.0732874599999995 37.8159341400000031 2.6634317900000002 Au
atom 18.8938972999999990 37.8974902699999987 2.4699222800000000 Au
atom 21.7155619400000006 37.8444310400000035 2.6487754400000001 Au
atom 24.5449157599999985 37.8448441299999985 2.5820457499999998 Au
atom 27.2953505400000012 37.8497466399999993 2.7175806200000001 Au
atom 1.8976885999999999 37.9340186100000025 2.6235032100000000 Au
atom 4.7064468699999997 37.8041396300000017 2.5893951600000000 Au
atom 8.9768277800000007 0.8170334600000000 2.4403694800000002 Au
atom 11.7661552500000006 0.7853408700000000 2.4282180200000001 Au
atom 14.5919016799999994 0.7910347900000000 2.7271869600000000 Au
atom 17.5235120100000010 0.8433583700000000 2.6662067600000001 Au
atom 20.3110393400000007 0.9156988400000000 2.6076911300000001 Au
atom 23.0902292200000012 0.7296262600000000 2.9146595799999999 Au
atom 24.5609062400000013 0.8755918300000000 2.7223066999999999 Au
atom 1.9499496100000000 0.8738240600000000 2.6432394200000000 Au
atom 3.3764030900000002 0.8320438400000000 2.3904061699999999 Au
atom 6.2332443900000003 0.8568212700000000 2.6276647099999999 Au
atom 7.5965226299999999 3.2845656299999999 2.6576241100000000 Au
atom 10.1298875499999994 3.2726757700000002 2.6359864300000000 Au
atom 13.3660404699999997 3.3083924800000002 2.6416952399999998 Au
atom 16.0328516599999986 3.2266795500000001 2.8100392599999999 Au
atom 18.9006515600000000 3.3254429399999998 2.6363013600000000 Au
atom 21.8931293499999988 3.3444012100000000 2.8796960800000000 Au
atom 24.6461991699999992 3.3207871099999999 2.8787397200000000 Au
atom 27.3888993300000010 3.3635188899999999 2.6631803199999999 Au
atom 2.2342853300000001 3.3283289500000000 2.6115584900000002 Au
atom 4.5433245500000004 3.2926901499999999 2.8248249099999998 Au
atom 8.9350760600000001 5.8003479499999999 2.8983946899999999 Au
atom 11.7691382400000002 5.7916035499999996 2.8268949000000001 Au
atom 14.5713341599999993 5.7639367799999999 2.7916449299999999 Au
atom 17.4606069999999995 5.7830429800000003 2.6824866500000000 Au
atom 20.1867548700000015 5.7262787099999999 2.8503527000000002 Au
atom 23.1202052699999996 5.6216207000000002 2.8136322300000001 Au
atom 25.9503902199999992 5.8460514300000002 2.4826647500000001 Au
atom 0.5594028200000000 5.7827048400000001 2.6266540100000002 Au
atom 3.3041121000000002 5.9034637900000000 2.7253816600000000 Au
atom 6.1057212200000004 5.6513831500000000 2.5968900499999998 Au
atom 7.5030101000000000 8.2823152300000000 2.9071220100000001 Au
atom 10.2436393399999996 8.3101531600000005 2.7369593100000000 Au
atom 13.1653416199999995 8.2360635700000007 2.5933326700000001 Au
atom 16.1117977299999993 8.3194502700000008 2.5462574800000000 Au
atom 18.9058174500000007 8.2138235799999997 2.3206055399999999 Au
atom 21.6612116300000004 8.2091031300000008 2.6722880800000000 Au
atom 24.4766742400000012 8.2457902199999999 2.6911425200000001 Au
atom 27.2692184600000012 8.3211318599999995 2.6829651600000002 Au
atom 1.9677189300000000 8.2765358399999993 2.5090880400000000 Au
atom 4.7460411100000002 8.3087278100000006 2.5727135400000001 Au
atom 9.0378473499999998 10.7021978499999992 2.8096376799999998 Au
atom 11.8037853899999998 10.6714432699999993 2.2631511600000001 Au
atom 14.7053263800000007 10.7402818700000005 2.3940345800000000 Au
atom 17.4962477000000014 10.8207640099999995 2.4505617800000001 Au
atom 20.2735247299999983 10.7037723299999996 2.4838882299999998 Au
atom 23.0770647699999998 10.7510700499999992 2.5498612700000001 Au
atom 25.9047789799999997 10.7038839400000008 2.6356908799999998 Au
atom 0.5407565000000000 10.7754527000000007 2.2996882400000001 Au
atom 3.2962803799999998 10.7773763299999992 2.6885306500000001 Au
atom 6.0839143699999996 10.7706025200000006 2.6404606500000001 Au
atom 7.1342263600000004 12.7584561300000008 5.7646393700000003 Cl
atom 7.2746772100000001 15.3962307999999997 8.3574500999999994 Cl
atom 7.2027561100000002 12.6578707799999997 8.5266000799999997 Na
atom 7.1143315200000004 15.5450964599999999 5.5439032099999999 Na
atom 7.0991683600000002 18.4560091499999999 6.0462684700000002 Cl
atom 7.0904592900000001 21.3792592500000005 8.8322718899999995 Cl
atom 7.3285440399999997 18.2543511000000009 8.2537502699999994 Na
atom 7.0642633699999999 21.3474427899999988 5.9858702800000003 Na
atom 7.1106532900000001 24.1888912699999992 5.6991788300000001 Cl
atom 7.0145325700000001 27.0145121199999991 8.7386452999999999 Cl
atom 6.9150875999999997 24.0896305599999998 8.8702196999999998 Na
atom 7.0558048299999996 26.8928951599999984 5.7419105000000004 Na
atom 7.0735553400000004 29.6918134100000017 5.6838340299999999 Cl
atom 7.1165611699999998 32.4456266099999979 8.6193413299999992 Cl
atom 7.0786438000000000 29.7308242199999988 8.3786008699999996 Na
atom 6.8101528399999998 32.5074428200000014 5.8345306700000004 Na
atom 7.1751376999999996 35.3865803500000027 5.9071621499999996 Cl
atom 7.1163113100000004 35.5091098799999969 8.6332949200000009 Cl
atom 7.0925167800000004 35.2412730400000029 8.2989799299999998 Na
atom 7.0045000399999999 38.2639290199999991 5.7321196800000003 Na
atom 6.9270114200000004 1.3168820900000000 5.5001572699999999 Cl
atom 7.0515029399999998 4.4108807800000003 8.4906770599999994 Cl
atom 6.8077203900000001 4.1666328699999999 8.7679216100000001 Na
atom 7.0885387499999997 4.3338796700000000 5.7890621900000001 Na
atom 6.9820644500000002 7.0772160800000004 5.6396103499999999 Cl
atom 7.1233657199999998 9.9086987600000000 8.7226770800000004 Cl
atom 7.1583913199999998 6.8720904000000003 8.6751262899999997 Na
atom 7.2870129500000003 9.9602102499999994 5.8706372000000000 Na
atom 9.7237536299999991 12.6964807099999994 5.6348152699999998 Na
atom 12.6850275900000007 12.7356616599999999 5.3844324200000004 Cl
atom 9.8394179099999999 15.4393615700000009 8.1637736899999993 Na
atom 12.5722611099999995 15.6074330600000000 8.3615781499999997 Cl
atom 12.7649032400000007 12.8177395500000006 8.4263469400000002 Na
atom 9.9845775900000007 12.6975376799999999 8.5421677000000003 Cl
atom 12.8415744600000004 15.7523989100000001 5.5731998899999997 Na
atom 9.7937147899999992 15.6585689400000003 5.4393715599999997 Cl
atom 9.8053243099999996 18.5727563400000015 6.0580629300000002 Na
atom 12.9801879099999997 18.7872163800000003 5.8094366700000002 Cl
atom 9.8769674599999995 21.3053489399999982 8.5668062500000008 Na
atom 12.6989002800000002 21.3337130299999984 8.6926165100000006 Cl
atom 12.8715297900000003 18.4303201899999998 8.6438483700000006 Na
atom 10.0087955300000004 18.5402424400000001 8.4199367600000006 Cl
atom 12.7680778400000001 21.1378778400000016 5.8989955199999997 Na
atom 9.8774803799999997 21.5398424300000002 5.7404491300000000 Cl
atom 9.8768404299999997 24.2374739199999993 6.0407444300000002 Na
atom 12.6365984000000005 24.3681667699999984 6.1163023200000000 Cl
atom 9.9116574899999996 27.3391074900000000 8.4302205499999996 Na
atom 12.7231304900000008 26.8908227800000006 8.6837990499999993 Cl
atom 12.6851019699999998 24.2045482900000017 8.2374901000000005 Na
atom 9.9613470799999995 24.2684601099999995 8.7538424500000005 Cl
atom 12.7962877099999996 27.4419278999999996 5.8616480400000004 Na
atom 9.8644957499999997 27.0097516300000002 5.5637428399999997 Cl
atom 9.8503575199999993 29.6859021500000004 5.7751362600000000 Na
atom 12.6433659899999995 29.3906256399999997 5.6922367800000000 Cl
atom 10.0044905199999992 32.5067521799999994 8.3556536700000006 Na
atom 12.7230646400000005 32.4791813300000030 8.3583595800000001 Cl
atom 12.6461995599999995 29.9866019399999999 8.4697378299999997 Na
atom 9.9143052899999997 29.5976002999999999 8.6001272499999999 Cl
atom 12.6810757499999998 32.5389106399999974 5.8764905199999999 Na
atom 9.9697634999999991 32.4978825900000032 5.7105205999999997 Cl
atom 9.7095056999999994 35.3841729999999970 5.6303936999999999 Na
atom 12.6176305499999994 35.4009624299999999 5.6091417100000003 Cl
atom 9.8144128100000003 37.9869316799999979 8.1339528699999999 Na
atom 12.6200787800000001 38.0757019500000027 8.3431630299999995 Cl
atom 12.5704501999999998 35.2517406600000029 8.3147330099999994 Na
atom 10.0377577999999996 35.3178790799999973 8.6281575499999992 Cl
atom 12.7659815299999995 38.1038482200000033 5.5861442700000001 Na
atom 9.7176764599999998 38.2988644599999972 5.6123515299999998 Cl
atom 9.8773310100000007 1.4924705400000000 5.8239853400000001 Na
atom 12.5933895499999995 1.4224568099999999 5.6914917899999997 Cl
atom 9.7538741499999997 4.2264847400000001 8.3889317000000005 Na
atom 12.6050569400000008 4.3475999999999999 8.5774602699999996 Cl
atom 12.5910107199999999 1.5304873100000000 8.4807355799999993 Na
atom 9.8186916800000006 1.3588418700000000 8.5871663300000005 Cl
atom 12.6128886300000005 4.3235906399999999 5.8345575199999997 Na
atom 9.7701161499999998 4.3512282799999999 5.8875097199999997 Cl
atom 9.8012184599999994 7.1268808000000003 5.8944005800000001 Na
atom 12.7526372699999992 7.1063980600000001 5.7582044999999997 Cl
atom 9.8985415999999997 10.3203516200000003 8.4267409400000002 Na
atom 12.6494233200000004 9.9754356800000004 8.5177674299999993 Cl
atom 12.6408310099999994 7.1703898300000004 8.5343213599999999 Na
atom 9.6493594700000003 6.7249188699999998 8.7024326500000004 Cl
atom 12.4625292900000009 10.0514103299999995 5.6684789999999996 Na
atom 9.6022369399999992 9.9678705000000001 5.7773077900000001 Cl
atom 15.4001497000000001 12.7797062700000001 5.5906643200000001 Na
atom 18.2622029300000008 12.6606059799999997 5.1480834299999998 Cl
atom 15.6525198200000002 15.6171556999999996 8.0973516599999993 Na
atom 18.2349286200000016 15.6946984999999994 8.5029056099999991 Cl
atom 18.3509796399999985 12.9098393799999993 8.4389319300000007 Na
atom 15.5570098399999992 12.7610944699999997 8.3121827400000008 Cl
atom 18.3768058399999994 15.7496841199999995 5.7889514000000002 Na
atom 15.5393096300000000 15.6715159499999999 5.5357276799999999 Cl
atom 15.0987188499999991 18.6264765300000015 5.9722984099999996 Na
atom 18.4519444200000002 18.5241333700000013 6.0310951099999999 Cl
atom 15.5551537100000008 21.4327109600000014 8.2893423500000001 Na
atom 18.4029967700000014 21.2358677000000000 8.4585642300000004 Cl
atom 18.4464385499999999 18.4767707700000017 8.0450033800000007 Na
atom 15.6304902699999992 18.6722760200000018 8.0453150800000000 Cl
atom 18.5301787100000013 21.2940474299999991 5.7120853399999998 Na
atom 15.6085829700000005 21.3935663900000002 5.7727184300000003 Cl
atom 15.4962153199999992 24.1232254300000015 5.7403173100000000 Na
atom 18.3772535999999995 24.1080784500000007 5.6532156100000002 Cl
atom 15.5786478699999993 26.8963965499999986 8.2419256300000008 Na
atom 18.3740534400000008 27.1875387199999992 8.5031760700000003 Cl
atom 18.2469885400000003 24.1436945399999985 8.3572642100000003 Na
atom 15.4869149700000008 24.2219921000000014 8.5112479000000008 Cl
atom 18.3982391900000017 26.9307549900000005 5.7655101200000001 Na
atom 15.5621391300000003 27.0276967600000013 5.6324998199999996 Cl
atom 15.4192512700000002 29.7905307000000015 5.8439008899999996 Na
atom 18.2669868199999996 29.6977995999999997 5.6434144699999997 Cl
atom 15.7278500700000006 32.2548740800000004 8.3842510099999998 Na
atom 18.5572057000000008 32.5464684100000028 8.6827023899999993 Cl
atom 18.3830100499999993 29.5548153499999984 8.3371179899999994 Na
atom 15.5518607400000004 29.9469265100000008 8.6121388900000007 Cl
atom 18.4904939299999995 32.4398984799999965 5.7173145800000000 Na
atom 15.5464898999999992 32.5336044700000002 5.6246970799999998 Cl
atom 15.6179700300000004 35.2774500000000018 5.6949894099999998 Na
atom 18.3701499499999983 35.4882577999999995 5.6416023500000003 Cl
atom 15.3742895999999991 38.1096483700000022 8.0546537600000008 Na
atom 18.1434005200000001 38.0156985699999979 8.4652408399999999 Cl
atom 18.2038805400000001 35.2585315999999978 8.3847343799999994 Na
atom 15.5372099000000006 35.4118916400000003 8.4100942700000001 Cl
atom 18.2789412700000007 37.7697681399999965 5.7776232199999997 Na
atom 15.5743213699999998 38.1579563700000008 5.7400392900000003 Cl