#===============================================================================
# Created using the Atomic Simulation Environment (ASE)

# Tue Dec 23 21:42:50 2025

#=======================================================
lattice_vector 28.1999999999999993 0.0000000000000000 0.0000000000000000 
lattice_vector 0.0000000000000000 39.4799999999999969 0.0000000000000000 
lattice_vector 0.0000000000000000 0.0000000000000000 62.3296083400000001 
atom 7.5039998299999997 14.8090068099999996 -0.4573640500000000 Au
atom 10.2554319599999992 14.8353953300000008 -0.4195009000000000 Au
atom 13.1728234600000000 14.8114485899999995 -0.3103801800000000 Au
atom 15.9610359699999993 14.8536309899999992 -0.0382236500000000 Au
atom 18.7350816299999998 14.8501816099999999 -0.1313799900000000 Au
atom 21.5278246300000013 14.8699150400000004 -0.2229192000000000 Au
atom 24.4694115799999992 14.6588111600000008 -0.1957130200000000 Au
atom 27.2644588900000002 14.7579912600000007 0.0154068200000000 Au
atom 1.8844450100000001 14.6944277200000002 0.0341579500000000 Au
atom 4.6336862700000001 14.7589529899999992 -0.1555004000000000 Au
atom 8.9525387700000003 17.2782278200000015 -0.5607018700000000 Au
atom 11.6731781300000002 17.2412814999999995 -0.0888434600000000 Au
atom 14.4452900300000007 17.2207306500000001 0.0486269000000000 Au
atom 17.3373311000000001 17.2610460799999998 0.0998732400000000 Au
atom 20.1797531700000015 17.2786569400000012 -0.1643611200000000 Au
atom 23.1358278499999983 17.2242680399999983 -0.1113305400000000 Au
atom 25.8719422299999984 17.1965693199999983 -0.0181693000000000 Au
atom 0.5528679900000000 17.1653255300000005 0.0246470100000000 Au
atom 3.3421635300000001 17.2602431600000017 0.1338194100000000 Au
atom 6.1701357799999998 17.2577268799999999 -0.3346101200000000 Au
atom 7.5334741699999999 19.7046061500000000 -0.3548832400000000 Au
atom 10.3387267299999994 19.7490595300000003 -0.3400050400000000 Au
atom 13.1215347300000005 19.6921039299999983 -0.2430662400000000 Au
atom 15.9371971000000006 19.6598483799999997 -0.0950246800000000 Au
atom 18.7924409499999996 19.6897797700000012 -0.1194607300000000 Au
atom 21.6765802500000007 19.7303084899999988 -0.0125485300000000 Au
atom 24.5389778099999987 19.6716044299999986 0.2495682700000000 Au
atom 27.2346882500000014 19.6614767300000004 -0.0490712900000000 Au
atom 1.8494450400000000 19.6130416200000006 0.0793741500000000 Au
atom 4.6272964099999996 19.7354394199999987 -0.0107433700000000 Au
atom 8.9468874799999991 22.2151740000000011 -0.3299721000000000 Au
atom 11.7203514000000002 22.3128207299999985 0.0412730000000000 Au
atom 14.5002201100000008 22.1874590400000002 -0.0775331800000000 Au
atom 17.2172494699999987 22.1974938199999983 0.0320582200000000 Au
atom 20.1098114000000017 22.0716390300000000 0.0647347300000000 Au
atom 22.9970199899999983 22.2187720499999983 0.2210979600000000 Au
atom 25.6976613799999996 22.1525906900000003 0.3484186800000000 Au
atom 0.3429750500000000 22.1897569200000007 0.0710269300000000 Au
atom 3.1638172299999998 22.1976319699999998 -0.0096536000000000 Au
atom 6.0333314299999996 22.0265754099999995 -0.3036080000000000 Au
atom 7.3866352700000002 24.6033591800000018 -0.4178112200000000 Au
atom 10.2194077599999993 24.7080235500000001 -0.0613414400000000 Au
atom 13.0410965500000007 24.7191636300000006 0.0058495000000000 Au
atom 15.8648043899999998 24.7614447099999992 0.1157808800000000 Au
atom 18.6579910200000008 24.5405310099999987 0.2406021400000000 Au
atom 21.4960378900000002 24.6087751399999988 0.1584650200000000 Au
atom 24.3419435600000007 24.6940339299999998 0.2288715700000000 Au
atom 27.0781324800000007 24.5676830499999994 0.1435600600000000 Au
atom 1.8430456900000001 24.7467063200000013 0.1815882500000000 Au
atom 4.5808497199999998 24.6512198200000014 -0.2737084300000000 Au
atom 8.8295222199999994 27.1623768199999986 -0.3506165500000000 Au
atom 11.6753924300000005 27.0874591100000011 0.0117547500000000 Au
atom 14.4024174600000006 27.1995448300000007 -0.0891712000000000 Au
atom 17.2425234299999985 27.1793875999999983 0.2397107800000000 Au
atom 20.0881847299999983 27.0787325599999988 0.3007347600000000 Au
atom 22.8853104499999986 27.1664732300000011 0.2306726800000000 Au
atom 25.6970151599999994 27.0760162499999986 0.0983353300000000 Au
atom 0.2669206400000000 27.0525428099999985 0.1034618700000000 Au
atom 3.1812661100000001 27.2354949700000013 -0.0114095900000000 Au
atom 6.0267649600000004 27.1010697399999998 -0.2169066800000000 Au
atom 7.3892766800000000 29.6131692700000002 -0.3697804200000000 Au
atom 10.3673037600000004 29.6920635100000005 -0.3711805100000000 Au
atom 13.1121357500000002 29.6444041499999997 -0.2518589100000000 Au
atom 15.9270258299999998 29.7994798199999984 -0.1350471800000000 Au
atom 18.7343045000000004 29.6097850600000001 0.1171313400000000 Au
atom 21.4966681100000017 29.6212644400000009 0.1812728800000000 Au
atom 24.3247709000000008 29.6368478000000017 0.0702567600000000 Au
atom 27.1331511100000000 29.5983773899999996 -0.0517427000000000 Au
atom 1.7430051499999999 29.6064623900000008 -0.0675644900000000 Au
atom 4.6348794800000004 29.6547567600000015 -0.1652398900000000 Au
atom 8.8565351099999994 32.0888624999999976 -0.0887828100000000 Au
atom 11.6793696499999999 32.1543340899999990 -0.1688828600000000 Au
atom 14.4291023700000007 32.1895064899999994 -0.1139016200000000 Au
atom 17.3571178599999989 32.1328972800000017 -0.0519455200000000 Au
atom 20.1018336099999999 32.1129874800000010 0.0275471600000000 Au
atom 22.8277077999999989 32.0516313800000034 0.0005466600000000 Au
atom 25.7930276899999988 32.1216640700000013 0.0651037500000000 Au
atom 0.3348451600000000 32.0413501600000004 0.1270614600000000 Au
atom 3.1826241799999999 32.0917930600000005 -0.2311220900000000 Au
atom 6.0070336400000004 32.1592206600000026 -0.1401573100000000 Au
atom 7.4402339900000003 34.6371505700000029 -0.1128491900000000 Au
atom 10.2720814199999992 34.4757813000000013 -0.3113246000000000 Au
atom 13.0875999099999998 34.6628078600000009 -0.1636216600000000 Au
atom 15.9175367899999998 34.6640073900000019 -0.0290351500000000 Au
atom 18.6537453199999987 34.6214134900000019 0.2597248300000000 Au
atom 21.5260246200000012 34.4763608900000023 0.1465032500000000 Au
atom 24.3194565999999988 34.5123828600000024 0.3192735100000000 Au
atom 27.2098260699999983 34.4784954499999969 0.3635384400000000 Au
atom 1.8097734400000001 34.5095041800000004 -0.0463002100000000 Au
atom 4.5938761699999997 34.5591818999999987 -0.0139536500000000 Au
atom 8.8252922300000005 37.0601043799999985 -0.1133704800000000 Au
atom 11.5898889000000000 37.0635266600000008 -0.1511782000000000 Au
atom 14.5483546900000000 37.1711334299999976 0.0116400700000000 Au
atom 17.3141144000000011 37.1329754400000027 0.2552227300000000 Au
atom 20.1812401799999996 37.0274463599999990 0.1613298700000000 Au
atom 22.9310311599999999 36.9307543600000017 0.4732379900000000 Au
atom 25.7470637899999986 36.9788871299999968 0.3609038600000000 Au
atom 0.2918618100000000 37.0179838099999969 -0.1279198700000000 Au
atom 3.1003638100000002 37.0518206899999996 0.0288830600000000 Au
atom 5.9096556800000002 37.0424285499999968 0.0762382000000000 Au
atom 7.4333623900000001 0.0126788800000000 0.1213787000000000 Au
atom 10.3021931700000007 -0.0217273800000000 0.0985327800000000 Au
atom 13.1137793899999995 0.0156734700000000 0.1011460100000000 Au
atom 15.9718672500000007 0.1198906900000000 -0.0824782800000000 Au
atom 18.7480805000000004 0.0151596600000000 0.0278607800000000 Au
atom 21.4899916399999995 -0.0182341400000000 0.4416513300000000 Au
atom 24.2852036200000008 -0.0998912700000000 0.3581282600000000 Au
atom 27.1014869900000015 -0.0164510400000000 0.3245593700000000 Au
atom 1.7876378200000000 0.0276733600000000 0.0816896500000000 Au
atom 4.5777059500000004 0.0131697800000000 0.2683219500000000 Au
atom 8.7418260599999993 2.4179907300000001 -0.0024365600000000 Au
atom 11.6544166499999999 2.3960368700000001 -0.0438111300000000 Au
atom 14.4856633099999996 2.4531227000000002 0.1139320000000000 Au
atom 17.3833726900000016 2.5214048500000001 -0.1095260900000000 Au
atom 20.1965835100000000 2.4553369200000001 0.3035679600000000 Au
atom 23.1028725799999997 2.4025022599999999 0.4228979700000000 Au
atom 25.9486998699999987 2.4664674999999998 0.6218137100000000 Au
atom 0.4506845500000000 2.5279672199999998 0.1326492500000000 Au
atom 3.2359785200000002 2.4420286099999999 0.5661627000000000 Au
atom 5.9977761500000000 2.4022632399999999 0.3949293400000000 Au
atom 7.3922197199999999 4.8555148600000004 0.4595914400000000 Au
atom 10.2273718200000001 4.9089057900000004 0.0355183900000000 Au
atom 13.1191520799999992 4.9121930899999997 -0.0358963300000000 Au
atom 16.0049309999999991 4.9588074500000001 -0.1890139000000000 Au
atom 18.7898063099999995 5.0265649699999999 -0.0260810000000000 Au
atom 21.6281731700000002 4.8888399600000003 0.4037969200000000 Au
atom 24.4926518100000017 4.8191300799999999 0.3775969500000000 Au
atom 27.3120510400000001 4.8879590200000003 0.8339709500000000 Au
atom 1.9311476299999999 4.9560757999999998 0.4953012800000000 Au
atom 4.6869897600000003 4.9017574100000001 0.6362810700000000 Au
atom 8.7929139999999997 7.3072693199999996 0.2084085300000000 Au
atom 11.5743908700000002 7.3571952400000002 -0.0578590600000000 Au
atom 14.4028644700000008 7.3608500899999996 -0.3150084000000000 Au
atom 17.3396459800000002 7.3990570199999999 -0.1215877800000000 Au
atom 20.1872584900000014 7.3944129199999997 -0.2246700300000000 Au
atom 23.1250294200000006 7.2397145900000002 -0.1775114200000000 Au
atom 25.8864629199999996 7.3448163900000001 0.3269066200000000 Au
atom 0.5446120500000000 7.3270241399999998 0.5325997099999999 Au
atom 3.3189748899999998 7.3574590400000002 0.4073848200000000 Au
atom 6.0548365999999998 7.3857643199999998 0.1976821500000000 Au
atom 7.4546104299999998 9.8053801099999998 -0.2196118100000000 Au
atom 10.1556672199999998 9.7599096200000002 -0.1052348500000000 Au
atom 13.0600489500000005 9.8031906299999996 -0.0847767500000000 Au
atom 15.8098498599999999 9.8420242800000004 -0.3132947100000000 Au
atom 18.7434709400000017 9.8863992599999992 -0.2363938800000000 Au
atom 21.5611408000000004 9.8465627100000006 -0.2956333000000000 Au
atom 24.3447189900000005 9.6897994700000005 0.0624615500000000 Au
atom 27.3116217200000015 9.8647197700000007 0.1056840000000000 Au
atom 1.8746348600000000 9.8014055500000001 0.2297192500000000 Au
atom 4.6213016199999997 9.8290719000000006 -0.0304213200000000 Au
atom 8.9060911100000002 12.2317419800000007 -0.4702250600000000 Au
atom 11.7221767000000003 12.2652755100000004 -0.2729919100000000 Au
atom 14.4647320199999996 12.2344693099999997 0.0384286100000000 Au
atom 17.3331981299999995 12.4456723900000004 -0.2886204400000000 Au
atom 20.1386250599999990 12.2838200299999993 -0.0798444800000000 Au
atom 22.9430175200000015 12.2504535499999996 -0.2430565000000000 Au
atom 25.8434448100000012 12.1902465600000003 -0.1302318900000000 Au
atom 0.5230857200000000 12.2574875999999993 0.1250174400000000 Au
atom 3.2861978500000002 12.2208952100000001 -0.1261322900000000 Au
atom 6.0146813999999997 12.2647077200000005 -0.2837015400000000 Au
atom 7.5058382100000003 13.2550546800000006 2.0900588199999999 Au
atom 10.2749117600000002 13.1602459100000004 2.2445375300000001 Au
atom 13.1378389200000001 13.0923051600000004 2.3596820500000000 Au
atom 15.9775027099999996 13.1892579899999998 2.5483978899999999 Au
atom 18.8530857800000007 13.1685210000000001 2.4669389900000001 Au
atom 21.5611591199999992 13.2057467000000006 2.3192640999999998 Au
atom 24.3107885000000010 13.0566322300000000 2.5926300599999998 Au
atom 27.2914537899999985 13.1664774599999994 2.5671853300000000 Au
atom 1.8933088199999999 13.1319163099999994 2.6160120600000001 Au
atom 4.7730397000000000 13.2087261300000005 2.4093875300000001 Au
atom 8.8549353899999996 15.7194576799999997 2.0117844900000001 Au
atom 11.6181676300000003 15.5452627700000008 2.4754461200000000 Au
atom 14.5161713300000006 15.5607138500000008 2.4479220700000002 Au
atom 17.3871685000000014 15.5882267900000002 2.6843938500000002 Au
atom 20.2495039100000014 15.6315422999999996 2.5090948499999999 Au
atom 23.0560824300000000 15.5591861799999993 2.3869677100000000 Au
atom 25.7688036499999988 15.5978406100000004 2.3873458799999998 Au
atom 0.5355185600000000 15.7308679300000005 2.6541956799999999 Au
atom 3.3295989200000000 15.6650310000000008 2.6076035700000002 Au
atom 6.1042133999999999 15.6347465999999997 2.3125886900000001 Au
atom 7.4186893700000001 18.0808646999999993 2.2698935200000001 Au
atom 10.2638149700000003 18.1147978300000005 2.3056326399999998 Au
atom 13.0329149799999993 18.1096975700000016 2.5634036899999999 Au
atom 15.9088381000000005 18.0378117399999987 2.5129781400000000 Au
atom 18.7855691200000017 17.9856699599999992 2.3590761300000000 Au
atom 21.6406829000000016 18.0715988100000011 2.5561704900000000 Au
atom 24.3560610900000007 17.9909154399999984 2.7121294200000001 Au
atom 27.2378950800000013 18.1385783899999993 2.3772175099999999 Au
atom 1.8800601400000001 18.2146714600000017 2.7699804700000001 Au
atom 4.6155888300000001 18.1709773000000006 2.6759394500000000 Au
atom 8.9446960900000008 20.5228103100000006 2.1923727799999999 Au
atom 11.7737266700000003 20.5395250500000017 2.3089678700000000 Au
atom 14.4627104699999993 20.5621532100000017 2.3252838400000000 Au
atom 17.2850369499999985 20.4439862699999999 2.4619936999999998 Au
atom 20.1664270899999991 20.4480624700000000 2.5743825100000000 Au
atom 22.9342284899999989 20.5855251700000004 2.7403884000000001 Au
atom 25.8538001900000012 20.4364983299999992 2.8978829899999998 Au
atom 0.3800704000000000 20.7100665299999989 2.6625218500000001 Au
atom 3.3069656400000000 20.6721419600000011 2.6819887800000002 Au
atom 6.1807245100000001 20.5990876199999988 2.3058086400000000 Au
atom 7.4628917499999998 23.0748222900000002 2.2603171000000000 Au
atom 10.2326341400000000 23.0745290099999991 2.5318778800000001 Au
atom 13.0794649599999993 23.1462948399999995 2.7127164900000000 Au
atom 15.9047470700000009 23.0504896399999986 2.6034700599999998 Au
atom 18.7332318600000001 22.9253670900000017 2.6852390499999998 Au
atom 21.6086916400000000 22.9798290499999993 2.8416899299999998 Au
atom 24.4135741199999998 22.9358206100000004 2.9394593800000002 Au
atom 27.1768536699999999 23.0995188300000009 2.8370853399999998 Au
atom 1.8245356500000001 23.1210382999999986 2.6640078900000002 Au
atom 4.6624693600000002 23.0437730099999989 2.2973532200000002 Au
atom 8.8720867299999995 25.6651559200000001 2.2906756300000000 Au
atom 11.6659803300000000 25.5716594999999991 2.6542935800000000 Au
atom 14.4902683400000001 25.6746267500000016 2.5464077600000001 Au
atom 17.2040168400000013 25.4937172300000015 2.8144909600000001 Au
atom 20.0851381999999994 25.4149791100000009 2.8601968100000001 Au
atom 22.8650486300000004 25.4824786600000017 2.7740300000000002 Au
atom 25.7737742800000014 25.6058485100000013 2.8201505800000000 Au
atom 0.4490202500000000 25.5870116100000011 2.6472283399999998 Au
atom 3.3243865700000002 25.5805345099999997 2.7088802200000002 Au
atom 6.0514656599999999 25.5125653700000008 2.4583571100000001 Au
atom 7.4348479799999998 28.0507239099999985 2.3695816399999998 Au
atom 10.2171306600000005 28.1297121499999996 2.4420619900000000 Au
atom 13.0877069299999995 28.1085033300000013 2.5319220200000001 Au
atom 15.9119066999999994 28.2022331800000003 2.6540979500000002 Au
atom 18.6865973200000006 28.0418321000000006 2.7410238400000000 Au
atom 21.4698866399999986 28.1064420300000002 2.8160699700000000 Au
atom 24.2636761000000014 28.0369225899999996 2.6714626899999998 Au
atom 27.1275501400000003 28.0094452099999991 2.6928857100000001 Au
atom 1.7359194200000001 27.9964374999999990 2.4395100099999998 Au
atom 4.6951497000000000 27.9737994299999997 2.6273398399999999 Au
atom 8.8177726100000005 30.4487634500000013 2.3179353499999999 Au
atom 11.7003357900000005 30.6522708000000002 2.3087116200000000 Au
atom 14.4934876700000004 30.6266775699999982 2.5204287500000002 Au
atom 17.2000288999999995 30.4935861300000006 2.5669345099999998 Au
atom 19.9909079699999985 30.5638211200000001 2.6392292899999998 Au
atom 22.8049162999999986 30.5213262800000003 2.6645604899999999 Au
atom 25.7331647299999986 30.4437183500000010 2.5990403299999998 Au
atom 0.4218980700000000 30.3570905099999990 2.7429754800000001 Au
atom 3.2128999600000001 30.3754476999999987 2.5022778600000000 Au
atom 6.0517926299999996 30.4614251600000010 2.3433004799999999 Au
atom 7.3745218200000000 32.8605584000000022 2.6067749000000000 Au
atom 10.2191212799999995 33.0214576400000013 2.4190898199999999 Au
atom 13.0655315999999999 33.0126799800000015 2.4407687899999999 Au
atom 15.8204432300000004 33.0403330899999972 2.4664850000000000 Au
atom 18.5586230000000008 33.0158046900000031 2.7256961799999999 Au
atom 21.4150986100000011 32.9272389599999968 2.7891673600000000 Au
atom 24.3391879499999995 32.8714974100000035 2.7753083900000002 Au
atom 27.2201272900000006 32.7938481999999993 3.0910070400000000 Au
atom 1.8086955100000000 32.8581239800000020 2.6403433800000000 Au
atom 4.5256229599999998 32.8260015999999979 2.4920399700000000 Au
atom 8.9075882800000006 35.3137615799999978 2.4154552100000002 Au
atom 11.5645746900000006 35.4239515299999965 2.3026193099999999 Au
atom 14.4263796000000006 35.5672981000000021 2.6526657000000000 Au
atom 17.2445579400000000 35.6017640800000024 2.9116769599999999 Au
atom 20.0207582299999984 35.4295904800000017 2.6606528200000001 Au
atom 22.9070979600000015 35.3609246700000028 2.9774074399999999 Au
atom 25.8173083699999992 35.2591089100000019 2.8950593800000002 Au
atom 0.4935122700000000 35.2841687000000022 2.8074599800000000 Au
atom 3.2384336500000002 35.3549869000000001 2.7036914500000000 Au
atom 5.9475684700000002 35.1964900799999967 2.5802003600000001 Au
atom 7.4254849800000002 37.6764181799999989 2.5115367700000002 Au
atom 10.2385062399999995 37.8540836199999973 2.6644234099999999 Au
atom 13.0089959600000000 37.9184416000000013 2.5734108999999998 Au
atom 15.8165978000000003 38.0619686799999997 2.7189440700000000 Au
atom 18.7457673500000013 38.0122834100000020 2.4754591700000002 Au
atom 21.5094440499999990 37.7375885900000014 3.1048020699999999 Au
atom 24.3246774899999991 37.8436748100000031 2.8917518000000002 Au
atom 27.1403993099999994 37.7617329999999995 2.7129067299999998 Au
atom 1.6770098099999999 37.8102498100000020 2.6259772600000000 Au
atom 4.6089124699999999 37.7375572500000018 2.7973038200000002 Au
atom 8.8660686900000005 0.7603888600000001 2.7849062899999999 Au
atom 11.6514901200000001 0.9505879900000000 2.6591079799999999 Au
atom 14.4894883300000004 0.9497924000000000 2.7352116099999999 Au
atom 17.3270367699999994 1.0329606800000000 2.6358178500000000 Au
atom 20.1251863700000015 0.8812194900000000 2.9799183999999999 Au
atom 22.9509204199999992 0.8215468700000000 2.9830017600000001 Au
atom 25.7178080800000011 0.8522729999999999 3.2082238799999998 Au
atom 0.2647559900000000 0.8763668300000000 2.8296501599999999 Au
atom 3.0636719800000001 0.6779839700000000 2.9669391799999998 Au
atom 5.9871430700000001 0.6831707600000000 2.9101759199999999 Au
atom 7.3749425000000004 3.2002138499999999 2.8137676900000002 Au
atom 10.2060744600000000 3.3578726099999998 2.5160545700000001 Au
atom 13.1374308899999992 3.3793710699999999 2.6583651800000001 Au
atom 15.9889033200000004 3.3736924799999999 2.6674260200000002 Au
atom 18.7716323500000009 3.4052951400000002 2.6352568900000000 Au
atom 21.5444451100000016 3.3653384800000001 3.1644140200000002 Au
atom 24.3948947700000005 3.4466164699999999 3.0849321399999998 Au
atom 27.2177397899999995 3.3471339000000002 3.2500746299999999 Au
atom 1.8033636300000000 3.3299815700000002 2.9356292700000002 Au
atom 4.5445635700000002 3.3348661000000002 3.0573595400000002 Au
atom 8.8746899799999994 5.8497039300000004 2.9121988299999999 Au
atom 11.6256989599999994 5.6624711999999997 2.5399111500000000 Au
atom 14.6864782599999995 5.8183824800000004 2.3587032899999998 Au
atom 17.4678161500000009 5.8685220200000003 2.6016699600000002 Au
atom 20.2391802900000002 5.8993972799999996 2.7891774699999998 Au
atom 22.9883979600000004 5.9088364899999997 2.9318171199999998 Au
atom 25.8436349700000001 5.8386277499999997 3.1231617900000002 Au
atom 0.5333006600000000 5.9112967500000000 3.2263003900000000 Au
atom 3.2800965299999998 5.9119477299999996 3.1887489699999998 Au
atom 6.0822385700000003 5.8337242399999996 3.1287303500000001 Au
atom 7.5564029000000001 8.3329807700000007 2.8787671200000000 Au
atom 10.3216882400000003 8.1639199700000002 2.6467874400000002 Au
atom 13.1517971199999995 8.1098747499999995 2.5297880600000000 Au
atom 16.0701603099999986 8.2993695100000000 2.3242548200000002 Au
atom 18.8754356200000011 8.2953143499999999 2.3903367400000000 Au
atom 21.6934764499999986 8.3026673199999994 2.1909078800000001 Au
atom 24.4806009099999997 8.3102523799999997 2.7762130599999999 Au
atom 27.2445854700000005 8.2099551599999998 2.8940439100000002 Au
atom 1.9914062900000000 8.4152381700000003 3.2263063299999999 Au
atom 4.6833925900000004 8.3469684300000004 2.6179952700000002 Au
atom 8.9686101199999992 10.7692921100000003 2.4430930700000002 Au
atom 11.6629803899999995 10.6869741099999995 2.4510325800000001 Au
atom 14.4459495699999998 10.6688871600000006 2.5775450599999998 Au
atom 17.4405960499999999 10.7736128499999992 2.1854743100000000 Au
atom 20.2220844500000005 10.7862504900000005 2.3523203800000001 Au
atom 22.9942305599999983 10.6315729799999996 2.4961439099999998 Au
atom 25.8332532899999983 10.7284747100000004 2.5126141600000000 Au
atom 0.4579609600000000 10.6305305099999998 2.8033855100000000 Au
atom 3.3855761200000001 10.8343832599999992 2.7988764800000001 Au
atom 6.2343653300000001 10.7805348799999994 2.4046122799999998 Au
atom 7.8426612699999998 13.0421940099999993 5.6121154100000004 Cl
atom 7.8526473599999997 16.1059044200000017 8.2719554300000002 Cl
atom 7.8343684400000004 13.3477433500000000 8.2650698100000000 Na
atom 7.9606842200000001 16.0522454400000001 5.5746855100000001 Na
atom 7.8410444400000001 18.7438727900000011 5.5491774999999999 Cl
atom 7.9076724900000004 21.5245055399999998 8.2682178400000002 Cl
atom 7.8051557100000002 18.8857551100000016 8.0299352499999994 Na
atom 7.8685093300000002 21.6716752600000007 5.4080856900000001 Na
atom 7.7505861800000000 24.3859218099999993 5.6649960600000000 Cl
atom 7.9642957100000000 27.4480292299999995 8.4003399800000000 Cl
atom 7.8016032800000001 24.2671866899999991 8.2756918699999993 Na
atom 7.8415112799999998 27.1779992200000002 5.6959545399999998 Na
atom 7.7389913699999999 30.2427422700000008 5.6018045599999997 Cl
atom 7.8701990899999998 32.8326041600000025 8.3599348300000003 Cl
atom 7.8772299600000002 30.0658500199999992 8.1233074100000007 Na
atom 7.7914776000000003 32.9753262699999965 5.7896602000000001 Na
atom 7.5187376199999996 35.6430617500000011 5.6626954700000001 Cl
atom 7.8261072800000004 38.6012740999999977 8.5259069000000007 Cl
atom 7.8881826200000003 35.7434999399999995 8.3668697600000002 Na
atom 7.8554171100000003 38.5682850399999992 5.8071886299999997 Na
atom 7.8184372700000004 1.9228510500000000 5.9587350600000004 Cl
atom 7.8331825300000002 4.7787893700000001 8.8739968600000001 Cl
atom 7.7639521499999997 1.9414861200000000 8.4565836099999991 Na
atom 7.7355439700000002 4.8174852000000001 6.0770626700000001 Na
atom 7.8382403299999996 7.6323069400000003 5.7700912300000002 Cl
atom 7.8274897399999999 10.5440457599999995 8.6590632999999997 Cl
atom 7.9955190800000002 7.6704085400000004 8.4858187600000008 Na
atom 7.7670540900000002 10.2406369599999998 5.9176693800000004 Na
atom 10.5975724299999996 13.1753936300000003 5.7326787000000001 Na
atom 13.3088219700000003 12.9739951500000004 5.3875708700000002 Cl
atom 10.6943001300000002 16.1143551500000015 8.1749959699999994 Na
atom 13.2951059300000001 16.0774502900000016 8.3259150099999992 Cl
atom 13.4432736899999998 13.1337650999999997 8.1431326800000008 Na
atom 10.6479019600000004 13.2808418100000001 8.5471029000000005 Cl
atom 13.4950628100000003 15.8632420399999994 5.5151231999999997 Na
atom 10.6626166799999993 15.8775623499999998 5.2944753200000001 Cl
atom 10.6598348200000004 18.7082860999999987 5.3126244500000004 Na
atom 13.5163262399999997 18.8441255400000003 5.4540575599999999 Cl
atom 10.5776193999999997 21.5541702400000013 8.1289269399999995 Na
atom 13.4323201599999997 21.6410479799999997 8.3233647200000007 Cl
atom 13.4936369900000006 18.8288568299999994 8.1025318300000002 Na
atom 10.7795909699999992 18.8346933199999995 8.2566299399999998 Cl
atom 13.5701741600000005 21.6420709400000000 5.5341905000000002 Na
atom 10.6815695000000002 21.5296866199999997 5.3362323399999996 Cl
atom 10.5948341999999993 24.4374954299999985 5.6677528700000002 Na
atom 13.5100660599999998 24.4025686300000011 5.5976900499999998 Cl
atom 10.7113934099999994 27.2559115600000013 8.1168294299999992 Na
atom 13.4675173400000006 27.2525875199999987 8.2846131900000000 Cl
atom 13.5296307299999992 24.4238889199999996 8.4653891199999993 Na
atom 10.5211642199999993 24.3245140100000015 8.3179060899999993 Cl
atom 13.6700380799999994 27.0552845300000016 5.5868208900000003 Na
atom 10.7269798800000000 27.1462043999999985 5.5061890399999998 Cl
atom 10.6895469700000003 30.1225045999999992 5.4432053800000002 Na
atom 13.5386498300000007 29.9692878000000000 5.5642792700000001 Cl
atom 10.5430022900000004 32.8648820200000031 8.2592331399999992 Na
atom 13.5064020100000004 32.7366324500000019 8.3029639999999993 Cl
atom 13.4932501800000004 30.0976248899999987 8.0917568899999992 Na
atom 10.6857549200000008 30.0192936699999997 8.1456388499999992 Cl
atom 13.5095404600000002 32.9853676600000014 5.5938273499999998 Na
atom 10.6928827000000002 33.0014903000000004 5.4468712799999999 Cl
atom 10.7507675799999998 35.7101075499999965 5.8058851999999996 Na
atom 13.3397807200000003 35.9519559800000010 5.7664394100000003 Cl
atom 10.7456877700000000 38.6786626000000027 8.4268342100000009 Na
atom 13.5234568700000004 38.5439290899999989 8.6286412800000001 Cl
atom 13.5892239000000004 35.8567516800000021 8.6148088000000005 Na
atom 10.7449106299999997 35.7002521699999988 8.5244463499999998 Cl
atom 13.4390523399999999 38.7639260699999966 5.6476517700000004 Na
atom 10.7086191500000005 38.6146324500000020 5.8771474899999996 Cl
atom 10.5719676099999997 1.9880004600000001 5.9899516100000003 Na
atom 13.3583370600000002 2.1090755400000001 5.7182168700000000 Cl
atom 10.7135518100000002 4.6428717600000002 8.5007375399999994 Na
atom 13.5574969900000006 4.7516957399999997 8.4607426900000000 Cl
atom 13.6476084199999992 1.8974511599999999 8.4405980100000004 Na
atom 10.6753915100000007 1.9341867200000000 8.7033812499999996 Cl
atom 13.4015352500000002 4.7179528099999999 5.8162533999999999 Na
atom 10.4204191200000000 4.7541786600000000 5.8891021600000002 Cl
atom 10.5179896399999997 7.4130467900000001 5.8635861599999997 Na
atom 13.5298892300000002 7.5341496499999998 5.7367689400000001 Cl
atom 10.6790119400000005 10.5914622299999994 8.3949071499999999 Na
atom 13.4329991300000007 10.2287202500000003 8.1767731799999996 Cl
atom 13.5050693899999992 7.5462376600000001 8.3134014399999998 Na
atom 10.6464081000000004 7.6254019099999999 8.7252657300000003 Cl
atom 13.5099945800000008 10.1612066900000002 5.3003269000000000 Na
atom 10.5482010499999994 10.2779598300000004 5.7388358100000003 Cl
atom 16.4302541399999988 13.1656130800000000 5.3986298100000001 Na
atom 19.1737096200000003 13.0903969700000005 5.4759321700000001 Cl
atom 16.2920170800000008 16.0272804999999998 8.1528332900000002 Na
atom 19.0350739599999983 15.9381099600000002 8.3102252399999994 Cl
atom 19.0712826900000003 13.1881006400000000 8.1765325000000004 Na
atom 16.2447499099999995 12.9285792300000004 8.0927260299999997 Cl
atom 19.2879085400000001 16.2021262999999998 5.6324260300000004 Na
atom 16.2294709099999999 15.9972841500000005 5.5324745000000002 Cl
atom 16.4389258900000002 18.9536367400000003 5.8497505099999998 Na
atom 19.1486706600000005 19.1035643899999990 5.5316486200000003 Cl
atom 16.1173883499999988 21.6772332100000007 8.4247587300000006 Na
atom 19.1431412899999991 21.6336955400000015 8.6740088300000000 Cl
atom 19.1027601099999984 18.7067643200000013 8.3960185400000000 Na
atom 16.2458802400000017 18.8193725500000006 8.5933196200000008 Cl
atom 19.1838659800000002 21.7144400799999993 5.7862916200000001 Na
atom 16.3814862999999988 21.5104224200000012 5.7613690399999999 Cl
atom 16.3217096099999992 24.4945906999999998 5.7166382100000002 Na
atom 19.1087103399999982 24.4742413399999990 5.7577011699999998 Cl
atom 16.3436314500000002 27.2366604499999987 8.2185900499999995 Na
atom 19.0673113600000015 27.3228781699999992 8.5490981500000007 Cl
atom 18.9589898099999985 24.6005446799999987 8.4613968499999999 Na
atom 16.2935864700000010 24.5175757899999986 8.3807247700000005 Cl
atom 19.2885030700000009 27.3267907299999990 5.7505812599999997 Na
atom 16.4503671699999998 27.2432970999999995 5.5453631000000003 Cl
atom 16.2138698800000007 30.0862059700000017 5.7036490600000000 Na
atom 18.9529879699999988 30.0495573699999987 5.6616618100000000 Cl
atom 16.3104307900000016 32.9124031400000021 8.2813832600000001 Na
atom 19.0670371500000009 32.8822404499999976 8.4293113900000005 Cl
atom 18.9563548799999992 30.1011693200000003 8.3708329900000003 Na
atom 16.2416427699999986 30.1889155600000016 8.5523818499999997 Cl
atom 19.2642501999999993 33.0380046900000011 5.7975744200000001 Na
atom 16.3617896400000014 32.8293045400000025 5.7008637200000001 Cl
atom 16.2168002000000016 35.8956142799999967 5.8467053099999999 Na
atom 19.0839793100000001 35.8178781200000032 5.7896918099999999 Cl
atom 16.1327076299999987 38.5321189499999974 8.4688515199999994 Na
atom 19.0339765400000012 38.6742115300000009 8.7131768300000001 Cl
atom 18.9442582699999988 35.7700614199999976 8.3443779100000004 Na
atom 16.3013653400000003 35.6940203400000016 8.7273172500000005 Cl
atom 19.0917270899999991 38.6368386999999984 5.8022072099999997 Na