#===============================================================================
# Created using the Atomic Simulation Environment (ASE)

# Tue Dec 23 22:26:51 2025

#=======================================================
lattice_vector 28.1999999999999993 0.0000000000000000 0.0000000000000000 
lattice_vector 0.0000000000000000 39.4799999999999969 0.0000000000000000 
lattice_vector 0.0000000000000000 0.0000000000000000 62.3296083400000001 
atom 7.3397739599999996 14.8087198900000008 -0.2803237400000000 Au
atom 10.2299782500000003 14.8526160800000007 -0.4325276700000000 Au
atom 13.3339553300000002 14.8179842799999992 -0.3591898600000000 Au
atom 16.0368347100000008 14.8243186500000004 -0.2010425000000000 Au
atom 18.8289500200000006 14.7268516500000004 0.1231246400000000 Au
atom 21.7235810600000008 14.8389486799999997 -0.1266651100000000 Au
atom 24.2393348800000012 14.7889037400000003 0.0502193500000000 Au
atom 27.2719721399999990 14.5278030099999995 -0.1755061800000000 Au
atom 1.7939097200000000 14.7855181600000005 0.0005699700000000 Au
atom 4.6701429200000000 14.9545328499999997 -0.1808006000000000 Au
atom 8.8648810000000005 17.2298393300000008 -0.0224897900000000 Au
atom 11.7549540399999994 17.4202608300000001 -0.2976213400000000 Au
atom 14.5388412900000006 17.3020930899999996 -0.1867091800000000 Au
atom 17.4061334899999984 17.0233284100000013 -0.1019255200000000 Au
atom 20.1868315600000017 17.2287708299999984 0.1337866400000000 Au
atom 23.0803088699999996 17.0532000799999999 0.0201071200000000 Au
atom 25.9319366600000016 17.2379742699999987 0.0663215400000000 Au
atom 0.3685940200000000 17.2586993799999995 -0.1659080900000000 Au
atom 3.2301057599999998 17.1720554099999987 0.0744440000000000 Au
atom 6.0195481600000003 17.3842102599999997 -0.0305177700000000 Au
atom 7.3493310799999998 19.7593515099999983 0.3822893600000000 Au
atom 10.1166714700000000 19.5465709499999996 -0.1688751100000000 Au
atom 12.7959032900000000 19.7259570800000006 -0.1563288300000000 Au
atom 15.9835287400000006 19.6427851800000006 0.0661512600000000 Au
atom 18.8138177599999992 19.5829273000000015 0.0116421400000000 Au
atom 21.6552203299999988 19.7162915699999992 0.2579064200000000 Au
atom 24.4087678699999984 19.7493313499999985 0.3967031400000000 Au
atom 27.2530686499999995 19.6653981299999998 -0.0173237500000000 Au
atom 1.7618802300000000 19.7239836900000007 0.1776437700000000 Au
atom 4.7623523800000003 19.5679620499999984 -0.0057353800000000 Au
atom 8.9420546600000002 22.0531673200000000 -0.1138461000000000 Au
atom 11.8180977800000004 22.1583059599999999 -0.0907791300000000 Au
atom 14.6447238599999991 22.1660085299999992 0.2390596900000000 Au
atom 17.5395255699999986 22.3880943300000013 0.0329702700000000 Au
atom 19.9400544900000014 22.3306272999999997 0.0886084400000000 Au
atom 22.9283100699999984 22.3384278300000005 0.0327583400000000 Au
atom 25.8343563200000013 22.2751738300000000 0.0878298000000000 Au
atom 0.4103313500000000 22.1597003800000003 -0.0510485600000000 Au
atom 3.2224493299999999 22.3949620699999983 -0.0109203200000000 Au
atom 6.0541604500000004 22.1559786099999982 0.0837485300000000 Au
atom 7.4979713200000004 24.6538551000000012 0.0018348900000000 Au
atom 10.3059107999999995 24.6471472799999987 -0.0157950800000000 Au
atom 13.1689570800000002 24.5594620100000007 -0.0607927600000000 Au
atom 15.9308053199999993 24.6174866799999990 0.1005137600000000 Au
atom 18.8050799700000013 24.6512733100000005 0.3243893800000000 Au
atom 21.6438395499999992 24.6917179400000002 0.1341732400000000 Au
atom 24.2011839600000016 24.5463760499999992 -0.0076977900000000 Au
atom 27.2559405699999999 24.7483445199999998 0.1702353500000000 Au
atom 1.9549025700000000 24.5338888299999986 0.1887969100000000 Au
atom 4.7658638399999997 24.8081115799999985 0.0549693700000000 Au
atom 8.8153703500000002 27.1307454399999983 -0.0049109900000000 Au
atom 11.7502103000000009 27.0630595000000014 -0.1703540300000000 Au
atom 14.5204218600000008 27.0931461300000009 0.1537487500000000 Au
atom 17.2728872799999991 27.1449679099999983 -0.1990321600000000 Au
atom 20.0561240100000013 27.1773361300000005 0.0361298600000000 Au
atom 22.8137168599999995 27.0101788999999997 0.2779800100000000 Au
atom 25.7823782000000001 27.0530326000000017 -0.2717061100000000 Au
atom 0.2653377800000000 27.0131062700000015 0.2041571100000000 Au
atom 3.3142027399999998 27.1038256699999991 -0.0676311400000000 Au
atom 6.1152650000000000 27.0872535100000000 0.2273744000000000 Au
atom 7.5726900600000002 29.5951261099999989 0.2461557600000000 Au
atom 10.4334381500000006 29.8020097499999999 -0.0912880300000000 Au
atom 13.0927321499999998 29.4529898000000010 -0.0311607900000000 Au
atom 15.9302457900000007 29.6699812399999985 -0.1386241600000000 Au
atom 18.7886293000000002 29.5381955400000002 -0.0893263100000000 Au
atom 21.8239163599999983 29.6149731100000011 -0.0703453100000000 Au
atom 24.3789221699999992 29.7238784400000000 -0.0481119100000000 Au
atom 27.0373007899999998 29.4623476999999987 0.0548759000000000 Au
atom 1.7859039600000000 29.3868281799999984 0.1397124800000000 Au
atom 4.5707051099999996 29.5216417100000008 0.0757117700000000 Au
atom 8.8950593399999995 31.9789900200000012 0.0224465500000000 Au
atom 11.7495132000000009 31.9087577300000014 -0.0730569900000000 Au
atom 14.5853840300000002 31.9615212000000000 -0.0582497000000000 Au
atom 17.3094730199999987 32.1662124300000016 0.0841504100000000 Au
atom 20.0867789899999991 32.0007737800000029 -0.0775973900000000 Au
atom 22.9644136600000017 32.0088915899999975 -0.2371760600000000 Au
atom 25.7663921400000007 31.8881427600000009 -0.1591618400000000 Au
atom 0.4297390200000000 32.0912520199999989 0.0766484800000000 Au
atom 3.0677037899999999 32.1481262100000009 0.0508332900000000 Au
atom 6.0275468300000004 32.0964886300000032 0.0543338400000000 Au
atom 7.4718105699999997 34.5583286999999970 -0.1013571300000000 Au
atom 10.2423751500000009 34.6680166800000009 0.0825535000000000 Au
atom 13.1722689400000004 34.7018563199999974 0.1596434600000000 Au
atom 16.0443794100000012 34.4997821099999982 -0.1455642500000000 Au
atom 18.8415827699999987 34.7438696099999973 -0.1613184700000000 Au
atom 21.5904173600000000 34.4484237899999997 0.0234852100000000 Au
atom 24.4567226600000005 34.5163611799999970 -0.1710316100000000 Au
atom 27.1899211600000008 34.4772391699999972 0.1417993400000000 Au
atom 1.7154412299999999 34.7085698400000027 -0.1910950800000000 Au
atom 4.6468606799999996 34.5442805400000026 0.1144598100000000 Au
atom 8.8268943300000000 36.9911672499999966 0.0870132600000000 Au
atom 11.7376248299999997 37.2516416599999971 0.0300785500000000 Au
atom 14.4534258500000004 37.0628594000000007 -0.0669682600000000 Au
atom 17.3336459400000003 36.9844180199999997 0.1038725700000000 Au
atom 20.2889233500000010 37.0756176100000019 -0.1796872200000000 Au
atom 22.9382877200000017 37.0971378999999999 -0.0258758700000000 Au
atom 25.5513944100000003 36.7507404199999996 -0.1197423200000000 Au
atom 0.4295667200000000 37.1362660300000016 -0.0008910900000000 Au
atom 3.2935616799999998 37.2640007099999977 -0.0964873500000000 Au
atom 6.1055259599999996 37.1857218900000035 0.0966275400000000 Au
atom 7.5877165000000000 -0.2467703700000000 0.1155356400000000 Au
atom 10.3246012799999995 0.0795468400000000 -0.0612378800000000 Au
atom 13.2999077700000008 -0.0254803800000000 0.1032922700000000 Au
atom 16.0611859199999998 0.0435844800000000 0.3466210100000000 Au
atom 18.8537793499999999 0.0985754400000000 -0.0235797800000000 Au
atom 21.6562391599999984 -0.1814148300000000 0.0109783700000000 Au
atom 24.4735783100000006 -0.1246358900000000 0.1202320400000000 Au
atom 27.1212075500000012 0.3021627300000000 0.0302599800000000 Au
atom 1.8843205800000000 0.1886420100000000 -0.0466808900000000 Au
atom 4.8972026000000000 0.2355848300000000 0.1809770200000000 Au
atom 8.7642573499999994 2.7585457500000001 0.1511885300000000 Au
atom 11.7691129500000002 2.6810119800000001 -0.0070836400000000 Au
atom 14.7278797499999996 2.3377456699999999 0.1017952300000000 Au
atom 17.4833723799999987 2.5369777299999998 0.1826755200000000 Au
atom 20.1183599700000002 2.3681189300000001 0.1303759100000000 Au
atom 22.9215393499999998 2.4290552900000000 -0.0050294200000000 Au
atom 25.7511927400000005 2.3655114600000000 0.1204167400000000 Au
atom 0.3600275400000000 2.4668692299999999 -0.0774345200000000 Au
atom 3.2845596399999999 2.3751323400000000 0.0223658500000000 Au
atom 5.9872033900000003 2.6301363100000001 0.2392352400000000 Au
atom 7.4820717900000000 5.0010817200000002 0.1778042100000000 Au
atom 10.2277003799999999 4.9687943900000002 0.2530333400000000 Au
atom 13.2229967700000000 5.0787273199999996 0.0730021300000000 Au
atom 15.9800259400000009 4.9014173699999999 0.1469767300000000 Au
atom 18.8144379999999991 4.8626555299999996 0.1456348300000000 Au
atom 21.7333081999999997 5.0067777900000001 -0.0166510100000000 Au
atom 24.2959646700000000 4.8272146100000004 0.1423792200000000 Au
atom 27.2364539699999995 4.9750536199999997 0.1488288300000000 Au
atom 1.9959656600000000 4.9538529000000002 -0.0385099800000000 Au
atom 4.7003510899999998 5.1513709199999997 0.0062527600000000 Au
atom 8.9693872100000007 7.3533850999999997 0.3911034800000000 Au
atom 11.6752075400000006 7.4968147800000002 0.0828745200000000 Au
atom 14.4154631099999992 7.4433117700000002 0.0332990100000000 Au
atom 17.2954503300000013 7.4812394299999996 -0.0179364400000000 Au
atom 20.2971480299999989 7.4796467000000000 -0.0258743700000000 Au
atom 22.8831541399999985 7.5260980000000002 -0.1790643700000000 Au
atom 25.7213640900000016 7.3235952800000002 0.2703512000000000 Au
atom 0.5016476300000000 7.4022907299999998 -0.0523188300000000 Au
atom 3.4397323300000000 7.5428640199999997 -0.1003544800000000 Au
atom 6.0552422799999999 7.3978734399999997 -0.0986028200000000 Au
atom 7.4939608900000003 10.1187404599999997 0.0557449200000000 Au
atom 10.3749985599999999 9.8915250900000000 0.1509656700000000 Au
atom 13.2336812500000001 10.2134180000000008 0.3242480000000000 Au
atom 15.8641112000000000 9.8992162599999993 0.0459111300000000 Au
atom 18.8396875000000001 9.9291504600000007 -0.3206982600000000 Au
atom 21.5644700299999990 9.8828107900000006 -0.1593323000000000 Au
atom 24.4244562899999984 9.9712999399999998 0.1112280800000000 Au
atom 27.1297111599999994 9.7684257100000007 -0.1316610300000000 Au
atom 1.9162125500000000 9.8903285600000004 -0.1078628000000000 Au
atom 4.6180645800000004 10.0086053499999998 -0.1540473200000000 Au
atom 8.6905342700000006 12.3924498799999991 0.0269175000000000 Au
atom 11.6248125600000005 12.3372473300000003 0.0411973800000000 Au
atom 14.5136026499999993 12.1402100500000003 0.0730159800000000 Au
atom 17.3220422899999988 12.1548326200000005 -0.2553892100000000 Au
atom 20.0346024699999994 12.1557244299999994 -0.0154324000000000 Au
atom 23.1119666399999986 12.4189581100000002 0.0734270800000000 Au
atom 25.6830501300000016 12.3391596799999999 0.1605746900000000 Au
atom 0.3552279200000000 12.3222412899999991 -0.0294167500000000 Au
atom 3.1923302800000002 12.3639584700000000 -0.0319283300000000 Au
atom 6.0122549500000000 12.4343049899999993 -0.0299108700000000 Au
atom 7.5384009799999996 13.2568196999999994 2.6211414600000000 Au
atom 10.3454075599999999 13.3573107400000008 2.4428165800000001 Au
atom 13.0806426899999995 13.3814286399999993 2.3820829500000000 Au
atom 16.0405401099999985 13.0033726000000005 2.6059849300000000 Au
atom 18.9537940300000010 13.2727462200000002 2.7326819300000000 Au
atom 21.5656767699999996 13.0924412500000003 2.4635138200000002 Au
atom 24.6472373400000002 13.0742110900000004 2.5795222899999999 Au
atom 27.1924914800000010 13.1907503699999999 2.5858613400000001 Au
atom 1.8983501899999999 13.3157319399999992 2.5776578099999998 Au
atom 4.9176245300000003 13.3138337100000008 2.4124790300000001 Au
atom 9.0876127800000006 15.6996227600000005 2.4322988799999998 Au
atom 11.6163514200000009 15.7773161200000001 2.6669465799999998 Au
atom 14.8327106799999999 15.4261158500000004 2.5026312100000001 Au
atom 17.3959232600000000 15.5633241099999999 2.5225485900000000 Au
atom 20.1453841699999998 15.6793794200000001 2.4727845099999999 Au
atom 22.8747374599999986 15.6146409700000000 2.5740465499999998 Au
atom 25.9525593100000016 15.6926837100000007 2.6156466300000001 Au
atom 0.4643798200000000 15.7794323500000004 2.3548417200000000 Au
atom 3.0932528100000001 15.4554440000000000 2.5374647600000002 Au
atom 6.1106454299999999 15.6223700500000007 2.5688222500000002 Au
atom 7.4431807100000000 18.1754482599999996 2.7397188300000002 Au
atom 10.2584652799999994 18.2291602799999986 2.2273342399999998 Au
atom 13.2571514300000004 17.8946178200000006 2.7042087399999999 Au
atom 15.8761942099999995 18.1377805000000016 2.3922577000000000 Au
atom 18.6756135599999986 18.1070847000000015 2.5878540000000001 Au
atom 21.4804165900000008 18.1870687999999987 2.8182924300000001 Au
atom 24.4885640600000016 18.1501562900000017 2.8629963799999998 Au
atom 27.2890697399999986 18.2862059200000004 2.4968558000000001 Au
atom 2.0759365600000002 18.1259675400000013 2.6880415300000000 Au
atom 4.6094003199999998 17.9062308799999990 2.7409781000000000 Au
atom 8.8710980300000006 20.5238098999999998 2.6928646700000001 Au
atom 11.6844760399999998 20.6602447200000015 2.5492342200000002 Au
atom 14.5627575599999997 20.6009046200000014 2.5344541399999998 Au
atom 17.2806547500000001 20.8018764800000007 2.7740976300000000 Au
atom 20.2472725999999987 20.6296781799999991 2.7801496200000000 Au
atom 22.9205332300000002 20.6911233099999983 2.7551738299999999 Au
atom 25.9274614300000010 20.6260356599999994 2.7272675300000002 Au
atom 0.4776407000000000 20.5846649100000008 2.7102508599999999 Au
atom 3.4685922499999999 20.6388110199999986 2.6384198200000002 Au
atom 6.2175706000000002 20.5604018999999987 2.8094655099999999 Au
atom 7.4381500400000000 22.9527859999999997 2.7395462700000000 Au
atom 10.3259055800000006 23.1330779100000008 2.5031823900000001 Au
atom 13.1769226300000000 23.2259888399999994 2.8039060899999999 Au
atom 15.8468046800000000 23.0816060900000011 2.5104669600000000 Au
atom 18.8798498600000002 22.9746750199999994 2.7207129600000002 Au
atom 21.6399693900000010 23.1129775500000001 2.6755427300000001 Au
atom 24.3256897199999997 23.0413634099999989 2.5555715700000001 Au
atom 27.3434952100000004 22.8088273999999984 2.7592218200000000 Au
atom 1.9841692900000001 22.9404610600000005 2.4782099099999999 Au
atom 4.6895571199999999 22.8838433799999983 2.5248048100000000 Au
atom 8.8513947599999998 25.4952188799999995 2.7775589400000000 Au
atom 11.9896230599999996 25.4739788800000007 2.4922231300000002 Au
atom 14.4980425400000001 25.6982321300000010 2.6349587799999998 Au
atom 17.3922732000000018 25.6471366799999991 2.4609891899999998 Au
atom 20.3775545200000003 25.5222738400000004 2.5206416599999999 Au
atom 22.9426786400000005 25.5691068199999982 2.7325885799999998 Au
atom 25.7046948399999984 25.6009802800000017 2.6522115500000001 Au
atom 0.6363191900000000 25.4273863099999993 2.7685284700000001 Au
atom 3.4523185900000000 25.5888543199999994 2.6708187799999998 Au
atom 6.2894769000000004 25.4407428899999992 2.6268831900000000 Au
atom 7.4268953499999997 28.0860157599999987 2.8092654700000002 Au
atom 10.2961435899999998 28.0558128300000007 2.6132659600000001 Au
atom 13.1668708900000002 28.0129366299999987 2.4694207600000002 Au
atom 16.1063107999999993 28.0234558500000013 2.6081542400000002 Au
atom 18.7842889000000000 27.7890133299999995 2.5949251699999998 Au
atom 21.6405894399999994 28.0744781199999984 2.7076815500000002 Au
atom 24.4501704300000000 28.0226547100000012 2.5493136999999999 Au
atom 27.1216706700000003 27.9613620900000015 2.6031792600000001 Au
atom 1.7668025100000000 28.2409748500000006 2.9462858399999998 Au
atom 4.7471114800000000 28.2100645800000009 2.7349359299999998 Au
atom 8.9310691400000000 30.6521085900000010 2.5292023900000000 Au
atom 11.6670964999999995 30.4472506000000003 2.5234850299999998 Au
atom 14.6949337799999995 30.4707230899999999 2.6714636800000000 Au
atom 17.3254971299999987 30.3872627199999990 2.6060192799999999 Au
atom 20.1917450599999988 30.3526854899999989 2.5871753599999998 Au
atom 22.8390482100000014 30.4847968999999992 2.5262535200000000 Au
atom 25.7432515600000009 30.5129951499999983 2.7527063500000000 Au
atom 0.4765295500000000 30.3481532899999991 2.7707918299999998 Au
atom 3.1485687000000002 30.3247788500000013 2.5925454399999999 Au
atom 6.0549399099999999 30.6140906500000014 2.7115348099999999 Au
atom 7.6805917900000003 32.9218914100000006 2.5033379999999998 Au
atom 10.2016554999999993 33.0031320399999970 2.6735531500000000 Au
atom 13.2745960800000002 33.0754848400000014 2.7445146299999998 Au
atom 15.8372317599999999 33.0563402200000027 2.6068078500000000 Au
atom 18.8594023799999988 32.9112799299999992 2.2869393900000001 Au
atom 21.7039500200000006 33.0104202099999995 2.4965183500000001 Au
atom 24.4709953200000001 32.9635377500000004 2.7776972500000001 Au
atom 27.1536948600000017 33.0645616700000033 2.6330619600000000 Au
atom 1.7274290400000001 32.7354421599999981 2.6648672100000002 Au
atom 4.7361679099999998 32.9320433399999999 2.7895310599999998 Au
atom 8.8638125599999995 35.4095063999999979 2.4855341900000001 Au
atom 11.6486206699999997 35.5519627099999980 2.7511773300000000 Au
atom 14.3741686000000009 35.4494379799999990 2.6500288699999999 Au
atom 17.4394693099999998 35.4363398899999993 2.5267423999999998 Au
atom 20.1147053000000007 35.3624581899999981 2.5488088100000001 Au
atom 23.0255970499999982 35.3396424299999978 2.5288866699999999 Au
atom 25.8186483100000004 35.2197802800000019 2.6349110300000000 Au
atom 0.3412667300000000 35.3917351999999994 2.6662903700000000 Au
atom 3.4181390500000002 35.1402078099999997 2.6892463900000001 Au
atom 6.1700569700000001 35.6313860300000016 2.8294898399999999 Au
atom 7.4437938199999998 38.1385950000000022 2.5411455599999999 Au
atom 10.1942670399999997 37.9852179399999983 2.7921500300000002 Au
atom 13.1017162200000001 37.8684732899999972 2.5911372400000001 Au
atom 16.0622504100000008 37.6640055499999988 2.8632100999999999 Au
atom 18.7154238600000014 37.9870341900000028 2.7058711099999999 Au
atom 21.4385012500000016 37.7238645500000018 2.6547105300000000 Au
atom 24.4443243099999989 37.8735798000000017 2.7685789999999999 Au
atom 27.2194422399999993 37.8643988199999981 2.6212765800000000 Au
atom 2.0660017499999999 37.8524980099999979 2.6827993900000000 Au
atom 4.6911892499999999 37.8411056099999996 2.5796129799999998 Au
atom 8.8389568300000008 0.8122916100000001 2.6176082500000000 Au
atom 11.6753474500000003 0.9231727600000000 2.5654410599999999 Au
atom 14.4958904900000007 0.6891787000000000 2.6571033300000000 Au
atom 17.4231041699999984 0.8017435100000000 2.7302924700000002 Au
atom 20.0594857100000006 0.8214555500000000 2.7160818000000000 Au
atom 23.0746262699999996 0.7670646700000000 2.7388805899999999 Au
atom 25.9258447499999996 0.9228747200000000 2.6077553099999999 Au
atom 0.3822066400000000 0.8950921100000000 2.7006598199999998 Au
atom 3.2870962200000000 0.7937418600000000 2.7095096200000000 Au
atom 6.1492328699999996 0.8410995800000000 2.7497712700000001 Au
atom 7.5491710100000002 3.3460284800000002 2.8115362300000002 Au
atom 10.2315939399999998 3.2373383699999998 2.6136709599999999 Au
atom 13.1316202200000003 3.1984660499999999 2.6439674700000002 Au
atom 15.9873503499999998 3.3329508699999999 2.8017707500000002 Au
atom 18.8371803100000008 3.2168081900000001 2.6301112299999998 Au
atom 21.4817405699999995 3.3609342500000001 2.5976329699999998 Au
atom 24.3355689599999998 3.2037618800000001 2.7637828299999998 Au
atom 27.5173964399999988 3.4188080200000002 2.8061807499999998 Au
atom 1.8350396400000000 3.3028639800000001 2.4886728599999999 Au
atom 4.5536396300000002 3.4231725900000001 2.7150682100000001 Au
atom 8.8769142399999996 5.8665918499999998 2.8808851899999999 Au
atom 11.6606596299999996 5.8750848900000001 2.8001602700000001 Au
atom 14.5096276900000003 5.7753299800000004 2.8043769500000000 Au
atom 17.4390872600000009 5.8340283299999998 2.5127840099999998 Au
atom 20.2339996299999996 5.7659453300000001 2.7084794900000002 Au
atom 23.1765872100000010 5.9020931900000004 2.7047515099999999 Au
atom 25.6853968100000003 5.7797349499999999 2.9055560699999998 Au
atom 0.6024677100000000 5.7911181899999997 2.7264496999999999 Au
atom 3.2623826600000001 5.9398231900000003 2.7762226900000000 Au
atom 6.2966527699999997 5.8639573599999997 2.5035790599999999 Au
atom 7.7445942600000004 8.3236357299999995 2.5186098700000001 Au
atom 10.2282808400000000 8.2323453299999994 2.7194327000000000 Au
atom 13.2350740099999999 8.3098521499999993 2.7655019200000002 Au
atom 16.0320032400000017 8.0885546700000006 2.6030539099999999 Au
atom 18.8573604599999989 8.2080057600000007 2.4446884400000002 Au
atom 21.6348919700000017 8.3248546000000001 2.8105319700000000 Au
atom 24.6432488999999997 8.1277384799999997 2.7485653700000001 Au
atom 27.1712827700000012 8.1728272000000004 2.5336433899999999 Au
atom 1.8579334700000001 8.3818848700000004 2.5805086099999999 Au
atom 4.5918558500000000 8.2502211299999999 2.4115932199999999 Au
atom 8.9918122500000006 10.7158350200000001 2.6324644899999998 Au
atom 11.8035770400000004 10.6963133500000005 2.7885168100000000 Au
atom 14.6246864399999996 10.7045661299999999 2.7489985199999998 Au
atom 17.3764247199999993 10.5797961699999998 2.6124199400000001 Au
atom 20.0591874200000007 10.7218283200000002 2.6218374099999999 Au
atom 23.0102869500000011 10.8998213300000000 2.4568880599999998 Au
atom 26.0371333400000005 10.7911911499999995 2.5546299399999999 Au
atom 0.6268393799999999 10.8083179800000000 2.5098768900000001 Au
atom 3.4185973900000000 10.7825372999999995 2.5966401100000001 Au
atom 6.1775506499999997 10.6812031699999999 2.7368288600000001 Au
atom 7.5862947600000004 13.1771857299999997 5.9065797900000003 Cl
atom 7.5328753500000003 15.7343282400000000 8.6229307599999991 Cl
atom 7.5579780200000002 12.9774018699999996 8.5026056299999997 Na
atom 7.4560529600000001 15.9398898300000003 5.9571130800000001 Na
atom 7.4709720800000001 18.8084751600000004 5.7774741199999999 Cl
atom 7.4900827100000003 21.7896287199999996 8.5726849800000000 Cl
atom 7.1713929500000004 18.7424626399999994 8.4238656400000007 Na
atom 7.4410319300000003 21.4291825600000010 5.8052994599999996 Na
atom 7.3304680600000003 24.5352345199999995 5.5894453100000003 Cl
atom 7.5276105800000002 27.2720656800000008 8.5653752599999997 Cl
atom 7.4707577900000004 24.5311372200000015 8.3136080499999991 Na
atom 7.6799619500000000 27.3050316899999999 5.8648882699999998 Na
atom 7.5738516699999998 29.9843425799999999 6.0013979900000001 Cl
atom 7.4723406199999998 32.8769196900000011 8.7037161100000002 Cl
atom 7.5275870700000000 30.0259250900000012 8.4196932199999992 Na
atom 7.5979921299999997 32.8334209599999980 6.1108545899999998 Na
atom 7.3690639500000001 35.9578939499999990 6.0475863700000003 Cl
atom 7.5462489300000000 38.4322110700000010 8.8889282299999994 Cl
atom 7.6431343099999998 35.6560980400000034 8.4806515999999998 Na
atom 7.3639453599999998 38.4726701299999974 6.0218745499999997 Na
atom 7.3760386699999998 1.8766189600000001 5.8546041700000000 Cl
atom 7.5632414600000004 4.8249592699999999 8.6979791300000002 Cl
atom 7.3842367900000001 1.7782662300000001 8.4093315299999993 Na
atom 7.6195097499999997 4.3827428800000003 5.8391530200000004 Na
atom 7.5324476400000000 7.4223578400000001 5.7457358100000002 Cl
atom 7.3211736399999996 10.2563130299999994 8.6836219900000007 Cl
atom 7.4564482700000001 7.2974846400000004 8.5848349800000001 Na
atom 7.5124118199999996 10.3347033199999991 5.7303330299999997 Na
atom 10.3798733300000006 13.0515206900000003 5.9398683200000004 Na
atom 13.4429441500000006 13.1848593500000000 5.5686151300000004 Cl
atom 10.1336025299999992 16.1259549600000014 8.5030456300000008 Na
atom 12.9369528000000003 16.0854319299999986 8.7845622599999995 Cl
atom 13.1934788699999999 13.2845234500000000 8.3533199299999996 Na
atom 10.2499005000000007 13.2808475099999992 8.6664256300000009 Cl
atom 13.0504463800000003 16.0509875400000013 5.6151031500000004 Na
atom 10.1080223599999997 15.8288136399999999 5.6787472899999996 Cl
atom 10.2739014300000004 18.9331874300000003 5.8181074500000003 Na
atom 13.1452800900000000 18.9944521199999983 5.7671618899999997 Cl
atom 10.2998014500000004 21.6022827200000016 8.4577975100000007 Na
atom 13.2308037200000008 21.5590605000000011 8.6349531099999997 Cl
atom 12.9952865699999993 18.7770274599999993 8.4905999100000002 Na
atom 10.0863719900000000 18.7615227599999983 8.5166720599999994 Cl
atom 13.1637042599999994 21.5008854400000011 5.9125727299999999 Na
atom 10.4761112799999996 21.6938733600000013 5.6263068100000000 Cl
atom 10.2079498199999996 24.5796865900000014 5.7682293800000002 Na
atom 13.2506363100000009 24.1816300700000006 5.7119856699999998 Cl
atom 10.3328771400000008 27.3504626600000016 8.3823193499999995 Na
atom 13.0824387000000009 27.2079939700000004 8.5450246799999992 Cl
atom 13.3540861599999996 24.2884861699999988 8.3765757999999995 Na
atom 10.3263104800000001 24.2660446299999997 8.2730457400000006 Cl
atom 13.2797277800000000 27.2955417800000006 5.8684108799999999 Na
atom 10.5680497800000008 27.3309798199999996 5.5757740299999998 Cl
atom 10.5504038500000004 30.1847063400000017 5.9715427500000002 Na
atom 13.2940067200000005 29.9022086400000013 5.6560359699999996 Cl
atom 10.3589279300000001 32.8585849899999971 8.3950193399999993 Na
atom 13.2543243900000007 32.8769493499999967 8.5663157200000004 Cl
atom 13.1332067200000004 30.1339263600000002 8.2229418200000008 Na
atom 10.2539224999999998 30.1551188400000001 8.5419100599999993 Cl
atom 13.3650769000000000 33.0085978800000035 5.8934886200000003 Na
atom 10.3757175099999994 32.9242205700000028 5.8859619399999996 Cl
atom 10.1690143299999995 35.7474642700000018 5.9753163599999999 Na
atom 13.1178095399999997 35.7110991999999996 5.8062838100000000 Cl
atom 10.3881743800000006 38.5645119300000019 8.7172566600000003 Na
atom 13.1891617300000004 38.8327992700000024 8.9318063999999993 Cl
atom 13.1673426599999992 35.8028237099999984 8.5011196499999997 Na
atom 10.2943807700000001 35.8916772999999978 8.6070939200000005 Cl
atom 13.1108647400000002 38.6596589199999983 5.9747124300000003 Na
atom 10.1570107099999998 38.5761928599999990 5.7976155599999997 Cl
atom 10.2320916400000002 1.8087142500000000 5.7984146200000000 Na
atom 12.6296751500000006 1.9781492300000001 5.9174156000000000 Cl
atom 10.3118326400000004 4.6639174399999996 8.5604424500000000 Na
atom 13.2150119299999993 4.7264625999999996 8.5332442700000009 Cl
atom 13.1283565000000007 1.8555822500000001 8.5878551099999996 Na
atom 10.3910386399999997 1.8640386000000000 8.7411121800000000 Cl
atom 13.1658001599999999 4.6206233299999999 5.9161321700000000 Na
atom 10.4090719400000005 4.5541602900000004 5.8761945799999999 Cl
atom 10.2068400199999996 7.3010565600000001 5.9791362599999998 Na
atom 12.8929707100000002 7.4754436300000000 5.8947849699999999 Cl
atom 10.2007097600000005 10.1698730000000008 8.4137018099999992 Na
atom 13.1738861099999998 10.3925687900000003 8.7159862100000005 Cl
atom 13.0345182200000007 7.4770059499999997 8.6121694499999997 Na
atom 10.1801997800000006 7.3468626099999996 8.6461964699999996 Cl
atom 13.2324870800000003 10.3718706100000002 5.7878923400000000 Na
atom 10.1551841199999995 10.3373401999999999 5.9855033000000004 Cl
atom 16.0589106800000003 12.9938239899999992 5.6074866200000004 Na
atom 18.7429865000000007 13.1368809700000000 5.6532681299999998 Cl
atom 15.9518517299999996 16.1602180000000004 8.2535920800000007 Na
atom 18.7943494400000013 16.0344625799999996 8.3573227499999998 Cl
atom 18.6921610300000012 12.9616845200000004 8.3456994299999998 Na
atom 16.0415427800000003 13.0348837000000000 8.5688579800000007 Cl
atom 18.6250132700000002 15.7925864100000002 5.8064685500000000 Na
atom 15.7320079100000001 16.1096751500000011 5.9374172999999999 Cl
atom 15.7946909200000007 18.7943509300000002 5.7636550700000004 Na
atom 19.0367635600000007 18.8738079899999995 5.6191257099999996 Cl
atom 15.8470445299999998 21.6338010099999991 8.5165430499999992 Na
atom 18.6695383499999998 21.6584247099999985 8.7022204999999992 Cl
atom 18.7810413099999991 18.7598136999999987 8.3866948499999996 Na
atom 16.0477293000000003 18.6699061600000000 8.8025706699999997 Cl
atom 18.6811901400000018 21.6828879800000003 5.9649649800000004 Na
atom 15.8530838700000007 21.7315063399999993 5.9392055800000003 Cl
atom 15.9272798000000009 24.5227210900000010 5.7354679099999997 Na
atom 18.7478210199999999 24.4218055700000001 5.9638345399999997 Cl
atom 15.8381674799999992 27.4484444699999983 8.3474394899999993 Na
atom 18.8805769000000012 27.2785862600000009 8.7679970800000007 Cl
atom 18.7786125099999985 24.4421035999999994 8.9137206899999999 Na
atom 16.1171381700000005 24.4582847900000004 8.6620654600000009 Cl
atom 18.9654973200000008 27.2880475800000006 5.9540095600000003 Na
atom 15.9641080300000002 27.4984705399999996 5.8464223100000003 Cl
atom 16.1002974700000010 30.1340978600000007 5.7635971899999996 Na
atom 18.8050217400000008 30.1617141999999987 5.9163880400000002 Cl
atom 16.0016847400000017 32.8858210200000016 8.4287403800000007 Na
atom 18.7500158799999994 32.9220560600000027 8.4400842300000001 Cl
atom 18.6732718999999996 30.0764129099999984 8.2905479100000008 Na
atom 15.9611284300000005 30.2788958500000014 8.7240622400000003 Cl
atom 18.8916816400000016 33.1222924899999995 5.7723694700000001 Na
atom 15.9555644900000004 32.9671237100000027 5.6135042799999999 Cl
atom 15.9462867700000004 35.7949004800000026 5.7797773599999998 Na
atom 18.8627322699999986 35.6257460899999998 5.6579684800000001 Cl
atom 16.0105221299999982 38.5097047399999965 8.2244837499999992 Na
atom 18.8395621700000007 38.4079196300000021 8.7910070000000005 Cl
atom 18.9318941100000018 35.7784964200000033 8.2749699600000000 Na
atom 15.9589236400000001 35.6336234899999980 8.6826930200000003 Cl
atom 18.6768004000000012 38.6352289700000000 5.8677425999999997 Na