#===============================================================================
# Created using the Atomic Simulation Environment (ASE)

# Tue Dec 23 21:42:23 2025

#=======================================================
lattice_vector 28.1999999999999993 0.0000000000000000 0.0000000000000000 
lattice_vector 0.0000000000000000 39.4799999999999969 0.0000000000000000 
lattice_vector 0.0000000000000000 0.0000000000000000 62.3296083400000001 
atom 7.4646838600000001 14.8520316900000005 -0.0599462200000000 Au
atom 10.2257017599999998 14.8272219100000004 -0.1602482900000000 Au
atom 13.1219078299999996 14.8559920200000004 -0.0892757600000000 Au
atom 15.9627103600000009 14.8431976999999993 -0.1115458500000000 Au
atom 18.7164817200000009 14.8493036400000005 0.0342069100000000 Au
atom 21.5432591699999989 14.8243360499999994 0.0310413300000000 Au
atom 24.3686218799999992 14.8500161899999998 -0.0387815900000000 Au
atom 27.2302549999999997 14.8104872099999998 -0.0362748100000000 Au
atom 1.8287872599999999 14.8718664199999999 -0.0540155100000000 Au
atom 4.5900157100000003 14.8096665900000009 -0.0207882500000000 Au
atom 8.8789710300000007 17.3680935599999984 0.0328450700000000 Au
atom 11.7320196699999997 17.3413268199999990 0.1556310400000000 Au
atom 14.5462634099999999 17.2726112699999987 0.0799615600000000 Au
atom 17.2650238300000005 17.3322719499999991 -0.1094884200000000 Au
atom 20.1893431999999997 17.2424448000000012 0.1372650600000000 Au
atom 22.9665971099999986 17.2269377100000014 0.0209837000000000 Au
atom 25.8238792500000010 17.2212770800000001 0.1323065900000000 Au
atom 0.3990786400000000 17.2368607500000017 0.0539788900000000 Au
atom 3.2205672600000002 17.3120841699999986 0.0343257500000000 Au
atom 6.0718274200000000 17.3236665000000016 -0.0094969700000000 Au
atom 7.4936163599999999 19.7466485899999995 0.1633299700000000 Au
atom 10.3330192000000007 19.7808402399999999 0.0313932500000000 Au
atom 13.2108083199999999 19.7418490400000017 0.1908176600000000 Au
atom 15.9661180599999994 19.8132389800000013 0.1600695300000000 Au
atom 18.7498558300000013 19.8465631000000009 0.1502963900000000 Au
atom 21.5100342500000004 19.7536183100000002 0.0307373100000000 Au
atom 24.3923627100000004 19.6174600300000002 0.0305633400000000 Au
atom 27.2243807500000017 19.6981083199999993 0.1802841800000000 Au
atom 1.8353297099999999 19.7366398899999993 0.0587678500000000 Au
atom 4.6926137600000004 19.8176832999999988 -0.0795179300000000 Au
atom 8.8677270999999998 22.2258787399999989 0.2314290000000000 Au
atom 11.6739726600000004 22.1953653799999984 0.1004981000000000 Au
atom 14.5431693400000004 22.2196142300000012 0.1737133100000000 Au
atom 17.3297901799999998 22.2976738599999997 0.2537876700000000 Au
atom 20.1080473300000016 22.2800003599999989 0.1557195400000000 Au
atom 22.9102298500000003 22.1531568199999995 -0.0163671200000000 Au
atom 25.8044304500000017 22.1286230599999989 0.0218408700000000 Au
atom 0.3669442200000000 22.2133217400000014 -0.0259453700000000 Au
atom 3.2366258999999999 22.1883808699999996 0.1065200600000000 Au
atom 6.0816549899999996 22.2396998699999990 0.0719713300000000 Au
atom 7.4804228300000002 24.6989455800000002 0.2408321700000000 Au
atom 10.3486103800000002 24.6601076799999994 0.0951200600000000 Au
atom 13.1218250399999992 24.6881774100000015 0.0954919900000000 Au
atom 15.9510558499999995 24.6848060199999999 0.1747171400000000 Au
atom 18.7818955900000013 24.7656516000000018 0.2002372400000000 Au
atom 21.5848613900000004 24.6693552300000007 0.3061082700000000 Au
atom 24.4516267399999983 24.6778648400000016 -0.0071675400000000 Au
atom 27.2107735499999990 24.6761465999999992 0.0019832100000000 Au
atom 1.8383702300000000 24.6792516699999993 0.0504951100000000 Au
atom 4.6482942300000003 24.7413875200000000 0.0307891700000000 Au
atom 8.8435792800000002 27.1306586100000011 0.0036643000000000 Au
atom 11.7042469400000009 27.1396311600000004 -0.0668911900000000 Au
atom 14.5353730500000005 27.2031471300000014 0.1396732500000000 Au
atom 17.3796571799999988 27.1551141200000004 0.0680039400000000 Au
atom 20.2526307800000005 27.1485525699999997 -0.0181114000000000 Au
atom 23.0031128400000000 27.1109708100000013 0.1442628500000000 Au
atom 25.8054520499999995 27.1589727699999983 0.0385359500000000 Au
atom 0.4578066000000000 27.1292475199999998 0.1817246700000000 Au
atom 3.2342682599999999 27.1495331600000007 0.2436417900000000 Au
atom 6.0511637499999997 27.1725709199999983 0.0860830300000000 Au
atom 7.4612528800000000 29.6504845400000008 -0.0013882600000000 Au
atom 10.3249889199999991 29.6118552500000014 -0.1252774500000000 Au
atom 13.1566100400000003 29.6274936800000006 -0.2283373000000000 Au
atom 15.9963806900000005 29.6288554799999986 -0.2064116000000000 Au
atom 18.7888581799999983 29.5794954499999996 -0.1171186700000000 Au
atom 21.6411355999999984 29.5596443800000017 0.0635406800000000 Au
atom 24.4362079399999992 29.5979263999999986 0.0386108400000000 Au
atom 27.2629084199999987 29.5507187199999990 0.1474470600000000 Au
atom 1.8683297600000000 29.6314747400000016 -0.0198562500000000 Au
atom 4.7043204999999997 29.5791786799999983 0.0596350900000000 Au
atom 8.9182269299999994 32.0408745499999981 -0.2186417500000000 Au
atom 11.7360706900000000 32.0987630099999990 -0.0820396400000000 Au
atom 14.5945121600000007 32.0997925899999998 -0.0657520300000000 Au
atom 17.4778860300000005 32.0522719399999971 -0.0585417600000000 Au
atom 20.2713240100000007 32.0344410800000006 -0.1450587000000000 Au
atom 23.0567768400000013 31.9904708699999993 -0.0088021300000000 Au
atom 25.8858247299999995 32.0171547699999977 0.2094829000000000 Au
atom 0.4698274900000000 32.0731289799999999 0.0409467100000000 Au
atom 3.2826932900000001 32.1076601299999993 0.2687032300000000 Au
atom 6.1113569999999999 32.0732101099999980 0.0787468900000000 Au
atom 7.4542288799999996 34.5964108000000010 0.0126770900000000 Au
atom 10.3045222499999998 34.5143752600000013 0.0331626800000000 Au
atom 13.1801677200000000 34.5489057200000005 -0.0742884000000000 Au
atom 16.0365191799999991 34.5211739300000033 -0.1660375500000000 Au
atom 18.8420907399999997 34.5206226600000008 -0.1246887500000000 Au
atom 21.6155795499999996 34.4844593199999991 -0.1677703900000000 Au
atom 24.4688332200000005 34.5699125499999980 0.0142046100000000 Au
atom 27.2568681300000009 34.5421495000000007 -0.0275707500000000 Au
atom 1.8201490800000000 34.5606388400000029 0.1639757600000000 Au
atom 4.7031294499999996 34.5530703299999971 0.3108487900000000 Au
atom 8.8727598400000005 36.9585657900000015 -0.0381871200000000 Au
atom 11.7581401700000008 36.9930777200000023 0.1174749600000000 Au
atom 14.6667783400000005 36.9952079400000002 0.0187178800000000 Au
atom 17.4760620600000003 37.0318488699999975 -0.0261727100000000 Au
atom 20.2743703999999987 37.0185324199999997 -0.2089072000000000 Au
atom 23.0160626300000004 37.0141854100000032 0.0287609600000000 Au
atom 25.8112096300000005 37.0414201000000034 0.0829129000000000 Au
atom 0.3974504500000000 37.0377021199999987 0.2432956200000000 Au
atom 3.2393916500000000 36.9669685300000026 0.2154756700000000 Au
atom 6.0224597199999996 37.0681587799999974 0.2399697900000000 Au
atom 7.4911322299999998 -0.0291696500000000 0.0691121700000000 Au
atom 10.3523984400000000 -0.0738891200000000 0.1475729800000000 Au
atom 13.1818076400000006 -0.0830486300000000 -0.0845551000000000 Au
atom 16.0422718400000015 -0.0403978400000000 0.0313306900000000 Au
atom 18.9259242800000003 -0.0000204800000000 0.0420950900000000 Au
atom 21.7137470999999991 0.0937610500000000 0.2190692300000000 Au
atom 24.4918577400000004 0.0560477400000000 0.0937391400000000 Au
atom 27.3075687599999988 0.0404479400000000 0.0405421200000000 Au
atom 1.9246428600000001 0.0459421100000000 0.1473871700000000 Au
atom 4.6814630199999998 -0.0284350200000000 0.2853884100000000 Au
atom 8.8787935099999995 2.4293682099999998 0.0779101700000000 Au
atom 11.7434535800000006 2.4779029700000001 -0.0509343800000000 Au
atom 14.5939472499999994 2.4113698800000001 0.0303297600000000 Au
atom 17.3744720900000011 2.4349509100000000 0.0669744700000000 Au
atom 20.1794414400000015 2.5462340200000000 0.0721698000000000 Au
atom 23.0569034500000001 2.5592451600000001 0.1200037900000000 Au
atom 25.8875861799999996 2.5065174500000000 0.0405228200000000 Au
atom 0.4887540300000000 2.4814263300000001 0.0492947200000000 Au
atom 3.2576475100000000 2.5439976700000000 0.1410836900000000 Au
atom 6.0664572000000003 2.4417664299999999 0.0975388800000000 Au
atom 7.5568800999999999 4.9082929499999999 0.1836022600000000 Au
atom 10.3363509800000006 4.8719640799999997 0.0820727500000000 Au
atom 13.2218471199999996 4.9622908399999996 0.0895433500000000 Au
atom 15.9685272800000000 4.9388325999999996 0.2189028200000000 Au
atom 18.7925182600000014 5.0019093100000003 0.0398294200000000 Au
atom 21.5579757299999990 4.9963669700000004 0.1052141200000000 Au
atom 24.4397449299999998 5.0180831499999998 0.1338934800000000 Au
atom 27.2363350000000004 4.9318958400000001 0.2380428200000000 Au
atom 1.8289550400000001 4.9953499199999998 0.0137861500000000 Au
atom 4.6857540100000001 4.9322159900000004 0.1525587900000000 Au
atom 8.8812598699999992 7.4546290600000003 0.0746569400000000 Au
atom 11.7084805599999999 7.4130383499999999 0.1475102300000000 Au
atom 14.4475971800000007 7.3870204800000003 0.2348556000000000 Au
atom 17.2877174499999988 7.4164778900000004 0.1929510100000000 Au
atom 20.0976483399999992 7.4451628200000002 0.1472529200000000 Au
atom 22.9763088599999996 7.5024585899999998 0.0085106000000000 Au
atom 25.7897807199999995 7.3795152200000000 0.1703402100000000 Au
atom 0.4061931000000000 7.4620412299999996 0.1533923600000000 Au
atom 3.2808699500000000 7.3863215300000000 0.0496799900000000 Au
atom 6.0663230600000002 7.3260414799999998 0.0496745500000000 Au
atom 7.4277525500000001 9.8878257099999995 0.0388610200000000 Au
atom 10.2956417400000007 9.9467451300000000 -0.0553836100000000 Au
atom 13.1818316200000005 9.8968685500000007 0.0748319000000000 Au
atom 15.9744073100000001 9.8460155900000004 0.0871651100000000 Au
atom 18.7684035599999994 9.8694347699999998 0.1456729100000000 Au
atom 21.5342873399999988 9.8993874500000008 0.0540858700000000 Au
atom 24.3251740500000011 9.8889819400000007 -0.1092844000000000 Au
atom 27.1417316799999995 9.9101335899999992 0.0162973000000000 Au
atom 1.8165886899999999 9.8585068899999992 -0.0662043400000000 Au
atom 4.6168749699999996 9.8642313000000001 -0.0255581100000000 Au
atom 8.8233183000000004 12.4113430999999999 -0.0257749600000000 Au
atom 11.7059183699999991 12.3703372500000004 -0.1086891900000000 Au
atom 14.4998919900000001 12.3450770900000002 0.0317495400000000 Au
atom 17.2850267500000001 12.3430987900000009 0.0309716900000000 Au
atom 20.1106765100000011 12.3371748399999994 0.1171114100000000 Au
atom 22.9114790200000016 12.3807192599999993 -0.0200064900000000 Au
atom 25.7961527599999982 12.3556783699999997 0.0393282700000000 Au
atom 0.4111892300000000 12.3258382399999995 0.0585322200000000 Au
atom 3.2085045499999998 12.3465288500000003 -0.0922799700000000 Au
atom 5.9956780299999997 12.3292089499999999 0.0047644000000000 Au
atom 7.4921063200000004 13.1710512299999998 2.5007131399999998 Au
atom 10.3316805299999999 13.2223569600000008 2.4234537700000001 Au
atom 13.0617063800000004 13.2107826599999996 2.6837841400000002 Au
atom 15.8989554300000009 13.2769884699999992 2.5895972299999999 Au
atom 18.6685424799999993 13.2633680700000003 2.6753304099999999 Au
atom 21.5089520699999994 13.2978356099999999 2.6084826500000000 Au
atom 24.3124364200000009 13.1476417699999999 2.5299801600000000 Au
atom 27.1704194299999990 13.1587554999999998 2.5555735799999999 Au
atom 1.8488566099999999 13.2450952999999991 2.4724946299999999 Au
atom 4.7007644099999997 13.1678527100000000 2.6376160700000000 Au
atom 8.8747483999999996 15.7189399900000009 2.6133806300000000 Au
atom 11.6408765200000008 15.6672445499999995 2.4914524100000000 Au
atom 14.4544508799999996 15.6425148800000002 2.4952360300000000 Au
atom 17.2494820599999983 15.7226581999999997 2.5132618600000001 Au
atom 20.1179706399999993 15.6999622100000007 2.6812091100000002 Au
atom 22.9801318600000002 15.6881065799999995 2.7414207400000001 Au
atom 25.7595622800000008 15.6602827700000002 2.5936786700000001 Au
atom 0.3830736000000000 15.5958239899999995 2.5941481199999998 Au
atom 3.2332085799999999 15.6068737199999994 2.5083175500000001 Au
atom 6.0579065500000002 15.5759114600000004 2.6085803599999999 Au
atom 7.4538373900000003 18.0799368499999993 2.8226989900000001 Au
atom 10.2447323000000008 18.1724846999999983 2.5852629700000000 Au
atom 13.1130429900000003 18.1230650299999994 2.7618128500000001 Au
atom 15.8796363700000001 18.1451578500000004 2.6546039499999998 Au
atom 18.6676630299999999 18.1343203499999994 2.6255234299999999 Au
atom 21.6303820599999987 18.1174760200000016 2.6938899500000000 Au
atom 24.4470859599999990 18.0986328199999988 2.7190579499999998 Au
atom 27.2854142899999985 18.0871327999999991 2.7033955299999999 Au
atom 1.8919689300000000 18.0496027800000007 2.7330869000000000 Au
atom 4.7140787599999996 18.0898220499999987 2.5628042700000000 Au
atom 8.8728162600000005 20.6485072299999999 2.7955443600000001 Au
atom 11.7426366699999996 20.6252057200000003 2.6494505500000001 Au
atom 14.5247805499999991 20.6436049299999986 2.8542600199999999 Au
atom 17.3334677699999986 20.6196811599999990 2.7592314400000002 Au
atom 20.1562454299999985 20.5708556700000003 2.7873860100000001 Au
atom 23.0283550599999991 20.5768841400000007 2.5947757700000000 Au
atom 25.8393384799999986 20.5746986800000009 2.6358568700000000 Au
atom 0.4263204200000000 20.5846732099999983 2.6951098999999998 Au
atom 3.1984253800000002 20.5751021899999991 2.7031266299999999 Au
atom 6.0060530700000001 20.5484879000000014 2.6388034299999998 Au
atom 7.4086588200000003 22.9862175600000000 2.7612102900000002 Au
atom 10.2678664099999999 23.0878267299999997 2.8216138499999999 Au
atom 13.0965252200000002 23.1215825399999986 2.7009373900000000 Au
atom 15.9966025399999996 23.0683964099999983 2.7789868499999999 Au
atom 18.7719348599999982 23.0445181099999985 2.8576578200000000 Au
atom 21.5616226799999993 23.0259744099999999 2.8213136099999998 Au
atom 24.4053599199999987 23.0798287900000005 2.4916826300000001 Au
atom 27.2372264599999987 23.0608165199999995 2.5586843600000000 Au
atom 1.7506799799999999 23.0684018100000010 2.6758501799999999 Au
atom 4.5780349999999999 23.1401870900000013 2.6621706800000000 Au
atom 8.8091493300000003 25.4854582200000017 2.7613414399999998 Au
atom 11.7139477200000002 25.5561363600000000 2.7071761599999999 Au
atom 14.4942663599999992 25.5248210100000001 2.7441043199999999 Au
atom 17.3477626299999983 25.5527292899999985 2.7969030600000000 Au
atom 20.1450029400000012 25.5197842799999997 2.8152708099999999 Au
atom 23.0691293100000010 25.5469027699999991 2.7488278700000000 Au
atom 25.8663193999999983 25.5189226200000014 2.7065978400000001 Au
atom 0.4464001600000000 25.5617659500000016 2.6540948499999999 Au
atom 3.2245423600000001 25.5599880500000012 2.7470729899999999 Au
atom 6.0727083500000001 25.5452845000000011 2.7790784799999999 Au
atom 7.4641118400000002 27.9736733099999988 2.6964165499999999 Au
atom 10.2698522000000008 28.0175713100000010 2.4983253099999998 Au
atom 13.0856457000000006 28.0152777200000003 2.5893456399999999 Au
atom 15.9425497600000003 28.0085138100000002 2.6538649900000002 Au
atom 18.7286052000000005 27.9791948300000008 2.6054449200000001 Au
atom 21.5636497899999995 27.9676420499999985 2.7425642099999998 Au
atom 24.4304473000000009 27.9825520700000006 2.7369481599999999 Au
atom 27.2728326599999988 28.0083591900000002 2.8211798799999999 Au
atom 1.8394247900000000 28.0290022999999984 2.7957066500000001 Au
atom 4.6508086000000004 27.9937577100000006 2.7618887200000000 Au
atom 8.8931329500000000 30.4671857599999996 2.3672297000000002 Au
atom 11.7391025899999999 30.3719412899999988 2.4581204699999999 Au
atom 14.6377834199999999 30.4272209800000013 2.4498638599999998 Au
atom 17.3983186600000010 30.3984574300000006 2.4961578000000002 Au
atom 20.1899446599999983 30.4067223499999990 2.5734455000000001 Au
atom 23.0095710300000000 30.4366574199999995 2.6453834600000001 Au
atom 25.8484594799999989 30.4347999499999986 2.6993016299999999 Au
atom 0.4445742600000000 30.5138282300000014 2.5819125100000000 Au
atom 3.2473906600000002 30.5173025200000012 2.7797403400000000 Au
atom 6.0765026000000004 30.5082967899999993 2.6922490300000002 Au
atom 7.5603171199999997 32.9099511100000015 2.5341203399999999 Au
atom 10.2897691400000006 32.8731005100000004 2.5351603699999998 Au
atom 13.1555747400000005 32.8586452600000030 2.4825146899999999 Au
atom 15.9479115599999997 32.8368417100000016 2.6003940100000000 Au
atom 18.8084913100000009 32.8973487599999999 2.5278242500000001 Au
atom 21.5969910700000014 32.9256511800000027 2.5171613100000001 Au
atom 24.3913314999999997 32.9224904699999996 2.6865183600000000 Au
atom 27.1689398699999991 32.9137490299999982 2.6886692499999998 Au
atom 1.8229895000000000 32.9813172899999998 2.7727305300000000 Au
atom 4.7184228199999998 32.9160133500000001 2.8201953299999998 Au
atom 8.9411290500000007 35.3833917099999979 2.6835431000000001 Au
atom 11.7672853699999997 35.3430204499999974 2.6511428499999998 Au
atom 14.5897476499999996 35.3010513500000016 2.5090471900000000 Au
atom 17.3537132900000017 35.3380760300000034 2.5511632199999998 Au
atom 20.1740831900000011 35.3833901499999968 2.4275378500000002 Au
atom 22.9811647199999989 35.4581431200000026 2.5678409599999998 Au
atom 25.8524978999999995 35.4466585999999992 2.6409183000000001 Au
atom 0.4418341000000000 35.3863571699999966 2.7624193199999998 Au
atom 3.2755788600000000 35.4265924600000019 2.8247559600000001 Au
atom 6.1301676000000000 35.3492655299999967 2.7643460700000002 Au
atom 7.4879361700000002 37.8554703200000020 2.6323110800000000 Au
atom 10.2911636600000005 37.8023060599999994 2.6757050300000000 Au
atom 13.2281102100000005 37.8361017000000004 2.5682835800000001 Au
atom 16.0563155100000010 37.8418198600000011 2.5774042300000000 Au
atom 18.8451626899999987 37.9298556899999966 2.5777532900000000 Au
atom 21.5940004999999999 37.8717824699999994 2.7538429700000000 Au
atom 24.4100519600000005 37.9071929999999995 2.5740489900000001 Au
atom 27.2648338099999989 37.8635556899999983 2.7577468700000001 Au
atom 1.8914355100000000 37.8420792499999976 2.6950517100000000 Au
atom 4.6671322300000000 37.8498678400000017 2.9177110100000001 Au
atom 8.9766990199999999 0.9149951200000001 2.6735178899999998 Au
atom 11.7977988600000003 0.7691363700000000 2.6290878700000002 Au
atom 14.6238936200000005 0.8104849300000000 2.7328281699999999 Au
atom 17.4823270999999991 0.8376909900000000 2.6631095600000001 Au
atom 20.2740312500000002 0.9637507100000000 2.7634482600000001 Au
atom 23.0513724599999996 0.8696649200000000 2.8282918900000000 Au
atom 25.8555746299999996 0.8714758100000000 2.7046924300000001 Au
atom 0.4222583500000000 0.8625252400000000 2.6251887100000002 Au
atom 3.3279163600000001 0.8665083400000000 2.8150478200000002 Au
atom 6.1980818500000003 0.7932321400000000 2.6805372300000001 Au
atom 7.5912599900000002 3.3230720900000001 2.7565247600000000 Au
atom 10.4053746900000004 3.2469217000000001 2.6300102000000001 Au
atom 13.2084926100000004 3.3217610500000001 2.6055217100000001 Au
atom 16.0727251100000004 3.2922216299999998 2.6448880799999999 Au
atom 18.8570820400000017 3.4091797300000000 2.6300336799999999 Au
atom 21.6736099099999997 3.3308477200000000 2.6418354300000000 Au
atom 24.4800500099999994 3.3136316400000001 2.6739141000000002 Au
atom 27.2831688499999991 3.3345278899999999 2.7580927499999999 Au
atom 1.8633616700000000 3.3492854699999999 2.6621056300000001 Au
atom 4.7180273300000000 3.2885476300000001 2.6805905000000001 Au
atom 8.9953995700000000 5.7539750200000004 2.7085648400000002 Au
atom 11.7717911599999994 5.8038041099999997 2.7491679800000002 Au
atom 14.5706087800000006 5.7526042700000000 2.8685253799999999 Au
atom 17.4395141699999989 5.8179803899999998 2.7020872400000000 Au
atom 20.2442104600000015 5.8216799400000001 2.8196568200000001 Au
atom 23.0582182300000014 5.8239979200000001 2.6831774400000001 Au
atom 25.8461609999999986 5.8258688799999998 2.8425398999999998 Au
atom 0.5130582500000000 5.8406912100000001 2.8166639800000000 Au
atom 3.2751080899999998 5.7861757100000002 2.6818319000000002 Au
atom 6.1148182499999999 5.7565324499999999 2.6880260699999998 Au
atom 7.4726029000000000 8.1866968799999995 2.6542102200000000 Au
atom 10.3000369900000006 8.2448865300000005 2.6330296199999998 Au
atom 13.1130620899999997 8.3071626799999994 2.7723163199999998 Au
atom 15.9603421300000008 8.2709714900000009 2.7791814499999998 Au
atom 18.8166825700000011 8.2794658000000005 2.7831614700000000 Au
atom 21.5497849499999994 8.2740498500000008 2.6616019199999998 Au
atom 24.3796896700000012 8.3313478599999993 2.6640972800000000 Au
atom 27.2641475699999987 8.2719728799999999 2.7508592100000002 Au
atom 1.8512687999999999 8.3311905100000008 2.6649363199999998 Au
atom 4.6232382999999997 8.2909171599999993 2.6402914499999999 Au
atom 8.9167405599999991 10.7169324400000008 2.5413437900000000 Au
atom 11.7088268600000003 10.7502571499999995 2.5945398300000000 Au
atom 14.5792343300000002 10.8444895500000005 2.7649768400000001 Au
atom 17.3742060500000015 10.7936156800000003 2.5778487100000000 Au
atom 20.1323396300000006 10.7921670699999996 2.7353024000000001 Au
atom 22.9810393300000015 10.7181973999999993 2.6273525599999998 Au
atom 25.8306935899999992 10.7124342099999996 2.6102006400000000 Au
atom 0.4303932900000000 10.7495510599999999 2.6556217100000001 Au
atom 3.2064221399999999 10.7887592500000000 2.5851196600000002 Au
atom 6.0865111599999997 10.7250570500000002 2.5841668400000000 Au
atom 7.5854124900000004 13.1678400300000007 5.7530049099999996 Cl
atom 7.5719091799999996 15.9482336000000000 8.4777000800000000 Cl
atom 7.6466671100000001 13.2175911900000003 8.3817417499999998 Na
atom 7.6413695800000001 16.0400568499999991 5.7517624700000001 Na
atom 7.6347850599999996 18.8124009399999998 5.6878359999999999 Cl
atom 7.6575695799999997 21.5769978500000015 8.5759586700000003 Cl
atom 7.5632408599999996 18.7508630499999995 8.3423439199999994 Na
atom 7.6605141699999999 21.5965741000000016 5.8800729100000000 Na
atom 7.7312602899999998 24.5272461700000015 5.8392157600000001 Cl
atom 7.5040501700000002 27.2384447099999996 8.4855168400000007 Cl
atom 7.6714074099999996 24.5104360800000016 8.3748343100000007 Na
atom 7.5552258999999999 27.2515186900000010 5.7999540300000003 Na
atom 7.5589246699999997 30.0543563200000001 5.7279767399999999 Cl
atom 7.4894470499999999 32.9384580899999975 8.5496889300000003 Cl
atom 7.5564876200000004 30.0932149399999993 8.2846636199999999 Na
atom 7.6254978199999996 32.8407206899999977 5.8440654700000003 Na
atom 7.6338082099999998 35.8489632599999979 5.6716717299999999 Cl
atom 7.6069697500000002 38.5025107800000015 8.5299003500000001 Cl
atom 7.6109162299999999 35.6773358000000016 8.3515452600000000 Na
atom 7.6305808500000003 38.6024482600000027 5.8493606099999997 Na
atom 7.5280783700000002 1.9904469800000000 5.7402114400000004 Cl
atom 7.4172164000000000 4.7549174799999996 8.5279646499999995 Cl
atom 7.4555711100000002 1.9541911300000001 8.4356071700000008 Na
atom 7.4654344999999998 4.6967870400000002 5.7871041099999996 Na
atom 7.4326299899999997 7.5027986999999996 5.6255927799999998 Cl
atom 7.5512317800000002 10.2296219300000004 8.4060819700000007 Cl
atom 7.3759687899999999 7.4290381600000002 8.3417618600000001 Na
atom 7.4656755300000004 10.3083672199999992 5.7596719800000002 Na
atom 10.3747292000000009 13.1521172100000001 5.8781130399999997 Na
atom 13.2780415800000000 13.1294629000000000 5.7014089200000004 Cl
atom 10.4482192699999992 15.9789355499999992 8.3475972800000005 Na
atom 13.2371115499999998 15.9505528299999995 8.4918020500000004 Cl
atom 13.3012334899999995 13.1268363899999994 8.3330893100000001 Na
atom 10.4262735299999996 13.1243615699999996 8.6752962599999996 Cl
atom 13.3197720499999992 16.0842679199999985 5.8236262500000002 Na
atom 10.3991679799999996 15.9777758399999996 5.7032115799999996 Cl
atom 10.4187194000000005 18.7765057599999992 5.7838922699999999 Na
atom 13.2717942499999992 18.8513463200000011 5.6673976799999997 Cl
atom 10.4439624000000002 21.5341677099999984 8.4311248299999999 Na
atom 13.3204351699999997 21.6245801399999991 8.5964502899999999 Cl
atom 13.2180136600000004 18.8981018600000006 8.4274352100000005 Na
atom 10.5216031500000007 18.8449950999999984 8.5242899100000002 Cl
atom 13.2548972400000000 21.6923707499999985 5.9076913099999997 Na
atom 10.4647127999999991 21.7017996800000006 5.8104056899999996 Cl
atom 10.5424081300000001 24.4480619300000015 5.8664020600000004 Na
atom 13.2997286199999998 24.5088798399999988 5.8891347300000003 Cl
atom 10.4707557999999992 27.2683541699999985 8.3346847299999993 Na
atom 13.1810301899999995 27.3810196099999992 8.5740727700000008 Cl
atom 13.2478503399999994 24.5024552600000014 8.3695898599999996 Na
atom 10.4373974300000008 24.4740657000000006 8.6781752599999997 Cl
atom 13.1639870600000002 27.3083131500000000 5.7517389899999998 Na
atom 10.4483756299999992 27.2377494300000009 5.7314271999999997 Cl
atom 10.4434211999999995 30.1375821899999998 5.6984663500000003 Na
atom 13.2621038000000002 30.1434193599999993 5.8414826399999997 Cl
atom 10.4258842900000008 32.8743381800000023 8.3657417200000008 Na
atom 13.2737046400000001 32.9626058999999998 8.5375866600000005 Cl
atom 13.2123777300000000 30.1287402899999996 8.4734875600000006 Na
atom 10.3478777700000002 30.0804676099999995 8.5613602400000008 Cl
atom 13.2496693000000008 33.0683137799999969 5.7978776300000003 Na
atom 10.3920306100000008 32.8703483600000013 5.7628187899999999 Cl
atom 10.4671016699999999 35.8709577099999990 5.8134249200000001 Na
atom 13.2984771500000001 35.8911740200000011 5.6257121600000000 Cl
atom 10.3321135599999998 38.5803699599999987 8.4701859699999993 Na
atom 13.2610503299999998 38.6590661400000002 8.5915594500000001 Cl
atom 13.1435455900000004 35.8086241999999970 8.3164285299999996 Na
atom 10.4302550200000006 35.6681946900000000 8.6056828299999992 Cl
atom 13.1741358399999999 38.6274536100000034 5.8805845200000002 Na
atom 10.4068861600000009 38.6081365499999976 5.8074353800000003 Cl
atom 10.3473381900000003 1.8563215099999999 5.9143119200000003 Na
atom 13.2127759099999995 1.8553005100000000 5.8517440399999998 Cl
atom 10.3163877799999995 4.7108140399999998 8.4166553499999992 Na
atom 13.2189867299999992 4.7486895899999997 8.5878457499999996 Cl
atom 13.1592728200000000 1.9077237600000001 8.4797749000000007 Na
atom 10.3304540399999993 1.9705532100000001 8.6463037600000003 Cl
atom 13.2073789000000001 4.6574519199999997 5.8560498599999997 Na
atom 10.4740439300000006 4.7693779400000000 5.7940468500000000 Cl
atom 10.3119145000000003 7.5367390700000003 5.7103039600000001 Na
atom 13.1644864399999992 7.4945525000000002 5.6544078799999999 Cl
atom 10.2050159399999991 10.3371683500000007 8.3567129599999994 Na
atom 13.1109552300000001 10.2967981999999996 8.5145733600000000 Cl
atom 13.0818459699999998 7.4671363700000004 8.2755185699999991 Na
atom 10.2604922199999997 7.4122271499999997 8.6398533700000009 Cl
atom 13.2575483700000003 10.3693958199999994 5.7730485800000002 Na
atom 10.3702460399999996 10.3612739900000008 5.6691709299999999 Cl
atom 16.1562173899999983 13.1320254599999995 5.8191536599999996 Na
atom 18.9475177499999994 13.1954199499999998 5.7411104399999999 Cl
atom 16.0612422399999986 16.0389474700000001 8.3352860999999994 Na
atom 18.8791703300000009 15.9426515200000001 8.6676768200000005 Cl
atom 18.8742884099999984 13.1704624399999997 8.4175975699999999 Na
atom 16.0629779399999997 13.1865180100000003 8.5526197600000007 Cl
atom 18.9458049200000005 16.0258709400000008 5.7954782199999997 Na
atom 16.0907808699999997 15.9740382400000005 5.6628832300000003 Cl
atom 16.0386010200000015 18.9852244600000013 5.9444387200000000 Na
atom 18.8637045199999989 18.8748026300000014 5.8079957200000001 Cl
atom 16.1115028400000000 21.7458482500000017 8.4916002099999996 Na
atom 18.7939027699999990 21.8621205500000002 8.6552719299999996 Cl
atom 18.8667016700000012 18.7495116700000004 8.5303876899999995 Na
atom 16.0548965199999998 18.7002207300000016 8.6475001799999998 Cl
atom 18.9142190499999998 21.6250472599999988 5.8432240100000001 Na
atom 16.0583768400000011 21.6486666399999983 5.8740101200000003 Cl
atom 16.0651218399999998 24.5092956300000004 5.9168462200000000 Na
atom 18.8997764500000009 24.5115140700000005 5.8002781499999996 Cl
atom 15.9281328099999993 27.3363605000000014 8.4158059400000003 Na
atom 18.8190934500000004 27.3466385999999986 8.3998544200000005 Cl
atom 18.7798610500000009 24.5714126399999984 8.4129861500000001 Na
atom 15.9395319400000002 24.6304647500000016 8.7349984400000000 Cl
atom 18.9357308000000018 27.2982060599999983 5.7537612100000004 Na
atom 16.0495178500000009 27.3879511399999984 5.7207282499999996 Cl
atom 16.0641830200000015 30.1472668100000014 5.7848591499999999 Na
atom 18.8619640900000007 30.0229335900000009 5.6008289800000002 Cl
atom 16.0774852400000015 32.8960219300000034 8.3791356399999994 Na
atom 18.8113200700000007 32.8520212299999983 8.5863449500000009 Cl
atom 18.8146277200000007 30.1061262999999997 8.2261811199999997 Na
atom 16.0116582100000002 30.0779275099999985 8.5854700699999995 Cl
atom 18.9046588100000008 32.9188889300000014 5.7316863099999997 Na
atom 16.0446945200000002 32.9286929399999977 5.7446492500000002 Cl
atom 16.1830606000000010 35.7265643300000022 5.8066085899999997 Na
atom 18.9756088699999985 35.6984086900000008 5.7579043199999997 Cl
atom 16.0758588200000005 38.5886518800000005 8.2627856299999998 Na
atom 18.8589742099999995 38.5032871499999985 8.4590385599999998 Cl
atom 18.8864230900000010 35.8020167800000024 8.4237918100000009 Na
atom 16.0368578399999997 35.7688058199999972 8.5398415199999995 Cl
atom 18.8077426299999999 38.5358541000000017 5.7072714900000001 Na
atom 16.0250483899999985 38.5958809899999977 5.6034590299999998 Cl