#===============================================================================
# Created using the Atomic Simulation Environment (ASE)

# Tue Dec 23 21:42:40 2025

#=======================================================
lattice_vector 28.1999999999999993 0.0000000000000000 0.0000000000000000 
lattice_vector 0.0000000000000000 39.4799999999999969 0.0000000000000000 
lattice_vector 0.0000000000000000 0.0000000000000000 62.3296083400000001 
atom 7.5007032799999998 14.8293119200000003 0.0977318900000000 Au
atom 10.3355599399999996 14.8159118599999999 -0.0967953900000000 Au
atom 13.1675921400000000 14.7902415000000005 -0.1170849500000000 Au
atom 15.9701921500000008 14.8089195700000005 -0.0509354100000000 Au
atom 18.7898037799999997 14.7356971699999999 0.1172222600000000 Au
atom 21.6225176400000016 14.7442583099999993 0.0954668800000000 Au
atom 24.3797427000000013 14.7300261100000007 -0.0552261400000000 Au
atom 27.2294892200000014 14.7899716699999999 -0.1148669300000000 Au
atom 1.8575126700000000 14.7520887500000004 -0.0697786000000000 Au
atom 4.6622395799999996 14.8517344700000002 0.0135479600000000 Au
atom 8.8784123000000008 17.3484710399999997 -0.0931972400000000 Au
atom 11.7075269899999999 17.3107475499999985 0.0055807400000000 Au
atom 14.5248820900000002 17.2291460100000009 0.0647788000000000 Au
atom 17.3453196500000004 17.2059228699999984 0.1070110500000000 Au
atom 20.1786917400000014 17.1979442300000009 0.0732320700000000 Au
atom 22.9696341100000012 17.2616012300000001 0.0555151300000000 Au
atom 25.7729510300000015 17.2561036100000003 -0.0610825200000000 Au
atom 0.4141510200000000 17.2384375399999996 0.0424094500000000 Au
atom 3.3003615900000001 17.2991586599999998 -0.0287763500000000 Au
atom 6.1251042199999999 17.2961608399999989 0.1120702700000000 Au
atom 7.4915797900000003 19.7798577999999985 0.0530903100000000 Au
atom 10.3484736300000009 19.8001059700000006 0.1076475400000000 Au
atom 13.1490851800000002 19.7310423399999983 0.1758691800000000 Au
atom 15.9844297399999995 19.6701866900000013 0.0790729700000000 Au
atom 18.8378268999999996 19.6804338600000008 0.0999143100000000 Au
atom 21.6186713600000004 19.6521712800000010 -0.0429703300000000 Au
atom 24.4435697300000001 19.7310954900000013 0.0873449600000000 Au
atom 27.2450972299999989 19.7934300500000013 0.0574724200000000 Au
atom 1.8652751999999999 19.7107754200000009 0.2169977400000000 Au
atom 4.6558095100000001 19.7922717100000014 0.0842564600000000 Au
atom 8.9731913599999995 22.2506575499999997 -0.0127623200000000 Au
atom 11.8008231600000002 22.2456712900000007 0.0950812200000000 Au
atom 14.5897048900000001 22.1693560299999994 0.1851575300000000 Au
atom 17.3532995899999989 22.1750997000000005 0.0921776800000000 Au
atom 20.1926790099999991 22.0924756699999989 0.0919663400000000 Au
atom 23.0115938299999989 22.1837012300000005 0.1142219900000000 Au
atom 25.8119620199999993 22.2507414099999998 0.0911445400000000 Au
atom 0.4883231800000000 22.1758530699999987 0.1227793900000000 Au
atom 3.2697553400000001 22.2415526399999983 0.0879989600000000 Au
atom 6.1051198900000001 22.2065108000000002 0.0835077200000000 Au
atom 7.5457638999999999 24.6497106899999991 0.1466148200000000 Au
atom 10.3526357800000000 24.6708526500000005 0.1098827500000000 Au
atom 13.1634345600000007 24.6889260200000002 0.2288301600000000 Au
atom 15.9755223599999994 24.6248369300000007 0.0963136600000000 Au
atom 18.7890722100000005 24.6287101600000007 0.0189395300000000 Au
atom 21.5639013900000016 24.6474594799999984 0.0816084100000000 Au
atom 24.3867715700000005 24.6821839700000005 0.0654267000000000 Au
atom 27.2130980800000017 24.6598158500000011 0.0370417300000000 Au
atom 1.8323001299999999 24.6895533600000014 0.0714066800000000 Au
atom 4.7277433100000001 24.7702891899999997 0.0387702000000000 Au
atom 8.8976717900000004 27.0789316500000012 0.0864589700000000 Au
atom 11.7352924400000003 27.1758223100000009 0.0403573200000000 Au
atom 14.5856395699999997 27.0991817200000007 0.0533927700000000 Au
atom 17.3715170400000005 27.1201124699999987 0.0621374900000000 Au
atom 20.1657793500000011 27.1277462000000007 -0.0426200400000000 Au
atom 22.9667932599999993 27.1194639600000009 0.0287338600000000 Au
atom 25.8168831899999986 27.1366803800000014 0.0311155800000000 Au
atom 0.4353268200000000 27.0997897999999999 0.0232209100000000 Au
atom 3.2478769900000000 27.1623169299999994 0.0462505600000000 Au
atom 6.0910008299999996 27.2235896000000004 0.0455887000000000 Au
atom 7.4730676400000000 29.6189636699999994 -0.0428846600000000 Au
atom 10.2779022199999996 29.5765874699999998 -0.0200609300000000 Au
atom 13.1410251900000006 29.5937138699999984 -0.0665366600000000 Au
atom 15.9796807500000000 29.6252996300000007 0.0648454800000000 Au
atom 18.7763957200000000 29.5945339499999989 0.0026261100000000 Au
atom 21.5875732599999992 29.6037764099999983 -0.0265997200000000 Au
atom 24.3523330899999984 29.5631385500000015 0.1428884300000000 Au
atom 27.1929428000000009 29.5974762799999986 0.0350931100000000 Au
atom 1.8490695600000000 29.6066454700000001 0.0197979200000000 Au
atom 4.6147302600000000 29.6129008200000001 -0.0359854200000000 Au
atom 8.8897493000000001 32.0329695499999971 -0.0067042200000000 Au
atom 11.7006491300000004 32.0706198499999999 0.0369513700000000 Au
atom 14.5137591500000003 32.0782682500000007 0.0845105600000000 Au
atom 17.3936310700000014 32.0619570599999975 0.2397822800000000 Au
atom 20.1613000599999985 32.0696108899999999 0.0410945500000000 Au
atom 22.9610026599999983 32.0607657199999991 0.1106986700000000 Au
atom 25.7779370800000009 32.0772424299999983 -0.0775337700000000 Au
atom 0.4152811200000000 32.0324373699999967 0.0281138900000000 Au
atom 3.2182839099999998 32.0961236899999989 -0.0241555400000000 Au
atom 6.0286714200000002 32.0516571300000024 -0.1650102100000000 Au
atom 7.4919204099999996 34.5597606199999987 -0.0317029400000000 Au
atom 10.3198471999999999 34.5168332000000007 0.0706288500000000 Au
atom 13.1307408999999993 34.5550873199999984 -0.0975214500000000 Au
atom 15.9479516500000003 34.5073436400000020 0.0012096300000000 Au
atom 18.7677773600000002 34.5503487800000002 0.1505115300000000 Au
atom 21.5860612200000013 34.4851699299999979 -0.0655382100000000 Au
atom 24.3595897900000011 34.5537551399999998 -0.1170502600000000 Au
atom 27.1897763700000006 34.5151054199999976 -0.0269846000000000 Au
atom 1.8138309100000001 34.4924458999999999 -0.1185821000000000 Au
atom 4.6552328100000002 34.5166940900000014 -0.0108855000000000 Au
atom 8.9670929899999994 36.9819429100000008 0.0357247100000000 Au
atom 11.7177526600000004 36.9957374399999992 -0.0428993400000000 Au
atom 14.5057584100000003 37.0221854199999996 -0.0455337600000000 Au
atom 17.3800068100000011 36.9900342600000016 0.0392927900000000 Au
atom 20.1916155500000016 36.9779986500000035 0.1161321800000000 Au
atom 22.9514724500000007 36.9743172800000011 0.0391662900000000 Au
atom 25.8566076900000006 37.0052835700000031 -0.0706882900000000 Au
atom 0.4254850200000000 37.0043866500000007 0.1036175200000000 Au
atom 3.2045639200000000 36.9870955399999986 -0.1848143600000000 Au
atom 6.1324225600000002 36.9784797800000007 -0.1027002700000000 Au
atom 7.5457996500000002 -0.0583491600000000 0.1564653300000000 Au
atom 10.3615668900000006 -0.0383873800000000 0.2816589700000000 Au
atom 13.1415718699999999 0.0289416900000000 0.1854326000000000 Au
atom 15.9586123900000008 -0.0214064700000000 0.2765931400000000 Au
atom 18.7621439000000017 0.0058272000000000 -0.0192510500000000 Au
atom 21.5669699600000015 0.0303604400000000 0.1313316000000000 Au
atom 24.4136633699999983 -0.0793907100000000 0.0902682800000000 Au
atom 27.2617259300000008 -0.0149675500000000 0.1044517300000000 Au
atom 1.8461207600000000 0.0012201000000000 0.1074518800000000 Au
atom 4.7158195200000002 -0.0008062600000000 0.0969924300000000 Au
atom 8.8981950300000001 2.4468144500000002 0.1982378400000000 Au
atom 11.7421028100000004 2.4250141799999998 0.2051251100000000 Au
atom 14.5469993899999999 2.4122434899999998 0.0884614100000000 Au
atom 17.3620981400000005 2.4534364300000000 -0.0603091200000000 Au
atom 20.1626270800000000 2.4546217800000001 0.0872694400000000 Au
atom 23.0567809200000013 2.4590644699999999 -0.0014901800000000 Au
atom 25.8660707499999987 2.4546160000000001 -0.0360469400000000 Au
atom 0.4702054200000000 2.4238614400000000 0.0267687200000000 Au
atom 3.3010992300000002 2.4629830099999999 0.2443226600000000 Au
atom 6.0979189700000003 2.4210832700000000 0.0732863100000000 Au
atom 7.5082869199999998 4.9531756400000004 -0.0476371700000000 Au
atom 10.3132526999999996 4.9156084699999996 0.2738099000000000 Au
atom 13.1060457600000007 4.8949408999999999 -0.0536804800000000 Au
atom 15.9151514800000005 4.8983429999999997 0.0424962700000000 Au
atom 18.7877101800000013 4.8995591699999999 -0.0036967700000000 Au
atom 21.6685881800000004 4.9344407900000000 0.0786911400000000 Au
atom 24.4374376200000007 4.9404926099999997 0.0771976600000000 Au
atom 27.2833979400000004 4.8725373000000003 0.1346242700000000 Au
atom 1.8944071499999999 4.8768660099999996 0.1073874100000000 Au
atom 4.7424336199999999 4.9504656200000001 0.1274786900000000 Au
atom 8.9567001400000006 7.3884985099999998 0.1517911100000000 Au
atom 11.7577353599999999 7.3946602500000003 0.1951372800000000 Au
atom 14.5223651399999998 7.3662920900000000 0.1494649700000000 Au
atom 17.3611703599999991 7.3537766299999996 0.1454006600000000 Au
atom 20.2063711200000000 7.3452055800000000 0.0690816100000000 Au
atom 23.0702246600000009 7.4025699300000003 0.1116956700000000 Au
atom 25.8935020899999984 7.3774415299999996 -0.0876272900000000 Au
atom 0.4596364400000000 7.2921769799999998 0.0724874600000000 Au
atom 3.2992003699999999 7.3388751100000000 -0.0386043000000000 Au
atom 6.1356155100000001 7.4140170999999997 0.0070276300000000 Au
atom 7.5138023299999999 9.8421531600000005 0.0499689900000000 Au
atom 10.3450477900000006 9.8516754199999994 0.0281324700000000 Au
atom 13.1704451799999998 9.8907715199999995 -0.0631657800000000 Au
atom 15.9463440199999997 9.8083048799999997 0.0542530400000000 Au
atom 18.7534295299999982 9.8062544700000007 0.0587175800000000 Au
atom 21.5794655400000011 9.7644546999999999 -0.0530567500000000 Au
atom 24.4650221499999994 9.8391457800000008 -0.0155638500000000 Au
atom 27.3050789700000003 9.7923399000000000 0.0370873500000000 Au
atom 1.8934686500000000 9.8115915200000003 -0.0989511000000000 Au
atom 4.6932409799999997 9.8896849800000002 -0.0215783200000000 Au
atom 8.9385600499999995 12.3341676299999996 -0.0036028000000000 Au
atom 11.7328045299999992 12.3717553799999997 -0.0005901200000000 Au
atom 14.5665852999999998 12.3166762500000004 0.0680648100000000 Au
atom 17.4170943200000004 12.3143993700000003 0.0629324600000000 Au
atom 20.2081593200000000 12.2754474400000007 -0.0272112900000000 Au
atom 23.0152736599999983 12.2444194100000008 0.0608789700000000 Au
atom 25.8677940000000000 12.3024007399999995 -0.0567817100000000 Au
atom 0.4766679800000000 12.2845189300000008 -0.0304528600000000 Au
atom 3.3237616000000001 12.3199323300000003 -0.0318113300000000 Au
atom 6.1526274299999999 12.3635216000000003 0.0157396400000000 Au
atom 7.5482206999999999 13.1724640100000006 2.7242656799999998 Au
atom 10.3043140500000003 13.1898581400000001 2.5114231199999999 Au
atom 13.1270084499999999 13.1754309299999992 2.6695294800000000 Au
atom 16.0441610899999993 13.1599360999999995 2.6109372000000000 Au
atom 18.8043628699999985 13.2043525499999994 2.8046901399999999 Au
atom 21.6276592299999990 13.2197497800000008 2.6498102900000000 Au
atom 24.3949520299999989 13.2139619800000006 2.4998493499999999 Au
atom 27.2616479299999988 13.2306854999999999 2.5336057799999998 Au
atom 1.8930287400000001 13.1922877599999993 2.5941540800000000 Au
atom 4.7026211199999999 13.1663474699999998 2.5067572400000002 Au
atom 8.9805113999999993 15.6958664799999994 2.6454573199999998 Au
atom 11.7717477000000006 15.6089871599999999 2.5259324599999999 Au
atom 14.5463974300000007 15.5431681699999995 2.6448512599999998 Au
atom 17.3860599299999983 15.6346999600000007 2.8023835600000000 Au
atom 20.2254422299999987 15.7215626999999998 2.6525497699999998 Au
atom 23.0491556200000005 15.6938554099999994 2.6488151800000002 Au
atom 25.8397452899999998 15.6645012399999999 2.5568050499999999 Au
atom 0.4572841900000000 15.5975954899999998 2.6504222500000001 Au
atom 3.2337367100000001 15.6235503300000005 2.5115114200000002 Au
atom 6.0746764999999998 15.6497648700000003 2.7282196800000000 Au
atom 7.5067470199999997 18.0622510799999993 2.6561366000000000 Au
atom 10.2941608299999992 18.0879263799999990 2.6037995399999998 Au
atom 13.1041921800000001 18.0605426199999997 2.7105402700000001 Au
atom 15.9224649599999992 18.0877958399999983 2.6116606299999998 Au
atom 18.7408449700000013 18.1099923599999997 2.7207615900000000 Au
atom 21.6120208399999996 18.2018901299999989 2.6308404200000002 Au
atom 24.4554260600000006 18.1186673800000015 2.6541090800000000 Au
atom 27.2570780200000016 18.1236670000000011 2.5681979099999999 Au
atom 1.8868663900000000 18.0908968500000000 2.7065187399999999 Au
atom 4.6061182000000001 18.1141568799999995 2.5681303199999999 Au
atom 8.9008433700000005 20.5522123299999997 2.7058055400000001 Au
atom 11.6965664100000009 20.5676665400000012 2.7910531399999998 Au
atom 14.5573021100000002 20.4826483000000010 2.7207798599999999 Au
atom 17.3420372100000009 20.5465827499999989 2.6527407500000000 Au
atom 20.2006635099999983 20.5747706000000008 2.7636542600000000 Au
atom 23.0309393799999995 20.6171747200000013 2.6906159999999999 Au
atom 25.8324361499999995 20.6429856700000016 2.6818113000000001 Au
atom 0.4714519100000000 20.5850457300000009 2.7417100400000001 Au
atom 3.2912487399999999 20.6119273499999984 2.7916509999999999 Au
atom 6.0518148099999998 20.5381604899999992 2.7057500100000000 Au
atom 7.4681265000000003 22.9960155200000003 2.7028932900000000 Au
atom 10.2774281999999992 23.0930446300000014 2.6411560800000000 Au
atom 13.0857870199999997 22.9737436700000011 2.8241791799999998 Au
atom 15.9548162500000004 23.0373662900000014 2.7982121599999998 Au
atom 18.7863450699999994 23.0662151999999985 2.6989280899999999 Au
atom 21.5575417199999997 23.0892213099999992 2.7197215600000000 Au
atom 24.3610922099999989 23.0655855999999986 2.6604102200000002 Au
atom 27.2443148700000002 23.0773511800000009 2.6742672100000000 Au
atom 1.8457156699999999 23.0783195899999996 2.8095071100000002 Au
atom 4.6835935099999997 23.0563176500000004 2.6600918600000001 Au
atom 8.8962100700000004 25.5158552199999988 2.7747368200000002 Au
atom 11.7294917999999999 25.5535042499999996 2.6456663200000001 Au
atom 14.5547936000000000 25.4474807699999985 2.7734405600000001 Au
atom 17.3831166400000008 25.4959162799999994 2.7055111699999999 Au
atom 20.1540149000000000 25.5998649000000000 2.7333304200000001 Au
atom 22.9221919000000014 25.5580704200000000 2.7141819599999999 Au
atom 25.8107413900000005 25.5200338100000010 2.6743088099999999 Au
atom 0.4505357800000000 25.5834212399999998 2.7148097199999999 Au
atom 3.2496483999999999 25.5306552499999988 2.5599795799999998 Au
atom 6.0851255599999998 25.5507619400000010 2.6403369799999998 Au
atom 7.4971166900000004 27.9933486000000009 2.5604146999999999 Au
atom 10.2907180000000000 28.0019711099999995 2.7062497300000001 Au
atom 13.1654439700000001 27.9442897799999983 2.5984283300000000 Au
atom 16.0119147099999992 27.9423184099999986 2.6352465800000000 Au
atom 18.8138474000000002 28.0310341799999989 2.5964725899999999 Au
atom 21.6006775299999987 28.0591915299999997 2.6027601400000000 Au
atom 24.4270732799999983 27.9969539199999993 2.6938650300000000 Au
atom 27.1851565899999983 28.0301963699999988 2.6972262800000002 Au
atom 1.8020345799999999 28.0007614700000005 2.6912190800000002 Au
atom 4.6335374099999997 27.9886615399999990 2.7381746800000002 Au
atom 8.9198330800000001 30.4405282200000009 2.6045262999999998 Au
atom 11.7726175600000005 30.4222325500000004 2.5555474600000001 Au
atom 14.5733392100000003 30.3984120699999991 2.6373344599999999 Au
atom 17.4030832699999998 30.4477935600000009 2.8525961099999999 Au
atom 20.2209153000000015 30.4929448900000004 2.5312996000000001 Au
atom 23.0250357699999988 30.5248088600000003 2.7083966600000000 Au
atom 25.8201284400000013 30.5115946200000003 2.6110731999999999 Au
atom 0.4255450300000000 30.4752329400000015 2.6580644599999999 Au
atom 3.2262087500000001 30.4905580100000009 2.6287717800000001 Au
atom 6.0869796599999999 30.4890590599999989 2.5742305999999999 Au
atom 7.5146022600000002 32.9414538699999966 2.4937070700000001 Au
atom 10.3097308099999996 32.9064451099999999 2.6930770300000000 Au
atom 13.0701898100000005 32.9167444300000014 2.5630469699999998 Au
atom 15.9328355100000003 32.9232225299999968 2.7453008799999998 Au
atom 18.7967191199999988 32.9228528900000015 2.7693729500000002 Au
atom 21.5829525699999998 32.9589651200000020 2.6281127799999999 Au
atom 24.4461839699999999 33.0240471299999996 2.5520796099999998 Au
atom 27.2369645200000008 32.9722502400000010 2.5855400799999999 Au
atom 1.8424301599999999 32.9276636399999987 2.5927270199999999 Au
atom 4.6906058499999999 32.8941364399999969 2.6245422999999999 Au
atom 8.8599673899999996 35.4107776999999970 2.6979602400000000 Au
atom 11.7041364199999993 35.3970950799999997 2.6433115100000002 Au
atom 14.5751950099999998 35.3763442999999995 2.5441488600000000 Au
atom 17.4063365800000014 35.3780460700000035 2.6914223800000001 Au
atom 20.2452376100000002 35.4550924500000022 2.7933366899999998 Au
atom 23.0154137699999986 35.4273535199999969 2.6103344599999998 Au
atom 25.8662287400000004 35.4095098299999975 2.5296793399999999 Au
atom 0.4824812600000000 35.4173970299999965 2.6409591300000002 Au
atom 3.2532771199999999 35.3789748900000021 2.4287376100000002 Au
atom 6.0473999400000000 35.3754081700000000 2.6719349200000000 Au
atom 7.4565085699999996 37.8511244899999966 2.5787747500000000 Au
atom 10.2958546200000001 37.8235182299999977 2.7421368799999999 Au
atom 13.1561617799999997 37.8477034499999974 2.6633460400000000 Au
atom 15.9638948799999998 37.8038754600000004 2.6786028300000000 Au
atom 18.7936328500000016 37.9722901000000022 2.5274588599999999 Au
atom 21.5974498100000005 37.8733176699999987 2.7510479900000000 Au
atom 24.4198083200000013 37.8746909999999986 2.5961540699999999 Au
atom 27.2257036100000001 37.8490692199999970 2.7520512199999998 Au
atom 1.8648934100000001 37.8532758099999995 2.5903675599999998 Au
atom 4.6336730900000003 37.8195654399999981 2.5067008300000002 Au
atom 8.9060799100000008 0.8562298200000000 2.9209038500000002 Au
atom 11.7523051200000008 0.8343896900000000 2.8277064799999998 Au
atom 14.5288111099999995 0.8570709100000000 2.9278411900000001 Au
atom 17.3448519200000000 0.9066954900000000 2.7302843700000001 Au
atom 20.2141902900000012 0.8839757800000000 2.7415916299999998 Au
atom 23.0089683299999983 0.8342128500000000 2.7467123700000000 Au
atom 25.8567289500000008 0.8539723600000000 2.6710166599999998 Au
atom 0.4344768400000000 0.8832601300000000 2.7325075900000000 Au
atom 3.2772172300000002 0.8286689900000000 2.7412913400000001 Au
atom 6.0963855200000001 0.8760421900000001 2.7844935199999998 Au
atom 7.5625893399999997 3.4058956500000002 2.5997490900000000 Au
atom 10.3384508200000003 3.3096163800000000 2.8842435800000001 Au
atom 13.1013335200000007 3.3514225199999998 2.6974624000000000 Au
atom 15.9693433099999993 3.2981540699999998 2.6147859300000000 Au
atom 18.7725084399999993 3.3288686599999999 2.6547618000000002 Au
atom 21.6032058099999986 3.2760493899999998 2.5966568799999998 Au
atom 24.4360451999999988 3.3115075500000000 2.6469879600000001 Au
atom 27.2447933000000013 3.2844495299999998 2.6650648900000000 Au
atom 1.8633014299999999 3.3236965100000000 2.6848325700000002 Au
atom 4.7351375999999998 3.3548164499999999 2.7740098799999999 Au
atom 8.9090168300000006 5.7813672599999997 2.7137192300000001 Au
atom 11.7484633400000007 5.8393720399999998 2.7956331099999998 Au
atom 14.5857978100000008 5.7649885899999997 2.7098842300000001 Au
atom 17.3589114799999997 5.7804869200000004 2.6900814999999998 Au
atom 20.1638183099999999 5.7678429299999996 2.6505389199999998 Au
atom 23.0078365600000012 5.7542714999999998 2.7755416400000001 Au
atom 25.7913011700000006 5.7939980799999997 2.6205402400000000 Au
atom 0.4418189100000000 5.8056892199999997 2.8659615800000000 Au
atom 3.2369097199999999 5.8401617000000003 2.7732312700000001 Au
atom 6.1352985799999997 5.8362241900000003 2.6847415300000002 Au
atom 7.5703115800000003 8.2927930799999992 2.7333973899999999 Au
atom 10.4014281099999994 8.2751180899999994 2.7488260699999998 Au
atom 13.2200557599999993 8.2505225099999997 2.7426244600000000 Au
atom 15.9952626999999996 8.2778195900000000 2.7261080000000000 Au
atom 18.8613587900000006 8.2841940899999997 2.7687529600000000 Au
atom 21.6175362600000014 8.2439818999999996 2.6762596500000000 Au
atom 24.4896033700000011 8.3034053300000004 2.5496740800000000 Au
atom 27.3078640300000011 8.2645597399999993 2.6441554500000000 Au
atom 1.8717231599999999 8.2916874499999995 2.5395381800000001 Au
atom 4.7173000299999996 8.2077396799999995 2.5857788600000000 Au
atom 8.9609550700000007 10.6993548900000004 2.6634861500000002 Au
atom 11.8091542399999998 10.6681393700000005 2.5652006300000001 Au
atom 14.5319198299999996 10.7610036699999991 2.6094207500000000 Au
atom 17.4229329100000001 10.7060346600000003 2.6430840899999999 Au
atom 20.2342529099999986 10.7307479099999998 2.6182827700000000 Au
atom 23.0487225500000008 10.7014970199999997 2.6265081399999999 Au
atom 25.9011293299999998 10.8058599900000001 2.6470823600000002 Au
atom 0.4990904300000000 10.7323954500000003 2.6275817799999999 Au
atom 3.2760334900000001 10.7275798699999996 2.6034147600000002 Au
atom 6.1364597800000000 10.6981393899999997 2.6406331299999999 Au
atom 7.4336106900000001 13.1302291300000000 5.6466953000000002 Cl
atom 7.4906609900000003 15.9113497800000001 8.5353902500000007 Cl
atom 7.3840640600000000 13.1698149900000008 8.3229754600000003 Na
atom 7.4712399100000004 15.9273979400000005 5.8116009599999998 Na
atom 7.5163981199999998 18.8044816899999994 5.8162131400000003 Cl
atom 7.5697206899999996 21.6079706000000016 8.6784916499999998 Cl
atom 7.5009073199999996 18.7883492399999987 8.4503680699999997 Na
atom 7.4260257899999997 21.7037284499999998 5.8459995400000002 Na
atom 7.4590882199999999 24.4757700800000002 5.7990596099999996 Cl
atom 7.4495830800000000 27.2806104199999986 8.5614511199999992 Cl
atom 7.5283011300000000 24.4785865300000012 8.4329982099999992 Na
atom 7.4810258699999999 27.3302025499999992 5.7161933899999999 Na
atom 7.3706386999999998 30.2037091099999984 5.6227572400000003 Cl
atom 7.4445661000000003 33.0023144500000001 8.4785531699999996 Cl
atom 7.4705186599999998 30.1833450700000014 8.2988842399999996 Na
atom 7.5114360900000001 33.0251381300000020 5.7682356600000002 Na
atom 7.5047658400000001 35.9796057000000005 5.7094829300000001 Cl
atom 7.5520525699999999 38.7403352600000019 8.6391901600000001 Cl
atom 7.4798240700000003 35.8680951699999966 8.3100667200000000 Na
atom 7.4585587999999996 38.7273319299999983 5.8720783200000000 Na
atom 7.5135848100000002 2.0289668299999999 5.9150398900000001 Cl
atom 7.5445801200000000 4.8185714700000002 8.6749262199999997 Cl
atom 7.5534147599999999 1.9894537600000000 8.5826901099999997 Na
atom 7.5336261300000000 4.8082133499999999 5.9305387999999999 Na
atom 7.4081968800000002 7.4932387800000004 5.7579715299999998 Cl
atom 7.4307720899999996 10.4257942400000001 8.5407230799999994 Cl
atom 7.4026257400000004 7.6314341399999996 8.4753104500000003 Na
atom 7.4453524299999998 10.2878043600000009 5.7270394299999996 Na
atom 10.2404782500000007 13.2033643600000001 5.7446803900000001 Na
atom 13.2249478099999997 13.2263775900000002 5.6969787600000004 Cl
atom 10.3323816500000003 15.9464775999999997 8.3197249899999992 Na
atom 13.2170153199999998 15.9577480099999995 8.6113157699999991 Cl
atom 13.1347852300000003 13.1612842099999998 8.3604843399999993 Na
atom 10.2780717100000007 13.1160542600000003 8.4780174600000002 Cl
atom 13.0977231300000003 16.0245983999999986 5.7886520399999997 Na
atom 10.3073553800000006 15.9869730099999998 5.7556018599999996 Cl
atom 10.2844767200000007 18.8411708699999991 5.8205563099999997 Na
atom 13.1161017900000001 18.8161584200000007 5.6653782100000001 Cl
atom 10.3310195799999995 21.7457764500000010 8.4288324200000009 Na
atom 13.2078473200000008 21.6533326099999996 8.5366544500000003 Cl
atom 13.1547077399999992 18.7490516700000001 8.3394952599999996 Na
atom 10.3814960799999998 18.7944545500000011 8.5430467399999994 Cl
atom 13.0593992399999994 21.6713764299999987 5.8639807599999996 Na
atom 10.2736131999999998 21.7893315799999989 5.7931399499999996 Cl
atom 10.3346654099999995 24.5088656399999998 5.8009934300000001 Na
atom 13.2134643399999998 24.4370131800000010 5.8252040799999998 Cl
atom 10.3089212000000003 27.3667754800000012 8.3167648700000001 Na
atom 13.1075766999999992 27.3493590900000001 8.5906591999999993 Cl
atom 13.1923154500000006 24.4189421399999986 8.4216780599999996 Na
atom 10.3461108999999993 24.5046461700000009 8.5476503699999995 Cl
atom 13.1581467100000005 27.2933404099999990 5.8432869600000004 Na
atom 10.3670911599999993 27.2775846400000006 5.6871313700000004 Cl
atom 10.3607079899999999 30.1072094399999983 5.6798733400000003 Na
atom 13.1993716899999995 30.1768332000000008 5.7782150400000001 Cl
atom 10.2870993899999998 32.9974172300000035 8.2660951600000008 Na
atom 13.1482835700000003 32.9541366199999999 8.5591116700000001 Cl
atom 13.0585192400000007 30.2330897800000002 8.3356344399999998 Na
atom 10.2912151299999994 30.1931236500000004 8.4354028299999992 Cl
atom 13.1403848100000005 33.0872529299999982 5.8049715099999997 Na
atom 10.3749636600000006 32.9984855800000005 5.6578166500000000 Cl
atom 10.2930402999999995 35.9039726700000017 5.7594400099999996 Na
atom 13.0876988300000008 35.8168522100000004 5.8163239600000001 Cl
atom 10.3308253699999995 38.6412960400000003 8.4286686900000003 Na
atom 13.1123326700000007 38.6538281899999987 8.6744683899999995 Cl
atom 13.1834923699999997 35.7727835600000006 8.3820870700000008 Na
atom 10.2232266599999999 35.7520174200000014 8.5080067100000001 Cl
atom 13.1024763600000007 38.6488286200000033 5.9443405800000004 Na
atom 10.3760876599999996 38.7614021500000021 5.7948663199999997 Cl
atom 10.3742236600000002 2.0629899500000000 6.0094734200000000 Na
atom 13.1791543600000001 1.9374458400000001 5.8305157999999997 Cl
atom 10.3141849400000005 4.8333910099999997 8.4119517500000001 Na
atom 13.2210507400000008 4.9126932800000001 8.6530584899999994 Cl
atom 13.1681225299999998 2.0527232400000002 8.4360715000000006 Na
atom 10.4184955099999996 2.0338748899999999 8.7496585400000004 Cl
atom 13.2313023600000008 4.8212726300000002 5.8614879499999999 Na
atom 10.3024658000000002 4.7868667499999997 5.7632514300000004 Cl
atom 10.3700965699999994 7.5651565600000001 5.8256435099999999 Na
atom 13.1759710099999996 7.5383123200000002 5.8205934800000003 Cl
atom 10.2983018000000008 10.3785448599999999 8.3484517399999998 Na
atom 13.0765713199999993 10.4212325099999994 8.5739823400000006 Cl
atom 13.1261963500000007 7.5265387400000003 8.5216190600000008 Na
atom 10.3178794299999996 7.6312165900000002 8.5703351800000007 Cl
atom 13.0778856900000005 10.3414415300000009 5.7671877499999997 Na
atom 10.2151161599999991 10.3709890100000006 5.6339425399999996 Cl
atom 15.9764923400000001 13.2151614100000003 5.8110495000000002 Na
atom 18.7493423899999989 13.1622973699999992 5.7013068499999999 Cl
atom 15.9564420899999995 15.9765529700000002 8.3620114500000007 Na
atom 18.8544992200000010 16.0130951599999989 8.5670334500000003 Cl
atom 18.8240116399999984 13.2950569400000003 8.4001467400000003 Na
atom 16.0450764499999998 13.1809763400000008 8.5783939799999995 Cl
atom 18.8965300399999983 16.0409015599999982 5.8602715300000003 Na
atom 16.0071215500000008 16.0408047600000003 5.7037255599999996 Cl
atom 15.9607779099999991 18.8351486299999991 5.7994075299999999 Na
atom 18.8389503199999986 18.8849501300000000 5.7957712499999996 Cl
atom 16.0482160799999996 21.5500736400000008 8.4186098299999994 Na
atom 18.7722058800000013 21.7441846699999992 8.5749152899999999 Cl
atom 18.8026281699999984 18.9159209500000003 8.4045555400000005 Na
atom 15.9696925099999998 18.7139625000000009 8.5726433499999999 Cl
atom 18.8460373700000012 21.6482621699999989 5.8392205300000004 Na
atom 15.9877970600000001 21.6707238099999984 5.7933173199999999 Cl
atom 15.9636988700000000 24.4335375299999988 5.9446270600000002 Na
atom 18.7898092599999984 24.5435604199999986 5.7937007999999999 Cl
atom 15.8859723800000001 27.4103945099999997 8.3613958799999999 Na
atom 18.8532911299999988 27.2795130999999991 8.6371683899999994 Cl
atom 18.7681627499999983 24.5730710399999985 8.4513248500000007 Na
atom 16.0854879400000002 24.4825593499999989 8.6907216399999996 Cl
atom 18.7544921199999983 27.4145252600000013 5.8830559400000002 Na
atom 16.0134079699999994 27.3607121000000006 5.7323653300000004 Cl
atom 15.9777494900000008 30.1796816399999983 5.8378419199999998 Na
atom 18.8413913199999996 30.2350480099999999 5.7201519100000002 Cl
atom 15.9865156600000002 32.9481421699999970 8.4052056999999998 Na
atom 18.8533101000000016 33.0345723000000007 8.6045456700000003 Cl
atom 18.8778427499999992 30.1966464999999999 8.3484540400000000 Na
atom 16.0412214400000011 30.1838512500000000 8.5470329199999995 Cl
atom 18.8421354799999996 33.0451607800000033 5.9131146599999997 Na
atom 15.9487275200000003 33.1321077899999992 5.7789430800000003 Cl
atom 15.9852591099999994 35.8811829400000022 5.8993302800000000 Na
atom 18.8000363200000002 35.7744724100000013 5.8297685399999999 Cl
atom 15.9515553699999995 38.6890549000000021 8.4971070100000006 Na
atom 18.7314964099999983 38.6473969299999993 8.6309673799999995 Cl
atom 18.7738822300000017 35.8904046399999999 8.4352617100000007 Na
atom 15.9736399799999997 35.8065361100000032 8.6966803299999995 Cl
atom 18.8224498400000009 38.6455070399999983 5.9093584799999999 Na