#===============================================================================
# Created using the Atomic Simulation Environment (ASE)

# Tue Dec 23 22:26:11 2025

#=======================================================
lattice_vector 28.1999999999999993 0.0000000000000000 0.0000000000000000 
lattice_vector 0.0000000000000000 39.4799999999999969 0.0000000000000000 
lattice_vector 0.0000000000000000 0.0000000000000000 62.3296083400000001 
atom 7.4138626800000003 14.8248350799999997 -0.3149953900000000 Au
atom 10.5072404499999994 14.7551666499999996 -0.4170521500000000 Au
atom 13.0829313799999998 14.8552830700000005 -0.1997800800000000 Au
atom 15.9952835100000001 14.7146364399999996 0.2155814100000000 Au
atom 18.8833579000000000 14.6806418900000004 0.0552165500000000 Au
atom 21.7449344999999994 14.7474322099999995 -0.0394052000000000 Au
atom 24.3003790799999990 14.7122470700000001 -0.2626499200000000 Au
atom 27.2175812199999996 14.7782179800000009 0.0488394600000000 Au
atom 1.9401636799999999 14.9390751799999997 -0.1681274400000000 Au
atom 4.5026155299999999 14.8422324499999991 -0.2473856100000000 Au
atom 8.8428354900000006 17.4184586699999997 -0.3331689000000000 Au
atom 11.7450452900000002 17.3477641399999989 -0.0491280600000000 Au
atom 14.6913510100000000 17.4542456799999997 0.1418263600000000 Au
atom 17.4875701499999998 17.4404821400000003 -0.0159364800000000 Au
atom 20.1611438400000011 17.1467706699999987 -0.1864418100000000 Au
atom 23.2410615100000015 17.3182291900000003 -0.0316056800000000 Au
atom 25.6597537200000012 17.3925658200000015 -0.2498239900000000 Au
atom 0.2190850800000000 17.1660455399999989 -0.2939256900000000 Au
atom 3.1963540799999999 17.5325864299999985 -0.6362273200000000 Au
atom 6.0037752500000003 17.4026625400000015 -0.1462989200000000 Au
atom 7.3845198999999999 19.6037743900000017 0.1402306100000000 Au
atom 10.2101690600000001 19.7677788899999989 -0.0455905300000000 Au
atom 13.0911412100000000 19.7478152000000016 0.1445075100000000 Au
atom 15.9810132599999992 19.7589012500000010 0.1518404700000000 Au
atom 18.8754419700000007 19.7509387499999995 -0.1697853600000000 Au
atom 21.6257338399999988 19.9297977099999990 0.0736763300000000 Au
atom 24.4479032899999993 19.7351205100000016 -0.1293770400000000 Au
atom 27.1704566400000012 19.8242685600000002 -0.0789652600000000 Au
atom 1.7194378600000000 19.7262166999999984 -0.3088924100000000 Au
atom 4.4821158800000003 19.8743487899999991 -0.6664026000000000 Au
atom 9.0024381299999998 22.2149574399999992 -0.1274532300000000 Au
atom 11.6616555999999996 22.0633039800000006 -0.2132860600000000 Au
atom 14.8348510600000001 22.1457002699999990 0.0001065900000000 Au
atom 17.4404982799999999 22.2078347899999997 -0.0127779500000000 Au
atom 20.1873050200000002 22.1363738900000016 -0.0454143400000000 Au
atom 23.1398402099999991 22.1961312500000005 -0.3045117700000000 Au
atom 25.7473967100000003 22.1967757900000002 -0.0561462800000000 Au
atom 0.3442597000000000 22.2603128599999991 -0.2582818800000000 Au
atom 3.4100347900000001 22.1475521600000000 -0.3389149200000000 Au
atom 5.9734718000000004 21.9840223399999992 -0.1442419300000000 Au
atom 7.4451433299999996 24.6018551300000006 0.2150563500000000 Au
atom 10.3933841200000003 24.5416793800000015 -0.0320502300000000 Au
atom 13.0818353900000002 24.7326131800000013 -0.1013727100000000 Au
atom 15.7280895300000001 24.7617816700000013 0.3839225400000000 Au
atom 18.6277957500000007 24.8259705599999982 -0.0171405500000000 Au
atom 21.5992880800000009 24.7647366899999994 0.1573325800000000 Au
atom 24.5801981100000013 24.8688895800000012 0.0231947700000000 Au
atom 27.2065262200000006 24.7279491500000006 0.0483211700000000 Au
atom 1.7029627100000000 24.5121981899999994 -0.3851527200000000 Au
atom 4.6004696300000001 24.7003089399999993 -0.5888748499999999 Au
atom 8.7588934999999992 26.8085355099999987 -0.0288254400000000 Au
atom 11.6583665199999995 27.0954566399999983 -0.1031549400000000 Au
atom 14.5924078799999997 27.0594080000000012 -0.0175553700000000 Au
atom 17.5289939399999994 27.2289621699999991 0.0033364100000000 Au
atom 20.2119246900000000 27.0278222600000007 0.0091378100000000 Au
atom 23.0567446800000013 27.1844067199999984 -0.0682856400000000 Au
atom 25.7255231500000008 27.2092014900000017 0.2753798400000000 Au
atom 0.5534638200000001 27.0770834799999989 0.2061364900000000 Au
atom 3.2040135900000002 26.9802438100000010 -0.2213581500000000 Au
atom 6.0079470400000003 27.1059682899999999 0.0322424800000000 Au
atom 7.5796564899999996 29.5874358599999994 0.0021665300000000 Au
atom 10.1964212399999994 29.3892038900000010 -0.0130216400000000 Au
atom 13.1824764800000001 29.6854895600000006 0.1720290800000000 Au
atom 15.8123626999999995 29.4130960799999990 -0.3244087700000000 Au
atom 18.9265333300000016 29.5314660000000018 -0.0505248700000000 Au
atom 21.6388633800000001 29.4210537000000016 0.0233028800000000 Au
atom 24.6101162100000010 29.6149799599999994 0.1109469600000000 Au
atom 27.3283840699999985 29.4407150599999987 0.1916647800000000 Au
atom 1.8040959599999999 29.6226705899999985 -0.0267024600000000 Au
atom 4.8655870700000001 29.5470060100000005 0.0735486400000000 Au
atom 9.0444694800000001 32.1595396800000017 -0.1404099700000000 Au
atom 11.7732980200000004 32.1042281499999973 0.0834278500000000 Au
atom 14.5418495500000002 31.9998742299999996 0.2579008600000000 Au
atom 17.3468559700000000 32.2481062100000031 0.0643234500000000 Au
atom 20.1351321500000005 32.0002483399999988 -0.0565885500000000 Au
atom 22.7375994699999993 32.1572980199999989 -0.2714871900000000 Au
atom 25.7912524500000018 32.1036366000000015 -0.2716702600000000 Au
atom 0.4926525800000000 31.8790179000000009 -0.0963769700000000 Au
atom 3.3242000500000000 32.1689294899999965 -0.0561667100000000 Au
atom 6.3304100099999996 31.9989808800000013 0.1430506800000000 Au
atom 7.4356635600000001 34.5140416999999999 0.1232395600000000 Au
atom 10.4112818699999998 34.7480781300000032 0.3786531300000000 Au
atom 13.2074049599999999 34.5082080299999987 0.0626175100000000 Au
atom 15.9951846999999994 34.6755403200000032 -0.0993020300000000 Au
atom 18.7481986300000010 34.5313339499999969 0.0264865800000000 Au
atom 21.7284154399999991 34.6722848100000007 0.2952045700000000 Au
atom 24.5857124300000009 34.6770857599999971 -0.0401626600000000 Au
atom 27.2133164000000001 34.6833216200000010 -0.0286229300000000 Au
atom 1.9184332700000000 34.3680534900000012 -0.2448264500000000 Au
atom 4.7783878700000004 34.6455743499999969 0.1659951600000000 Au
atom 9.0584270000000000 37.0183084299999976 0.2872959200000000 Au
atom 12.0898334999999992 36.9896679300000031 0.1306345200000000 Au
atom 14.7242598600000001 37.0976386500000004 0.3516055100000000 Au
atom 17.5585100899999986 37.0898136100000002 0.1830707600000000 Au
atom 20.0398530400000006 37.0652819299999976 -0.0267207600000000 Au
atom 23.0059366400000016 37.2275339999999986 0.1157138500000000 Au
atom 25.8854266200000005 37.2608007600000022 -0.0778759000000000 Au
atom 0.6740497500000000 36.9856364899999974 0.1601976400000000 Au
atom 3.2893179600000000 37.0188450599999967 0.1377346300000000 Au
atom 6.3780378500000001 36.9658683299999993 0.4240451700000000 Au
atom 7.6371985999999996 0.0581260200000000 0.3526952500000000 Au
atom 10.6168560900000006 0.0466917500000000 0.4242418200000000 Au
atom 13.3691835599999997 -0.1393621100000000 0.4664407300000000 Au
atom 15.9402185599999999 0.1107686900000000 0.2386933400000000 Au
atom 18.6669049899999990 0.2231193200000000 0.1490189100000000 Au
atom 21.4495122999999985 0.0462530500000000 0.4950907600000000 Au
atom 24.2960477300000015 0.0654493400000000 0.3598827800000000 Au
atom 27.3402185200000005 -0.1801920400000000 0.2515177200000000 Au
atom 1.9649416300000000 -0.0462851600000000 0.2213476200000000 Au
atom 4.7939666100000000 -0.1202534000000000 0.2008728900000000 Au
atom 8.9621721000000001 2.3669761000000000 0.5180540000000000 Au
atom 11.6860959700000002 2.4481046800000001 0.5912205100000000 Au
atom 14.7174399699999991 2.4159688799999999 0.4880436800000000 Au
atom 17.2848045299999988 2.5906858000000001 0.1086811500000000 Au
atom 20.1355336499999993 2.7792587499999999 0.5120898400000000 Au
atom 23.0474580200000005 2.4260739400000002 0.0744518600000000 Au
atom 25.9908280500000011 2.5121829700000000 0.1650647300000000 Au
atom 0.5134615300000001 2.6499075200000002 -0.0821081900000000 Au
atom 3.4131507200000000 2.5206363399999998 0.2434543600000000 Au
atom 6.2151547599999999 2.4969920499999998 0.5116605300000000 Au
atom 7.5999053400000003 4.9138940499999997 0.1961180000000000 Au
atom 10.3299234200000001 4.9116508100000003 0.3756910900000000 Au
atom 12.9633839799999997 4.9426708100000001 0.2225031600000000 Au
atom 15.7769584399999996 4.8234201399999996 0.3020324600000000 Au
atom 18.8840392600000015 4.8979879200000003 0.2941816000000000 Au
atom 21.5795101500000008 5.1010017799999998 0.1330303300000000 Au
atom 24.2255128299999996 4.8458346099999998 0.0840675800000000 Au
atom 27.2385659099999984 4.9676110800000002 0.1864043900000000 Au
atom 1.7585688200000000 5.1445506200000004 0.0502622800000000 Au
atom 4.7268344000000004 5.0422912499999999 0.0728892200000000 Au
atom 9.0195543699999998 7.1795479799999997 -0.1490372600000000 Au
atom 11.7362766700000005 7.3601348599999996 0.1910448200000000 Au
atom 14.6803659900000003 7.3153146900000001 0.1914487600000000 Au
atom 17.4683214999999983 7.3772810800000004 0.2986904000000000 Au
atom 20.2016783800000006 7.3366632200000002 0.2062189400000000 Au
atom 22.9195639500000006 7.4075030100000001 0.2531501700000000 Au
atom 25.7775935099999991 7.4852274799999998 -0.0658563900000000 Au
atom 0.4791142000000000 7.4619204100000003 -0.2729770300000000 Au
atom 3.4001979100000002 7.4057683399999998 -0.2172069800000000 Au
atom 6.0161987000000003 7.4260625999999998 0.2437711600000000 Au
atom 7.6879367800000002 9.8405797699999997 0.2259855800000000 Au
atom 10.3615983600000003 9.8399584499999992 -0.0015414300000000 Au
atom 13.2144412199999994 9.9404206899999998 0.0513038600000000 Au
atom 15.8820239399999998 10.0060810599999996 0.1124317300000000 Au
atom 18.7402211700000016 9.9387643000000008 0.0684760200000000 Au
atom 21.5171702499999995 9.8711000999999996 -0.1561140600000000 Au
atom 24.2932681700000010 9.8557543100000000 -0.0032565800000000 Au
atom 27.1363965600000014 10.0149702099999995 -0.4001406400000000 Au
atom 1.8311688300000000 9.8319553499999994 -0.4470973800000000 Au
atom 4.6202395100000002 9.8146837399999995 -0.2947549300000000 Au
atom 8.9272679400000001 12.5932048999999999 -0.0605410100000000 Au
atom 11.7031469200000000 12.5701409300000009 -0.1440282300000000 Au
atom 14.7343631399999992 12.4784571999999994 -0.0853191400000000 Au
atom 17.4990129100000011 12.2520744100000005 0.0012606300000000 Au
atom 20.2754300500000006 12.4918679899999994 -0.0547666000000000 Au
atom 23.1607656400000010 12.3564663199999991 -0.2871509700000000 Au
atom 25.8786957400000013 12.4487356299999998 -0.2920858400000000 Au
atom 0.4807653900000000 12.3900083799999994 -0.3525142300000000 Au
atom 3.3344523800000001 12.4800979299999995 -0.0573465700000000 Au
atom 6.2089351400000004 12.4124228599999995 -0.2074984700000000 Au
atom 7.4641483199999996 13.1767709899999996 2.3948532700000000 Au
atom 10.2344606900000006 13.3071199300000007 2.4736060100000001 Au
atom 13.3308505600000000 13.2865658000000000 2.4129366200000000 Au
atom 16.1592328599999995 13.1670879200000002 2.5508814599999998 Au
atom 19.0049471399999987 13.1428843700000009 2.5029828300000001 Au
atom 21.8927776300000012 13.1633806100000008 2.5814057699999999 Au
atom 24.5420685799999987 13.1973498399999993 2.3308377199999999 Au
atom 27.3222589400000011 13.2393391999999999 2.7156110600000001 Au
atom 2.0098939100000002 13.2046960999999996 2.4369664599999998 Au
atom 4.8522002400000002 13.1785281399999992 2.0545450800000000 Au
atom 8.8893545300000003 15.6021351100000008 2.2601575800000000 Au
atom 11.7891425099999996 15.7702280699999999 2.3596477199999999 Au
atom 14.5843641000000002 15.5447494699999993 2.7374363900000001 Au
atom 17.3941944399999997 15.6591690099999994 2.6818455100000000 Au
atom 20.1319380700000004 15.7824697999999994 2.6978629999999999 Au
atom 23.1607610900000012 15.7489426699999999 2.4589999400000000 Au
atom 25.8881869100000017 15.5242625899999993 2.5325575599999999 Au
atom 0.5580608300000000 15.5879788999999995 2.4096221299999998 Au
atom 3.3637656200000001 15.7320490500000005 2.2390037800000000 Au
atom 5.9918917699999996 15.5868463300000002 2.3208585400000001 Au
atom 7.4782826299999998 18.2487886099999983 2.5045616800000001 Au
atom 10.2616671999999998 18.2150199800000010 2.5639529099999998 Au
atom 13.0948797999999993 18.1996907499999985 2.8528250300000000 Au
atom 16.1162509100000015 18.0145873999999999 2.9232301299999999 Au
atom 18.8163900400000017 18.0842454799999999 2.5145066900000002 Au
atom 21.6182222599999996 18.2463023600000014 2.4639583400000000 Au
atom 24.4473576000000001 18.0951066199999993 2.6449039999999999 Au
atom 27.2937733400000013 18.2913355600000003 2.5130463199999999 Au
atom 1.9206302500000001 18.2587039900000008 2.1300656700000000 Au
atom 4.8699904900000002 18.2036508700000006 2.1959606800000002 Au
atom 8.8284794099999999 20.7561798999999993 2.7104179700000000 Au
atom 11.7225832699999994 20.4697844199999999 2.6020087599999999 Au
atom 14.6609712999999999 20.5302241499999987 2.5629864900000001 Au
atom 17.5530376100000005 20.4868003899999991 2.7687277899999998 Au
atom 20.5110020400000010 20.5535125399999998 2.5782462499999999 Au
atom 23.1262713600000005 20.5284033900000011 2.7998522700000001 Au
atom 25.8162317100000003 20.5575153499999992 2.5738636399999999 Au
atom 0.4464741100000000 20.6288989200000010 2.5259452400000000 Au
atom 3.2446861700000000 20.6376848700000011 2.1166683499999999 Au
atom 6.0731915000000001 20.4757500199999996 2.5484653900000001 Au
atom 7.4231951299999999 23.0643600299999996 2.7781931599999998 Au
atom 10.2390674500000003 22.8527590099999998 2.3716109699999999 Au
atom 13.2151875299999997 23.0171303199999997 2.2865036200000000 Au
atom 16.0130441899999987 23.1467526200000009 2.8005482900000001 Au
atom 18.8520157499999996 23.2585491900000001 2.5769533199999999 Au
atom 21.5384394999999991 23.1120005000000006 2.5318057500000002 Au
atom 24.2804217999999992 22.9249541000000008 2.3742813699999998 Au
atom 27.1361946500000002 22.8946209600000010 2.4527052999999999 Au
atom 1.5357220600000001 23.0947296100000017 2.4829094800000000 Au
atom 4.7443172599999999 23.0234941100000015 2.3097858599999999 Au
atom 8.8266494600000005 25.4444839199999997 2.9592974800000000 Au
atom 11.5261270000000007 25.4115413699999984 2.7571288799999998 Au
atom 14.5099942399999993 25.3691408000000003 2.7664957100000001 Au
atom 17.2810097999999996 25.5697915800000004 2.6891263599999999 Au
atom 20.1189682099999985 25.5717832399999985 2.6890516999999998 Au
atom 22.7979321000000006 25.3734243699999986 2.6574110300000000 Au
atom 25.7828065799999990 25.6433904400000010 2.8386394099999999 Au
atom 0.3876014100000000 25.5562039399999996 2.7799004500000000 Au
atom 3.2242149499999999 25.6367720199999987 2.3518059899999999 Au
atom 5.9986770099999998 25.5833370100000010 2.4941574000000002 Au
atom 7.5705762500000002 28.0470016400000013 2.6070594900000001 Au
atom 10.2873827200000001 27.9860091100000012 2.4903888799999998 Au
atom 13.1522603999999994 28.0273930500000006 2.7053149099999998 Au
atom 15.9731474599999999 28.0252723099999983 2.6082450900000000 Au
atom 18.6324456400000003 28.0856347600000014 2.5573197300000001 Au
atom 21.7071473200000007 27.7938923100000004 2.7132743399999999 Au
atom 24.4800510899999999 27.9770232700000001 2.8327492900000002 Au
atom 27.3928269499999999 27.7269966399999994 3.0992379699999999 Au
atom 1.8347829300000000 27.9682026800000010 2.6191761800000002 Au
atom 4.7792376399999998 28.0053692000000005 2.6756997999999999 Au
atom 8.9163923799999996 30.4724460700000002 2.5509337200000002 Au
atom 11.8670071099999994 30.5300893299999991 2.6123288499999999 Au
atom 14.5709643500000006 30.3817736099999998 2.8492106100000001 Au
atom 17.3734797100000016 30.3759388100000010 2.4755931000000002 Au
atom 20.2857875400000012 30.6536126499999995 2.9074658800000002 Au
atom 22.9691783500000000 30.3247136799999986 2.5940252600000000 Au
atom 25.8975001999999996 30.5085976400000014 2.6274132899999998 Au
atom 0.3578129600000000 30.5042347800000009 2.6835798600000000 Au
atom 3.2524849599999999 30.4590652599999991 2.4745621299999998 Au
atom 6.0799871300000001 30.5191823800000002 2.7768499599999998 Au
atom 7.6505380799999996 33.0987996699999982 2.4560013900000000 Au
atom 10.3548495700000007 32.8705873400000002 2.6453886999999998 Au
atom 13.1225224100000002 32.8363465099999985 2.6951706400000002 Au
atom 16.0178915999999987 32.8815102000000010 2.9520293199999998 Au
atom 18.8298508200000008 32.9544117599999993 2.5831795099999999 Au
atom 21.6962345899999995 32.9640411900000032 2.4735958800000000 Au
atom 24.4001542299999983 32.9467811000000026 2.6086214399999998 Au
atom 27.0489367799999982 32.7419564699999981 2.5084899300000001 Au
atom 1.9199701300000001 33.1798349099999967 2.5602747400000001 Au
atom 4.5766468700000003 32.8298770700000020 2.6785273500000000 Au
atom 8.8837405399999998 35.3390875300000005 2.4510984800000002 Au
atom 11.7053313899999996 35.3997610400000013 2.5422579199999999 Au
atom 14.7698578900000008 35.4857070099999987 2.6794050000000000 Au
atom 17.5361563700000005 35.3702837200000033 2.6090714400000001 Au
atom 20.4671666899999991 35.4267566999999985 2.7804995699999999 Au
atom 23.1649808300000011 35.5085350900000023 2.9808486400000000 Au
atom 26.0368494900000016 35.3297802299999972 2.6501854699999998 Au
atom 0.6711048100000000 35.2666856000000024 2.6671523300000000 Au
atom 3.4240657200000002 35.5043880599999966 2.6397910300000000 Au
atom 6.3295163399999996 35.4554327700000016 3.0318177999999998 Au
atom 7.6902472499999996 37.7634555400000025 3.2011436899999999 Au
atom 10.4626541900000003 37.9480351999999996 2.8683815400000001 Au
atom 13.3638341000000000 37.7561559299999985 3.0032115899999998 Au
atom 16.0795510300000011 37.8246406299999975 2.9721651699999998 Au
atom 18.8398534499999997 37.8616077900000008 2.6717209899999999 Au
atom 21.7200302000000001 37.9420942900000000 2.8727063600000000 Au
atom 24.5085379100000011 37.9102068099999983 2.5334132199999999 Au
atom 27.3877936200000001 37.8620727799999983 2.6409187200000002 Au
atom 1.9649022500000000 37.8928058500000020 2.5762940699999999 Au
atom 4.6150435200000004 37.6437829899999983 3.0629665600000000 Au
atom 9.0524835800000005 0.8304109000000000 2.8767258199999999 Au
atom 11.9401095999999995 0.8074497899999999 3.1136393299999998 Au
atom 14.5736545199999998 0.7191517600000000 2.8654725499999998 Au
atom 17.3098376199999997 0.7072446500000000 2.7384470099999998 Au
atom 20.2289540300000006 1.0956093200000001 3.1828672500000001 Au
atom 23.1274411399999984 0.7893365300000000 2.9195234200000000 Au
atom 26.0462963400000014 0.8382730800000000 2.7573236699999999 Au
atom 0.4691436100000000 0.9212766300000000 2.5397557499999999 Au
atom 3.6407090900000001 0.9588255100000000 2.9879854799999999 Au
atom 6.2197887300000003 0.8092167200000000 2.9556743999999999 Au
atom 7.3419970399999999 3.2659840700000000 3.1233092299999998 Au
atom 10.3597921199999998 3.3943766300000000 3.0845565599999998 Au
atom 13.1232409400000005 3.3976089500000000 3.0752648100000002 Au
atom 16.0354751600000007 3.2743981999999998 2.7947466599999999 Au
atom 18.8696455500000013 3.3942460699999999 2.8843879800000001 Au
atom 21.7972128699999992 3.4146704300000001 2.8038867999999999 Au
atom 24.7164441900000007 3.1188928800000002 2.6633364600000000 Au
atom 27.4564933700000005 3.1900448400000001 2.6024048400000002 Au
atom 1.9299783300000000 3.5501771199999999 2.8668200300000000 Au
atom 4.6751177600000000 3.5539390200000001 3.1086463599999998 Au
atom 8.7512243000000005 5.7492942500000002 3.1237486699999999 Au
atom 11.9028812800000008 5.7391016600000002 2.7580997599999999 Au
atom 14.4811466400000004 5.9328678799999999 2.8721580400000000 Au
atom 17.2774873299999996 5.7887225999999998 2.9435524300000000 Au
atom 20.1118488199999987 5.8192090800000003 2.9253447100000001 Au
atom 23.2097228700000002 5.6017874299999999 2.4947472600000000 Au
atom 26.0598942399999984 5.8078007899999999 2.8181260699999999 Au
atom 0.2953166400000000 5.5196402999999998 2.5958661200000002 Au
atom 3.4005258600000001 6.0222025199999996 2.6527761200000000 Au
atom 6.1417133699999997 5.9435668300000000 2.7931494200000002 Au
atom 7.5539336700000002 8.1868189900000008 2.8409715900000001 Au
atom 10.1622915700000007 8.2205653800000000 2.5852238200000000 Au
atom 12.9623538200000006 8.4736667200000007 2.7945054499999999 Au
atom 15.8762967800000006 8.2273602399999994 2.7334274500000002 Au
atom 18.9076326200000011 8.1785921300000002 2.9728938199999999 Au
atom 21.6669104799999985 8.2773774699999993 2.8732940899999999 Au
atom 24.5461877100000017 8.2774015799999994 2.6410552300000001 Au
atom 27.3588032599999984 8.3335945799999998 2.7011845999999999 Au
atom 1.8277973199999999 8.3039107300000001 2.5119396799999998 Au
atom 4.6138188600000003 8.3627195400000005 2.3025837500000002 Au
atom 8.8185317100000002 10.7937754800000008 2.7214510600000001 Au
atom 11.8533439099999995 10.7777069399999998 2.7131981999999999 Au
atom 14.4775745400000009 10.8256775199999993 2.7465982499999999 Au
atom 17.5659570100000018 10.7484623799999994 2.8501823599999998 Au
atom 20.2626777000000011 10.6810561100000001 2.3085799699999998 Au
atom 23.2121743299999999 10.7810330499999996 2.4786469200000001 Au
atom 25.8854746899999988 10.6810117299999998 2.5160426800000000 Au
atom 0.5108212300000000 10.9343707899999991 2.2190915200000001 Au
atom 3.3335204200000002 10.9305870400000007 2.2468311800000000 Au
atom 5.9516767100000001 10.7523869300000001 2.9421403200000000 Au
atom 7.3677469699999998 13.0754151099999998 5.3736330499999996 Cl
atom 7.2663245600000002 15.6813750200000008 8.2518069900000004 Cl
atom 7.1066757300000001 13.2073768099999995 8.1719923300000001 Na
atom 7.3507591200000002 16.1049589799999993 5.6866425700000001 Na
atom 7.0699918000000004 18.6802418099999983 5.4501280899999998 Cl
atom 7.2964970600000001 21.4830569199999992 8.4253289200000001 Cl
atom 6.9171374300000004 18.5331004099999994 8.3778926100000000 Na
atom 7.1674247600000003 21.3975418399999988 5.5762212099999999 Na
atom 7.3150700500000001 24.7108349499999989 5.3950111100000004 Cl
atom 7.1384444699999996 27.0675836700000012 8.5085996900000005 Cl
atom 7.2663927399999997 24.4055721400000003 8.3611853899999993 Na
atom 7.2676347500000000 27.2567172199999987 5.5936684100000003 Na
atom 7.1882162899999997 29.9755365400000002 5.5093839100000004 Cl
atom 7.2516306100000003 32.7114944200000011 8.6976334899999994 Cl
atom 7.1428066100000001 29.9294831700000010 8.3324180099999996 Na
atom 7.3816143199999997 32.9137579599999981 5.8180416299999997 Na
atom 7.0882653600000003 35.7598659599999991 5.7353776700000001 Cl
atom 7.3128178500000001 38.5404074300000019 8.8587065000000003 Cl
atom 7.1402018800000002 35.7811111600000018 8.6518067100000007 Na
atom 7.0485161300000003 38.4627638700000034 6.1083317099999999 Na
atom 7.0933281800000003 1.9049616199999999 5.9718600500000001 Cl
atom 7.2745888000000001 4.9148932399999996 8.8237321899999994 Cl
atom 7.0162798100000003 2.0628170199999998 8.7527678499999997 Na
atom 7.3887727300000003 4.7140539800000001 5.9708658899999998 Na
atom 7.3011399700000004 7.2285513600000000 6.0710770399999996 Cl
atom 6.8184054800000000 10.5277395699999996 8.2509081999999996 Cl
atom 6.8827225299999997 7.5020268400000001 8.6199711000000008 Na
atom 7.2685652500000000 10.0598954999999997 5.7095369199999997 Na
atom 9.9161634900000006 12.9262645299999992 5.4515500599999998 Na
atom 12.8706918100000003 13.0717587300000009 5.6859639199999998 Cl
atom 10.0100836100000006 15.9133737699999998 8.0931981799999999 Na
atom 12.5415333199999992 15.9221837799999992 8.3963313100000008 Cl
atom 12.7702542300000008 13.1761440699999994 8.2791976700000003 Na
atom 9.9518113600000007 12.7921472999999999 8.4245946400000005 Cl
atom 12.6872515200000002 15.8732013500000004 5.8238937699999997 Na
atom 10.0634827700000002 15.8508831400000005 5.7727184700000000 Cl
atom 10.1110108600000004 18.8196480500000014 5.7414210299999997 Na
atom 12.7498246000000002 18.9057562200000007 5.3359021400000000 Cl
atom 9.8056323299999999 21.6842591800000015 8.3075475599999997 Na
atom 12.8127446200000001 21.4808380099999994 8.3769197999999996 Cl
atom 12.9096834200000004 18.6911926400000006 8.1812439700000006 Na
atom 10.1633237800000007 18.4877091500000006 8.4539770200000000 Cl
atom 12.8573635199999998 21.7092896599999996 5.6653415200000001 Na
atom 10.0215699600000008 21.6482458000000015 5.5682800300000004 Cl
atom 10.1176214200000008 24.4260711999999991 5.7493020300000000 Na
atom 12.7364075400000001 24.5021770799999992 5.6804094999999997 Cl
atom 9.9559687500000003 27.1682151599999990 8.3913531599999995 Na
atom 12.9609198200000009 27.1125733400000009 8.5788054299999992 Cl
atom 12.8170575400000004 24.5002165000000005 8.0466459300000004 Na
atom 9.7889662299999998 24.2160435300000003 8.6172401900000004 Cl
atom 12.9645727500000003 27.1693125500000008 6.0302965100000003 Na
atom 10.0284505799999994 27.4266539400000013 5.8304394899999998 Cl
atom 10.0703296600000005 30.1652126199999984 5.6926357599999999 Na
atom 12.8665257200000003 30.2656219799999988 5.7683674600000003 Cl
atom 10.0578656899999999 33.0008733399999983 8.3985581800000002 Na
atom 12.7993656100000006 32.9882761300000027 8.5973544299999993 Cl
atom 12.8452148400000006 30.1231139699999986 8.1216515400000002 Na
atom 9.8902601000000008 29.9961314299999984 8.7083193199999993 Cl
atom 12.7559224100000002 33.1539347100000015 5.6819264299999999 Na
atom 9.6344062699999995 33.0090078699999978 5.7718222900000002 Cl
atom 10.1211137400000002 35.6664194199999969 5.9540321699999996 Na
atom 12.7989162800000003 35.7623205100000021 5.8574050700000004 Cl
atom 10.0125715700000004 38.5213923299999976 8.4324970199999996 Na
atom 12.8309050399999993 38.5209428300000027 8.8019968199999994 Cl
atom 12.7297909699999998 35.5842490499999968 8.5136820899999996 Na
atom 9.9700273999999993 35.4321928900000032 8.7052635800000004 Cl
atom 12.8529621499999998 38.5284191200000024 6.0401801400000004 Na
atom 10.0541689400000003 38.3614736600000015 5.9700898200000001 Cl
atom 10.0278843000000002 1.8502013200000000 6.2405409399999998 Na
atom 12.9307875899999996 1.8719549300000000 6.0648999200000002 Cl
atom 10.1502441700000006 4.7718743200000002 8.6129762400000001 Na
atom 12.8844936000000008 4.6930358500000002 8.8719724699999993 Cl
atom 13.1185942099999995 1.9453666400000000 8.5182829099999999 Na
atom 10.1450419099999998 2.0548693000000000 8.6663747499999992 Cl
atom 12.8183195300000001 4.5441191900000000 5.9891782800000000 Na
atom 10.0071782000000002 4.8187960700000003 5.9942086600000000 Cl
atom 10.0668463300000006 7.6405527199999996 5.8302754800000001 Na
atom 12.9248343699999992 7.4415250799999999 5.6813826000000001 Cl
atom 10.0916659000000006 10.1774456299999994 8.4106122400000007 Na
atom 12.8552474100000005 10.3781948199999992 8.7028344099999995 Cl
atom 12.8478107500000007 7.4540195699999998 8.6792674800000000 Na
atom 10.0133951499999991 7.3857357099999996 8.5750032199999993 Cl
atom 12.6056003200000006 10.1672252299999997 6.0902475500000000 Na
atom 10.0344117399999995 9.9795539400000006 5.4970195700000000 Cl
atom 15.6461553500000008 13.2213425400000002 5.4316912600000000 Na
atom 18.5666855599999998 13.0653548599999993 5.7065568799999999 Cl
atom 15.6812889700000007 15.6580841799999995 7.9392083600000003 Na
atom 18.9116525600000003 15.8946870899999997 8.5004207199999993 Cl
atom 18.5093335900000007 13.2359019700000005 8.4482952999999998 Na
atom 15.5303286699999994 13.0986036299999995 8.6693248000000001 Cl
atom 18.6985080000000004 15.6808457400000005 5.6139872200000003 Na
atom 15.8463894100000005 15.6730724099999996 5.5787549199999997 Cl
atom 15.6599292899999991 18.9759564400000009 5.4604696800000001 Na
atom 18.5318610799999988 18.4317983400000003 5.4157894600000001 Cl
atom 15.6787224399999996 21.5456267699999984 8.2445534699999996 Na
atom 18.6978530800000016 21.6326919300000000 7.9465715599999998 Cl
atom 18.3927988900000017 18.7692972299999994 8.2193995799999993 Na
atom 15.6023926500000005 18.6924808300000009 8.1350777300000008 Cl
atom 18.7934743200000014 21.6667722400000002 5.3528630100000001 Na
atom 15.6927476000000006 21.4520468599999994 5.7215014999999996 Cl
atom 15.6768345300000007 24.6081891299999995 5.6784662199999998 Na
atom 18.4792021400000017 24.3132956699999987 5.4852236400000001 Cl
atom 15.7216561499999994 27.3169013700000001 8.1466591099999999 Na
atom 18.7297928200000001 27.1051215300000017 8.4743165499999993 Cl
atom 18.8118999699999989 24.2132126499999991 8.2302787899999998 Na
atom 15.3976441000000008 24.4915018999999994 8.3594612700000006 Cl
atom 18.5168088200000014 27.0167527199999995 5.8053391400000001 Na
atom 15.7160291399999998 27.5222261000000010 5.9330495000000001 Cl
atom 15.7254735399999994 30.2864595500000000 5.9750016099999996 Na
atom 18.4825095200000007 30.1814565100000003 5.8888251900000004 Cl
atom 15.5061135900000000 32.8234853599999994 8.2407519499999999 Na
atom 18.5408886499999994 32.8820138900000032 8.7763258499999992 Cl
atom 19.0090368900000009 30.1536176199999986 8.4244641900000001 Na
atom 15.6068924100000004 30.0733025199999986 8.5815611900000004 Cl
atom 18.5634452199999984 32.9216469500000031 5.8937535399999996 Na
atom 15.7914564199999994 33.1381510300000031 5.8080501800000004 Cl
atom 15.7582145400000009 35.8182583800000032 5.8884462099999997 Na
atom 18.5039261699999997 35.8564477899999972 5.7729130499999997 Cl
atom 15.4566943699999992 38.5057252200000022 8.5841898600000004 Na
atom 18.6262375300000009 38.5523467699999998 8.6474010400000001 Cl
atom 18.4718267400000009 35.7525634699999983 8.7524485300000006 Na
atom 15.4680902000000007 35.6974209500000015 8.8473949500000000 Cl
atom 18.5566203700000010 38.5116438700000003 5.8980360300000001 Na