#===============================================================================
# Created using the Atomic Simulation Environment (ASE)

# Sat Nov  1 21:48:32 2025

#=======================================================
lattice_vector 28.1999999999999993 0.0000000000000000 0.0000000000000000 
lattice_vector 0.0000000000000000 39.4799999999999969 0.0000000000000000 
lattice_vector 0.0000000000000000 0.0000000000000000 62.3296083400000001 
atom 7.5038739500000000 14.8180895300000000 0.0603815600000000 Au
atom 10.3387168999999997 14.8417177099999993 0.0293150200000000 Au
atom 13.1413052399999994 14.8344978100000002 0.0502365000000000 Au
atom 15.9582871599999994 14.8200494700000007 -0.0589612800000000 Au
atom 18.8159879200000013 14.8190790000000003 0.0803233800000000 Au
atom 21.6355102300000013 14.8159227199999997 -0.0310737400000000 Au
atom 24.4120820400000014 14.8117310799999995 0.0826303700000000 Au
atom 27.2474860300000010 14.7989608300000004 -0.1355036300000000 Au
atom 1.8807358000000001 14.9272672699999998 0.0121702800000000 Au
atom 4.6747923900000004 14.8278611900000001 -0.0094542600000000 Au
atom 8.8665255599999995 17.2994485599999983 0.0621532500000000 Au
atom 11.7126025899999995 17.3142959800000007 0.0386865600000000 Au
atom 14.5571762499999995 17.2919748099999993 0.0857028900000000 Au
atom 17.3565839100000012 17.2968167100000016 0.0209670400000000 Au
atom 20.2059798400000012 17.2754313300000000 0.0089383900000000 Au
atom 23.0214271599999982 17.3185479099999995 0.0162958100000000 Au
atom 25.8169010700000001 17.2427967299999985 0.0551663400000000 Au
atom 0.4553299500000000 17.3050329400000003 0.2271493900000000 Au
atom 3.2710921300000000 17.2997920100000009 0.0391870200000000 Au
atom 6.1031454600000004 17.2843220899999999 0.0323950200000000 Au
atom 7.5292133100000003 19.7408739500000010 0.1107855800000000 Au
atom 10.3431975800000000 19.7725903999999986 0.0363885400000000 Au
atom 13.1532921599999995 19.7715205699999999 0.1066551100000000 Au
atom 15.9522705699999996 19.7920122200000002 0.0580699400000000 Au
atom 18.8136828800000018 19.7686770299999992 0.1019065200000000 Au
atom 21.5739679899999999 19.7627406500000014 0.0691777200000000 Au
atom 24.4052194100000008 19.7319336900000017 0.1374083200000000 Au
atom 27.2209483500000005 20.1014195800000017 0.2497115800000000 Au
atom 1.8328246699999999 19.8222032699999993 0.1538297600000000 Au
atom 4.6833421800000004 19.7482877899999991 0.0646458000000000 Au
atom 8.8967419400000001 22.1831461300000008 0.0851102200000000 Au
atom 11.7298063300000006 22.2104495200000009 0.0869259000000000 Au
atom 14.5311725299999992 22.2317206600000006 0.0672368100000000 Au
atom 17.3627317900000016 22.2247458500000015 0.0740189200000000 Au
atom 20.1988522999999986 22.1970576000000008 0.0691759900000000 Au
atom 23.0097349499999986 22.2093045099999991 0.0766879700000000 Au
atom 25.8034073500000005 22.1535272899999995 0.1117620700000000 Au
atom 0.4568150100000000 22.2102198599999987 -0.0587756900000000 Au
atom 3.2822451400000001 22.1893905599999997 0.0914746100000000 Au
atom 6.0923654400000000 22.2377783700000009 0.0832900900000000 Au
atom 7.5253812900000003 24.7232719500000009 0.1065067000000000 Au
atom 10.3601751100000001 24.6958098499999998 0.0888823700000000 Au
atom 13.1438662700000002 24.7359054399999998 0.0926935400000000 Au
atom 15.9700556099999993 24.6774624899999999 0.0906448200000000 Au
atom 18.8004450500000004 24.6646615800000006 0.0728589500000000 Au
atom 21.6084847000000018 24.6622312699999995 0.1180908900000000 Au
atom 24.4269220300000001 24.6754428799999985 0.0773355500000000 Au
atom 27.2164459900000004 24.5952377999999996 -0.0354425100000000 Au
atom 1.8408470299999999 24.7087543700000012 0.1483815700000000 Au
atom 4.6971821499999997 24.6579170499999982 0.1020029500000000 Au
atom 8.8983875300000008 27.1846508900000003 0.0744441500000000 Au
atom 11.7184701600000007 27.1403026199999999 0.0628601200000000 Au
atom 14.5361935100000004 27.1425847699999991 0.0759994700000000 Au
atom 17.3952552599999990 27.1292028199999997 0.0548818100000000 Au
atom 20.1810202499999995 27.1350282800000002 0.0388314400000000 Au
atom 23.0254402800000015 27.1375203800000016 0.0822808200000000 Au
atom 25.8401744899999990 27.1333381299999985 0.0364890200000000 Au
atom 0.4817178800000000 27.0663637100000010 -0.0095063300000000 Au
atom 3.2833466800000002 27.1483841400000010 0.0919413900000000 Au
atom 6.0959163500000004 27.1428073099999985 0.0682764500000000 Au
atom 7.4747098699999999 29.5898054500000001 -0.0001651000000000 Au
atom 10.3313316999999998 29.6417521000000015 0.0747280300000000 Au
atom 13.1392744799999992 29.6205516799999984 -0.0085307800000000 Au
atom 15.9551830999999993 29.6014822299999985 0.0693539100000000 Au
atom 18.7809859500000016 29.6370388100000000 -0.0065241200000000 Au
atom 21.6179846600000012 29.6405768400000014 0.0469362700000000 Au
atom 24.4285978499999992 29.6273497500000005 -0.0023508400000000 Au
atom 27.2279409200000018 29.5433375900000001 0.1855868800000000 Au
atom 1.8462207100000001 29.6631814499999997 -0.0768244400000000 Au
atom 4.6813513400000000 29.6065779900000017 0.0810454100000000 Au
atom 8.9283179700000002 32.0726286700000003 0.0101385900000000 Au
atom 11.7298502300000003 32.0676719599999984 0.0343171000000000 Au
atom 14.5491153400000002 32.1079108400000024 0.0205965400000000 Au
atom 17.3771237700000007 32.0972149299999998 0.0022714100000000 Au
atom 20.1771075700000004 32.1052560600000021 0.0171199900000000 Au
atom 23.0145901899999998 32.0726986600000004 0.0231306000000000 Au
atom 25.8373361400000014 32.1121422200000026 0.0146795400000000 Au
atom 0.4401210500000000 31.9470515299999995 0.0588983900000000 Au
atom 3.2811056800000000 32.0701032099999992 0.0101323000000000 Au
atom 6.0912078599999999 32.1010910899999971 0.0075720300000000 Au
atom 7.5293438100000003 34.5901808799999984 0.0327394800000000 Au
atom 10.3447100100000000 34.5723237999999995 0.0472887500000000 Au
atom 13.1809387099999995 34.6011099700000031 -0.0578780900000000 Au
atom 15.9564507899999999 34.5736114099999980 0.0413885900000000 Au
atom 18.7913592099999995 34.5711524299999979 -0.0051137200000000 Au
atom 21.5978891699999984 34.5432212699999965 0.0421372800000000 Au
atom 24.4308079599999992 34.5783680700000033 0.0006909200000000 Au
atom 27.2463204800000014 34.5769151900000011 0.0208004100000000 Au
atom 1.8532119400000000 34.5855010800000002 -0.1125322100000000 Au
atom 4.6784414900000000 34.5633144600000008 0.0545198400000000 Au
atom 9.0761349199999994 37.0344977999999969 -0.0490047200000000 Au
atom 11.8133961599999999 37.0243536899999981 -0.0630077800000000 Au
atom 14.6406844399999994 37.0377189599999994 -0.0237304400000000 Au
atom 17.3399398500000004 37.0317098299999969 0.0050544000000000 Au
atom 20.2109549699999995 37.0326347199999972 0.1256501800000000 Au
atom 22.9017931300000015 37.0322499299999990 -0.0272035500000000 Au
atom 25.9393775200000007 37.0769662000000011 -0.0299220800000000 Au
atom 0.5267143900000000 37.0292121199999968 0.0156100500000000 Au
atom 3.3830193400000002 37.0156173399999986 0.1902571300000000 Au
atom 6.0363269199999996 37.0310177499999966 0.0255385600000000 Au
atom 7.6680227199999997 0.0446381700000000 -0.2574272600000000 Au
atom 10.4004965899999995 0.0411265800000000 0.2756465600000000 Au
atom 13.1280113400000005 0.0021207800000000 -0.0136827500000000 Au
atom 15.8797772399999992 0.0165859100000000 0.1620176900000000 Au
atom 18.8072260000000000 0.0302967200000000 0.1686289400000000 Au
atom 21.7604110300000002 0.0025918900000000 0.1380529900000000 Au
atom 24.4537237000000012 0.0238752600000000 -0.1244893000000000 Au
atom 27.3030978699999984 -0.0670588000000000 0.0776845600000000 Au
atom 1.7168794100000000 0.0432015300000000 -0.1584963000000000 Au
atom 4.6805994899999996 0.0001884900000000 0.0196081000000000 Au
atom 8.8740229999999993 2.4863679900000002 0.0657998400000000 Au
atom 11.7526069300000007 2.4868845999999998 0.0766537000000000 Au
atom 14.5361154700000004 2.4840333299999999 0.0783443200000000 Au
atom 17.3827913400000007 2.4743568900000001 0.0868458500000000 Au
atom 20.1925447700000014 2.4571713800000001 0.1068482600000000 Au
atom 23.0240230399999994 2.5244912899999998 0.0657990300000000 Au
atom 25.8694179200000001 2.4670420100000001 0.0493582200000000 Au
atom 0.4748484800000000 2.4886046799999999 -0.0825991900000000 Au
atom 3.2728390599999999 2.4766328600000000 0.1015627500000000 Au
atom 6.0810418600000000 2.4767420000000002 0.0928808500000000 Au
atom 7.4777480100000000 4.9338269400000003 0.0816151400000000 Au
atom 10.3175116399999993 4.9637280400000003 0.0659273300000000 Au
atom 13.1035042900000001 4.9328846100000003 0.1028480300000000 Au
atom 15.9561125399999995 4.9470647100000003 0.0982928900000000 Au
atom 18.8134578300000008 4.9762403099999997 0.1125891500000000 Au
atom 21.5849866000000006 4.9825746100000003 0.0853074700000000 Au
atom 24.4152293799999995 4.9602842799999998 0.0684346900000000 Au
atom 27.2460927700000006 5.0211069300000002 0.0954601300000000 Au
atom 1.8885295000000000 4.9610452599999997 0.1972410100000000 Au
atom 4.6897929200000004 4.9558385300000003 0.1096254600000000 Au
atom 8.9177879299999994 7.4263247400000001 0.0503648700000000 Au
atom 11.6993124700000006 7.4404157900000003 0.0687481900000000 Au
atom 14.5782790200000001 7.4227285600000004 0.0690153400000000 Au
atom 17.3800367899999983 7.3825524800000002 0.0639455800000000 Au
atom 20.2276682799999996 7.4156111300000003 0.0520142500000000 Au
atom 23.0322684600000009 7.4110534799999996 0.0649456700000000 Au
atom 25.8429419500000002 7.4388936200000000 0.1729476200000000 Au
atom 0.4493014600000000 7.4778175800000000 -0.0765738700000000 Au
atom 3.2408579500000001 7.4164755600000003 0.0343535000000000 Au
atom 6.1218337099999998 7.4042710500000002 0.0797331000000000 Au
atom 7.4983650300000004 9.8783255400000005 0.0531989000000000 Au
atom 10.3569913099999997 9.8927667499999998 0.0089404900000000 Au
atom 13.1340060199999993 9.8909430399999998 0.0879127400000000 Au
atom 15.9476338900000005 9.8739444200000008 0.0491608400000000 Au
atom 18.8201681799999996 9.8872793699999999 0.0944370900000000 Au
atom 21.6084941700000002 9.8794316700000007 0.0251098800000000 Au
atom 24.3990248899999997 9.8861197700000005 0.0700591300000000 Au
atom 27.2408628899999989 9.7758526999999997 -0.1008619000000000 Au
atom 1.8485089600000000 9.8791352099999994 0.1617137000000000 Au
atom 4.6775081299999997 9.8970435899999991 0.0434335500000000 Au
atom 8.8918389100000006 12.3660972699999991 0.0050038700000000 Au
atom 11.7707426500000008 12.3617797899999999 0.0073138100000000 Au
atom 14.5559595099999992 12.3438775199999995 0.0179059300000000 Au
atom 17.3664493799999988 12.3484841999999997 0.0312791300000000 Au
atom 20.1776013499999998 12.3876171300000006 0.0433546700000000 Au
atom 23.0154174100000013 12.3799545599999998 -0.0043605200000000 Au
atom 25.8253302399999995 12.3575683000000005 0.0041524800000000 Au
atom 0.4573630500000000 12.2035546799999999 0.1211890700000000 Au
atom 3.2980543600000001 12.3426215900000003 0.0061015700000000 Au
atom 6.0779556299999999 12.3324546399999999 -0.0265114900000000 Au
atom 7.5171879800000001 13.1836313900000004 2.6260688600000002 Au
atom 10.3113775000000008 13.1860513899999994 2.5702587900000000 Au
atom 13.1626899900000005 13.1783630200000008 2.6462949500000001 Au
atom 15.9807627300000004 13.1846554000000005 2.5207257900000002 Au
atom 18.8070409199999986 13.1865069199999994 2.6786253200000001 Au
atom 21.6204164200000015 13.1689211900000007 2.5047791799999999 Au
atom 24.4472469799999992 13.1887599099999999 2.6696448099999999 Au
atom 27.2443131399999992 13.2172559900000000 2.3389751500000000 Au
atom 1.8680982200000000 13.2340273800000006 2.6626533999999999 Au
atom 4.6632712900000000 13.1806195299999995 2.5511855899999998 Au
atom 8.9518531600000006 15.6552945500000007 2.6311584200000002 Au
atom 11.7459162700000004 15.6759348500000009 2.6361330999999999 Au
atom 14.5865006299999997 15.6620358900000003 2.6151912700000000 Au
atom 17.3703853499999994 15.6613689600000008 2.6424971799999999 Au
atom 20.2109557399999993 15.6186641000000002 2.6388804000000001 Au
atom 23.0553397900000014 15.6332506900000006 2.6335078699999999 Au
atom 25.8265309599999995 15.6683344099999999 2.6432944500000000 Au
atom 0.5050565600000000 15.7150946900000008 2.7294308100000002 Au
atom 3.2500430100000002 15.6331511200000008 2.6464272900000001 Au
atom 6.0797732599999996 15.6285764799999995 2.6372791300000000 Au
atom 7.5024500900000000 18.0816057100000016 2.7172500999999998 Au
atom 10.3252917499999999 18.0981756400000009 2.6079923599999999 Au
atom 13.1364787399999994 18.0916687899999999 2.6767754199999998 Au
atom 15.9190318400000006 18.1349318100000012 2.5730409900000000 Au
atom 18.7976590500000000 18.0830639399999988 2.6915315999999998 Au
atom 21.6298392899999996 18.0912942000000001 2.6092840100000001 Au
atom 24.4154522299999996 18.1033761700000007 2.6794620500000002 Au
atom 27.2307692699999997 18.3199253700000000 2.4381954499999998 Au
atom 1.8783816099999999 18.0817541099999985 2.7239994200000002 Au
atom 4.6913204799999999 18.1132449300000005 2.6676986700000000 Au
atom 8.9159534499999999 20.5977261899999995 2.6983536099999998 Au
atom 11.7782990299999994 20.5714352200000015 2.7148548400000001 Au
atom 14.5323554599999998 20.5881391799999989 2.7247446200000001 Au
atom 17.3911578499999990 20.5977558300000005 2.7001613099999999 Au
atom 20.2003121499999985 20.5767182700000006 2.6953616800000000 Au
atom 22.9997681199999988 20.5565007599999987 2.7431634599999999 Au
atom 25.8079114199999999 20.5618966000000007 2.7340113300000000 Au
atom 0.4383599800000000 20.7059566199999985 2.7540675600000002 Au
atom 3.2800777700000001 20.5747198699999991 2.7262072499999999 Au
atom 6.0879674699999997 20.6020196099999993 2.7225417099999998 Au
atom 7.5377736000000004 23.0120366199999999 2.6625442399999999 Au
atom 10.3291217399999997 23.0710590899999985 2.6924456299999999 Au
atom 13.1086176000000005 23.0475175800000009 2.6505105800000002 Au
atom 15.9827850900000001 23.0488574600000007 2.6521049500000000 Au
atom 18.7866626699999983 23.0639532100000011 2.6933813899999999 Au
atom 21.5716511799999999 23.0674012700000013 2.6929414700000001 Au
atom 24.4168775700000005 23.0444007800000001 2.6764470800000000 Au
atom 27.2508042800000005 23.0597606400000004 2.6999239400000001 Au
atom 1.8512929000000000 23.0912922099999989 2.7561673000000000 Au
atom 4.7008037900000001 23.0615680000000012 2.7137424200000000 Au
atom 8.9121532800000001 25.5344875100000017 2.7261280800000001 Au
atom 11.7537510800000007 25.4992443400000006 2.7010511600000000 Au
atom 14.5682035200000009 25.5723277899999992 2.6876004400000002 Au
atom 17.3556932500000016 25.4950569000000016 2.7527104699999998 Au
atom 20.1921444299999990 25.5596691800000002 2.7063846699999998 Au
atom 22.9946247200000009 25.5447678499999995 2.6939423400000000 Au
atom 25.8108931900000016 25.4731503900000007 2.7183457000000000 Au
atom 0.4759706900000000 25.5676115199999998 2.7532071199999999 Au
atom 3.3167722799999999 25.5301572800000010 2.7053178600000001 Au
atom 6.1024121200000003 25.5167794000000008 2.7164036199999999 Au
atom 7.5264699899999998 27.9934083700000009 2.6212276499999998 Au
atom 10.3120049799999993 27.9911639600000015 2.6931270000000000 Au
atom 13.1678229899999995 28.0161641099999983 2.6147385700000001 Au
atom 15.9766603200000006 28.0036491299999994 2.6621057000000001 Au
atom 18.8027625900000004 28.0222003000000015 2.6527753800000000 Au
atom 21.6158409300000010 28.0255180700000004 2.6858659700000000 Au
atom 24.4212000399999987 27.9813905100000007 2.6172296400000001 Au
atom 27.2392314400000011 28.3973805000000006 2.6394956000000001 Au
atom 1.8796477700000001 27.9852944400000005 2.6287335999999999 Au
atom 4.6627632099999996 28.0035781300000011 2.6733458600000000 Au
atom 8.9099134699999993 30.4755654199999988 2.6580734600000002 Au
atom 11.7132223799999995 30.4746642100000003 2.6736770999999999 Au
atom 14.5596163999999995 30.4870424900000003 2.6347014500000001 Au
atom 17.3603639700000016 30.4634891400000001 2.6621201499999998 Au
atom 20.2098958099999990 30.4616242499999998 2.6475320299999998 Au
atom 23.0183990499999993 30.4863567700000004 2.6490582800000002 Au
atom 25.8436950799999998 30.4022002700000016 2.6802762000000002 Au
atom 0.4296955000000000 30.2993252999999996 2.6624192500000001 Au
atom 3.2902086100000001 30.4761072099999986 2.6281662400000001 Au
atom 6.1074873900000002 30.4746947299999995 2.6704999100000002 Au
atom 7.5078054900000000 32.9217186999999996 2.5457928700000001 Au
atom 10.2793803599999993 32.9172202299999981 2.6603052100000002 Au
atom 13.1355277000000008 32.9368076000000016 2.5747943200000001 Au
atom 15.9652109200000005 32.9236665500000001 2.6377766999999999 Au
atom 18.7646916200000007 32.9208689000000021 2.5702760100000002 Au
atom 21.6059606100000003 32.9044452199999995 2.6738472799999999 Au
atom 24.4197140600000004 32.9231387700000013 2.5711921800000002 Au
atom 27.2264815599999999 32.8185842199999982 2.6483850100000002 Au
atom 1.8573719200000001 32.8693842099999998 2.5339801799999999 Au
atom 4.6961387099999996 32.8930820300000022 2.6587391199999999 Au
atom 8.9224639299999993 35.3914938400000025 2.6738271600000001 Au
atom 11.7264937600000003 35.3708296300000029 2.6276875899999999 Au
atom 14.5441449100000000 35.3807641499999974 2.6526790999999998 Au
atom 17.3738879699999984 35.4141124300000030 2.6447480099999998 Au
atom 20.1807841000000003 35.4057561799999974 2.6534480299999998 Au
atom 23.0520858400000002 35.3983663799999988 2.6504390400000002 Au
atom 25.8121837599999999 35.3467205099999973 2.6421864099999999 Au
atom 0.4481397600000000 35.5861118300000001 2.8508941499999998 Au
atom 3.2651745600000002 35.4044914899999981 2.6532805200000000 Au
atom 6.1205478099999997 35.3619996500000013 2.6402251600000000 Au
atom 7.5140036800000001 37.8832396600000010 2.3600850000000002 Au
atom 10.1904701499999994 37.8169799300000022 2.7026421900000002 Au
atom 13.1596821500000001 37.8417024199999972 2.7790887899999999 Au
atom 16.0064437599999998 37.8331908600000020 2.6263678000000001 Au
atom 18.8764670700000003 37.8407417800000019 2.5430355800000002 Au
atom 21.6885146300000002 37.8291995299999968 2.5369302500000002 Au
atom 24.5462170999999998 37.8571183999999974 2.8173582700000002 Au
atom 27.0878635199999991 37.7979168700000017 2.6146516499999999 Au
atom 1.7262169999999999 37.8615139999999997 2.4946152599999998 Au
atom 4.6984153199999996 37.8278727100000012 2.6721200299999999 Au
atom 8.8145358100000006 0.8635373800000000 2.6863619800000000 Au
atom 11.7553216500000008 0.8511446300000000 2.7607762199999999 Au
atom 14.7709189799999994 0.8587557600000000 2.7334854900000001 Au
atom 17.1782123099999993 0.8251520200000000 2.8020716100000000 Au
atom 20.2242780300000007 0.8142968200000000 2.7355952499999998 Au
atom 22.8283726899999984 0.8407580600000000 2.6986966099999998 Au
atom 25.7691752399999991 0.8896560200000000 2.7147980000000000 Au
atom 0.4711959800000000 0.7536298600000000 2.6138636000000002 Au
atom 3.3419303400000002 0.8413654000000000 2.6648936800000000 Au
atom 6.1564154999999996 0.8387056300000000 2.7168435199999998 Au
atom 7.4861941900000000 3.3368524700000002 2.6741758099999999 Au
atom 10.3327295400000008 3.2933224900000000 2.6974332099999998 Au
atom 13.1197894200000000 3.2802669299999998 2.7197254399999999 Au
atom 15.9770477399999997 3.3086851500000001 2.6938233199999999 Au
atom 18.7897766900000001 3.3483658300000001 2.6849376199999999 Au
atom 21.6074592699999997 3.3215703300000001 2.7026079500000000 Au
atom 24.4071184099999989 3.3262290999999999 2.7123461400000002 Au
atom 27.2264916200000009 3.1698562899999998 2.6059755400000002 Au
atom 1.8831422600000001 3.3249140900000000 2.6831774500000001 Au
atom 4.7146604700000001 3.2989610300000001 2.6746580600000001 Au
atom 8.9186353700000005 5.8007213899999996 2.7042799199999998 Au
atom 11.7130905199999997 5.7821928900000001 2.7110530800000001 Au
atom 14.5428227999999997 5.7914151599999997 2.7402434499999999 Au
atom 17.3800057800000012 5.7580634000000002 2.6971595399999999 Au
atom 20.2221204400000012 5.8068264699999999 2.6777877000000001 Au
atom 23.0494324500000012 5.8031367700000001 2.7144530599999999 Au
atom 25.8324619899999988 5.8144156699999998 2.5144679600000002 Au
atom 0.4638405500000000 5.7604690999999999 2.7895360800000000 Au
atom 3.3020821400000000 5.7853951800000001 2.7250144199999999 Au
atom 6.0881801299999996 5.8017933499999996 2.7098484599999999 Au
atom 7.5123363699999999 8.2357339700000001 2.7027477599999998 Au
atom 10.3403793999999998 8.2327565800000002 2.6414177699999999 Au
atom 13.1492669200000005 8.2635745499999995 2.7057220200000001 Au
atom 15.9788480300000000 8.2635495900000002 2.6146642600000001 Au
atom 18.7678995899999990 8.2735061099999996 2.6817027000000002 Au
atom 21.6061565400000006 8.2278583500000000 2.6305164699999999 Au
atom 24.4200108500000006 8.2753305600000004 2.7279762600000002 Au
atom 27.2542053799999984 8.3307206499999999 2.5285558199999998 Au
atom 1.8749215400000001 8.2690423099999997 2.6141105599999999 Au
atom 4.6802596599999999 8.2648510300000009 2.6030619900000000 Au
atom 8.9251103700000005 10.6848356199999994 2.6357172200000001 Au
atom 11.7325112800000007 10.7435035699999997 2.6480071500000002 Au
atom 14.5511812000000003 10.7270260200000003 2.6294335200000001 Au
atom 17.3533433300000013 10.7248676300000003 2.6372069499999999 Au
atom 20.2026051200000012 10.7322857099999993 2.6435019600000000 Au
atom 23.0418940899999996 10.7471824599999994 2.6252455299999999 Au
atom 25.8424918300000002 10.7590586899999998 2.7004510100000001 Au
atom 0.4421342100000000 10.6886487799999994 2.4966081899999999 Au
atom 3.2724540100000001 10.7280108799999994 2.6360423900000001 Au
atom 6.1124262399999996 10.7411393999999998 2.5934326200000002 Au
atom 7.4929320400000003 13.1671174200000003 5.7016736100000003 Cl
atom 7.4863713399999998 15.9882059600000002 8.5060312400000004 Cl
atom 7.5258570899999997 13.1738999700000008 8.3787356000000006 Na
atom 7.4640714299999997 15.9943953600000004 5.7875664400000000 Na
atom 7.5046758499999999 18.8354615299999999 5.7352852299999997 Cl
atom 7.4951613699999999 21.6458085400000009 8.5723750499999998 Cl
atom 7.5031885000000003 18.8180825499999997 8.3985434600000008 Na
atom 7.5149587899999997 21.6262675400000006 5.8165315900000003 Na
atom 7.5113858499999999 24.4511154200000007 5.7646684500000003 Cl
atom 7.4929542900000001 27.2510762200000016 8.6093051700000007 Cl
atom 7.5097014000000000 24.4424154899999984 8.3657236800000003 Na
atom 7.4794310499999996 27.2592474699999983 5.8426112500000000 Na
atom 7.5111402500000004 30.0901297200000002 5.7487617100000001 Cl
atom 7.4857629100000000 32.8960159499999989 8.5713849000000000 Cl
atom 7.4848923200000002 30.0983793400000010 8.3943290499999996 Na
atom 7.4590156800000003 32.9311460400000016 5.8416048399999996 Na
atom 7.4947220699999999 35.7296194500000013 5.7064343700000002 Cl
atom 7.5948679400000003 38.5680998200000005 8.6225886799999998 Cl
atom 7.5072163500000002 35.7415445999999974 8.3714462500000000 Na
atom 7.4886888500000000 38.5771452899999971 5.9649157099999996 Na
atom 7.4891781599999998 1.9020356599999999 5.8299714900000001 Cl
atom 7.4737198300000003 4.7183117599999997 8.5704479700000000 Cl
atom 7.6662635799999999 1.8929618800000001 8.5024896099999996 Na
atom 7.5196306000000002 4.7472000500000000 5.7888797600000004 Na
atom 7.5015899299999997 7.5157108199999998 5.7489559500000000 Cl
atom 7.4807330199999997 10.3665225700000008 8.5819676000000005 Cl
atom 7.4992858199999999 7.5538671500000003 8.4067254699999996 Na
atom 7.5256057099999998 10.3458666699999995 5.7848564099999997 Na
atom 10.2948921200000001 13.1803913700000006 5.8385138899999998 Na
atom 13.1467727599999993 13.1601437499999996 5.6979780800000004 Cl
atom 10.3307225099999993 15.9800570200000003 8.3296901499999993 Na
atom 13.1472715999999998 15.9858660799999992 8.5548703699999997 Cl
atom 13.1064035499999996 13.1783441400000001 8.3700856300000002 Na
atom 10.3245820199999994 13.1762300600000000 8.5473731399999995 Cl
atom 13.1229450700000001 16.0183938899999987 5.7828017000000003 Na
atom 10.3115231699999992 16.0038457299999983 5.7000195600000003 Cl
atom 10.3217548299999997 18.8130852299999987 5.8190337400000001 Na
atom 13.1469298999999999 18.8238643000000003 5.7206593899999998 Cl
atom 10.3745264499999994 21.6209675200000007 8.4094397700000005 Na
atom 13.1464983800000006 21.6073025100000002 8.5673650699999992 Cl
atom 13.1509382000000006 18.7878170199999985 8.3984654800000005 Na
atom 10.3137853100000001 18.8062021699999988 8.5847302699999997 Cl
atom 13.1364778399999995 21.5841587699999984 5.7937046700000003 Na
atom 10.3009997500000008 21.6316081599999990 5.7358316800000004 Cl
atom 10.2689783899999991 24.4836346800000015 5.8511991300000004 Na
atom 13.1443865800000008 24.4491619699999987 5.7332230700000002 Cl
atom 10.3414741499999998 27.2713111899999987 8.3876848299999995 Na
atom 13.1407061600000006 27.2668466400000007 8.5958883999999998 Cl
atom 13.1615482299999993 24.4232572200000000 8.4120534100000004 Na
atom 10.3337511200000005 24.4512703999999985 8.5679727799999998 Cl
atom 13.1525832900000008 27.2142250200000007 5.8731397400000001 Na
atom 10.2982486800000004 27.2460990999999986 5.7231685800000003 Cl
atom 10.3085033700000004 30.0939692600000015 5.8082645299999998 Na
atom 13.1324595100000003 30.0787846300000012 5.7313295300000000 Cl
atom 10.2989811600000003 32.9035801100000000 8.3002042300000003 Na
atom 13.1313451400000005 32.9038342599999964 8.5577946399999991 Cl
atom 13.0943541200000002 30.0805824699999995 8.3314778300000008 Na
atom 10.3188724199999999 30.0917860399999988 8.5490863499999996 Cl
atom 13.1281194400000008 32.9013890900000021 5.8224499500000002 Na
atom 10.3209931099999999 32.8956962000000033 5.7048650900000002 Cl
atom 10.2864053999999996 35.7255226500000020 5.8156171099999998 Na
atom 13.1315615799999996 35.7365329300000028 5.7492724600000003 Cl
atom 10.2120904400000008 38.5670826300000016 8.2657529800000002 Na
atom 13.0622873500000001 38.5611217800000006 8.5413487299999993 Cl
atom 13.1270630799999992 35.7183625199999994 8.3553484999999998 Na
atom 10.3135696299999999 35.7272136099999997 8.5365984200000007 Cl
atom 13.0681893099999993 38.5659806099999969 5.8340524900000004 Na
atom 10.2940958600000005 38.5549854100000005 5.7543681199999996 Cl
atom 10.3471452700000004 1.8938033100000000 5.8524035300000001 Na
atom 12.9742550699999999 1.8890519200000000 5.7484322499999996 Cl
atom 10.3461181399999997 4.7251678000000004 8.3940547999999993 Na
atom 13.1413897399999993 4.7230181399999998 8.5881356699999998 Cl
atom 13.1036072400000005 1.8891773599999999 8.4640916399999995 Na
atom 10.2164032500000008 1.8836874900000000 8.5069812700000007 Cl
atom 13.1534287299999999 4.7082716400000004 5.8050312499999999 Na
atom 10.3151558699999999 4.7151266700000001 5.7508226499999999 Cl
atom 10.3305772699999991 7.5139318299999998 5.8501577999999999 Na
atom 13.1118892999999996 7.5217382800000001 5.7745673000000002 Cl
atom 10.3173285299999993 10.3204122100000006 8.3542877400000002 Na
atom 13.1357918700000003 10.3633618599999995 8.5586983100000005 Cl
atom 13.1543996100000005 7.5350362000000004 8.3955770300000001 Na
atom 10.3247985399999997 7.5263537100000004 8.5821519199999994 Cl
atom 13.1473693100000002 10.3322563100000000 5.7911490399999996 Na
atom 10.3309937999999999 10.3285523200000000 5.7236804899999996 Cl
atom 15.9550108300000009 13.1677004499999999 5.7916074699999998 Na
atom 18.7666066399999991 13.1568832400000009 5.7170258199999999 Cl
atom 15.9434954799999993 15.9715961499999999 8.3199715600000008 Na
atom 18.7947023800000004 15.9759083499999992 8.5522602699999997 Cl
atom 18.7756885599999990 13.1730654900000008 8.3767620300000001 Na
atom 15.9633530399999994 13.1637158299999992 8.5936870699999997 Cl
atom 18.7699248099999991 16.0020871999999983 5.7928694700000003 Na
atom 15.9826379400000000 16.0046206300000016 5.7170003600000001 Cl
atom 15.9471314599999996 18.8352424999999997 5.7956394199999997 Na
atom 18.7819558700000009 18.7931643599999987 5.7206620499999996 Cl
atom 15.9914887199999995 21.6412252599999988 8.3849091199999997 Na
atom 18.7706401700000001 21.6293940599999992 8.5691907000000000 Cl
atom 18.7688030200000000 18.8001990300000017 8.3670858300000006 Na
atom 15.9596574499999999 18.8079924299999988 8.5634953800000009 Cl
atom 18.8010329300000016 21.6269644999999997 5.7788950200000002 Na
atom 15.9649570700000005 21.6196288000000010 5.7486764900000002 Cl
atom 15.9711972899999992 24.4556285600000010 5.8125047700000003 Na
atom 18.7690467299999995 24.4454722000000011 5.7012528199999997 Cl
atom 15.9639442799999998 27.2702388599999992 8.4115983599999993 Na
atom 18.7639934799999999 27.2450175600000009 8.6020384500000002 Cl
atom 18.7336966700000005 24.4375047999999992 8.3534881799999994 Na
atom 15.9515742500000002 24.4468346799999985 8.5779820299999994 Cl
atom 18.7727096799999984 27.2340310599999995 5.8082786200000003 Na
atom 15.9641270700000000 27.2530196800000013 5.7377829399999998 Cl
atom 15.9711900399999998 30.0816131899999988 5.7736723300000001 Na
atom 18.7837957300000014 30.0669281499999990 5.7216629100000000 Cl
atom 15.9595079099999992 32.8880582600000011 8.3871005299999997 Na
atom 18.7708648700000005 32.9001625399999966 8.6096455499999998 Cl
atom 18.7566897600000004 30.0764178700000002 8.3698033400000007 Na
atom 15.9646299799999998 30.0868319399999997 8.5465575699999992 Cl
atom 18.7400130599999990 32.8869526399999970 5.8584920199999999 Na
atom 15.9642749700000000 32.9089618300000026 5.6931293500000004 Cl
atom 15.9406530499999999 35.7381890899999988 5.8057751299999998 Na
atom 18.7596797299999984 35.7293147399999995 5.7242924000000004 Cl
atom 15.6979869700000005 38.5308080300000029 8.6213844500000008 Na
atom 18.8493679100000016 38.5694823999999983 8.5980131199999992 Cl
atom 18.7798012499999984 35.7156131699999975 8.3399635799999992 Na
atom 15.9559013000000007 35.7228957800000018 8.5632472400000008 Cl
atom 18.8536889099999989 38.5774314900000022 5.7930974099999997 Na
atom 15.9740693100000009 38.5554943699999981 5.7689344399999998 Cl