#===============================================================================
# Created using the Atomic Simulation Environment (ASE)

# Tue Dec 23 22:26:30 2025

#=======================================================
lattice_vector 28.1999999999999993 0.0000000000000000 0.0000000000000000 
lattice_vector 0.0000000000000000 39.4799999999999969 0.0000000000000000 
lattice_vector 0.0000000000000000 0.0000000000000000 62.3296083400000001 
atom 7.6215031000000000 14.7633436600000003 0.2399266900000000 Au
atom 10.3294042099999999 14.8484843600000005 -0.1229942400000000 Au
atom 13.0214857300000002 14.8485680200000001 -0.1754116300000000 Au
atom 16.0343256099999998 14.7741051599999995 -0.0002653700000000 Au
atom 18.9645384499999992 14.8225177000000006 0.1219567200000000 Au
atom 21.6453531099999985 14.7754709099999992 -0.0194158300000000 Au
atom 24.2885940699999985 14.7405281299999995 0.0073575400000000 Au
atom 27.0925770399999983 14.7518378800000001 -0.0050796600000000 Au
atom 1.9141138900000001 14.7626486499999992 0.0115661100000000 Au
atom 4.6438298700000002 14.6844366300000004 0.0380683200000000 Au
atom 9.0314401400000008 17.3975516500000005 0.0807845100000000 Au
atom 11.7338568799999994 17.2346150400000013 -0.0777705500000000 Au
atom 14.5492484799999993 17.2472274799999994 -0.2095545100000000 Au
atom 17.4424641300000012 17.6662780599999998 -0.1141038700000000 Au
atom 20.2542548599999996 17.1549628799999994 0.0474804100000000 Au
atom 22.9148864400000001 17.2745386600000010 0.1935902600000000 Au
atom 25.9371071099999995 17.2180872899999997 0.0204552000000000 Au
atom 0.4364008200000000 17.1068433000000013 -0.0579861400000000 Au
atom 3.1498807700000002 17.4202286999999991 -0.0634629600000000 Au
atom 6.0685168699999998 17.3364912699999998 -0.0296047200000000 Au
atom 7.4961451900000000 19.9593771900000014 -0.0817783300000000 Au
atom 10.3318774199999996 19.9014330000000008 -0.1188821700000000 Au
atom 13.1712793700000006 19.7180978200000006 -0.1555938100000000 Au
atom 15.9201635699999997 19.6203556500000005 0.1083230300000000 Au
atom 18.7739271099999989 19.8251281800000001 0.1555240600000000 Au
atom 21.4479476399999989 19.7304677599999998 0.0147822200000000 Au
atom 24.5598497500000015 19.8221734100000013 0.2867165200000000 Au
atom 27.3842660299999991 19.5197233099999998 0.1785377900000000 Au
atom 1.8057920199999999 19.7397351400000005 0.3712014600000000 Au
atom 4.7766834500000002 19.7111300000000007 -0.1371285700000000 Au
atom 8.8710127900000000 22.3089606300000014 -0.0403427600000000 Au
atom 11.6469939199999999 22.4638440700000004 -0.0501757000000000 Au
atom 14.4919399299999991 22.1969501099999995 0.0427725800000000 Au
atom 17.4410354800000000 22.1365658699999983 -0.1787862600000000 Au
atom 20.3490390699999999 22.2888372900000000 -0.1045240500000000 Au
atom 23.0663773600000006 22.0900357499999984 0.0371799700000000 Au
atom 25.7184813000000005 22.2045795999999989 0.2274265800000000 Au
atom 0.4341624100000000 22.4119196999999986 0.2397183300000000 Au
atom 3.3091970599999998 22.3082360999999985 0.1308663600000000 Au
atom 6.0468058700000000 22.2286368900000006 -0.1622389000000000 Au
atom 7.5651308100000003 24.7513583399999995 0.0699721500000000 Au
atom 10.1827168700000001 24.8416086100000015 0.1498731500000000 Au
atom 13.1279433599999997 24.5602606600000009 0.0381419300000000 Au
atom 15.9605187399999995 24.6398028700000005 -0.0079116200000000 Au
atom 18.6552006400000003 24.6486047500000005 0.2436711400000000 Au
atom 21.5806108300000012 24.8199338699999998 0.0145405700000000 Au
atom 24.4500406400000010 24.7645288000000008 0.2052288900000000 Au
atom 27.0702263199999997 24.6267097799999988 0.2053622300000000 Au
atom 1.7048323500000000 24.6225542699999984 0.0173792400000000 Au
atom 4.5794623000000003 24.8090126600000005 -0.0989519200000000 Au
atom 9.0634540399999999 27.4659917299999989 0.1910110900000000 Au
atom 11.6265087900000008 27.2675145000000008 0.1215462300000000 Au
atom 14.6296359400000000 27.1114080900000012 0.2519623700000000 Au
atom 17.4966711299999993 27.3108458300000017 0.2975253700000000 Au
atom 20.0175659099999983 27.1725065800000003 -0.1200875100000000 Au
atom 23.1335235499999996 27.2206957000000003 0.2217229400000000 Au
atom 25.7329272799999984 27.0290075099999996 0.1495076000000000 Au
atom 0.5278576800000000 27.2227289600000013 0.1738845700000000 Au
atom 3.0634826600000000 27.0825600400000006 -0.3021825900000000 Au
atom 6.1555503900000001 27.0210149199999989 -0.0816110100000000 Au
atom 7.4048975099999996 29.5628154599999995 0.1799537300000000 Au
atom 10.3807656200000000 29.6104070899999989 -0.0201010600000000 Au
atom 12.8692298300000001 29.5645541899999991 0.2175357300000000 Au
atom 16.0365808500000000 29.8661467899999984 0.1838306000000000 Au
atom 18.7164911899999993 29.3271409900000002 0.0747898600000000 Au
atom 21.3516082900000015 29.6190340100000000 0.3139048600000000 Au
atom 24.5331465599999987 29.6497804900000013 -0.0579483600000000 Au
atom 27.2655348099999983 29.4927792300000000 0.0722542200000000 Au
atom 1.9882601000000000 29.6739070900000002 0.0259540800000000 Au
atom 4.5402692099999999 29.6660325100000009 0.0568741700000000 Au
atom 8.9119458500000004 32.1231726199999983 0.2828763400000000 Au
atom 11.6625464999999995 32.0429068999999984 0.1201838500000000 Au
atom 14.5700939500000004 31.9846951699999984 0.1831974900000000 Au
atom 17.2722596400000015 32.1871069299999988 -0.0598779900000000 Au
atom 20.4445192800000015 32.0630843100000007 0.1696856000000000 Au
atom 22.8604058899999991 31.9256907000000005 0.2162336000000000 Au
atom 25.7431424799999995 31.8365063100000008 0.0635566000000000 Au
atom 0.4537593300000000 32.0087499899999983 -0.4150080200000000 Au
atom 3.1325282500000000 32.2091600600000021 0.1910103800000000 Au
atom 5.9373570700000000 32.1055822300000031 0.0432174400000000 Au
atom 7.5379574299999996 34.5292814100000029 0.0298321500000000 Au
atom 10.1556024499999999 34.4658605600000030 0.0876280900000000 Au
atom 13.0252052400000000 34.6655993199999983 -0.0813770600000000 Au
atom 15.9809159699999999 34.4812135000000026 -0.0388022300000000 Au
atom 18.7693377499999983 34.6124233700000019 -0.1792907000000000 Au
atom 21.6391641899999989 34.7426146000000031 -0.0520559900000000 Au
atom 24.4962880100000007 34.5109028800000033 -0.0744957100000000 Au
atom 27.2100216900000014 34.5702782500000012 0.0786178900000000 Au
atom 1.9115107300000000 34.5944765500000031 -0.0985191500000000 Au
atom 4.6536728099999998 34.6192655999999985 -0.0615356400000000 Au
atom 9.0883306099999999 36.9598060799999999 -0.1391775700000000 Au
atom 11.9900735399999991 37.1782947499999992 -0.1068186200000000 Au
atom 14.5309056900000009 37.1262586599999977 0.0869084700000000 Au
atom 17.4183625199999987 37.0595527799999971 -0.0330444900000000 Au
atom 20.1349820900000012 37.0283068900000032 0.1287828700000000 Au
atom 23.0453666000000013 37.0738799700000001 0.0459822100000000 Au
atom 25.6269942099999994 37.2060528599999998 0.0430082800000000 Au
atom 0.4621601900000000 36.9204037299999968 0.0804012700000000 Au
atom 3.0655232300000002 37.0926377400000007 -0.0330861100000000 Au
atom 6.1968504500000003 36.9513924000000031 0.0906117300000000 Au
atom 7.6676186900000003 -0.0514405600000000 0.0352273800000000 Au
atom 10.3848453299999992 -0.0441875600000000 0.1440001700000000 Au
atom 13.2758377900000006 -0.0542622200000000 0.0229802600000000 Au
atom 16.0099084000000005 0.0381860100000000 0.2510730800000000 Au
atom 19.0003647700000009 0.2014271500000000 0.0787479300000000 Au
atom 21.6251991299999986 0.0611259500000000 0.1626078600000000 Au
atom 24.3141803600000017 0.2452463900000000 0.1400445400000000 Au
atom 27.1643533200000000 0.0860510000000000 0.1600703700000000 Au
atom 1.6867717499999999 0.0380794200000000 0.1277777300000000 Au
atom 4.6071635999999998 0.0570289500000000 0.0450049200000000 Au
atom 9.0320216200000001 2.4126707299999999 0.1112061800000000 Au
atom 11.8891580399999999 2.5487247200000001 0.0963000500000000 Au
atom 14.6009794599999996 2.4501724800000000 0.2881131100000000 Au
atom 17.4715401700000008 2.4377526600000001 0.1002329200000000 Au
atom 20.3507027200000010 2.2726767200000002 0.0232020500000000 Au
atom 22.9040144999999988 2.5377949900000001 0.2103435600000000 Au
atom 25.7364225399999995 2.6391940800000002 0.0746842600000000 Au
atom 0.3660246700000000 2.3643775400000000 0.1236143100000000 Au
atom 3.4016807400000002 2.4541483700000000 0.1700057900000000 Au
atom 6.1510891599999997 2.5005658700000000 -0.0872482200000000 Au
atom 7.6424685900000000 4.9275298599999999 -0.0222681000000000 Au
atom 10.3279832999999996 4.7831645199999997 0.1127317400000000 Au
atom 13.0541478299999998 5.0236903200000000 0.1386131000000000 Au
atom 15.9380559999999996 5.1631749300000003 0.0436636700000000 Au
atom 18.7359069500000004 4.8797571800000004 0.1075172100000000 Au
atom 21.5522810699999994 5.0198192400000003 0.3691124200000000 Au
atom 24.6117826599999994 5.2208263500000003 -0.0916328700000000 Au
atom 27.3532674799999995 4.9789126399999999 -0.1149402300000000 Au
atom 1.7459527800000001 4.9985366300000003 0.0588205200000000 Au
atom 4.4733555300000001 4.8584087699999996 -0.0004300000000000 Au
atom 8.9880947300000003 7.4105385000000004 0.1290572800000000 Au
atom 11.6280940800000003 7.2704093700000003 0.1043843100000000 Au
atom 14.4784004900000003 7.5158912300000003 0.0981574200000000 Au
atom 17.2958386299999987 7.5828080199999999 -0.1331104500000000 Au
atom 20.1704402999999992 7.2757919199999996 -0.1527867800000000 Au
atom 22.9280937700000003 7.5797898699999999 0.0247374000000000 Au
atom 25.8758822600000009 7.4163223100000000 0.0168003400000000 Au
atom 0.3926983300000000 7.2370885500000002 0.0521284000000000 Au
atom 3.3342512100000001 7.3153288300000003 -0.0026534000000000 Au
atom 6.2536898799999996 7.3279424100000004 0.0963414100000000 Au
atom 7.5755452900000000 9.7764917600000008 -0.0111605000000000 Au
atom 10.2276621199999997 9.8126039299999999 -0.0967844600000000 Au
atom 13.2157096799999998 9.7910017499999995 -0.1153582200000000 Au
atom 15.8600914500000005 9.8868313899999993 -0.2031364100000000 Au
atom 18.6676535799999996 10.1492250500000001 -0.1116726400000000 Au
atom 21.5142474099999994 10.0066761700000004 -0.5211540600000000 Au
atom 24.3314014299999997 9.7882379000000004 0.0829277400000000 Au
atom 27.1112164100000008 10.0527125000000002 0.0033385800000000 Au
atom 1.7809457900000001 9.7176942900000007 -0.2205930100000000 Au
atom 4.7969356000000003 9.7759745799999997 -0.0686040400000000 Au
atom 8.9873873000000000 12.6461526099999997 -0.1343945200000000 Au
atom 11.7654550800000006 12.1157024500000006 0.0239507900000000 Au
atom 14.5557079399999996 12.3838625100000002 -0.1698615800000000 Au
atom 17.4250150400000017 12.4587968300000007 0.0438871700000000 Au
atom 20.2770251100000003 12.2688980799999996 0.0214659800000000 Au
atom 22.9121752000000001 12.5206855099999999 -0.0593217600000000 Au
atom 25.9768693900000009 12.1873089700000001 0.0043553200000000 Au
atom 0.5304062200000000 12.2991011399999994 0.0949303800000000 Au
atom 3.4847895699999998 12.2378351100000007 -0.0855450400000000 Au
atom 6.0968426200000003 12.3825000400000000 0.1241460800000000 Au
atom 7.4815322300000000 12.9393751300000002 2.8044546200000000 Au
atom 10.2174328800000005 13.3639869800000000 2.3366888000000001 Au
atom 12.9604179899999998 13.1459230500000004 2.6932805599999998 Au
atom 15.8784469599999998 13.1378323899999998 2.5157756099999999 Au
atom 18.7674220699999985 13.2250800700000006 2.6836719900000001 Au
atom 21.6543436100000015 13.2970567699999993 2.1269117799999999 Au
atom 24.3610925800000011 13.2112236799999998 2.5355531000000000 Au
atom 27.3771025299999984 13.1046207199999998 2.5635709400000000 Au
atom 1.8964620200000000 13.2059601400000002 2.5611070400000000 Au
atom 4.9007139300000002 13.1381972900000008 2.8985984500000002 Au
atom 8.8505769500000007 15.7262578499999996 2.7023737699999999 Au
atom 11.7758072400000007 15.6980040699999996 2.6236021500000000 Au
atom 14.7216900600000002 15.5917732400000002 2.5628137199999999 Au
atom 17.4575849299999994 15.7415517900000008 2.3747905399999998 Au
atom 20.1613408400000012 15.6617782600000002 2.5587736200000002 Au
atom 23.0144952600000003 15.9049945899999994 2.6513153699999998 Au
atom 25.7879173900000005 15.6900793699999994 2.4944347400000000 Au
atom 0.6054370300000000 15.6162631899999997 2.5316185000000000 Au
atom 3.2764543200000000 15.6732810400000009 2.4662331200000001 Au
atom 6.1719587100000002 15.5969597699999998 2.7318998400000001 Au
atom 7.6429592399999997 18.2519079300000016 2.7910967300000000 Au
atom 10.3298284400000000 18.2004724899999992 2.5205456300000000 Au
atom 13.1702614100000002 18.2631231700000001 2.5797410300000001 Au
atom 15.9419069699999998 18.2111664399999995 2.3545043500000000 Au
atom 18.8119664100000001 18.0897739199999990 2.4501220600000000 Au
atom 21.6560102000000008 18.1417763299999990 2.8257855900000002 Au
atom 24.5444541600000008 18.0162313900000015 2.6794294500000002 Au
atom 27.1488807399999992 18.1172201699999995 2.7486083400000001 Au
atom 1.6072090999999999 17.9931668000000009 2.5742462800000001 Au
atom 4.7151670799999996 18.0730433599999998 2.5330082500000000 Au
atom 8.9069719400000000 20.6491280500000016 2.7122183899999999 Au
atom 11.9493516599999996 20.7790595099999997 2.2578255399999998 Au
atom 14.6150311599999991 20.6696835900000018 2.5191612399999999 Au
atom 17.4101801300000005 20.6354449500000001 2.3851651800000000 Au
atom 20.1263864199999993 20.6483493200000012 2.5435114200000002 Au
atom 23.1013139199999991 20.7816699599999986 2.5098966200000001 Au
atom 25.7112718200000003 20.5358678800000014 2.7259942100000001 Au
atom 0.5488584700000000 20.6417642000000008 2.6283666299999999 Au
atom 3.1819997000000000 20.6145676699999996 2.8379026500000002 Au
atom 6.1518140099999998 20.5765665800000015 2.7043713100000000 Au
atom 7.4444752500000000 23.0471218499999999 2.6121615000000000 Au
atom 10.4160170200000000 23.2073238900000014 2.4603200500000000 Au
atom 13.3041583299999999 23.0883660100000014 2.4189574700000001 Au
atom 16.0686366400000011 22.9131832200000005 2.4496295199999998 Au
atom 18.8965664599999990 23.0976110599999984 2.5626746800000002 Au
atom 21.4463194100000010 23.2452706499999984 2.4364759100000000 Au
atom 24.5172943799999992 22.9802881100000000 2.8095791800000001 Au
atom 27.2728913599999991 22.9158123300000014 2.8019555999999999 Au
atom 1.8672314500000000 23.1490301000000009 2.6157664899999999 Au
atom 4.8007130099999999 23.0966952899999995 2.7297785499999998 Au
atom 8.9481576900000004 25.4331522300000010 2.6503628600000000 Au
atom 11.8456837200000002 25.4206028199999992 2.5025076600000000 Au
atom 14.7697870899999995 25.5480634100000010 2.5730502600000000 Au
atom 17.3138071800000013 25.5787392300000000 2.8139528999999999 Au
atom 20.0853583700000016 25.5076775100000006 2.6741660299999999 Au
atom 23.0275206300000015 25.6511064200000014 2.7227835900000001 Au
atom 25.7679503799999985 25.6289536499999997 2.9001988399999998 Au
atom 0.4367487900000000 25.4014770299999988 2.7042052499999998 Au
atom 3.2624005800000000 25.4358093399999987 2.7238899800000000 Au
atom 6.3124085200000000 25.5494003700000007 2.7443024100000000 Au
atom 7.5109031200000000 27.9522689900000003 2.7611413900000001 Au
atom 10.3207894499999995 27.9480184600000001 2.8698785199999999 Au
atom 13.0482159200000005 28.0493102699999994 2.6727209599999999 Au
atom 16.2126548600000007 27.7652744899999995 2.8082289299999998 Au
atom 18.9883411200000012 27.9427000099999994 2.7965078800000001 Au
atom 21.7277396600000010 27.9306372699999983 2.6395274600000000 Au
atom 24.4521815800000013 27.9098164799999999 2.7246254400000001 Au
atom 27.2908340900000006 28.0434062100000006 2.8738316600000000 Au
atom 1.9921366000000000 28.0909367500000009 2.5650194300000000 Au
atom 4.7211712800000001 27.8643475800000004 2.6405872800000001 Au
atom 8.5719460299999994 30.5557630099999997 2.6843820200000001 Au
atom 11.5532270900000000 30.6186115000000001 2.5208095300000002 Au
atom 14.5125340499999993 30.5514842100000017 2.8173454000000002 Au
atom 17.3847651600000006 30.5132906400000010 2.6962980800000000 Au
atom 20.3785729499999988 30.4618696900000003 2.4948509900000002 Au
atom 23.1072095299999987 30.5060730100000015 2.6423689000000001 Au
atom 25.7376056400000017 30.3725129699999989 2.4756670999999999 Au
atom 0.4608442900000000 30.4222134799999999 2.5613433900000002 Au
atom 3.3138059300000000 30.6786977999999984 2.7473570399999998 Au
atom 5.9819403099999997 30.4095030100000017 2.7983981099999999 Au
atom 7.3140949700000002 32.8730076200000028 2.5187868700000000 Au
atom 10.1866945199999996 32.9466169499999992 2.6781245299999998 Au
atom 12.9632428300000004 32.9253645000000006 2.4675400000000001 Au
atom 16.0739030000000014 33.1540450299999989 2.6648479900000002 Au
atom 18.7326024300000000 33.0419680400000004 2.4679838400000000 Au
atom 21.7008205499999995 32.9990095300000021 2.5305359900000002 Au
atom 24.4831791599999988 33.1569109599999976 2.6278918600000001 Au
atom 27.2743948799999991 32.8575578600000000 2.5589548299999998 Au
atom 1.8602508200000001 33.0822029999999998 2.6016899699999998 Au
atom 4.6501252099999997 32.9667347000000035 2.7024721600000001 Au
atom 8.8284409900000007 35.3412140599999987 2.8306614600000000 Au
atom 11.7879382800000005 35.3244644199999982 2.6137394600000001 Au
atom 14.5813968299999992 35.2351941000000011 2.6229681399999998 Au
atom 17.4910591199999992 35.3671591700000008 2.6627262799999998 Au
atom 20.0468861999999994 35.4727983200000025 2.4489855299999999 Au
atom 23.0152163499999993 35.2846242600000011 2.7251431500000001 Au
atom 25.8614060200000004 35.5749897899999965 2.7572117199999999 Au
atom 0.4181239900000000 35.2788059599999997 2.5147903299999999 Au
atom 3.2400719100000002 35.3502854199999987 2.7094837300000001 Au
atom 6.1457464799999997 35.3983786499999979 2.7206497999999999 Au
atom 7.7354135800000003 37.9043080300000028 3.0315977900000002 Au
atom 10.1904467699999994 37.7707538299999968 2.8147161199999999 Au
atom 12.9730554500000004 37.8470153399999987 2.5947415600000001 Au
atom 16.0262066300000008 37.9151945500000025 2.7950643099999999 Au
atom 18.5396447600000016 38.0089000999999982 2.8437285499999998 Au
atom 21.6577472799999988 37.8685728700000013 2.6941617800000000 Au
atom 24.4300035599999994 37.7291999500000017 2.7389196000000000 Au
atom 27.2212957600000003 37.7875566499999991 2.7701246700000000 Au
atom 1.6929571800000001 38.0296268399999988 2.6842478299999999 Au
atom 4.7947550400000001 37.8034565399999991 2.7916487100000000 Au
atom 8.8015483400000001 0.8663572899999999 2.8239663099999999 Au
atom 11.7910781100000008 0.7755948700000000 2.6848315299999999 Au
atom 14.5997857300000007 0.8334358700000000 2.6447792099999998 Au
atom 17.4661390999999995 0.7227146000000000 3.0164923400000001 Au
atom 20.3255061099999992 1.0606798799999999 2.8870915699999999 Au
atom 23.0987252000000005 0.7712485600000000 2.8177090800000002 Au
atom 25.8370006500000002 0.7937325000000000 2.8864331700000001 Au
atom 0.3623700600000000 0.8451788500000000 2.6908699000000000 Au
atom 3.1506897700000001 0.8082244700000000 2.6488951799999998 Au
atom 6.3178883399999997 0.9614593400000000 2.7144576900000001 Au
atom 7.4427662100000003 3.3762458000000000 2.5477893599999999 Au
atom 10.4104714900000008 3.2023124200000002 2.6374692199999998 Au
atom 13.0568034999999991 3.3914927499999998 2.4427865299999998 Au
atom 16.0357402899999997 3.4243411400000001 2.5637269400000000 Au
atom 18.7057791199999990 3.3257736400000000 2.7823996200000001 Au
atom 21.5811937699999987 3.3308787899999999 2.5632693799999999 Au
atom 24.6812976199999987 3.2548956200000001 2.7538783400000000 Au
atom 27.2987963399999991 3.2080353100000001 2.7135386600000002 Au
atom 1.9450658300000001 3.6157749400000001 2.4919572200000002 Au
atom 4.6103416700000004 3.2972114900000000 2.5086306199999999 Au
atom 8.9401381799999999 5.5858695300000001 2.7166693500000001 Au
atom 11.7752657700000007 5.6005893200000001 2.6130233800000000 Au
atom 14.6382177099999993 5.6717978100000002 2.7066737600000002 Au
atom 17.3723125399999994 5.9509863200000002 2.6213769600000001 Au
atom 20.2886855600000011 5.9956851799999997 2.7612344599999998 Au
atom 23.1664662099999994 5.7078740400000001 2.9822818799999999 Au
atom 25.7722362199999999 5.8623643599999999 2.8947137199999999 Au
atom 0.4690456800000000 5.6991275699999999 2.8063628299999999 Au
atom 3.3193103000000002 5.9198342400000001 2.6639833799999999 Au
atom 6.0667710200000000 5.7497171700000003 2.5885812600000002 Au
atom 7.5144632600000003 8.1799507100000000 2.4300471899999998 Au
atom 10.1727255499999991 8.1641173800000004 2.4033339300000001 Au
atom 13.2140973200000005 8.0217711200000004 2.5370006799999998 Au
atom 15.7828985799999995 8.2618563599999995 2.6059922700000002 Au
atom 18.8394117600000008 8.1581302800000000 2.6159380600000000 Au
atom 21.6592705199999997 8.2716572999999993 2.3585943500000002 Au
atom 24.5105588499999989 8.2345573999999999 2.8475022800000001 Au
atom 27.3196608000000012 8.4243587299999998 2.5872911900000002 Au
atom 2.0573565500000002 8.2775290399999992 2.5356326600000001 Au
atom 4.8348188199999997 8.2138675600000006 2.6497366400000000 Au
atom 8.9864379400000001 10.7395051000000006 2.5896649100000002 Au
atom 11.6533198900000006 10.7334783300000005 2.5723628100000000 Au
atom 14.4928365899999996 10.8284601100000000 2.6527476499999998 Au
atom 17.4344723299999984 10.5528162499999993 2.6846071899999999 Au
atom 20.1435411199999983 10.5995200900000004 2.4171375700000000 Au
atom 22.9804601800000015 10.8674173599999992 2.5621362300000001 Au
atom 25.7836994600000011 10.5678346699999999 2.7382480899999999 Au
atom 0.4010493000000000 10.7439478600000005 2.5859405500000001 Au
atom 3.4455889599999998 10.9274009299999992 2.3511697599999999 Au
atom 6.1461068399999998 10.6715066400000005 2.7916249999999998 Au
atom 7.3609975499999996 13.2116109399999999 5.6597110099999997 Cl
atom 7.4192283799999998 15.9047919899999997 8.5631190099999994 Cl
atom 7.4807989499999996 13.1665353500000002 8.2485304599999996 Na
atom 7.5546562399999999 15.9664425100000003 5.8018299799999999 Na
atom 7.5391238200000004 18.9051213699999998 6.0146964599999997 Cl
atom 7.5437377400000001 21.5960959199999998 8.6589857499999994 Cl
atom 7.5194828999999999 18.7944041099999986 8.3994551099999999 Na
atom 7.6587554200000003 21.8578289099999985 5.8478980900000002 Na
atom 7.4081802699999999 24.5835595100000006 5.8883273999999997 Cl
atom 7.4883301299999996 27.3580208200000001 8.6764871200000009 Cl
atom 7.2839898099999996 24.5520554000000004 8.5311417800000005 Na
atom 7.4288456199999997 27.1714280600000002 5.9453270700000003 Na
atom 7.5592757600000002 30.2234870200000003 5.8456293199999996 Cl
atom 7.3637986900000003 33.0418061399999985 8.5630455100000002 Cl
atom 7.2430267800000001 30.1545520499999995 8.6608988999999994 Na
atom 7.5462076199999997 33.0262849300000028 5.9891019600000002 Na
atom 7.4686117599999999 35.8873340800000022 5.9342696200000002 Cl
atom 7.4407666399999997 38.6210916200000014 8.8898720200000003 Cl
atom 7.2214721099999997 35.8467500599999980 8.4154205900000001 Na
atom 7.4944792500000004 38.5631342000000004 6.0164802999999996 Na
atom 7.4773076600000001 2.0262571899999999 5.8516879900000003 Cl
atom 7.7469095799999996 4.5339881100000001 8.6190837600000005 Cl
atom 7.6094982299999998 1.9722189999999999 8.3784880200000007 Na
atom 7.4557196299999999 4.6785915500000002 5.9138642299999997 Na
atom 7.6315528600000002 7.5040719999999999 5.7089507499999996 Cl
atom 7.5065156799999997 10.5710892800000007 8.3954229300000005 Cl
atom 7.6246426300000003 7.4539234900000002 8.2986014400000006 Na
atom 7.4835055300000004 10.2630530899999997 5.5486063400000001 Na
atom 10.1087331400000000 13.2605966700000000 5.6552597100000002 Na
atom 13.1947416000000004 13.0723459200000001 5.5653108400000004 Cl
atom 10.5145010699999997 15.9070827799999996 8.2978022399999993 Na
atom 13.2606961600000002 15.8038924999999999 8.8006817300000009 Cl
atom 13.2606075800000003 13.2334739300000006 8.2611207199999992 Na
atom 10.2035524500000001 12.9772490800000000 8.2885147900000007 Cl
atom 13.2362999299999995 16.1793533300000014 5.7841276600000002 Na
atom 10.4735635299999998 15.9695540400000002 5.6301254900000002 Cl
atom 10.0613920500000003 18.8685822200000004 5.7732466599999999 Na
atom 13.1084760199999995 19.0250773299999985 5.9438035700000000 Cl
atom 10.1305832099999993 21.8167094900000009 8.0763203099999998 Na
atom 13.2428761200000000 21.4758994700000017 8.7108208000000005 Cl
atom 13.1680288799999996 18.8409810299999982 8.2937814000000003 Na
atom 10.2502745599999994 18.7067699999999988 8.4436202999999992 Cl
atom 13.1158386700000005 21.8719606900000016 5.8920202599999998 Na
atom 10.5026723499999992 21.6764836000000010 5.6518300400000001 Cl
atom 10.3337017299999996 24.6477944499999992 5.7530552999999998 Na
atom 12.8782578900000004 24.4279391900000000 6.0119967000000001 Cl
atom 10.3180926399999997 27.0924457499999995 8.4784857200000001 Na
atom 13.1344509600000006 27.4407283500000005 8.7036020199999999 Cl
atom 12.9992607499999995 24.6133821099999999 8.6773522199999995 Na
atom 10.0374241600000005 24.3138004700000003 8.6908215000000002 Cl
atom 13.0946367200000005 27.3509598300000007 6.0050088500000003 Na
atom 10.2413029800000004 27.4251725800000017 5.7964217500000004 Cl
atom 10.2088427799999995 30.3122152800000002 5.7801621499999998 Na
atom 13.1192983800000000 29.9598405200000002 5.7081785399999996 Cl
atom 10.3381006600000003 32.9340044799999987 8.4540030999999995 Na
atom 13.1101670400000003 32.9349739399999990 8.4420211700000003 Cl
atom 13.1076087900000005 30.2026445499999987 8.2587826100000008 Na
atom 10.3334164699999995 30.1591899999999988 8.5187195300000003 Cl
atom 13.1155378700000007 32.8419918600000003 5.8472541800000002 Na
atom 10.1533947300000005 32.8538637799999975 5.6954690799999996 Cl
atom 10.4881287200000006 35.8002259399999971 5.6528120499999996 Na
atom 13.0749839500000000 35.7722720599999988 5.7929222100000004 Cl
atom 10.4218847599999993 38.6625012100000021 8.6161238699999991 Na
atom 13.3393129899999998 38.4935561400000026 8.8734309699999994 Cl
atom 13.0550411400000002 35.6797667900000022 8.4129884500000003 Na
atom 10.2890555999999993 35.8345998599999973 8.7374484999999993 Cl
atom 13.2277121399999995 38.5806806200000025 5.9030767099999997 Na
atom 10.3584840800000002 38.6425092699999979 5.8714190799999999 Cl
atom 10.2999126400000005 1.9769683400000000 5.9973589799999996 Na
atom 12.9851408599999996 1.8877729800000000 5.7740223300000002 Cl
atom 10.4025867900000009 4.6244279199999996 8.6145752699999996 Na
atom 13.2465471600000004 4.5889509999999998 8.3811020999999997 Cl
atom 13.0314987500000008 2.0725083999999998 8.2577970100000009 Na
atom 10.3422646500000006 1.9467673299999999 8.7073984699999993 Cl
atom 13.1170391199999994 4.8285778600000002 5.6213092900000001 Na
atom 10.2880266900000006 5.0113360499999997 5.7733123800000001 Cl
atom 10.1152360300000002 7.1986313500000003 5.9067007699999996 Na
atom 13.3245970600000003 7.4728317799999999 5.5892665800000003 Cl
atom 10.3602264900000005 10.4455881200000000 8.2668255199999994 Na
atom 13.2566540699999997 10.3292681200000001 8.4231446000000005 Cl
atom 13.1532745200000001 7.6441356899999997 8.2732626899999993 Na
atom 10.1362572300000000 7.6788388000000003 8.3639885100000004 Cl
atom 13.0997316200000000 10.2846369600000003 5.6525291800000002 Na
atom 10.2145617299999998 10.2621955800000002 5.7062100700000000 Cl
atom 15.9795484600000002 13.0242508800000003 5.8832479700000002 Na
atom 18.6385741100000004 13.0247373399999997 5.6880823999999999 Cl
atom 15.9696320499999995 16.0316897000000012 8.6678521400000008 Na
atom 18.5450477900000017 15.8476503399999995 8.6709112800000003 Cl
atom 18.9628658399999992 12.8124763599999998 8.3626976800000001 Na
atom 16.0677369399999996 13.0447261799999996 8.8023194199999999 Cl
atom 18.6702242500000004 15.9420971199999997 5.9455092000000000 Na
atom 15.7834247300000001 15.9905183700000002 5.7888593600000000 Cl
atom 16.0339868199999991 18.7402928700000011 5.7327318399999996 Na
atom 18.8365597499999993 18.7883113299999991 5.9103665500000000 Cl
atom 16.0215698800000013 21.5265579799999998 8.4713516700000007 Na
atom 18.6641745599999993 21.5416653400000015 8.4742792999999992 Cl
atom 18.7403012199999992 19.0550186000000004 8.6850525399999992 Na
atom 15.9870780200000002 18.7876315799999993 8.7055173200000002 Cl
atom 18.6430614100000014 21.6039906899999998 5.6104489199999996 Na
atom 15.7998175399999994 21.6475407500000010 5.6224074200000000 Cl
atom 15.8636993299999993 24.4420541299999989 6.1027165700000001 Na
atom 18.6304126100000005 24.3287221400000000 5.7989442999999996 Cl
atom 15.9349159900000004 27.1052646000000017 8.5633939199999993 Na
atom 18.7401687800000012 27.3785564199999989 8.7447562500000000 Cl
atom 18.6281026199999999 24.1396978500000010 8.7870475799999994 Na
atom 16.1908527100000015 24.2219933999999988 8.7733270200000000 Cl
atom 18.6393318900000011 27.2924411400000011 6.1508962599999997 Na
atom 15.7640194000000005 27.1663886599999991 6.0419321600000000 Cl
atom 15.9339254300000004 30.1644444999999983 5.5749806900000003 Na
atom 18.5047033899999995 30.1316954800000012 5.6825757000000001 Cl
atom 15.7669902299999993 32.9033795499999968 8.1380965599999993 Na
atom 18.6303251400000001 32.8161462799999981 8.5162040000000001 Cl
atom 18.6418099800000014 30.3716926700000016 8.5134526299999997 Na
atom 15.8307699500000005 30.0759711600000017 8.6946295700000000 Cl
atom 18.8176952399999990 32.7305482100000020 5.7228836200000002 Na
atom 15.7016453499999997 32.9891912200000021 5.7893036100000002 Cl
atom 15.8999104800000008 35.8588099099999980 5.7751442700000002 Na
atom 18.7583508399999985 35.7736799700000034 5.7629639299999997 Cl
atom 15.9243078199999992 38.4033170499999983 8.5418635399999996 Na
atom 18.9169861700000013 38.4868184700000029 8.5951169800000002 Cl
atom 18.7394570499999986 35.7475057400000011 8.3006765700000003 Na
atom 16.1204463300000000 35.7669357700000035 8.7031352999999996 Cl
atom 18.6997774099999994 38.4903965399999990 5.7574730000000001 Na