#===============================================================================
# Created using the Atomic Simulation Environment (ASE)

# Tue Dec 23 22:26:28 2025

#=======================================================
lattice_vector 28.1999999999999993 0.0000000000000000 0.0000000000000000 
lattice_vector 0.0000000000000000 39.4799999999999969 0.0000000000000000 
lattice_vector 0.0000000000000000 0.0000000000000000 62.3296083400000001 
atom 7.3683204199999999 14.7803104199999993 -0.2221845400000000 Au
atom 10.3090191200000003 14.8746930000000006 -0.3302259900000000 Au
atom 13.0656104699999993 14.7538252500000002 -0.4102361400000000 Au
atom 15.8201715800000002 14.9061317899999999 -0.1661741500000000 Au
atom 18.6810792200000009 14.8655957900000004 -0.0965072600000000 Au
atom 21.5401577000000017 14.7308777600000003 -0.4671725500000000 Au
atom 24.4121405699999983 14.8923249799999997 -0.1740064400000000 Au
atom 27.1899740799999989 15.0234557199999994 -0.1690737000000000 Au
atom 1.7178022300000000 14.7874423700000008 -0.1724638300000000 Au
atom 4.5608208299999999 14.8412631600000005 -0.1171515800000000 Au
atom 8.9118873700000005 17.3198347900000016 -0.4614884800000000 Au
atom 11.7602761800000000 17.2645933999999990 -0.4157513100000000 Au
atom 14.4632538400000001 17.3175244399999997 -0.1041426500000000 Au
atom 17.2627587300000016 17.2746694299999994 -0.1674662000000000 Au
atom 20.0535360000000011 17.3661918300000018 -0.5743143800000000 Au
atom 22.8540224099999989 17.3291987600000006 -0.2207151700000000 Au
atom 25.8054541800000017 17.3032333099999995 -0.0481361200000000 Au
atom 0.5175371000000000 17.3346581099999995 -0.2195410800000000 Au
atom 3.2607404299999998 17.2669866300000017 0.3009370200000000 Au
atom 5.9882823900000002 17.3781422300000017 -0.2610956300000000 Au
atom 7.5155207800000001 19.7812292300000010 -0.1306575500000000 Au
atom 10.2758581000000007 19.8267326399999995 -0.2670955200000000 Au
atom 13.1223963599999998 19.7721738100000017 -0.1584566000000000 Au
atom 15.9282877400000000 19.6532516199999989 -0.1023747400000000 Au
atom 18.7226505100000011 19.9085342300000008 -0.1394757100000000 Au
atom 21.5658022299999992 19.7813326300000014 -0.1895779700000000 Au
atom 24.4230590399999983 19.7592755900000014 -0.2651380600000000 Au
atom 27.3571203300000008 19.7962257199999989 0.1023939300000000 Au
atom 1.9418836200000000 19.7271037999999983 0.0656729200000000 Au
atom 4.7102157499999997 19.7633816899999992 0.0929673500000000 Au
atom 8.8518821600000006 22.1912400800000000 -0.0001324800000000 Au
atom 11.6795486099999994 22.1441262200000004 -0.1234601300000000 Au
atom 14.4424890599999998 22.1801440300000010 0.2010204400000000 Au
atom 17.1355657800000003 22.2749424400000002 0.1049032000000000 Au
atom 20.2323381399999995 22.3839914799999988 -0.0829013000000000 Au
atom 23.0341696700000007 22.1962308600000000 -0.0587259300000000 Au
atom 25.7783795600000012 22.3143539000000004 -0.1170994200000000 Au
atom 0.4822745200000000 22.1685138799999990 -0.1436293000000000 Au
atom 3.3821653500000002 22.1893506199999990 0.0420143500000000 Au
atom 6.0352459300000003 22.1958422499999983 0.2434288100000000 Au
atom 7.2782863400000002 24.5607153300000007 -0.0330802200000000 Au
atom 10.0504329600000002 24.6903979000000007 -0.1715192500000000 Au
atom 12.8339853900000005 24.7798026299999989 0.0274951600000000 Au
atom 15.8501224300000008 24.6688368999999987 0.1713059200000000 Au
atom 18.5817729500000013 24.7668814799999986 0.0448111300000000 Au
atom 21.5580863700000016 24.7855426100000003 0.0341746800000000 Au
atom 24.4361533100000017 24.7626520799999987 0.1559407100000000 Au
atom 27.1580581499999987 24.7509610100000010 -0.4277778700000000 Au
atom 1.7938869500000001 24.6560106400000016 -0.1159460900000000 Au
atom 4.5124674999999996 24.6682440599999993 0.1100247900000000 Au
atom 8.6842592799999991 27.0612960399999984 -0.1940685600000000 Au
atom 11.4875927000000004 27.2618539899999988 -0.0184783400000000 Au
atom 14.4884086500000002 27.1903291799999991 -0.1027927400000000 Au
atom 17.2870703500000005 27.1645404600000013 -0.1336314600000000 Au
atom 20.2455785199999987 27.2070631300000016 -0.1523490300000000 Au
atom 22.9874708900000009 27.2412098799999995 -0.0289480400000000 Au
atom 25.8172721100000011 27.1288305700000016 -0.2285903400000000 Au
atom 0.4761051800000000 27.1807856000000001 -0.1816302600000000 Au
atom 3.2787855900000000 27.1392355000000016 0.3026417800000000 Au
atom 6.0428381599999996 27.0926458100000005 0.2193241400000000 Au
atom 7.3928734399999998 29.5913214800000013 -0.1292766600000000 Au
atom 10.1143776800000005 29.6080373200000011 0.1958322700000000 Au
atom 13.0155999799999993 29.6114618699999994 -0.0839076100000000 Au
atom 15.7667480100000006 29.6430837300000007 0.0954205900000000 Au
atom 18.6503335300000010 29.5778911399999984 -0.2454655400000000 Au
atom 21.5910020899999999 29.6676900799999999 0.1045184500000000 Au
atom 24.4277040599999999 29.5275129199999995 0.0110823800000000 Au
atom 27.2566392499999992 29.4684390900000004 -0.0320391900000000 Au
atom 1.7598719800000000 29.5194363399999986 0.2818790300000000 Au
atom 4.6167648000000003 29.6353569400000012 0.4603410200000000 Au
atom 8.7776418100000004 32.1263460300000006 -0.0498457000000000 Au
atom 11.6068481699999992 32.1289037299999976 -0.1550007000000000 Au
atom 14.4695002699999993 32.0587639100000032 -0.0820391600000000 Au
atom 17.2745818299999989 32.0417099900000011 -0.2639599400000000 Au
atom 20.0198154600000002 32.0622761999999994 -0.2074342000000000 Au
atom 22.8865026000000000 32.0939790999999985 -0.3854864700000000 Au
atom 25.7297954199999985 32.0419070599999998 -0.1784518200000000 Au
atom 0.4126781800000000 32.1142468199999982 0.2363634300000000 Au
atom 3.2074648899999998 32.1286948099999989 0.1147894000000000 Au
atom 5.9589269500000004 32.1213945100000018 0.2173737600000000 Au
atom 7.3339630600000003 34.5810258699999977 -0.3239281200000000 Au
atom 10.1927911899999994 34.5283787400000008 -0.0846895200000000 Au
atom 12.9847514600000000 34.6851724200000007 -0.4688261600000000 Au
atom 15.8180156200000006 34.3625987200000012 -0.2244244100000000 Au
atom 18.6238967299999985 34.6322796500000010 -0.1559334100000000 Au
atom 21.4491207499999987 34.5425252200000017 -0.3487945500000000 Au
atom 24.2848838600000008 34.5012373599999975 -0.3825078700000000 Au
atom 27.1736543300000015 34.4310167900000010 0.4568181500000000 Au
atom 1.7880905600000001 34.5472664300000005 0.1083318700000000 Au
atom 4.5245953200000004 34.5109475399999965 -0.1366108200000000 Au
atom 8.7878367399999995 37.0298367500000012 0.0461162500000000 Au
atom 11.7029792599999993 37.0613201199999978 -0.0337188200000000 Au
atom 14.4446348400000009 37.0584099900000012 -0.0555543000000000 Au
atom 17.3426898999999999 37.0652100499999975 -0.1901817300000000 Au
atom 19.9268182100000004 37.0051316300000011 -0.2153851500000000 Au
atom 22.8067089500000009 37.0666768899999965 -0.4391782200000000 Au
atom 25.5728758800000016 36.7875576499999966 0.5532934700000000 Au
atom 0.2091768200000000 36.9863999399999983 0.2718545700000000 Au
atom 3.2515170599999998 37.0552302800000035 -0.0970689300000000 Au
atom 5.9071538500000003 37.0291994900000034 0.0834588800000000 Au
atom 7.2362050800000004 0.0550896000000000 -0.2465421100000000 Au
atom 10.0591104500000004 0.0742407800000000 0.0668579600000000 Au
atom 13.1091640300000005 0.0456506800000000 -0.2256745800000000 Au
atom 16.0960283599999983 0.0976576200000000 0.2054523700000000 Au
atom 18.5933982299999983 -0.0763907800000000 0.0069534600000000 Au
atom 21.5252579100000005 0.0168639600000000 0.0257686100000000 Au
atom 24.4796061199999997 -0.1487885500000000 0.0474673500000000 Au
atom 27.0668808500000004 0.2063949900000000 0.4854889000000000 Au
atom 1.6753256000000001 0.0272843700000000 -0.2827080800000000 Au
atom 4.5173402800000000 -0.0255207700000000 0.0087518100000000 Au
atom 8.7370515599999994 2.3982077500000001 0.2518435800000000 Au
atom 11.4836070200000009 2.5702397700000001 -0.2730267300000000 Au
atom 14.4177117900000002 2.5254327600000002 0.1475061300000000 Au
atom 17.3042539099999999 2.4570780200000000 0.0072801600000000 Au
atom 20.1578615700000014 2.4160048100000000 0.0319083800000000 Au
atom 22.9086846800000004 2.4087300300000001 0.0476917600000000 Au
atom 25.5408271400000011 2.4433322600000000 0.1496199900000000 Au
atom 0.2288782700000000 2.3793453200000001 0.0245419900000000 Au
atom 3.0682563699999998 2.4629849899999998 -0.0450087300000000 Au
atom 5.8979264400000000 2.4209290900000000 -0.1481071500000000 Au
atom 7.5011431999999996 4.8110276900000004 -0.0218130200000000 Au
atom 10.2630812700000007 5.0568606100000002 0.3051424700000000 Au
atom 13.1213141199999992 4.9645309299999996 0.1722672700000000 Au
atom 15.8704693900000002 4.9327426699999997 0.0717231200000000 Au
atom 18.6919211099999991 4.9337278199999997 -0.0192732800000000 Au
atom 21.5482362300000005 4.9624505599999997 -0.0851123200000000 Au
atom 24.2764343800000013 4.9626112899999999 -0.0917941300000000 Au
atom 27.1087094399999984 4.9920434100000000 -0.4863786300000000 Au
atom 1.7473269199999999 4.8897415100000003 -0.2137418000000000 Au
atom 4.5158659700000001 4.8902215800000004 -0.2895233900000000 Au
atom 8.8052204700000001 7.4284369899999998 0.0493509900000000 Au
atom 11.6698917099999999 7.4586865299999996 0.2113572100000000 Au
atom 14.4988521899999991 7.4462463799999998 0.1584237200000000 Au
atom 17.3495415900000012 7.4153731299999999 -0.0232609500000000 Au
atom 20.2778234300000015 7.4331961900000003 -0.1540705800000000 Au
atom 23.0545331500000010 7.3550668000000003 0.0527168800000000 Au
atom 25.8261801300000009 7.4677183100000004 -0.1926191500000000 Au
atom 0.3760086400000000 7.4298836100000001 -0.2422831800000000 Au
atom 3.1822225999999998 7.3255774899999997 -0.0525084600000000 Au
atom 6.0101330900000001 7.3427331799999997 -0.1024435100000000 Au
atom 7.3714636999999996 9.7605383299999993 -0.2939470100000000 Au
atom 10.2322026099999999 9.8923017600000005 0.0162798300000000 Au
atom 13.0572720800000006 9.8685896300000007 -0.1493654300000000 Au
atom 15.8713418799999992 9.8192737799999996 0.0564494400000000 Au
atom 18.8553889999999988 9.8632635200000003 -0.3242867200000000 Au
atom 21.6021632900000000 9.8490667799999994 0.1756351600000000 Au
atom 24.4036055500000018 9.8406615300000002 -0.2227048500000000 Au
atom 27.3761649700000014 9.8022526100000000 0.0067090600000000 Au
atom 1.8858586500000001 9.8518039300000009 -0.0590785600000000 Au
atom 4.6850365800000002 9.8025894999999998 -0.0340645600000000 Au
atom 8.8531976199999995 12.2574591900000005 -0.1760914800000000 Au
atom 11.6420843200000004 12.3457964400000009 -0.7031558500000000 Au
atom 14.5583310200000007 12.3872984499999994 -0.4834893900000000 Au
atom 17.4381651499999997 12.3632251899999996 0.0184807500000000 Au
atom 20.2296409100000005 12.3953412400000005 -0.3443862800000000 Au
atom 23.0404451200000011 12.3701066199999996 -0.2782678300000000 Au
atom 25.7915726599999999 12.3974328000000007 -0.0942099000000000 Au
atom 0.4684265800000000 12.2968468699999995 -0.2305892700000000 Au
atom 3.2280455899999998 12.3565267799999994 -0.1181217100000000 Au
atom 6.0173414899999997 12.2611623699999992 -0.1920221800000000 Au
atom 7.3714953999999997 13.2456503800000007 2.4002026900000000 Au
atom 10.2584104600000003 13.2767022000000008 2.1627611999999998 Au
atom 13.0274760500000006 13.1309111299999994 1.9484799900000001 Au
atom 15.8643964999999998 13.1922324799999995 2.2545674400000002 Au
atom 18.8036890600000000 13.3534410999999995 2.5240885099999999 Au
atom 21.7063401999999996 13.3320474000000004 2.3745062699999999 Au
atom 24.4133858100000012 13.1239881900000004 2.4376056899999998 Au
atom 27.1733657199999996 13.2809513799999994 2.4553417600000000 Au
atom 1.7173386200000000 13.2237231600000005 2.5166303900000000 Au
atom 4.7034511999999999 13.3140333900000005 2.4229411800000000 Au
atom 8.8293167900000000 15.6894046800000009 2.2745686500000000 Au
atom 11.6735921400000002 15.6999408099999993 2.1676584299999999 Au
atom 14.4623837999999996 15.7178242400000006 2.2603449900000001 Au
atom 17.3079509700000003 15.7254164000000003 2.5669811400000002 Au
atom 20.1778563599999998 15.6884749400000008 2.1294453000000000 Au
atom 22.9889431199999983 15.7296724700000006 2.2924235899999998 Au
atom 25.8085204799999985 15.6550429199999996 2.5186781800000002 Au
atom 0.3621096100000000 15.5714910999999994 2.5585943300000000 Au
atom 3.2862485900000000 15.5785242999999998 2.7665139100000000 Au
atom 6.0478562900000004 15.7840645899999998 2.2407167700000001 Au
atom 7.4610287800000004 18.1450063300000011 2.6257522999999998 Au
atom 10.1606689800000005 18.2955919199999997 2.3007117799999999 Au
atom 12.9821563300000005 18.2679719300000016 2.5407344799999998 Au
atom 16.0259483299999985 18.0816036599999990 2.5406234799999998 Au
atom 18.7654072300000010 18.1425431199999991 2.2343758500000002 Au
atom 21.5700415499999991 18.1307964699999999 2.4097349900000000 Au
atom 24.3281408399999997 18.1197706200000006 2.3598505300000001 Au
atom 27.2709832900000002 17.9961065100000006 2.5888547300000000 Au
atom 1.8408279000000001 18.2262227599999989 2.7955523300000000 Au
atom 4.6926219600000003 18.1544304399999987 2.7041701800000002 Au
atom 8.8553116700000007 20.7699655099999987 2.4713072899999999 Au
atom 11.6773122199999992 20.5798583400000012 2.4705095500000001 Au
atom 14.5001767600000004 20.6141672599999985 2.5898495499999998 Au
atom 17.1909656800000015 20.5610139899999993 2.5984357400000002 Au
atom 20.1626933299999997 20.5774922300000007 2.3040342300000001 Au
atom 23.0186152899999996 20.5416833499999996 2.5709078600000002 Au
atom 25.7975618500000010 20.6000020299999989 2.3811712799999998 Au
atom 0.5059003200000000 20.5459085200000011 2.5454301899999998 Au
atom 3.2546385500000001 20.6378622599999986 2.5850605099999999 Au
atom 6.1924922899999997 20.6189857200000013 2.7395288099999999 Au
atom 7.3863888299999996 23.2046803399999995 2.5188131700000000 Au
atom 10.2593340800000004 23.1617526100000006 2.6251144700000002 Au
atom 13.0352622100000008 23.0354812299999985 2.4137349900000000 Au
atom 15.8592761499999995 23.0369406099999985 2.6034150600000001 Au
atom 18.7527000500000014 23.2143090699999988 2.5933618900000002 Au
atom 21.5878090799999995 23.0758774699999982 2.5874586700000002 Au
atom 24.3461961100000011 23.0204014199999989 2.6204426199999999 Au
atom 27.1163503400000003 23.2212120999999989 2.4683636199999999 Au
atom 1.7906998000000001 22.9928695000000012 2.6230666600000001 Au
atom 4.5940306199999998 23.1411156600000005 2.7162195400000000 Au
atom 8.9846084699999995 25.6070960800000016 2.5079733599999998 Au
atom 11.7043202100000006 25.5788958300000004 2.6146256700000001 Au
atom 14.4447288300000007 25.5351965499999984 2.6109429099999999 Au
atom 17.2495784599999986 25.6265851699999985 2.5117000900000002 Au
atom 20.1667259299999984 25.6672968600000004 2.7459700300000001 Au
atom 22.9363896499999989 25.6199798700000017 2.6713850099999998 Au
atom 25.7906720699999994 25.5508926500000015 2.5950778699999999 Au
atom 0.4164724100000000 25.6174959899999983 2.3073383399999998 Au
atom 3.2414467800000000 25.4267610700000013 2.7965856100000002 Au
atom 6.0009953600000001 25.5664896599999985 2.7095845000000001 Au
atom 7.5375430999999997 28.0010364199999984 2.6198736999999999 Au
atom 10.3296189100000007 28.0866131000000010 2.7792856399999999 Au
atom 13.0832363500000000 27.9832567700000006 2.4534316600000001 Au
atom 15.8923704299999997 28.0893405099999995 2.4415824800000001 Au
atom 18.6384185600000016 28.0526693499999986 2.2910393299999998 Au
atom 21.5526291299999997 28.1205058600000015 2.8713868800000002 Au
atom 24.3499894400000017 27.9854718600000005 2.4572680500000001 Au
atom 27.1407790499999990 27.9220059200000001 2.3188610399999998 Au
atom 1.8768091000000000 27.9402845500000012 2.8148615100000001 Au
atom 4.6112039200000003 28.1078716399999990 2.9103751800000000 Au
atom 8.7589673799999996 30.5484088599999986 2.7805417000000001 Au
atom 11.5856511399999995 30.5618948300000000 2.5963156299999999 Au
atom 14.4767745500000000 30.5091237299999989 2.6773468000000000 Au
atom 17.3338184400000017 30.5065832300000004 2.5437597599999999 Au
atom 20.0977060499999993 30.5896165899999986 2.6203040500000001 Au
atom 22.9977556999999990 30.5190660600000001 2.5490584699999999 Au
atom 25.7363683999999999 30.4914031200000011 2.5560368599999999 Au
atom 0.3563166800000000 30.3870154300000017 2.7532807699999999 Au
atom 3.1373622000000001 30.5772782800000016 2.7638099100000000 Au
atom 6.0189169900000001 30.5253121900000011 2.8976859500000001 Au
atom 7.4890173100000004 33.0219125899999995 2.4653500099999999 Au
atom 10.1254238700000005 32.9496582900000021 2.5168769400000000 Au
atom 13.0088328499999992 32.9182756699999999 2.2769976000000001 Au
atom 15.8477981799999998 32.9147912399999996 2.4979240300000001 Au
atom 18.6698267999999992 32.9192678499999971 2.3938675200000001 Au
atom 21.4817348999999993 33.0027139600000012 2.2026490100000000 Au
atom 24.3881469600000003 33.0013079800000000 2.2242321399999998 Au
atom 27.0734824299999985 33.1215419700000027 2.8231187900000001 Au
atom 1.7435119900000000 32.9396770700000019 2.6742794399999998 Au
atom 4.5955889100000000 33.1574428500000025 2.7625141000000002 Au
atom 8.9181613100000003 35.4031615800000026 2.6065323100000000 Au
atom 11.6547726300000001 35.3880788900000027 2.4558703799999999 Au
atom 14.4600300900000001 35.4404212000000030 2.2447125400000001 Au
atom 17.1854762699999988 35.3755893200000031 2.5201345100000001 Au
atom 20.1706096499999994 35.3261654300000032 2.4820440200000000 Au
atom 23.0176917000000003 35.5112964599999970 2.0307100600000001 Au
atom 25.7484476499999992 35.4671282300000001 2.9903241800000000 Au
atom 0.2614435600000000 35.3409866499999978 2.9088538399999999 Au
atom 3.1711431800000001 35.5451835399999965 2.4905218800000002 Au
atom 6.0517005399999997 35.5020365900000030 2.6291233100000002 Au
atom 7.4314566099999997 37.9688750199999987 2.2820883900000002 Au
atom 10.0358943200000006 37.9473312800000002 2.6237322000000001 Au
atom 13.1181473999999998 37.7995325300000005 2.5742223399999999 Au
atom 15.9611573999999994 37.8724710299999998 2.4698628700000000 Au
atom 18.7940054600000011 37.8092034499999983 2.4782216400000001 Au
atom 21.3927288699999991 37.8365728699999977 2.4788183400000001 Au
atom 24.2669496699999989 37.8860160899999983 2.9171261700000000 Au
atom 27.1687398900000012 37.6037830699999986 2.9751511200000000 Au
atom 1.7340333500000000 37.9794967999999997 2.3608182499999999 Au
atom 4.6395039799999997 37.9673124999999985 2.7183016499999999 Au
atom 8.7181399400000004 0.8972245700000000 2.7751000100000001 Au
atom 11.6753881199999991 0.8409384900000000 2.4198300200000000 Au
atom 14.4424760600000006 0.7727490600000000 2.7775816500000001 Au
atom 17.2837969800000018 0.7829567400000000 2.6514379300000002 Au
atom 20.1224220299999992 0.7781181400000000 2.6162233200000000 Au
atom 22.7598809399999986 0.8285376000000000 2.6948020300000000 Au
atom 25.7523040700000010 0.7681908400000000 2.8098655899999998 Au
atom 0.4339612700000000 0.9276064800000000 2.7650690899999999 Au
atom 3.0459148800000002 0.9478621100000000 2.7450734600000000 Au
atom 5.8568555599999996 0.9473103400000000 2.3138877999999998 Au
atom 7.3701673999999997 3.4130280700000002 2.7119411900000001 Au
atom 10.2126381800000008 3.2684078099999998 2.6779440999999999 Au
atom 12.9494498700000005 3.3291183900000001 2.8303227899999999 Au
atom 15.7993662300000004 3.1943191000000000 2.5686844700000000 Au
atom 18.6313721900000004 3.3345798100000001 2.5433451599999999 Au
atom 21.4747916200000013 3.2624301000000000 2.6892194100000002 Au
atom 24.3574942700000001 3.2778260299999999 2.6594703700000002 Au
atom 27.0830003300000008 3.4775862700000002 2.5503552500000000 Au
atom 1.6724944700000000 3.3359702699999998 2.5448577399999999 Au
atom 4.6163059200000003 3.3712642499999999 2.4367720700000000 Au
atom 8.7837851499999999 5.8024655000000003 2.6957758699999999 Au
atom 11.6866181999999998 5.7891663400000004 2.9522756999999999 Au
atom 14.4749039100000001 5.8084359799999996 2.7678119099999998 Au
atom 17.3371089199999986 5.8000695899999997 2.5867990600000001 Au
atom 20.1758300800000008 5.7697528399999998 2.6984690699999998 Au
atom 22.8772595099999982 5.7922661299999998 2.7537529900000002 Au
atom 25.7288833500000003 5.7240868200000001 2.2541753800000000 Au
atom 0.2882524000000000 5.8524063100000001 2.3017578400000001 Au
atom 3.0736721999999999 5.7205667099999999 2.5589196099999998 Au
atom 5.9403746000000002 5.8095582400000003 2.4237804900000000 Au
atom 7.3961702200000001 8.2688708700000007 2.5884211100000001 Au
atom 10.3011935099999992 8.3438031200000005 2.6499649999999999 Au
atom 13.0123819300000001 8.2949497099999991 2.8874206899999999 Au
atom 15.9120003800000003 8.3154778399999998 2.6626243900000000 Au
atom 18.6771296500000012 8.3655470399999992 2.5497204400000002 Au
atom 21.5240550299999995 8.2446672499999991 2.7117257100000001 Au
atom 24.3636100300000003 8.2591252900000001 2.5016149099999998 Au
atom 27.0987129600000003 8.1797079600000000 2.3179277800000002 Au
atom 1.8486641399999999 8.3362253299999995 2.4600523200000000 Au
atom 4.6075220899999998 8.1940775600000002 2.7193461800000001 Au
atom 8.6456751599999997 10.7524310199999995 2.3873372700000002 Au
atom 11.6582701400000008 10.8024215800000007 2.3866760400000002 Au
atom 14.4939518399999994 10.7856964299999998 2.4170370800000001 Au
atom 17.3548881199999983 10.7245998000000000 2.4792075100000002 Au
atom 19.9587842799999997 10.8098712700000004 2.3988141800000000 Au
atom 22.9057687700000017 10.8382103000000001 2.4845870500000000 Au
atom 25.6415206299999987 10.6339080799999994 2.4403160300000000 Au
atom 0.3096865300000000 10.6109235399999999 2.7622268499999998 Au
atom 3.1636303300000002 10.7460416599999995 2.3659087200000002 Au
atom 5.9418214499999999 10.7706622700000008 2.4405845700000000 Au
atom 7.9950341099999997 13.2096374399999998 5.5638425099999997 Cl
atom 8.3534477000000003 15.7902746900000004 8.5310749000000001 Cl
atom 8.1302817199999993 12.9748344600000003 8.3855868999999998 Na
atom 8.0646977300000007 15.9086334899999997 5.4885911099999998 Na
atom 8.0673693100000001 18.6348981800000004 5.7364878700000004 Cl
atom 8.1221402800000000 21.1952241800000003 8.4599659999999997 Cl
atom 8.1544042999999995 18.4993227699999991 8.2191163199999995 Na
atom 8.1931918800000005 21.4429839199999996 5.5840554999999998 Na
atom 7.9318244900000003 24.2997633300000011 5.6115815400000004 Cl
atom 8.1940100400000002 27.3186715500000012 8.4750648099999992 Cl
atom 7.9913079099999997 24.3494667400000004 8.1980980599999995 Na
atom 8.0401538699999993 27.0992972300000012 5.9033619899999996 Na
atom 8.0531506499999992 30.2064694299999985 5.6991192899999996 Cl
atom 8.2620186699999998 33.0105387300000004 8.5847912599999994 Cl
atom 8.0838406299999992 29.9685536100000007 8.4263265599999997 Na
atom 8.0001310599999993 33.1102860700000008 5.6656571600000003 Na
atom 8.0417874200000004 35.9450670499999987 5.7770865799999997 Cl
atom 7.9239666299999998 38.5254399900000024 8.7958356099999992 Cl
atom 8.1943891200000003 35.7024738400000032 8.4840099400000000 Na
atom 8.1119141399999997 38.5614225099999999 5.7933890400000001 Na
atom 7.5492149900000003 1.8870761100000000 5.8953676100000001 Cl
atom 8.0749264200000006 4.6459554399999998 8.7769710199999995 Cl
atom 8.1668847600000003 1.7454129899999999 8.6106657099999993 Na
atom 8.0355948599999998 4.5075590099999996 5.9617230899999996 Na
atom 7.8652649700000001 7.4555812499999998 5.5784391500000003 Cl
atom 7.7501226100000000 10.2379697299999997 8.3016661900000006 Cl
atom 7.9270395100000002 7.5093808700000002 8.3645572799999997 Na
atom 7.9261816700000001 10.4713665900000006 5.6524441699999999 Na
atom 10.9144252399999999 13.1608267399999992 5.5223976400000003 Na
atom 13.7648047400000006 13.0790437399999995 5.3131037799999996 Cl
atom 10.9486329500000004 16.0336603300000000 8.0526584900000007 Na
atom 13.7586164300000000 15.9416059200000007 8.2988643999999994 Cl
atom 13.8705511500000007 12.9604336199999999 8.1076196500000002 Na
atom 11.1415125499999998 13.2492813399999996 8.1006965799999993 Cl
atom 13.9159225699999993 15.7610143399999991 5.6991678600000002 Na
atom 10.8079760300000007 15.9639783400000006 5.2065970200000002 Cl
atom 10.9959568799999996 18.6911756699999998 5.6236393900000001 Na
atom 13.7406865400000004 18.6803957599999997 5.4990973199999997 Cl
atom 11.0791038299999993 21.7017789999999984 8.1389988199999994 Na
atom 13.7933038400000001 21.4809062100000006 8.4814175100000000 Cl
atom 13.8375027599999996 18.6160320000000006 8.3008536599999996 Na
atom 11.1506535800000002 18.7667813400000014 8.4014325799999998 Cl
atom 13.6501740199999997 21.5585348500000009 5.7510410399999996 Na
atom 10.9841415500000004 21.7770600499999993 5.4969846499999999 Cl
atom 11.1589187800000005 24.5553766200000005 5.6023234300000002 Na
atom 13.7078973299999998 24.5818177800000015 5.9126518800000003 Cl
atom 11.0138578099999993 27.1337777500000001 8.2692580299999996 Na
atom 13.8221722899999993 27.3117945900000016 8.7283286199999992 Cl
atom 13.7753476700000004 24.5894032500000002 8.4877281900000003 Na
atom 11.0734725100000002 24.5105473200000006 8.3128317000000003 Cl
atom 13.6923391399999996 27.3030957699999988 5.7847847999999997 Na
atom 10.9512162199999992 27.2716096700000001 5.5914812500000002 Cl
atom 10.7409175300000008 30.0386664900000007 5.7877737900000001 Na
atom 13.5580343200000009 30.1698241500000002 5.5560497599999996 Cl
atom 10.9163952000000002 32.7624687499999965 8.3703444400000002 Na
atom 13.6689836000000007 33.1425728000000035 8.5562718400000009 Cl
atom 13.7200191300000007 30.0197522300000017 8.0960886999999992 Na
atom 11.0349723700000002 30.0239390200000003 8.7258631199999996 Cl
atom 13.7140501199999996 32.9752452299999987 5.6991950400000002 Na
atom 10.9499096300000005 32.9660508199999995 5.7193661999999996 Cl
atom 10.7829363100000002 35.5967728700000023 5.9511161599999998 Na
atom 13.6098874399999996 35.6768932299999975 5.6228142900000000 Cl
atom 10.9884833999999998 38.5079142399999981 8.4621460499999994 Na
atom 13.8715179099999997 38.4678927200000018 8.5346012899999995 Cl
atom 13.7264062599999992 35.7796393899999998 8.3203129899999997 Na
atom 10.9373014000000008 35.7568482300000028 8.7796720199999996 Cl
atom 13.8538121200000006 38.5246162700000028 5.8538019900000000 Na
atom 11.0654018199999999 38.5252812599999999 5.5497015799999998 Cl
atom 10.9375775999999991 1.8316428199999999 5.6302216200000004 Na
atom 13.5337123600000009 1.9168928900000000 5.6037950099999998 Cl
atom 10.7479845300000001 4.6094647000000002 8.2527847100000002 Na
atom 13.6185834299999993 4.8016888199999999 8.4347991300000000 Cl
atom 13.6261392000000008 1.9910999599999999 8.3148879400000002 Na
atom 10.8608041199999992 1.9466952700000000 8.5078031200000002 Cl
atom 13.5545285399999997 4.7223749399999999 5.5700871500000000 Na
atom 10.8071776600000007 4.5400002400000004 5.6121912600000003 Cl
atom 10.6029885600000000 7.5478599400000004 5.6715647400000000 Na
atom 13.2889280999999997 7.3970387400000002 5.6218685500000003 Cl
atom 10.8945629000000004 10.4264544699999995 8.4519138300000005 Na
atom 13.7125205900000005 10.3709526499999996 8.3946795600000002 Cl
atom 13.5158664599999998 7.4095635499999997 8.2693455700000005 Na
atom 10.8101798799999997 7.4994361200000004 8.3280703599999999 Cl
atom 13.5887484500000006 10.1018964100000002 5.7307864200000003 Na
atom 10.7203230999999999 10.3716307099999998 5.6162158199999999 Cl
atom 16.6587157599999998 12.9944646000000006 5.4435294100000000 Na
atom 19.3758553199999994 12.9268688399999991 5.3892846800000003 Cl
atom 16.5655293099999987 15.7558896100000005 8.2325574800000005 Na
atom 19.4322351699999984 15.8159470700000000 8.5054385799999999 Cl
atom 19.3919599100000006 13.0212285199999993 8.1738806200000003 Na
atom 16.6463099600000000 13.0732362999999996 8.3224937600000004 Cl
atom 19.2999517000000012 15.6998184599999995 5.7357131299999997 Na
atom 16.6806924099999989 16.0589725399999992 5.4881583699999998 Cl
atom 16.4946625100000013 18.8546759500000007 5.7023875700000000 Na
atom 19.4983973100000014 18.5447902999999990 5.3468728099999998 Cl
atom 16.4719158999999991 21.6041148499999984 8.2484468399999997 Na
atom 19.1455808900000015 21.5952654200000005 8.5400569500000003 Cl
atom 19.2383749900000005 18.7135965900000016 8.1393344699999997 Na
atom 16.4889879800000010 18.5949167700000011 8.4766347500000006 Cl
atom 19.4314341500000012 21.7401886100000006 5.6754281999999998 Na
atom 16.5061604399999986 21.5424711799999997 5.6912577999999998 Cl
atom 16.4025115300000017 24.6725605899999998 5.8312377199999998 Na
atom 18.9378517399999993 24.4662399800000010 5.6529721700000000 Cl
atom 16.5814436100000009 27.4472402600000009 8.4977973000000002 Na
atom 19.3509134399999994 27.3292694900000015 8.3880206400000006 Cl
atom 19.1247493599999991 24.2792781399999988 8.3794860999999994 Na
atom 16.4539176900000008 24.5001427900000017 8.8104454000000008 Cl
atom 19.3704623500000004 26.9677298699999994 5.8416259400000001 Na
atom 16.4732939599999995 27.4204603800000015 5.6902207799999998 Cl
atom 16.5907329799999985 30.0398340300000015 5.7529329200000001 Na
atom 19.3846927800000017 29.8702263399999985 5.7521541300000001 Cl
atom 16.4875144599999999 32.8578848599999986 8.1450386399999992 Na
atom 19.4728636900000005 32.7524873500000027 8.2485917700000009 Cl
atom 19.4415726900000010 30.0641745600000014 8.3008366400000000 Na
atom 16.5322609999999983 30.0481547000000013 8.5252549599999998 Cl
atom 19.3905588299999998 32.7777146800000025 5.5513964600000003 Na
atom 16.4667796300000013 32.9290535499999990 5.4162889700000001 Cl
atom 16.4616033600000016 35.7078630199999978 5.8358814700000003 Na
atom 19.3362398499999983 35.6487561300000024 5.6931746499999996 Cl
atom 16.2994331300000006 38.4875457699999970 8.3491057899999994 Na
atom 19.4997024000000003 38.3094041200000035 8.3548709999999993 Cl
atom 19.2226905899999991 35.5226618900000020 8.3122907599999998 Na
atom 16.4573351899999984 35.6338818300000000 8.5656387200000008 Cl
atom 19.5041529400000009 38.5824176499999965 5.3390846700000001 Na