#===============================================================================
# Created using the Atomic Simulation Environment (ASE)

# Tue Dec 23 21:42:24 2025

#=======================================================
lattice_vector 28.1999999999999993 0.0000000000000000 0.0000000000000000 
lattice_vector 0.0000000000000000 39.4799999999999969 0.0000000000000000 
lattice_vector 0.0000000000000000 0.0000000000000000 62.3296083400000001 
atom 7.4143948200000001 14.8207749900000003 -0.2774103100000000 Au
atom 10.4411643099999996 14.7483319900000005 -0.4067257400000000 Au
atom 13.1929561399999997 14.7767526300000007 -0.1422557100000000 Au
atom 15.9342851200000002 14.8954763400000001 0.0890121300000000 Au
atom 18.7291902099999987 14.8095798199999997 -0.0440256500000000 Au
atom 21.7368700200000013 14.9491513900000008 0.2333627800000000 Au
atom 24.4610694600000009 14.7604870300000002 0.2791351600000000 Au
atom 27.1638040499999995 14.7846613799999993 0.0710646800000000 Au
atom 1.8115481700000000 14.8747965799999999 -0.0461704800000000 Au
atom 4.6328838899999996 14.8286301900000002 -0.1901913600000000 Au
atom 9.0250896199999993 17.2460465700000007 -0.2931696800000000 Au
atom 11.7734659199999996 17.3397065999999995 -0.3183189000000000 Au
atom 14.6225836699999991 17.3555281900000011 -0.2464896400000000 Au
atom 17.4452188200000009 17.2728535900000004 0.1395962900000000 Au
atom 20.2162691499999987 17.2117792399999985 0.1174688400000000 Au
atom 23.0501158299999993 17.3689309300000012 0.0478602600000000 Au
atom 25.8234233700000004 17.3367317300000003 -0.0021549500000000 Au
atom 0.4651836100000000 17.2711964999999985 -0.0918304900000000 Au
atom 3.2321855799999999 17.3108838399999989 -0.2587689000000000 Au
atom 6.0526733899999998 17.2780100800000014 -0.1642527600000000 Au
atom 7.4429368900000004 19.8207685900000001 -0.2351219700000000 Au
atom 10.2856121399999996 19.8224047500000005 -0.1282815000000000 Au
atom 13.0592653199999997 19.8529766599999995 0.0023753700000000 Au
atom 15.9010974399999991 19.7984985699999996 0.0181767700000000 Au
atom 18.7253155900000010 19.7576954299999983 -0.1666489100000000 Au
atom 21.5442693299999988 19.6907779199999986 -0.0771907400000000 Au
atom 24.4441983699999987 19.8296616700000001 0.3181047400000000 Au
atom 27.2292909899999991 19.7262485000000005 -0.0037550100000000 Au
atom 1.8631028900000000 19.7308068500000005 -0.0370426000000000 Au
atom 4.6893947499999999 19.7763011499999983 0.1681925200000000 Au
atom 8.7940425199999996 22.3172824900000002 -0.2718390100000000 Au
atom 11.5576770500000006 22.1950737400000015 0.0918405100000000 Au
atom 14.4633929299999995 22.2241597800000008 -0.0199252100000000 Au
atom 17.3106553500000011 22.2133798099999993 -0.1037149500000000 Au
atom 20.1730064999999996 22.2648447599999990 -0.1044471700000000 Au
atom 22.9937411699999998 22.1987086699999985 0.1384580700000000 Au
atom 25.7789734000000017 22.2233928200000008 0.2143588100000000 Au
atom 0.4282947800000000 22.1947485700000016 -0.0080462600000000 Au
atom 3.1567318700000002 22.2315211800000014 -0.1203946300000000 Au
atom 6.0324093400000001 22.2193376100000002 0.0334741700000000 Au
atom 7.3028823100000002 24.8285750400000005 0.0382000300000000 Au
atom 10.1200340099999995 24.7784027100000017 0.0115002600000000 Au
atom 12.9660679600000002 24.7418553500000016 0.2169396600000000 Au
atom 15.8174642500000004 24.7044526100000006 0.0269800700000000 Au
atom 18.6615745500000010 24.7565580800000014 0.0958233900000000 Au
atom 21.5623744399999993 24.7151648799999997 0.1095295400000000 Au
atom 24.3243976999999987 24.8161745700000012 0.2312568000000000 Au
atom 27.0878789399999995 24.7478540000000002 -0.1201543100000000 Au
atom 1.8688148300000000 24.7364143399999996 0.2573091300000000 Au
atom 4.6996591900000002 24.7114892499999996 -0.0201705700000000 Au
atom 8.7792979100000004 27.2714012100000005 0.1184521700000000 Au
atom 11.7568586600000007 27.2241119900000008 -0.1785143400000000 Au
atom 14.4785549499999995 27.0746296499999985 0.0013646600000000 Au
atom 17.4277313000000014 27.2026468000000001 -0.2312029700000000 Au
atom 20.2124868100000015 27.1666811400000014 0.0236980700000000 Au
atom 22.9854636600000006 27.1734424799999985 -0.0363429000000000 Au
atom 25.7948654099999999 27.2866625700000007 -0.1791061500000000 Au
atom 0.3554580800000000 27.1668798000000002 0.2245882800000000 Au
atom 3.2428561999999999 27.2229301200000009 0.1124559700000000 Au
atom 6.0595475399999996 27.2878340900000005 -0.2635017800000000 Au
atom 7.3580903700000002 29.7157704199999984 0.0497091100000000 Au
atom 10.2043932300000009 29.7049274899999993 0.1515823200000000 Au
atom 13.0545832199999996 29.7221135300000014 0.0119120000000000 Au
atom 15.8778629200000001 29.5814736700000012 0.0716494100000000 Au
atom 18.8572456799999983 29.6121273199999990 -0.2176785700000000 Au
atom 21.5808671700000012 29.6385070199999987 0.0936207700000000 Au
atom 24.3318106199999988 29.5594526699999989 -0.0807163100000000 Au
atom 27.1485680500000015 29.6326176900000000 0.2861497300000000 Au
atom 1.8114033400000000 29.6434132400000010 -0.0908904800000000 Au
atom 4.6189056800000001 29.7186427100000010 0.1460159600000000 Au
atom 8.8957883800000008 32.1457110699999973 -0.0666408900000000 Au
atom 11.7287257300000007 32.2005060999999984 -0.3969335100000000 Au
atom 14.6184167699999996 32.1144913899999978 -0.0422873100000000 Au
atom 17.3433687499999998 31.9897135199999987 -0.2644862500000000 Au
atom 20.0644572100000005 32.1373688999999985 0.0726153400000000 Au
atom 22.8817516199999993 32.1526414300000027 0.0615803300000000 Au
atom 25.7014868599999993 32.0143628800000002 0.1853630600000000 Au
atom 0.3489017200000000 32.0907980599999973 0.1157345200000000 Au
atom 3.1640518000000002 32.1088998099999969 -0.0423945700000000 Au
atom 6.0213458900000001 32.1753394699999973 -0.0641882000000000 Au
atom 7.5686725099999999 34.6482937099999972 -0.1700873600000000 Au
atom 10.2885115099999993 34.6217579099999995 -0.1261264200000000 Au
atom 13.1170830200000008 34.6218839799999998 -0.5259840700000000 Au
atom 15.9197872000000000 34.6092809399999979 -0.2650416700000000 Au
atom 18.6217995599999995 34.5495534000000006 0.0254188700000000 Au
atom 21.3842577200000008 34.5870781400000027 0.3209113800000000 Au
atom 24.3005669900000001 34.6438083899999967 0.1905985900000000 Au
atom 27.1079771899999997 34.5803269700000016 0.2554089900000000 Au
atom 1.8075420400000000 34.5311188499999986 -0.0838459000000000 Au
atom 4.7176530699999999 34.6347614299999975 0.0497478200000000 Au
atom 9.0216903899999998 37.0494488100000012 0.1282863100000000 Au
atom 11.7208165199999996 37.1700048100000018 -0.3280460400000000 Au
atom 14.4715437900000001 37.1555319400000030 -0.0519905700000000 Au
atom 17.2623910500000015 37.0192723700000030 0.0660533600000000 Au
atom 20.0538606900000005 37.0882277099999982 0.1581028400000000 Au
atom 22.8355972800000018 37.1192288599999998 0.1258494500000000 Au
atom 25.6885654800000012 37.0218885900000032 0.0354074800000000 Au
atom 0.4072138900000000 36.9877127800000025 -0.1531346100000000 Au
atom 3.2601661599999998 37.0586753700000031 -0.0289965100000000 Au
atom 6.0765619600000003 37.0591284500000029 0.0387505700000000 Au
atom 7.4330360700000000 0.0566926300000000 -0.1060438500000000 Au
atom 10.3001821800000002 0.2025020000000000 -0.1619351700000000 Au
atom 13.0718195999999995 0.1711404700000000 0.0161770100000000 Au
atom 15.9585812800000006 -0.0238715600000000 0.3550287500000000 Au
atom 18.7681549200000006 0.0532327000000000 0.0348888800000000 Au
atom 21.5936082300000010 0.1484673700000000 0.1175177000000000 Au
atom 24.3919878200000007 0.0429727800000000 0.1142934200000000 Au
atom 27.1384277999999988 0.0345186300000000 -0.0671692700000000 Au
atom 1.6901399100000001 0.0360993300000000 -0.1603246600000000 Au
atom 4.5701812600000000 0.0320109000000000 0.0447553900000000 Au
atom 8.7744096599999999 2.5949635099999999 0.1126078400000000 Au
atom 11.5864235799999999 2.6169300999999998 -0.1096074200000000 Au
atom 14.5373566499999995 2.5476857499999999 0.2471119000000000 Au
atom 17.3156792999999993 2.4259386500000000 0.2106802600000000 Au
atom 20.1780210199999992 2.5847676300000000 0.1164099100000000 Au
atom 23.0033108700000000 2.6087770799999999 0.1879950900000000 Au
atom 25.8602204600000007 2.4843671399999998 0.1980851400000000 Au
atom 0.3622825700000000 2.5714634699999999 -0.0659755800000000 Au
atom 3.1284109000000000 2.4206481000000002 0.2756384900000000 Au
atom 6.0534437800000003 2.5305135499999998 0.1959863700000000 Au
atom 7.4098909300000004 4.9565323299999999 0.2337141100000000 Au
atom 10.2271726399999991 5.0571887999999996 0.2072601100000000 Au
atom 13.1509748200000001 5.0282744700000004 0.2965530100000000 Au
atom 15.9643323600000002 4.9378268399999996 0.2639793600000000 Au
atom 18.7502630299999993 4.9873742999999999 0.3665798100000000 Au
atom 21.6581007200000002 4.9643578300000000 0.0123502700000000 Au
atom 24.5653824000000007 4.9839417099999999 0.3346876200000000 Au
atom 27.2864098300000002 5.0565757099999997 0.2446224400000000 Au
atom 1.8372549499999999 4.9817011899999999 0.0927955000000000 Au
atom 4.5556965900000002 4.8757466000000003 -0.1355593700000000 Au
atom 8.8557986900000003 7.4615504899999996 -0.0436596000000000 Au
atom 11.6917774500000000 7.3943992300000003 0.0022240300000000 Au
atom 14.5317067499999997 7.4181636199999996 -0.0919659100000000 Au
atom 17.3137312299999984 7.3586974100000004 -0.2615433500000000 Au
atom 20.2197777300000006 7.3402329999999996 -0.0986283500000000 Au
atom 23.1247967400000007 7.4850525000000001 -0.3168838200000000 Au
atom 25.9150706900000003 7.3888333299999998 0.1647309000000000 Au
atom 0.4031451200000000 7.4821336199999999 0.2682484900000000 Au
atom 3.2383385599999999 7.3592827400000003 0.4400190000000000 Au
atom 6.0033556499999996 7.4475720299999999 0.0107409800000000 Au
atom 7.5068044199999999 9.9978328699999999 -0.0612681100000000 Au
atom 10.3364665299999992 9.8737924899999996 0.0349666800000000 Au
atom 13.1242373899999993 9.8646292899999999 -0.0504970700000000 Au
atom 15.8608865100000003 9.7819072800000004 -0.0753917500000000 Au
atom 18.7518524000000006 9.8083699499999994 -0.4064363400000000 Au
atom 21.6340841700000013 9.8386596100000006 -0.4912737700000000 Au
atom 24.5237404499999982 9.8972384699999996 -0.0853244900000000 Au
atom 27.3715147399999985 9.8654662599999998 0.0239727500000000 Au
atom 1.8637288900000000 9.8334573400000007 0.2148290300000000 Au
atom 4.5998830999999996 9.9341394699999999 0.3036213100000000 Au
atom 8.9674098099999995 12.3403213300000001 -0.4034155500000000 Au
atom 11.8366321899999996 12.2989046500000008 -0.2130814200000000 Au
atom 14.6656485100000005 12.2654905099999993 -0.0477835000000000 Au
atom 17.4642848700000002 12.3009728700000007 0.0775874900000000 Au
atom 20.2010854699999989 12.4406738099999998 -0.1916497000000000 Au
atom 22.9876886700000007 12.3421363599999996 -0.1009410000000000 Au
atom 25.7361557800000007 12.3448817200000001 0.3945598500000000 Au
atom 0.3493589600000000 12.3414545800000006 -0.0403349800000000 Au
atom 3.2167278200000000 12.3134827300000005 0.0571514000000000 Au
atom 6.0569119799999998 12.3767128900000003 -0.1346295400000000 Au
atom 7.4725410700000001 13.0744030900000006 2.3959465400000002 Au
atom 10.3180494599999992 13.1374564399999993 2.2361260500000002 Au
atom 13.1322271700000002 13.1914222399999996 2.4817442800000000 Au
atom 15.9376383100000005 13.0856471299999999 2.6208669699999998 Au
atom 18.7183385700000002 13.0746854399999997 2.7307767799999998 Au
atom 21.5458426900000006 13.1106726499999997 2.6046112400000001 Au
atom 24.3546968300000017 13.2169816999999998 2.8639147899999999 Au
atom 27.2032277700000016 13.2488415100000001 2.8832411100000002 Au
atom 1.8331414300000000 13.2850694699999998 2.5358436000000002 Au
atom 4.5545464800000000 13.2979227000000009 2.5114386700000000 Au
atom 8.9414497900000001 15.5732455800000000 2.2404361499999998 Au
atom 11.6996247199999992 15.6663387099999998 2.2487815100000002 Au
atom 14.5354841900000000 15.7238561600000004 2.4948910500000001 Au
atom 17.4202675099999986 15.4674451699999995 2.5268573600000002 Au
atom 20.1671798799999991 15.5188935600000004 2.7309948300000002 Au
atom 23.0004563699999984 15.6719277800000008 2.9027391800000002 Au
atom 25.7934025200000008 15.7248064999999997 2.7018059600000002 Au
atom 0.5415332200000000 15.7786096300000001 2.6050939700000000 Au
atom 3.2941983200000000 15.7606995100000002 2.5131429100000000 Au
atom 6.0467820799999998 15.7320261600000002 2.3587177100000001 Au
atom 7.5669134400000004 18.0905232699999985 2.2916870999999999 Au
atom 10.3487699699999993 18.1459825200000004 2.2870415899999998 Au
atom 13.2072848999999994 18.1767440899999997 2.4661664100000000 Au
atom 16.0735978099999990 18.1189178200000001 2.4836892100000001 Au
atom 18.8154025599999990 18.0896246400000003 2.7106317099999999 Au
atom 21.6564935299999988 17.9681378199999990 2.5229787699999999 Au
atom 24.4291731100000007 18.1767700400000010 2.7386795099999999 Au
atom 27.2346916599999993 18.1980506700000007 2.6146256900000000 Au
atom 1.9207712500000000 18.2968579300000016 2.5211343199999998 Au
atom 4.6424375299999996 18.1805051000000013 2.4228348500000001 Au
atom 8.8895486699999999 20.7499258500000003 2.3483429700000000 Au
atom 11.6819546200000008 20.6432160300000014 2.7247745499999998 Au
atom 14.6151190900000003 20.6138355400000002 2.7140377199999999 Au
atom 17.4908033699999983 20.5243558499999992 2.5243677400000002 Au
atom 20.2156554899999996 20.5070526499999986 2.5069811299999998 Au
atom 22.9729965800000002 20.6682479699999995 2.7883968700000001 Au
atom 25.7570055800000013 20.6087473099999983 2.9447565199999999 Au
atom 0.3906380200000000 20.6766859300000014 2.7130322800000002 Au
atom 3.3121741999999998 20.6507689399999990 2.6983401900000001 Au
atom 6.0903323000000000 20.5717553299999985 2.7309192599999998 Au
atom 7.4190350699999996 23.1272180100000000 2.4496867600000001 Au
atom 10.2666286400000004 23.2324639799999986 2.4563778900000002 Au
atom 13.0838448100000004 23.0618048599999987 2.7427893100000000 Au
atom 15.8778171300000004 23.1014015599999993 2.5085896000000001 Au
atom 18.7689869599999994 23.0681559100000015 2.5943632600000002 Au
atom 21.6005434500000000 23.0806872500000004 2.5304928499999999 Au
atom 24.4160847799999985 23.0118199799999985 2.6484616399999998 Au
atom 27.1887691400000016 23.1038530999999985 2.6588091800000000 Au
atom 1.8339912899999999 22.9905679899999988 2.4957776699999998 Au
atom 4.6963819800000000 23.0631222300000012 2.3935672000000001 Au
atom 8.9413607800000001 25.6900264299999996 2.6530443500000001 Au
atom 11.6635653200000000 25.7391809299999998 2.6371361100000001 Au
atom 14.5259620500000004 25.5555203700000000 2.8612240500000001 Au
atom 17.3386698199999998 25.5846708199999995 2.5915669600000002 Au
atom 20.1959552400000000 25.4537627899999990 2.7424128200000002 Au
atom 23.0688866499999996 25.5382789999999993 2.8899150800000002 Au
atom 25.7546048799999987 25.5686329400000005 2.5492222199999999 Au
atom 0.3558271900000000 25.5622313500000011 2.7659239499999999 Au
atom 3.2708731599999998 25.5454108700000013 2.8219030300000001 Au
atom 6.1352928499999999 25.6079229999999995 2.6715981400000000 Au
atom 7.3790208200000000 28.1093872000000005 2.6351338300000000 Au
atom 10.2659484299999999 28.0534915799999993 2.5969617299999999 Au
atom 13.0833045299999995 28.0499804300000015 2.4535569399999999 Au
atom 15.8359130399999994 28.0407796500000011 2.5646463900000001 Au
atom 18.7202293600000012 27.9584393400000017 2.4928998899999999 Au
atom 21.6082949800000002 27.8681820299999998 2.5942553400000001 Au
atom 24.3636087799999999 27.9690447499999983 2.5315823399999999 Au
atom 27.1498486499999991 27.9690989200000004 2.9362939600000000 Au
atom 1.7614718599999999 27.9519062900000002 2.6252915699999999 Au
atom 4.6597693500000004 27.9840160199999985 2.7254884599999998 Au
atom 8.8242784299999997 30.4621128299999988 2.7622791300000000 Au
atom 11.7307608699999992 30.6117742600000007 2.5630437599999998 Au
atom 14.5101692999999994 30.5179347900000018 2.7317588700000002 Au
atom 17.3153485399999987 30.4615466499999989 2.5181694999999999 Au
atom 20.2167417000000000 30.4907699399999998 2.6301905400000001 Au
atom 23.0381261600000009 30.4702022399999990 2.6591019999999999 Au
atom 25.8056401999999991 30.4997095499999986 2.8301195300000002 Au
atom 0.4291646700000000 30.4545402100000011 2.5971805699999999 Au
atom 3.1316130100000001 30.4710361899999995 2.7828793400000000 Au
atom 5.8984709799999999 30.4647956300000011 2.7048882200000000 Au
atom 7.4164794699999996 32.8782105399999978 2.3206137800000000 Au
atom 10.1711819200000004 32.9036241499999988 2.4465461099999999 Au
atom 12.9831922599999992 32.9691371199999992 2.1540666800000001 Au
atom 15.9436111799999995 32.9252992600000027 2.4463610899999999 Au
atom 18.7019559099999988 32.8422248400000001 2.4817271000000001 Au
atom 21.5445248999999990 32.9446196900000032 2.8553042099999999 Au
atom 24.3633308799999995 32.9691189799999975 2.9004057500000000 Au
atom 27.1917088199999988 32.9960101400000028 2.8226441400000000 Au
atom 1.7548372999999999 32.9569985199999991 2.5726442500000002 Au
atom 4.5891471399999997 32.9093756700000029 2.5151437200000002 Au
atom 8.8033177800000004 35.3907699900000026 2.6277247799999999 Au
atom 11.6521740299999994 35.4764321299999992 2.1370489300000002 Au
atom 14.5418688700000001 35.3865945300000035 2.2845381900000001 Au
atom 17.2219579200000013 35.4305916100000005 2.5904685100000000 Au
atom 20.0488207100000011 35.4635639700000027 2.9049550399999999 Au
atom 22.9846063600000008 35.4991225200000002 2.6230366799999998 Au
atom 25.7880112399999994 35.4345614900000001 2.8811646000000000 Au
atom 0.4631736500000000 35.4737758799999980 2.5858408200000000 Au
atom 3.2280400400000002 35.3366096999999968 2.4950416600000000 Au
atom 6.0543931500000001 35.4738969799999992 2.6095188199999999 Au
atom 7.4056509000000004 37.8073652499999966 2.6317877300000001 Au
atom 10.1668714399999995 37.8944972199999981 2.5710158500000002 Au
atom 13.0691736400000007 37.9262164399999975 2.5941169600000000 Au
atom 15.9043613199999996 37.8437768599999984 2.8221714300000000 Au
atom 18.7148537200000007 37.8583174199999988 2.6335978600000001 Au
atom 21.5452976999999990 37.8449412599999988 2.8454067900000002 Au
atom 24.3972302399999990 37.9148859299999970 2.7280732799999998 Au
atom 27.2525131300000005 37.8519409800000020 2.5754835800000002 Au
atom 1.8238829100000000 37.9876567700000010 2.4139225700000000 Au
atom 4.6481249499999997 37.8128540499999986 2.8344864799999998 Au
atom 8.9338830599999994 0.8148977900000000 2.5394572300000000 Au
atom 11.6430604700000000 0.7777438200000000 2.5292078800000000 Au
atom 14.6062868800000007 0.8343661999999999 2.8170449899999999 Au
atom 17.4216215299999995 0.8937986800000000 2.7800137600000001 Au
atom 20.1856425199999983 0.8814781800000000 2.8477852800000001 Au
atom 22.9483690299999985 0.7397680900000000 2.7496052099999999 Au
atom 25.8658516399999989 0.8236293500000000 2.6123680899999999 Au
atom 0.3846313200000000 0.9208518400000000 2.4825937400000000 Au
atom 3.2911137199999998 0.8515034400000000 2.7644743300000001 Au
atom 6.1674751700000003 0.8164719499999999 2.7002836499999998 Au
atom 7.4858315600000003 3.3356699000000001 2.8237200100000002 Au
atom 10.2888109100000005 3.3178281400000000 2.6090490700000002 Au
atom 13.0159712899999995 3.2485004599999998 2.6347743399999999 Au
atom 15.9025516699999994 3.3059898900000002 2.7815897700000001 Au
atom 18.7895489600000012 3.3784137900000002 2.7761802200000001 Au
atom 21.5838057100000000 3.3305207100000001 2.6764300500000000 Au
atom 24.3044131499999985 3.2491102100000000 2.8226483999999998 Au
atom 27.2054093100000003 3.3217460000000001 2.6772033300000002 Au
atom 1.8088426099999999 3.3021285900000001 2.8119183699999999 Au
atom 4.7343004000000004 3.2393936700000001 2.7923610800000001 Au
atom 8.8179815999999995 5.8452934299999999 2.7125804800000002 Au
atom 11.6647253200000005 5.7833840199999997 2.8687716399999998 Au
atom 14.4837361700000002 5.7723740000000001 2.9291656300000000 Au
atom 17.3370281599999991 5.7915735599999998 2.7523539499999998 Au
atom 20.2896727299999995 5.7716561500000001 2.8156685600000002 Au
atom 23.0868726100000003 5.7216873799999997 2.5643235600000001 Au
atom 25.8056903200000001 5.7203857899999999 2.8297301699999999 Au
atom 0.4514715900000000 5.8065303000000004 2.9418054900000001 Au
atom 3.2592554499999999 5.7646035199999996 2.8392870200000000 Au
atom 6.0305911099999996 5.8035592999999999 2.5377675700000002 Au
atom 7.3784691599999999 8.3729435999999993 2.4398461999999999 Au
atom 10.2699687399999995 8.2479783599999994 2.5661869799999999 Au
atom 13.1231131199999993 8.1739518300000000 2.4710153300000002 Au
atom 15.9736329200000000 8.1605578699999999 2.5145450100000000 Au
atom 18.7124139300000003 8.1311274200000003 2.2966771200000000 Au
atom 21.5746146199999984 8.2884400399999993 2.3480277599999999 Au
atom 24.2783142699999992 8.1977691900000007 2.5214331500000000 Au
atom 27.1123836000000011 8.2454556700000001 2.7951279000000002 Au
atom 1.8156612100000000 8.3423021899999998 3.0160881700000002 Au
atom 4.6726433299999997 8.2405369299999993 2.9305889999999999 Au
atom 8.8884556499999992 10.7085566399999994 2.4226503600000000 Au
atom 11.7286718699999994 10.7276987800000008 2.7508433600000002 Au
atom 14.5163049799999992 10.5724236200000004 2.4748833499999998 Au
atom 17.2835580899999997 10.6840007900000007 2.4118738000000000 Au
atom 20.0401953699999993 10.6386024100000007 2.1239296799999998 Au
atom 22.9056072800000017 10.7429995100000006 2.2912744100000002 Au
atom 25.7504105400000007 10.7103902800000004 2.7749880299999998 Au
atom 0.3035375200000000 10.8718824499999993 2.7413320600000000 Au
atom 3.1412740299999999 10.7908659100000008 2.7958993400000001 Au
atom 5.9957396300000001 10.8502031999999993 2.7589714600000002 Au
atom 7.9362682600000003 13.0018191800000000 5.3997041299999999 Cl
atom 7.6728102199999997 15.8208391400000004 8.2170390100000006 Cl
atom 7.7148283800000002 12.9802774599999999 8.0962143700000002 Na
atom 7.8032369199999998 15.9054304799999997 5.3809550899999996 Na
atom 8.0225588000000005 18.9034327399999995 5.4297176000000000 Cl
atom 7.8200199000000001 21.4854174100000002 8.5315970700000001 Cl
atom 7.7664763199999998 18.6662638500000000 8.1067070599999997 Na
atom 7.7813450700000004 21.7143158599999992 5.8514855099999998 Na
atom 7.7102652999999997 24.4576148999999994 5.5876712399999997 Cl
atom 7.7002139900000000 27.1964209200000013 8.4293733999999994 Cl
atom 7.6582090699999998 24.3389982300000014 8.3017032700000009 Na
atom 7.7397766099999998 27.2288138999999987 5.6972253400000001 Na
atom 7.6502857899999999 30.0505373300000009 5.6687576599999998 Cl
atom 7.8382329700000000 32.8444673999999992 8.3008554900000000 Cl
atom 7.9020504999999996 30.0262421199999991 8.1552337000000001 Na
atom 7.8023002699999999 32.8720832999999999 5.5728288600000004 Na
atom 7.8870152200000003 35.7452445699999970 5.6820637600000001 Cl
atom 7.9435555200000003 38.3610543799999988 8.5481711199999992 Cl
atom 7.9350883200000002 35.6158287499999986 8.2945686999999992 Na
atom 7.8379518199999998 38.4155149699999967 5.7076906999999997 Na
atom 7.8569992900000001 1.7593935700000001 5.8404071399999999 Cl
atom 7.9210640600000000 4.6058822800000003 8.6374418899999998 Cl
atom 7.9676078600000002 1.6318585000000001 8.4647414100000002 Na
atom 7.8737617300000000 4.4719116500000000 6.0376209000000003 Na
atom 7.7747281900000003 7.2969629400000002 5.7501784200000001 Cl
atom 7.6603212899999997 10.2443565099999994 8.6042203900000001 Cl
atom 7.9318346499999999 7.4592254400000000 8.4170619200000001 Na
atom 7.8592942800000003 10.1889655300000008 5.8774505499999998 Na
atom 10.6590882800000006 12.9575586299999994 5.4462517500000001 Na
atom 13.3859014199999997 12.9933147800000004 5.4623990400000002 Cl
atom 10.6944663900000005 15.9862939799999992 8.1753813199999996 Na
atom 13.3773126799999993 15.8853943100000006 8.3177239200000006 Cl
atom 13.3820800900000005 13.0750282999999996 8.1383390099999993 Na
atom 10.5617180200000007 13.1343054099999996 8.3423665699999994 Cl
atom 13.3533501500000007 15.7676116400000002 5.4336545500000000 Na
atom 10.5089614000000005 16.0106516700000014 5.4296108500000004 Cl
atom 10.6071363499999993 18.8340345599999992 5.6680846899999997 Na
atom 13.3967404800000001 18.6458545600000001 5.6750178699999996 Cl
atom 10.5837313200000001 21.4617476799999984 8.4055350000000004 Na
atom 13.4834285499999993 21.3382251799999985 8.6665313099999999 Cl
atom 13.3747320700000003 18.7276210200000008 8.2308787900000002 Na
atom 10.5809895800000007 18.6400616300000017 8.5951746700000005 Cl
atom 13.4783168199999999 21.4189063799999992 5.8982512800000002 Na
atom 10.5244349100000001 21.6437659300000007 5.8339700199999998 Cl
atom 10.6918913399999997 24.2359211899999991 5.7462330000000001 Na
atom 13.4445944700000002 24.0713554000000016 5.8128976200000002 Cl
atom 10.5801003199999997 27.1960848900000016 8.2299954100000008 Na
atom 13.4743425000000006 27.2157743600000011 8.5291491199999996 Cl
atom 13.5147760699999999 24.0978606599999985 8.5199572799999999 Na
atom 10.5941197999999996 24.2778504700000006 8.4783509800000001 Cl
atom 13.3177874799999998 27.1829862200000001 5.6731071399999999 Na
atom 10.5837946200000008 27.3585093999999991 5.7146389299999996 Cl
atom 10.5414124999999999 30.0805310500000012 5.5461311499999999 Na
atom 13.3970943499999997 30.0217855100000008 5.5330889100000000 Cl
atom 10.6482895400000004 32.9749566699999974 8.0660621900000002 Na
atom 13.6153487200000001 32.9209284100000019 8.1430950299999996 Cl
atom 13.3618723599999996 30.0519699299999985 8.1052277200000002 Na
atom 10.7505386099999996 30.2877826399999996 8.3392036399999991 Cl
atom 13.6116755900000008 32.7945746099999980 5.4181289899999996 Na
atom 10.6766095399999994 32.8710264899999984 5.3768134300000003 Cl
atom 10.8278053900000000 35.7084908499999969 5.5091328800000001 Na
atom 13.6045845700000001 35.4981288899999967 5.3983536000000001 Cl
atom 10.6505084500000002 38.3401044900000016 8.2971337300000005 Na
atom 13.7388000100000003 38.4730331600000000 8.4205338899999997 Cl
atom 13.7494605399999994 35.4796382500000007 8.0895939600000002 Na
atom 10.8562698399999995 35.6386196600000034 8.2918810399999998 Cl
atom 13.5453274599999993 38.3480087399999974 5.8813014499999996 Na
atom 10.6017692799999992 38.4655690100000029 5.6163551399999996 Cl
atom 10.7018154800000005 1.6628250700000000 5.6332102800000001 Na
atom 13.4686425399999994 1.7652964700000000 5.7930570000000001 Cl
atom 10.7097561900000002 4.4280168000000000 8.5168524199999993 Na
atom 13.8626930200000000 4.6529581300000000 8.6703616599999993 Cl
atom 13.6437711000000004 1.6830147200000001 8.4283338200000006 Na
atom 10.7444196200000004 1.7205289300000000 8.5765685299999994 Cl
atom 13.5785744600000005 4.5895856100000003 5.8588494000000004 Na
atom 10.8053434999999993 4.6496972300000001 5.7507582800000003 Cl
atom 10.8512939399999997 7.3964576700000002 6.0099602599999997 Na
atom 13.5233493800000009 7.3007300099999997 5.7405275199999997 Cl
atom 10.6817585099999999 10.3360433000000000 8.2520116199999993 Na
atom 13.4846179599999996 10.3249733599999995 8.6134031699999998 Cl
atom 13.7000207199999995 7.5591194399999999 8.2670325200000008 Na
atom 10.6083178300000007 7.5438852900000004 8.6757394300000001 Cl
atom 13.4685800100000002 9.9815111600000002 5.8691555600000003 Na
atom 10.7158169999999995 10.1603153099999997 5.7164221299999998 Cl
atom 16.2771111300000015 13.0863764000000007 5.7642188100000000 Na
atom 19.1144726200000008 13.2653961900000006 5.6588365899999999 Cl
atom 16.2195991100000008 15.8102785600000004 8.1844616699999992 Na
atom 18.9820768099999988 15.7551135900000006 8.6088489199999998 Cl
atom 18.9588155200000017 13.0342598899999995 8.2816570400000007 Na
atom 16.1819807500000010 13.0481146900000002 8.4896401899999994 Cl
atom 19.0773091100000016 15.9575180099999994 5.8159748899999997 Na
atom 16.1644237199999985 15.9336854399999996 5.6500345400000000 Cl
atom 16.2008295999999987 18.7169601099999987 5.7150747800000001 Na
atom 19.0605252100000016 18.7709761700000008 5.8577198499999996 Cl
atom 16.3241586000000005 21.4493582300000014 8.2966961500000007 Na
atom 19.1618109799999985 21.3752649000000012 8.7026017800000002 Cl
atom 19.1977761700000009 18.7219621899999993 8.3991599899999994 Na
atom 16.2331670099999990 18.6330658599999985 8.5183316300000005 Cl
atom 19.1177496900000001 21.5141423699999983 5.8180824500000003 Na
atom 16.3616076200000009 21.5516906800000001 5.6176033800000003 Cl
atom 16.2648656799999998 24.3047398399999999 5.8485418899999999 Na
atom 19.1085828100000015 24.2227255600000007 5.7729027200000003 Cl
atom 16.1607245299999995 27.1399464200000011 8.3892361500000003 Na
atom 18.8752713300000003 27.0507188999999997 8.5323160500000004 Cl
atom 19.1710166099999988 24.0067732900000017 8.4400191099999997 Na
atom 16.3274333399999989 24.2891599900000017 8.4602599499999993 Cl
atom 19.1378706299999983 27.0092582000000014 5.6955350999999999 Na
atom 16.3386459200000012 26.9675993900000002 5.6339193999999999 Cl
atom 16.1897187900000006 30.0180666199999990 5.8444269300000000 Na
atom 19.1536614599999986 29.9220739000000009 5.7531721400000002 Cl
atom 16.4338212900000009 32.7054235100000028 8.2494749699999996 Na
atom 19.2427765499999985 32.7705117400000034 8.7799146199999996 Cl
atom 19.1075276900000013 29.9574520799999995 8.3541322099999995 Na
atom 16.2133727699999994 30.0088813899999991 8.3936488499999999 Cl
atom 19.1379035600000016 32.6967034199999986 5.7554330599999997 Na
atom 16.4793768400000005 32.8661480399999988 5.4473119900000002 Cl
atom 16.4502548699999984 35.5254533900000027 5.4868517399999996 Na
atom 19.2478950500000003 35.4770161100000010 5.6805231100000002 Cl
atom 16.6439998899999999 38.2071797500000017 8.3039979699999993 Na
atom 19.3252332500000001 38.3792709900000020 8.4068626500000008 Cl
atom 19.3115312699999997 35.5127761899999967 8.3252467299999999 Na
atom 16.4583388799999994 35.4203443199999981 8.2786676600000000 Cl
atom 19.2678475400000018 38.4181730999999971 5.6917445500000001 Na