#===============================================================================
# Created using the Atomic Simulation Environment (ASE)

# Tue Dec 23 21:42:23 2025

#=======================================================
lattice_vector 28.1999999999999993 0.0000000000000000 0.0000000000000000 
lattice_vector 0.0000000000000000 39.4799999999999969 0.0000000000000000 
lattice_vector 0.0000000000000000 0.0000000000000000 62.3296083400000001 
atom 7.5114127799999997 14.8813495000000007 -0.0145284700000000 Au
atom 10.3741225499999992 14.7462332899999993 -0.1088550500000000 Au
atom 13.1491822900000006 14.8330956999999994 0.0721644200000000 Au
atom 15.9876660600000005 14.9171961500000005 -0.0365054400000000 Au
atom 18.8623706800000015 14.8065935199999998 -0.1454867100000000 Au
atom 21.6703159700000008 14.7877958399999994 -0.1945369900000000 Au
atom 24.4935179000000005 14.7185034399999992 0.0582638400000000 Au
atom 27.2981108900000002 14.7768553499999999 0.0090643100000000 Au
atom 1.8683774300000000 14.7086693299999993 0.0076202000000000 Au
atom 4.7269878199999997 14.8662781800000001 0.0098300900000000 Au
atom 8.9183264999999992 17.2842830999999997 0.0498371700000000 Au
atom 11.6540073700000004 17.2189402099999995 -0.0726577300000000 Au
atom 14.4692588999999998 17.3009465899999988 -0.3935791400000000 Au
atom 17.4998803599999988 17.2962266100000015 -0.1639540500000000 Au
atom 20.3233469400000004 17.2952151399999998 -0.1441571000000000 Au
atom 23.0624798999999996 17.2554730099999993 0.1789398300000000 Au
atom 25.8628782400000006 17.3103702099999985 0.1395987800000000 Au
atom 0.4972465400000000 17.3076167699999992 0.2811846100000000 Au
atom 3.1865451500000002 17.3303134999999990 0.2828835800000000 Au
atom 6.0580429000000002 17.2866352700000014 -0.0118714200000000 Au
atom 7.4411619099999999 19.6994800199999993 -0.1500774800000000 Au
atom 10.2779051999999993 19.7491994599999998 -0.1124423900000000 Au
atom 13.0841235499999993 19.7914801800000006 -0.3448509000000000 Au
atom 16.0091890899999996 19.6771705899999994 -0.2853231200000000 Au
atom 18.8898265800000011 19.8784671300000007 -0.1356729600000000 Au
atom 21.6050384599999994 19.7277651700000014 0.0174833000000000 Au
atom 24.3226668000000004 19.7111277099999995 0.2877832000000000 Au
atom 27.2246126400000001 19.7813607500000010 0.5312669500000000 Au
atom 1.8659021899999999 19.6956089100000007 0.4415135800000000 Au
atom 4.6303738000000001 19.7863095199999997 0.1045898200000000 Au
atom 8.8116981299999999 22.2893275899999992 -0.1312064700000000 Au
atom 11.6241040499999997 22.2727992400000012 -0.2822674300000000 Au
atom 14.4792241399999995 22.1547354699999985 0.0188364600000000 Au
atom 17.2909774899999995 22.1675595200000011 0.0480853500000000 Au
atom 20.2474160699999999 22.2967276699999992 0.1996809000000000 Au
atom 23.0249710699999994 22.2203525299999995 0.3216976900000000 Au
atom 25.7909575900000014 22.1880586599999994 0.2673271900000000 Au
atom 0.4169176500000000 22.1850376199999992 0.1527605900000000 Au
atom 3.1940113000000001 22.2109502300000017 0.0735984000000000 Au
atom 6.0227007300000004 22.2288200899999993 -0.2497339900000000 Au
atom 7.4357743500000000 24.7330247400000012 -0.1526650800000000 Au
atom 10.1861713199999997 24.7026326199999993 0.0193501400000000 Au
atom 13.0616646599999999 24.7174197599999985 -0.1516999400000000 Au
atom 15.9730454500000008 24.6631774800000017 -0.1941885600000000 Au
atom 18.7963219799999983 24.6359903799999991 -0.0590228000000000 Au
atom 21.6665551000000001 24.6742141299999993 0.2987354600000000 Au
atom 24.4275797399999988 24.6454753400000008 0.3391545500000000 Au
atom 27.2459472299999987 24.6587900699999985 0.2196332600000000 Au
atom 1.8915439700000001 24.6918708500000008 0.1006705600000000 Au
atom 4.6270878599999996 24.6950467899999992 -0.0033836600000000 Au
atom 8.8792859199999992 27.2070601799999991 -0.0465830200000000 Au
atom 11.6830456900000001 27.1134123500000008 -0.3671146400000000 Au
atom 14.5944785699999997 27.1732117899999999 -0.1680977100000000 Au
atom 17.3658238300000001 27.1291720500000011 -0.2317978200000000 Au
atom 20.2398752199999983 27.0182827799999998 0.0241044300000000 Au
atom 23.0610356699999990 27.1193771999999989 0.2246911000000000 Au
atom 25.8967718299999987 27.0551333300000003 0.0907882600000000 Au
atom 0.5662949400000000 27.0794554500000011 0.0577687500000000 Au
atom 3.3093107300000000 27.2323914400000007 0.1004806200000000 Au
atom 6.0656992000000001 27.1746939500000018 -0.1424082300000000 Au
atom 7.4690075800000004 29.5777386600000014 -0.1477563200000000 Au
atom 10.4077332699999996 29.6583385100000001 0.0253597800000000 Au
atom 13.3037583399999999 29.6011823400000011 -0.3977879800000000 Au
atom 16.0660183600000011 29.6526811700000010 -0.1601085900000000 Au
atom 18.8142235800000002 29.5168722400000014 -0.5378131500000000 Au
atom 21.5565791199999985 29.4766989099999996 -0.0268302300000000 Au
atom 24.4648440299999983 29.6102988499999995 0.2021060300000000 Au
atom 27.2854900700000016 29.4841826900000008 0.0415755500000000 Au
atom 1.8956100700000000 29.5175235799999989 -0.0101400200000000 Au
atom 4.7271971300000004 29.6444662100000009 -0.0163582000000000 Au
atom 8.8688509599999996 32.0923508699999971 -0.0422482400000000 Au
atom 11.7756021200000003 32.0240805600000016 -0.1192387900000000 Au
atom 14.6711923199999994 32.1722429200000022 -0.3936417300000000 Au
atom 17.4997013400000014 32.0359666599999997 -0.2453064800000000 Au
atom 20.2349276399999987 31.9631370699999984 -0.1782274200000000 Au
atom 23.0198281199999997 31.9922745999999982 0.1336824600000000 Au
atom 25.8093705900000003 31.9926462399999991 0.1605411100000000 Au
atom 0.4703835700000000 31.9262514499999988 -0.0855357900000000 Au
atom 3.3336794699999999 32.1113271600000019 -0.0489636500000000 Au
atom 6.1205321100000001 32.0894685700000011 0.0239337600000000 Au
atom 7.5130944099999999 34.5841638500000030 -0.3132878000000000 Au
atom 10.4187618099999995 34.5419668600000023 -0.2640443700000000 Au
atom 13.2020777500000008 34.6102772099999996 -0.0260701800000000 Au
atom 16.0167524999999991 34.5284315399999997 0.0344798300000000 Au
atom 18.8787796899999982 34.5564967199999984 0.0008886300000000 Au
atom 21.6793341800000015 34.5139256300000028 0.2273914500000000 Au
atom 24.4760489899999989 34.4655510799999973 -0.0131738300000000 Au
atom 27.2591645000000007 34.3750968900000018 -0.0229748100000000 Au
atom 1.8728476800000000 34.5583271699999983 -0.2110288400000000 Au
atom 4.6580463500000002 34.5690338300000022 -0.1158974300000000 Au
atom 8.9618273100000003 37.0966427800000034 -0.1942271000000000 Au
atom 11.7780912499999992 37.0432610800000006 -0.0180314400000000 Au
atom 14.6015871900000000 37.0835608900000011 -0.0758141700000000 Au
atom 17.3914380900000012 36.9331282599999966 -0.0066882400000000 Au
atom 20.2155453499999993 36.9727191699999977 0.0327891600000000 Au
atom 23.0038404999999990 37.0399911800000012 0.1318833200000000 Au
atom 25.8055212300000001 36.9414693399999976 -0.0138306000000000 Au
atom 0.4399823800000000 36.9137276000000014 0.1876891800000000 Au
atom 3.2356736100000001 37.0878877800000026 0.0679700200000000 Au
atom 6.0536125900000002 36.9925805999999966 -0.3503966100000000 Au
atom 7.5269516699999999 0.1004197500000000 -0.0653463100000000 Au
atom 10.3960076600000004 0.0403453200000000 0.0871547900000000 Au
atom 13.1100791200000000 0.0987307100000000 0.0658160700000000 Au
atom 15.9861122499999997 0.0025329600000000 0.0293276300000000 Au
atom 18.7864279200000013 0.0091240700000000 -0.1814612500000000 Au
atom 21.4950076900000013 -0.0466687700000000 0.0577137300000000 Au
atom 24.3668794899999988 -0.0400715600000000 -0.0266909400000000 Au
atom 27.2380117199999994 0.0037945700000000 0.1061248700000000 Au
atom 1.8642138100000001 -0.0384596600000000 0.2260867800000000 Au
atom 4.6720411300000002 0.0637504500000000 -0.0633224100000000 Au
atom 8.8851547199999992 2.5402054600000001 0.0165306500000000 Au
atom 11.6940175600000007 2.6049760499999999 0.0673957000000000 Au
atom 14.5518796899999998 2.4878668099999999 0.0583261200000000 Au
atom 17.3589846200000011 2.5105277500000001 -0.0847338900000000 Au
atom 20.2046097499999995 2.4379500900000002 0.0634926400000000 Au
atom 23.0976423400000002 2.4648097999999998 0.0469305000000000 Au
atom 25.8445817899999994 2.5208927299999999 0.0585968500000000 Au
atom 0.4848756400000000 2.4551044499999999 0.0506517500000000 Au
atom 3.2546485700000001 2.4365375999999999 0.1508982200000000 Au
atom 6.1063910400000001 2.5107063500000000 0.1209474400000000 Au
atom 7.4997103899999997 4.9970119700000000 0.2160376000000000 Au
atom 10.2863022999999991 5.0192241199999996 0.1797049400000000 Au
atom 13.1700343600000007 4.9848587799999997 0.1222683000000000 Au
atom 15.9043598300000006 4.9771679300000002 0.1781493400000000 Au
atom 18.7651181999999999 4.8986049800000000 0.1070758000000000 Au
atom 21.5952073999999996 4.9115750699999996 0.1555559400000000 Au
atom 24.4244799800000010 4.9311455200000003 -0.0830498400000000 Au
atom 27.2262339299999994 4.9279733400000003 0.0586614000000000 Au
atom 1.8478464100000001 4.9003253700000000 -0.0434342500000000 Au
atom 4.7756555499999997 4.9566382500000001 0.0558144800000000 Au
atom 8.8710268499999998 7.4856321699999997 0.1150536800000000 Au
atom 11.8309005400000000 7.4887767299999997 0.0577937300000000 Au
atom 14.6006865900000005 7.4879685399999998 0.0926579900000000 Au
atom 17.3752294200000001 7.4317918599999997 0.1668449500000000 Au
atom 20.2062559099999994 7.4099694600000001 -0.0197811400000000 Au
atom 23.0277564300000002 7.3675828100000000 0.0097648100000000 Au
atom 25.8108148399999990 7.3766418299999996 -0.0841655100000000 Au
atom 0.4107437100000000 7.3710560200000002 0.0031893300000000 Au
atom 3.2638305800000000 7.4081769499999996 0.1610336900000000 Au
atom 6.0212022799999998 7.4010736100000001 0.2045864300000000 Au
atom 7.4819653700000002 9.9527503900000003 0.0600796800000000 Au
atom 10.2857688599999992 9.9178689999999996 0.1631350400000000 Au
atom 13.1543120299999998 9.9679781799999994 0.0869561800000000 Au
atom 15.9894847000000002 10.0060364499999999 0.0551992600000000 Au
atom 18.7960682299999995 9.8237603399999998 0.2129254300000000 Au
atom 21.5704655999999986 9.8939451599999995 0.0671676400000000 Au
atom 24.4501149899999994 9.8522590599999997 0.0280807400000000 Au
atom 27.2302057600000005 9.9289443199999994 -0.0243528300000000 Au
atom 1.8605868100000000 9.7635010300000005 0.1246689700000000 Au
atom 4.6857665300000004 9.8674186299999995 0.1336594300000000 Au
atom 8.9326847600000008 12.3115865200000005 -0.1454348700000000 Au
atom 11.7111423899999991 12.3057410600000008 -0.0376096600000000 Au
atom 14.6858515300000008 12.4602972199999993 -0.1088601400000000 Au
atom 17.4444143400000016 12.4235679399999999 0.1683789400000000 Au
atom 20.1886680600000012 12.3698335700000008 -0.0585940600000000 Au
atom 23.0091281099999989 12.3054221300000002 -0.1076941100000000 Au
atom 25.8910306699999992 12.2851985300000006 0.0810809800000000 Au
atom 0.4892953200000000 12.2250402299999994 -0.1782336100000000 Au
atom 3.2973216999999999 12.2703658999999998 -0.0641724700000000 Au
atom 6.1078827300000000 12.4542160800000001 -0.1015301400000000 Au
atom 7.5476130599999998 13.0114777000000004 2.4641742899999999 Au
atom 10.3499753200000004 13.2168954799999998 2.4180785199999999 Au
atom 13.1918949500000000 13.1698565599999995 2.4479617299999998 Au
atom 16.0501411400000009 13.2162893799999992 2.6655575699999998 Au
atom 18.9819340600000004 13.3255239900000007 2.5866270000000000 Au
atom 21.7161502000000013 13.1760459200000000 2.5616744599999999 Au
atom 24.5239432099999988 13.1516874200000000 2.7145024100000001 Au
atom 27.3074023399999994 13.1527942699999993 2.5066690100000000 Au
atom 1.8414234599999999 13.1510419400000007 2.4074436100000001 Au
atom 4.7153726499999999 13.1610086800000001 2.4791876600000000 Au
atom 8.9883419599999996 15.7168728499999997 2.6923825899999998 Au
atom 11.6863645700000003 15.6683686099999999 2.5831361600000000 Au
atom 14.6350441300000007 15.6864716200000007 2.5091605399999999 Au
atom 17.4064782300000012 15.7140705999999994 2.4514020699999999 Au
atom 20.3261169200000005 15.7298421200000007 2.3028245699999998 Au
atom 23.0919163999999988 15.6260814099999994 2.5938375100000002 Au
atom 26.0102959200000008 15.5901844999999994 2.5517570400000000 Au
atom 0.5203295000000000 15.6009108899999998 2.7718784900000002 Au
atom 3.3746944700000001 15.6334652399999996 2.6952329599999998 Au
atom 6.1362811800000001 15.5942757299999997 2.5770132200000000 Au
atom 7.4344677600000004 18.1574413700000008 2.4866330300000001 Au
atom 10.2854043700000002 18.1585275999999993 2.6233871600000001 Au
atom 13.1467489900000007 18.0584269599999985 2.2924709100000000 Au
atom 15.9680705599999992 18.1925917900000016 2.2639078600000002 Au
atom 18.8463501200000003 18.0916145800000017 2.4969023899999998 Au
atom 21.7146797800000009 18.1829801400000015 2.7260024299999999 Au
atom 24.5070113300000010 17.9948086300000014 2.7087510699999999 Au
atom 27.2401092799999986 18.1343543099999991 2.9010326499999999 Au
atom 1.8980192199999999 18.0031800799999999 2.9658207399999998 Au
atom 4.7326482800000003 18.1389453699999983 2.6842869700000000 Au
atom 8.9149335900000004 20.6776199200000015 2.3237352699999998 Au
atom 11.7348595099999997 20.4941327199999996 2.3663819400000001 Au
atom 14.6399534700000000 20.5346869599999984 2.3607200800000001 Au
atom 17.4508695399999993 20.4948161400000011 2.6176970900000001 Au
atom 20.2263615600000008 20.5141741599999996 2.5819567700000001 Au
atom 23.0477996300000001 20.6188743899999984 2.8059740700000000 Au
atom 25.8116701000000006 20.5367088299999985 3.0459678200000000 Au
atom 0.4519223800000000 20.6066743899999985 3.0031854500000001 Au
atom 3.2211444600000001 20.6788509100000013 2.7903858700000002 Au
atom 6.1566362999999997 20.6139085000000009 2.5914163499999998 Au
atom 7.5113933900000003 23.0897028999999989 2.4382639899999998 Au
atom 10.2825777100000000 23.0492515900000008 2.5106706999999999 Au
atom 13.0828149299999996 23.0664118000000009 2.4563696699999999 Au
atom 15.9227322099999995 23.0054816500000001 2.5890607200000000 Au
atom 18.7913303599999999 22.9691988900000013 2.8093707700000001 Au
atom 21.5487579999999994 23.0089070100000015 3.0026287300000001 Au
atom 24.4944266299999995 23.0542990799999998 2.9800838100000000 Au
atom 27.2393610700000011 22.9899360799999997 2.7623026899999998 Au
atom 1.8891396499999999 23.1112930600000013 2.6631805800000001 Au
atom 4.7383541899999999 23.0535061900000002 2.5569806200000000 Au
atom 8.9404660200000006 25.5311735999999989 2.6144747800000001 Au
atom 11.6837849899999995 25.6231867800000011 2.5288438300000000 Au
atom 14.5207648599999999 25.5128916900000000 2.4421368200000000 Au
atom 17.2686263000000011 25.4724403700000011 2.4692715199999999 Au
atom 20.0936595500000017 25.4961944000000003 2.6510261900000001 Au
atom 23.0040792799999991 25.4921257600000004 2.8692744000000001 Au
atom 25.8526914999999988 25.5281061499999993 2.8487100000000001 Au
atom 0.4412099500000000 25.4651537300000008 2.8903502799999998 Au
atom 3.2796324200000000 25.5949684799999986 2.7654043100000001 Au
atom 6.0654832000000001 25.5929014399999986 2.5652779099999998 Au
atom 7.4799099199999999 28.0103180700000003 2.5210568699999998 Au
atom 10.2864550599999998 28.0395495299999986 2.4397647099999999 Au
atom 13.0712229299999994 28.1085913299999994 2.1757589799999999 Au
atom 15.8742673900000000 28.0816598599999985 2.5210251600000002 Au
atom 18.6944360699999983 27.9611499300000013 2.3027479999999998 Au
atom 21.4956117900000017 27.8861012300000013 2.7226681899999998 Au
atom 24.4433231699999993 27.9973567299999999 2.7106495599999998 Au
atom 27.2220389800000007 28.0565076799999993 2.6064002600000000 Au
atom 1.8685774300000000 27.9731417100000002 2.6928302600000000 Au
atom 4.6907035700000002 28.0010639400000017 2.7981224000000000 Au
atom 8.8730905500000006 30.5261147199999989 2.5950174300000000 Au
atom 11.6911272999999998 30.5479171899999997 2.5503273300000000 Au
atom 14.4500755099999996 30.5301378800000016 2.2355454600000000 Au
atom 17.4361816900000015 30.4334345599999985 2.3474591700000000 Au
atom 20.1465129900000015 30.3752391000000017 2.3484528899999999 Au
atom 22.9112432400000010 30.3714680000000001 2.6825138100000001 Au
atom 25.8582366899999982 30.5403424799999996 2.9406585000000001 Au
atom 0.4377871200000000 30.4775357699999994 2.4612690499999998 Au
atom 3.2703287900000002 30.4958800299999986 2.6081889800000000 Au
atom 6.1470409500000001 30.3812176200000010 2.4309870999999998 Au
atom 7.4317557399999998 32.9580564400000000 2.4282161599999998 Au
atom 10.3011625400000000 33.0241591300000010 2.4970998000000000 Au
atom 13.1604265199999997 32.9776985600000003 2.3225710300000002 Au
atom 16.0349362699999993 32.8560597199999975 2.4822281199999998 Au
atom 18.7926723500000001 32.8643674500000031 2.4457716600000001 Au
atom 21.5178064400000011 32.7829844500000007 2.6264550099999999 Au
atom 24.4185766400000013 32.9717916900000034 2.7102751800000000 Au
atom 27.2479136299999993 32.9196721499999967 2.5806133800000000 Au
atom 1.8459782000000000 32.9601222800000002 2.4701302300000001 Au
atom 4.7265728999999999 32.9337300700000029 2.5225240699999998 Au
atom 8.8874676499999996 35.3464042599999999 2.2443296799999999 Au
atom 11.7625930200000006 35.4278920100000008 2.5894314299999999 Au
atom 14.6568019700000001 35.3511439099999976 2.6019980100000000 Au
atom 17.4240588299999999 35.3275378800000013 2.6262481400000000 Au
atom 20.1952684699999985 35.3004955899999970 2.6617572799999998 Au
atom 23.0486520800000001 35.2958033999999969 2.7980309999999999 Au
atom 25.8311065000000006 35.4275230900000011 2.6329342400000000 Au
atom 0.5099042900000000 35.3974932100000004 2.7327535599999999 Au
atom 3.2752948300000000 35.4169587199999967 2.5656921700000002 Au
atom 6.0917726500000002 35.4219130500000006 2.2473537600000002 Au
atom 7.6043964700000002 37.8355239600000033 2.3138032100000001 Au
atom 10.3412373700000000 37.8149168300000014 2.5271205800000001 Au
atom 13.2390340000000002 37.8968730100000002 2.5416089999999998 Au
atom 16.0248386300000014 37.8890254800000008 2.6240381500000001 Au
atom 18.7595428300000009 37.8117761199999975 2.5842198600000001 Au
atom 21.6198708300000000 37.7734791500000000 2.7488048599999999 Au
atom 24.4634108899999987 37.7581760899999992 2.7880777999999999 Au
atom 27.2480276600000018 37.8319224800000029 2.7107184900000001 Au
atom 1.8501069699999999 37.8627087599999967 2.7614254699999998 Au
atom 4.6996560499999998 37.9088867899999968 2.4338118600000000 Au
atom 8.9882964300000001 0.7950322100000000 2.6592277400000000 Au
atom 11.7509186499999991 0.8961582800000000 2.7706272900000002 Au
atom 14.6444052100000004 0.8989340500000000 2.7026188800000002 Au
atom 17.4167389800000016 0.8141518100000000 2.4251123699999999 Au
atom 20.2195946599999985 0.7786008800000001 2.6530639699999998 Au
atom 23.0375459800000009 0.7825671800000000 2.5882939399999998 Au
atom 25.8069986799999995 0.7202086000000000 2.5175823199999998 Au
atom 0.4061803100000000 0.8288333200000000 2.7487625599999999 Au
atom 3.3049154900000000 0.8235867100000001 2.7142425000000001 Au
atom 6.1007761900000004 0.8109160800000000 2.6082854499999999 Au
atom 7.5838781300000004 3.2544628200000001 2.8626253699999999 Au
atom 10.3821508100000006 3.3720368000000001 2.6680701600000001 Au
atom 13.2138691599999998 3.3184527300000002 2.8275344599999999 Au
atom 15.9653506600000004 3.3640640600000000 2.6806616999999999 Au
atom 18.7968529900000014 3.4005667200000000 2.6982515899999999 Au
atom 21.5985501800000002 3.2312466299999998 2.5800185899999999 Au
atom 24.3604757300000010 3.2934296500000002 2.6364981799999998 Au
atom 27.2092765000000014 3.2419847700000002 2.6982199499999999 Au
atom 1.8457158000000000 3.2809465100000001 2.5839325000000000 Au
atom 4.6726952700000002 3.2520532400000000 2.7274936799999998 Au
atom 8.9295040199999995 5.8322335399999998 2.6955188899999998 Au
atom 11.7859572000000004 5.7888308100000003 2.8012929500000001 Au
atom 14.5428850399999998 5.9315158099999996 2.6540648299999998 Au
atom 17.3223776899999997 5.8817199300000000 2.7754431099999999 Au
atom 20.2263227500000013 5.7982252599999997 2.7233145300000001 Au
atom 23.0480959200000015 5.7929033399999996 2.7727763900000002 Au
atom 25.7697808899999998 5.7345264900000004 2.6771429900000001 Au
atom 0.4019616800000000 5.8035889500000000 2.6033240800000002 Au
atom 3.1473813599999998 5.6747640700000002 2.7482007400000001 Au
atom 5.9794393599999998 5.6963271999999998 2.7978983500000001 Au
atom 7.5262312400000004 8.2137759999999993 2.7115000700000000 Au
atom 10.4904782200000000 8.2627047699999991 2.6921929100000002 Au
atom 13.2444999200000009 8.4140609899999994 2.7379566899999999 Au
atom 15.9570546100000001 8.3167308000000002 2.7928550500000000 Au
atom 18.7686659499999990 8.2823878799999999 2.8894171599999998 Au
atom 21.6066000199999984 8.2738653699999993 2.7202515400000000 Au
atom 24.4490162799999986 8.2128797000000002 2.7408443999999998 Au
atom 27.2997062700000015 8.1574251800000006 2.5440861500000000 Au
atom 1.8332876899999999 8.1916912400000008 2.6743273599999999 Au
atom 4.5772791799999997 8.1619537700000002 2.7342315799999999 Au
atom 8.9503528100000000 10.6292970400000009 2.6390808400000001 Au
atom 11.7504980299999993 10.7653615800000004 2.7619368700000000 Au
atom 14.5567618099999994 10.7961958800000009 2.6947335300000002 Au
atom 17.4597588600000009 10.7462244699999996 2.6675615499999998 Au
atom 20.2448030299999999 10.7205553499999997 2.7849309500000001 Au
atom 23.0777930600000012 10.6071090300000002 2.5360404700000001 Au
atom 25.8530198599999999 10.6530428399999995 2.6088177899999998 Au
atom 0.4507984000000000 10.7153470800000008 2.5789984200000000 Au
atom 3.2319491800000000 10.7163655900000006 2.7726650600000000 Au
atom 6.0454086599999997 10.6082090099999995 2.6445774599999998 Au
atom 7.5632552300000002 13.2529836599999999 5.8923409500000004 Cl
atom 7.3939889200000000 16.1104182000000016 8.8427023499999997 Cl
atom 7.2758716000000003 13.3387115999999999 8.5424417300000002 Na
atom 7.4244859400000003 16.1565368199999995 5.9761803499999999 Na
atom 7.3310339999999998 18.9829208200000004 5.8041076399999998 Cl
atom 7.3364642399999997 21.6600213900000007 8.7803249700000006 Cl
atom 7.2832513399999996 18.9402107700000002 8.4999729100000003 Na
atom 7.4590074099999999 21.6763778199999990 5.8140270899999997 Na
atom 7.3748564400000003 24.5543914100000009 5.6526893800000000 Cl
atom 7.5399905199999999 27.4102943500000009 8.6124404499999994 Cl
atom 7.3605249700000002 24.4647499500000016 8.3831493199999993 Na
atom 7.3741604499999998 27.2846084100000006 5.8770004100000000 Na
atom 7.3850589900000001 30.1423497400000002 5.7508358700000004 Cl
atom 7.4208925199999998 33.0228206399999991 8.3804857500000001 Cl
atom 7.5291850900000004 30.2066932100000010 8.4434900299999995 Na
atom 7.4411739800000003 32.8747672599999987 5.6721206000000004 Na
atom 7.3955001899999999 35.7084587800000008 5.5974571299999996 Cl
atom 7.2834767999999999 38.4860961799999970 8.4412377900000006 Cl
atom 7.4865811100000004 35.8757235200000011 8.2918901500000004 Na
atom 7.4149026999999998 38.5600771499999979 5.7265817900000000 Na
atom 7.3451836300000002 1.9152594900000000 5.8389587000000001 Cl
atom 7.3654691300000001 4.8519085400000002 8.7271255799999992 Cl
atom 7.4166197000000000 1.9188185600000001 8.3913024400000005 Na
atom 7.5000806799999999 4.9121047700000000 6.0454977100000002 Na
atom 7.4218502900000001 7.7240192700000003 5.9005616200000004 Cl
atom 7.4733319399999996 10.3449637100000000 8.7185980900000004 Cl
atom 7.3713564199999997 7.6841884399999998 8.5404065899999999 Na
atom 7.3789974599999999 10.4391461400000001 6.0049605899999996 Na
atom 10.2448910899999994 13.2755603200000003 6.0259293500000002 Na
atom 12.8744341099999993 13.2716591899999994 5.8580356199999999 Cl
atom 10.0515296500000009 16.2148730699999994 8.3502288999999994 Na
atom 13.1279217799999994 16.0636805299999992 8.5938041100000007 Cl
atom 12.9912627999999994 13.3455703900000007 8.9196080400000000 Na
atom 10.2143610999999996 13.3210344900000006 8.6400076899999991 Cl
atom 13.1161856599999993 15.8759397000000000 6.0018391700000002 Na
atom 10.1663344999999996 16.1045096699999988 5.8066156299999996 Cl
atom 10.2864527300000006 18.9743072499999990 5.9141436399999998 Na
atom 12.9579710299999995 18.8887271000000005 5.6878203699999998 Cl
atom 10.3305368499999997 21.7327156600000002 8.4763964400000003 Na
atom 12.9974936999999997 21.7407469800000008 8.4484423399999997 Cl
atom 13.1094305200000001 18.7188947699999986 8.2909899300000003 Na
atom 10.1218998500000001 19.0326465499999991 8.6490545700000006 Cl
atom 12.9900918099999991 21.6376453799999986 5.8777796200000001 Na
atom 10.1017792100000001 21.7049728100000010 5.6434045199999998 Cl
atom 10.1705246599999999 24.5217488400000008 5.5548638099999996 Na
atom 13.1133957900000002 24.4762828900000002 5.7155168099999996 Cl
atom 10.2582021200000000 27.2414272000000004 8.2112478200000005 Na
atom 13.0152683800000002 27.3503864700000001 8.5548929099999995 Cl
atom 13.0062755100000000 24.5080302900000007 8.4341311700000006 Na
atom 10.1349836999999994 24.3371518599999987 8.5131337600000005 Cl
atom 12.7998634399999993 27.3134096100000008 5.8117451000000004 Na
atom 10.0941565999999998 27.3128034600000014 5.6277691699999997 Cl
atom 10.2333587200000000 30.1448238999999987 5.7731168100000003 Na
atom 13.1620783100000001 30.1282175199999998 5.5739376600000003 Cl
atom 10.2320779000000002 33.0014817599999972 8.2744473200000002 Na
atom 12.9793050900000004 32.8725104900000034 8.5514469799999997 Cl
atom 12.9959376199999994 30.0727779300000009 8.2406140099999998 Na
atom 10.2337255500000008 30.1077696599999989 8.5516706399999993 Cl
atom 13.0415894500000000 32.9518433699999989 5.8136298999999996 Na
atom 10.3797485100000006 32.9051205499999995 5.5896499899999998 Cl
atom 10.2610905100000007 35.8389250199999978 5.6146376699999996 Na
atom 13.0565408400000003 35.7013123300000004 5.8575204300000001 Cl
atom 10.2664158600000004 38.5744833899999975 8.4352765699999992 Na
atom 13.0491197799999998 38.7430230699999996 8.5300277700000002 Cl
atom 13.1513047200000006 35.8426347699999965 8.4667959100000001 Na
atom 10.2242926599999997 35.8118186100000031 8.3302331499999998 Cl
atom 13.0389701500000008 38.4804167400000026 5.8581078900000003 Na
atom 10.2200227899999998 38.5808456199999981 5.6979933899999997 Cl
atom 10.1609346899999995 1.9208028200000000 5.8791065600000003 Na
atom 13.0539184600000002 2.0891795300000000 5.7703468800000000 Cl
atom 10.1818611099999998 4.7184404700000000 8.4776875500000006 Na
atom 13.0493463700000003 4.6833857300000004 8.7034669200000003 Cl
atom 12.9541988200000002 2.0309237100000002 8.3012559299999999 Na
atom 10.1231747199999997 1.9318507199999999 8.7847275200000006 Cl
atom 13.0183581099999994 4.8156002899999999 5.9914172399999996 Na
atom 10.2757963599999993 4.6987671799999999 5.8549940500000002 Cl
atom 10.1014458699999992 7.6269219799999997 5.9402005700000000 Na
atom 12.9361219100000007 7.6747806900000004 5.9513197800000004 Cl
atom 10.2454713700000006 10.3940346100000003 8.5547275599999999 Na
atom 13.0304669999999998 10.3452920200000005 8.8355865500000004 Cl
atom 12.9262548099999997 7.5911378400000000 8.5333650999999993 Na
atom 10.1396786599999995 7.5771743400000000 8.6634402200000000 Cl
atom 12.9503335699999997 10.4372618399999997 5.9108689900000000 Na
atom 10.2165318999999997 10.4159527700000005 5.8690431800000002 Cl
atom 15.9224657100000009 13.2668797699999992 5.9143195899999998 Na
atom 18.6033561799999987 13.1928519200000007 5.9432373700000003 Cl
atom 15.8639003899999995 16.0890073800000017 8.4675668599999998 Na
atom 18.6527323500000008 16.0840468600000008 8.6742014500000000 Cl
atom 18.7531053000000014 13.1632999000000002 8.5691299399999998 Na
atom 15.6809412100000003 13.1958553100000007 8.6366765799999996 Cl
atom 18.7943622200000000 15.9903943399999999 6.0570921899999997 Na
atom 15.8850234599999993 16.0609118700000018 5.8521991099999999 Cl
atom 15.8583157499999992 18.8418592899999986 5.8346628799999998 Na
atom 18.7957377500000007 18.7841615600000011 5.8045331500000001 Cl
atom 15.8032496499999997 21.8502626800000002 8.3966014900000001 Na
atom 18.5248881700000005 21.6959175500000008 8.7529555200000004 Cl
atom 18.5745264500000005 18.9571569900000014 8.5368352600000001 Na
atom 15.8152105299999999 19.0405875699999996 8.4335782399999992 Cl
atom 18.6405333400000011 21.6898915899999984 5.9132834100000000 Na
atom 16.0077052299999991 21.8198866199999983 5.7514790099999997 Cl
atom 15.8695910100000006 24.5212943900000013 5.9019206000000004 Na
atom 18.6341120999999994 24.4349517399999989 5.8964963399999997 Cl
atom 15.8323090700000009 27.5424639000000013 8.4185300699999992 Na
atom 18.6208313200000006 27.5511242500000009 8.5529676800000001 Cl
atom 18.6016441199999996 24.6662427999999991 8.6813697600000008 Na
atom 15.7392870800000004 24.6178174799999994 8.8073195500000008 Cl
atom 18.6676127399999991 27.1944576299999987 5.7813463100000000 Na
atom 15.8614534000000003 27.3416222399999995 5.6554625999999999 Cl
atom 15.7706478400000005 30.2127189799999982 5.7421927400000001 Na
atom 18.6812550399999999 30.2738658700000016 5.6274135200000002 Cl
atom 15.8245958099999999 32.9267357399999980 8.4080793000000007 Na
atom 18.7391637799999984 32.8726019100000002 8.6094498399999999 Cl
atom 18.8256333799999993 30.1377688699999986 8.3482614999999996 Na
atom 15.9184484099999999 30.0815380099999992 8.4285100899999996 Cl
atom 18.6959784599999992 32.8585970399999994 5.7855822699999999 Na
atom 15.7612985299999995 33.0845842299999973 5.6079653100000000 Cl
atom 15.9261789700000005 35.6692091199999979 5.7661660699999997 Na
atom 18.7766148999999984 35.6862896199999966 5.6951784300000003 Cl
atom 15.9579700700000000 38.5056374500000018 8.2824832300000004 Na
atom 18.6552988999999982 38.6237846100000013 8.5509593000000006 Cl
atom 18.7299516100000005 35.9896723299999977 8.3339071199999992 Na
atom 15.8721151400000000 35.7112243999999990 8.4994647899999993 Cl
atom 18.7805223400000010 38.6152979100000024 5.6057154899999997 Na