#===============================================================================
# Created using the Atomic Simulation Environment (ASE)

# Tue Dec 23 22:25:55 2025

#=======================================================
lattice_vector 28.1999999999999993 0.0000000000000000 0.0000000000000000 
lattice_vector 0.0000000000000000 39.4799999999999969 0.0000000000000000 
lattice_vector 0.0000000000000000 0.0000000000000000 62.3296083400000001 
atom 7.5060979100000003 14.7684798799999992 -0.1113460500000000 Au
atom 10.2319689900000004 14.8915142800000009 -0.4955021800000000 Au
atom 13.0218952600000009 14.7387625599999996 -0.4543441600000000 Au
atom 15.8637118600000004 14.8980008300000009 -0.4025742200000000 Au
atom 18.6821491000000002 14.8431845399999993 -0.4382432900000000 Au
atom 21.5704972099999992 14.8081951400000005 -0.4281073900000000 Au
atom 24.3964334200000010 14.7432332000000006 -0.1581750700000000 Au
atom 27.1784114300000006 14.7027453900000005 -0.3885531400000000 Au
atom 1.8407565900000000 14.7825648199999993 -0.1388307400000000 Au
atom 4.6551423999999999 14.7558325400000001 -0.1652490800000000 Au
atom 8.8107797699999999 17.3136028400000015 -0.3856265200000000 Au
atom 11.7458107399999996 17.3972070999999993 -0.2061180800000000 Au
atom 14.5462422599999996 17.2810177699999983 -0.1837848600000000 Au
atom 17.3603932800000003 17.3846241200000016 -0.5836337300000000 Au
atom 20.1396039699999996 17.1939321800000009 -0.3219782600000000 Au
atom 22.9245631799999998 17.2541304000000011 -0.3100699700000000 Au
atom 25.7738106299999998 17.2869865099999984 -0.0156858300000000 Au
atom 0.3949794300000000 17.2167212300000010 -0.0670980200000000 Au
atom 3.1476051599999999 17.2690080799999990 -0.2609186900000000 Au
atom 6.0011519900000003 17.1395292899999987 -0.0985172000000000 Au
atom 7.4489778500000003 19.7991568700000009 -0.1506796700000000 Au
atom 10.2531300200000004 19.8369281300000004 -0.3398321800000000 Au
atom 13.0581775400000009 19.8260936500000007 -0.2338761300000000 Au
atom 15.8710740099999992 19.6895317900000002 -0.0634280800000000 Au
atom 18.7054203900000005 19.7106076200000011 -0.3134863400000000 Au
atom 21.5510167499999987 19.7311316300000001 -0.1287727300000000 Au
atom 24.2877408700000004 19.6843126700000006 0.1137571300000000 Au
atom 27.1514594199999983 19.8639950100000000 0.0117673500000000 Au
atom 1.8107120999999999 19.8518595299999987 0.1490407300000000 Au
atom 4.6556548900000001 19.6759183399999991 0.1977136300000000 Au
atom 8.9736944899999997 22.2836050499999985 -0.0357458600000000 Au
atom 11.7343117699999997 22.2449030199999989 -0.0908770200000000 Au
atom 14.4809307100000009 22.2423329000000010 0.0730828200000000 Au
atom 17.2970732200000015 22.1495432600000015 0.0689510000000000 Au
atom 20.1173223999999990 22.2701177000000001 -0.0089463600000000 Au
atom 22.8864452900000011 22.2417576900000000 0.0459340500000000 Au
atom 25.8748191200000015 22.2418313999999988 -0.0059037700000000 Au
atom 0.3675207900000000 22.2167805600000001 -0.1648702700000000 Au
atom 3.2585698900000000 22.2404201899999983 -0.0252589500000000 Au
atom 6.1319866500000000 22.2257528700000009 0.1582480600000000 Au
atom 7.4726866799999998 24.8403368200000010 0.3084223900000000 Au
atom 10.3539387400000003 24.8464088899999993 0.1405922300000000 Au
atom 13.1136594399999993 24.7552067499999993 0.3540297400000000 Au
atom 15.9249310699999995 24.7704549000000007 0.1281657900000000 Au
atom 18.7204421299999986 24.7000205199999989 -0.0383905100000000 Au
atom 21.4610580300000002 24.7475556400000016 -0.1434369000000000 Au
atom 24.3610514299999998 24.5897167699999990 0.0865986300000000 Au
atom 27.2406808500000004 24.6731324699999988 -0.0162262700000000 Au
atom 1.8357445299999999 24.7047462700000011 0.0554490500000000 Au
atom 4.6689831799999997 24.7810517799999985 0.0283376200000000 Au
atom 8.8105090900000000 27.1819900200000006 0.0559462300000000 Au
atom 11.6344127200000003 27.3391087100000014 0.2680752900000000 Au
atom 14.4975947099999996 27.2388236200000016 0.0630910000000000 Au
atom 17.3603071600000014 27.3405534199999991 0.0487343500000000 Au
atom 20.1650323399999998 27.2610039899999990 0.0315801900000000 Au
atom 22.8979493500000011 27.1066226999999991 0.0106899900000000 Au
atom 25.7829366899999997 27.0680343100000016 0.2186360300000000 Au
atom 0.4292350000000000 27.1387198199999986 -0.1867610100000000 Au
atom 3.3016816000000002 27.1948027500000009 0.1647900400000000 Au
atom 6.0389203100000000 27.3195049700000006 0.3265053100000000 Au
atom 7.3482798899999997 29.7465116300000005 0.0051572900000000 Au
atom 10.1126396500000002 29.7119524999999989 -0.0968172600000000 Au
atom 13.0168843400000007 29.7066019600000004 0.0364478900000000 Au
atom 15.8921963200000000 29.7661829400000002 -0.1786465300000000 Au
atom 18.7362822899999983 29.6556762800000016 -0.0274140000000000 Au
atom 21.6163273800000013 29.7104324200000001 -0.0543729400000000 Au
atom 24.3997953800000005 29.5665969299999993 -0.0222836700000000 Au
atom 27.1186806500000017 29.8598641200000010 0.1425083300000000 Au
atom 1.6979945999999999 29.6224102999999985 0.0456388700000000 Au
atom 4.5399733600000003 29.7391802100000007 0.0361454100000000 Au
atom 8.7710852599999996 32.2062954800000014 -0.0110979100000000 Au
atom 11.5803359799999992 32.1694689099999991 -0.2423686700000000 Au
atom 14.4183133899999998 32.1205622000000020 -0.1710823200000000 Au
atom 17.3136593900000015 32.0373021199999997 -0.1905052700000000 Au
atom 20.1211939700000002 32.0387313000000020 -0.2261525000000000 Au
atom 23.0032340099999999 32.1027913599999977 0.1797328800000000 Au
atom 25.7396956699999997 32.0767984399999975 0.1382965600000000 Au
atom 0.2758423200000000 31.9474554700000013 -0.0525359700000000 Au
atom 3.1246330800000002 32.0240376499999968 -0.1035816600000000 Au
atom 5.9482193299999997 32.2134521999999990 -0.4108698500000000 Au
atom 7.3629645300000002 34.6484726699999968 -0.0164282700000000 Au
atom 10.1651669400000007 34.5771155500000020 -0.1568073300000000 Au
atom 13.0390278599999991 34.5858679299999991 -0.1948521900000000 Au
atom 15.8248781300000001 34.5026972200000017 -0.0856396800000000 Au
atom 18.6064533499999989 34.4990209999999990 -0.1558026100000000 Au
atom 21.4544666399999997 34.4175577199999978 0.1698522400000000 Au
atom 24.3822714699999992 34.5485083100000026 -0.0117298600000000 Au
atom 27.1443701699999984 34.5842750400000014 0.5379508000000000 Au
atom 1.6785464200000000 34.7146024600000018 0.2548594700000000 Au
atom 4.5275436899999999 34.5923211100000003 0.0446305000000000 Au
atom 9.0160163099999995 37.0832396500000030 -0.0538465600000000 Au
atom 11.8175480600000000 37.0780001199999987 -0.2544261300000000 Au
atom 14.6326676500000001 37.0310932499999979 -0.0262742200000000 Au
atom 17.2239726500000003 36.8918049999999980 0.1042690200000000 Au
atom 20.1667823999999989 37.0401242200000027 -0.1586862700000000 Au
atom 22.7208154200000010 37.0938564599999978 0.2079977900000000 Au
atom 26.0297183099999998 36.9536133499999977 0.2833027700000000 Au
atom 0.3104536500000000 37.0914305200000030 0.1312068300000000 Au
atom 3.1818824600000002 37.0785670900000000 0.0315521100000000 Au
atom 6.0013478200000003 37.0284405700000008 0.0782372500000000 Au
atom 7.4654870700000000 0.0143588100000000 0.0988754000000000 Au
atom 10.3207576799999998 0.0703534800000000 0.1315810300000000 Au
atom 13.1220731300000004 0.0251243400000000 -0.0459864500000000 Au
atom 15.8663494499999995 0.0355311300000000 0.0133268400000000 Au
atom 18.7957782000000009 -0.0053730900000000 -0.2493706300000000 Au
atom 21.6869631299999988 0.0743976700000000 -0.4741968500000000 Au
atom 24.4359394300000012 0.0231701300000000 0.4393572800000000 Au
atom 27.2443003399999988 0.0084948900000000 -0.1729039800000000 Au
atom 1.6877278600000001 0.0147129200000000 -0.0180326600000000 Au
atom 4.6688511100000003 -0.0559555800000000 0.0594005600000000 Au
atom 8.8441102800000007 2.5349559099999999 0.0727434500000000 Au
atom 11.6562256899999994 2.5344423100000002 0.2128444500000000 Au
atom 14.4552589499999993 2.4405273599999999 0.0503546900000000 Au
atom 17.2885955200000012 2.4408539600000001 0.1020635500000000 Au
atom 20.1537186400000010 2.5118636799999998 0.0896307100000000 Au
atom 22.9428738800000005 2.4078352900000000 0.1138673700000000 Au
atom 25.7734485699999993 2.4210089199999998 0.2394281400000000 Au
atom 0.4533778600000000 2.4164918700000002 -0.0199663000000000 Au
atom 3.2774019900000000 2.5501886900000001 -0.2829408900000000 Au
atom 6.0190755700000000 2.5402356099999999 -0.0135166400000000 Au
atom 7.5745408200000002 5.0735771600000001 0.0959981300000000 Au
atom 10.2853966200000002 5.0164764999999996 0.1012154000000000 Au
atom 13.0775445700000006 4.9831071500000004 0.0870423800000000 Au
atom 15.8106177700000003 5.0105525399999999 -0.0975171800000000 Au
atom 18.6699358999999987 4.9092609899999999 0.0236640600000000 Au
atom 21.5632047299999989 4.8829730800000002 0.1812988500000000 Au
atom 24.4012291400000016 4.9496948800000000 -0.0527458500000000 Au
atom 27.1856828899999989 4.9850069299999999 0.2950436400000000 Au
atom 1.8240414300000001 5.0236951400000001 0.0397991200000000 Au
atom 4.6653650200000003 5.1363503599999998 0.0506141500000000 Au
atom 8.9431660799999992 7.5195749999999997 0.2421711900000000 Au
atom 11.7629363100000006 7.3598004200000000 -0.3118318100000000 Au
atom 14.5687566200000003 7.5104811600000003 -0.1854344200000000 Au
atom 17.3229806199999992 7.4857970299999996 -0.0595098700000000 Au
atom 20.1238122299999986 7.3414670299999996 -0.1516567300000000 Au
atom 22.9062735300000000 7.2648694999999996 -0.0995872500000000 Au
atom 25.7379860600000008 7.3088752899999996 -0.0650091500000000 Au
atom 0.3414957700000000 7.3868657100000004 -0.1828225700000000 Au
atom 3.1683606499999999 7.3747921099999996 -0.1578914100000000 Au
atom 6.1220101099999997 7.4291802300000001 -0.1021517400000000 Au
atom 7.3309721100000003 9.8543307700000007 -0.0251833300000000 Au
atom 10.2310352899999994 9.8171428600000006 -0.0500742600000000 Au
atom 13.1019144799999996 9.9380211599999999 -0.0241583800000000 Au
atom 15.9770537899999994 9.9859476899999997 0.0629769400000000 Au
atom 18.7254656600000011 9.9091142500000000 0.0290352800000000 Au
atom 21.5407314599999999 9.8176327099999998 -0.3313709300000000 Au
atom 24.3404453899999993 9.8507273600000005 -0.0150145700000000 Au
atom 27.1316777800000004 9.7416131799999999 -0.2910849900000000 Au
atom 1.7673381699999999 9.8327069599999994 -0.0879761800000000 Au
atom 4.6040164600000004 9.9411370899999998 -0.0472264100000000 Au
atom 8.8085080900000001 12.2278061099999995 -0.4188801500000000 Au
atom 11.6992611100000001 12.2378717300000002 -0.4049547700000000 Au
atom 14.5124829099999992 12.3001930700000006 -0.3262704800000000 Au
atom 17.3679128600000006 12.4202841900000003 -0.1660912000000000 Au
atom 20.1513675899999996 12.4397441600000001 -0.2786766000000000 Au
atom 22.9894175999999995 12.3588901000000000 -0.3213983600000000 Au
atom 25.8189812900000000 12.2461287100000007 -0.3654112700000000 Au
atom 0.3630443600000000 12.3168834399999998 0.0945086600000000 Au
atom 3.2007731000000001 12.3537003999999992 -0.0665904200000000 Au
atom 6.0274982100000001 12.3462710599999994 -0.1692136400000000 Au
atom 7.5154568599999996 13.1010008300000003 2.4526120300000001 Au
atom 10.2432109400000009 13.2131709900000001 1.9464649800000000 Au
atom 13.0616391299999997 13.2037208800000005 2.1910940100000000 Au
atom 16.0086246900000013 13.2063924799999999 2.2392259000000001 Au
atom 18.8100265899999997 13.2723911700000006 2.3456238599999999 Au
atom 21.5644604800000010 13.3301621099999998 2.4074307799999999 Au
atom 24.4221056999999995 13.1990798700000003 2.2302802300000000 Au
atom 27.2293372799999993 13.4562320599999996 2.5579485900000001 Au
atom 1.8542111400000001 13.2406292600000004 2.7013518900000002 Au
atom 4.6329655900000004 13.1936867000000007 2.4103106900000002 Au
atom 8.9790207300000002 15.7124529000000006 2.2935541700000002 Au
atom 11.7080180600000006 15.7050191399999992 2.1132051700000001 Au
atom 14.4636337800000003 15.5901775399999991 2.2007078299999998 Au
atom 17.3227703200000001 15.7532639999999997 2.0010469899999999 Au
atom 20.1399425200000017 15.7302525699999993 2.3062149299999999 Au
atom 22.9265321600000007 15.6542653299999994 2.2181025600000002 Au
atom 25.7336050299999997 15.6402197699999999 2.6729200700000000 Au
atom 0.4159927900000000 15.6328612800000002 2.3918317199999999 Au
atom 3.2544654199999998 15.7210498500000000 2.2632079100000002 Au
atom 6.1348418200000001 15.5622415800000002 2.6381037500000000 Au
atom 7.3751487500000001 18.0957511000000011 2.2699939699999998 Au
atom 10.2137331699999994 18.1095080899999985 2.3174762000000002 Au
atom 13.0629976899999996 18.1098527900000015 2.4719190499999999 Au
atom 15.9517202699999991 18.0724086100000001 2.4365609899999998 Au
atom 18.7756911700000018 18.1800119199999983 2.1806409499999999 Au
atom 21.5515758599999998 18.1269112999999997 2.3061177700000002 Au
atom 24.3245172099999998 18.1261339499999998 2.6632614399999999 Au
atom 27.1317807400000000 18.1818961899999998 2.4402004300000000 Au
atom 1.7496831799999999 18.1009990800000011 2.6314409599999999 Au
atom 4.6008728100000003 18.1016738900000007 2.6661153299999998 Au
atom 8.7853892699999996 20.6228423499999991 2.4211907099999999 Au
atom 11.5606715599999994 20.5433792500000010 2.4213987200000000 Au
atom 14.3981938599999992 20.5802195099999992 2.3974645899999998 Au
atom 17.3474699299999990 20.5260411900000008 2.5286137000000002 Au
atom 20.0905273000000015 20.5884342400000016 2.4889787999999999 Au
atom 22.9264263499999998 20.5903976399999991 2.5478343400000001 Au
atom 25.7540323499999992 20.6193994200000006 2.6287558700000000 Au
atom 0.4103288700000000 20.5596762300000009 2.5370195199999999 Au
atom 3.2826403900000001 20.6001491399999992 2.6809947200000002 Au
atom 6.1220619300000001 20.4827775400000007 2.6582050700000002 Au
atom 7.3597785299999998 23.1864594900000007 2.8231053699999999 Au
atom 10.1834786000000008 23.1574142099999989 2.5798971399999999 Au
atom 12.9591564100000003 23.0802059799999988 2.6533644500000002 Au
atom 15.9408022599999999 23.0882839400000002 2.5133139500000001 Au
atom 18.7467495799999995 22.8887803800000000 2.6931184400000001 Au
atom 21.5007529700000006 23.0246870600000015 2.5623823200000002 Au
atom 24.3885661200000001 23.0724927499999986 2.6726083100000002 Au
atom 27.1671934399999984 23.1824080499999994 2.4536671000000001 Au
atom 1.8032122500000001 23.0196427800000016 2.5210902599999998 Au
atom 4.6348567799999998 22.9672957099999984 2.7317272199999998 Au
atom 8.8209508799999998 25.5773335400000015 2.9326841699999999 Au
atom 11.6622226799999993 25.5752692000000010 2.7189033399999998 Au
atom 14.4898406099999999 25.6048940400000014 2.7666992600000002 Au
atom 17.3213168000000017 25.5437944600000009 2.5057507600000002 Au
atom 20.0783980200000016 25.5409724400000009 2.6083800899999998 Au
atom 22.9726078300000012 25.4713990099999990 2.7546726700000002 Au
atom 25.8515559999999986 25.6246294200000015 2.5404854200000000 Au
atom 0.4510509800000000 25.4997006900000009 2.7767905499999999 Au
atom 3.2422948699999998 25.5621176400000003 2.8930534400000001 Au
atom 6.0194576700000004 25.5897014100000000 2.8841047400000002 Au
atom 7.4224398799999998 28.0597232599999984 2.8699025200000001 Au
atom 10.1649647000000005 28.1187546499999996 2.6705744600000001 Au
atom 12.9845953000000005 28.0610400499999990 2.7501263100000002 Au
atom 15.8483806099999995 28.1032699400000006 2.5412108999999998 Au
atom 18.7147686299999982 28.0188960000000016 2.6710904400000000 Au
atom 21.4853739899999994 27.9664398299999988 2.5942463400000002 Au
atom 24.3139496000000008 27.9475184699999986 2.5926064800000002 Au
atom 27.2305538399999989 28.1341922000000011 2.8905909500000000 Au
atom 1.8886270000000001 28.0813214000000002 2.5462853100000000 Au
atom 4.6434513500000003 28.0865006800000003 2.8260774999999998 Au
atom 8.8256930400000009 30.5883687500000008 2.5568875400000000 Au
atom 11.6318155599999997 30.5244301100000008 2.6118886200000002 Au
atom 14.3860951700000008 30.4542659200000010 2.4842372199999998 Au
atom 17.3374393100000006 30.6233840800000010 2.5250181600000001 Au
atom 20.1407324800000005 30.4630085299999998 2.4751376299999999 Au
atom 22.9964552900000001 30.3820715099999994 2.6201364300000001 Au
atom 25.7445201300000015 30.5169674499999992 2.7711526700000002 Au
atom 0.3918324200000000 30.4026386700000018 2.7284939900000000 Au
atom 3.1247124700000000 30.6215503799999986 2.7412233200000000 Au
atom 5.9559027300000000 30.5656555499999989 2.4352638400000002 Au
atom 7.4691455600000003 33.0046347800000035 2.5430431100000002 Au
atom 10.4275627400000008 32.9569341899999984 2.4538120000000001 Au
atom 13.1297737199999993 32.9744245999999990 2.3947444899999999 Au
atom 15.9087709999999998 32.9753559500000009 2.3324001100000000 Au
atom 18.7254095099999986 32.9691710299999983 2.4020319400000001 Au
atom 21.5172411900000000 32.8965698800000013 2.7827023400000002 Au
atom 24.3523477799999988 32.9399099000000035 2.6622249199999999 Au
atom 27.1232963399999996 32.8774955900000023 3.0213053900000002 Au
atom 1.7411351900000001 32.9620315800000014 2.6950531899999999 Au
atom 4.6039819399999997 33.0035901299999992 2.4256237500000002 Au
atom 9.0139474199999992 35.4591842099999965 2.6519329400000000 Au
atom 11.8017916599999992 35.4905228499999978 2.2444798700000002 Au
atom 14.5459507800000001 35.4749864799999983 2.6218540300000002 Au
atom 17.4008903199999985 35.3981903099999968 2.5170068600000000 Au
atom 20.1408836600000001 35.3938553600000034 2.4778931599999998 Au
atom 22.9875355299999988 35.3477952000000002 2.5788271900000002 Au
atom 25.7027303300000014 35.4351549499999976 2.9396116999999999 Au
atom 0.2827451500000000 35.4899941400000003 2.5269066699999998 Au
atom 3.2364667599999999 35.3790290100000036 2.6818951900000001 Au
atom 6.1191244800000000 35.3695739400000022 2.6553306999999999 Au
atom 7.3700499600000002 37.9405897600000017 2.6085735699999999 Au
atom 10.2159938100000005 37.8763032000000024 2.7204337999999999 Au
atom 13.0111106799999998 37.7922086900000025 2.6065153200000002 Au
atom 15.8914986999999996 37.8645096400000014 2.9209757100000000 Au
atom 18.7726696199999985 37.8997085999999967 2.6066412900000002 Au
atom 21.6980346699999984 37.9511754500000009 2.6498505899999998 Au
atom 24.2420436200000005 37.9350677700000034 2.9904437300000000 Au
atom 27.1171979999999984 38.2769996700000021 2.6487287600000000 Au
atom 1.7008606600000000 37.9545412100000021 2.7807519799999998 Au
atom 4.5362055300000002 37.8433258100000032 2.6689878800000000 Au
atom 8.9237035799999997 0.8707724700000000 2.6785962300000001 Au
atom 11.5659184300000000 0.8282058700000000 2.8948841000000001 Au
atom 14.6587272800000008 0.8264376600000000 2.7021465899999999 Au
atom 17.2989242099999991 0.8845442200000000 2.5241224400000002 Au
atom 20.1735669900000012 0.8270051200000000 2.8083260499999998 Au
atom 22.9470119399999994 0.9134624300000000 2.9009779400000002 Au
atom 25.7895225199999985 0.9901452300000000 2.9599959400000002 Au
atom 0.4676543400000000 0.8214005100000000 2.6331914799999998 Au
atom 3.1173354600000001 0.7777168200000000 2.4037435800000000 Au
atom 6.0994358499999999 0.8506412800000001 2.6997349000000002 Au
atom 7.5319607800000004 3.3812251199999999 2.6038251300000002 Au
atom 10.3084606799999996 3.2395492600000000 2.7882366300000001 Au
atom 13.0460264400000003 3.3497390399999998 2.7959869700000000 Au
atom 15.8757910500000001 3.4012670599999999 2.6131658099999999 Au
atom 18.7221936199999988 3.4770477400000002 2.6289362500000002 Au
atom 21.5723678399999983 3.3669317599999999 2.7881210799999998 Au
atom 24.2996986600000007 3.4109139200000000 2.6888725899999999 Au
atom 27.2303044099999987 3.4830931399999998 2.9203844200000000 Au
atom 1.8409636300000001 3.4339626200000000 2.5435386900000001 Au
atom 4.6598859800000003 3.2271565600000001 2.5116540000000001 Au
atom 8.9984328999999992 5.9408645199999999 2.7990986800000002 Au
atom 11.7743894299999994 5.8317509899999997 2.6940843499999998 Au
atom 14.5898385400000006 5.8196243299999999 2.8031679600000001 Au
atom 17.1726439000000006 5.8726453200000002 2.5310232099999999 Au
atom 20.0247785600000014 5.8518446900000001 2.5961783800000000 Au
atom 22.9024743999999991 5.8089185499999996 2.6311457900000002 Au
atom 25.7038397600000010 5.8865049699999998 2.6479341399999998 Au
atom 0.4267639600000000 5.8817943699999997 2.8754496299999999 Au
atom 3.2047148900000000 5.7736715500000004 2.5828348700000001 Au
atom 6.0909899200000002 5.6731174600000003 2.6984553999999998 Au
atom 7.5437288899999997 8.2723014799999994 2.7733234900000001 Au
atom 10.3485313699999999 8.3180922200000005 2.8653755200000002 Au
atom 12.9152185500000005 8.3053152499999996 2.4353424399999999 Au
atom 15.7472825400000005 8.2592291400000004 2.4857824300000000 Au
atom 18.7635362900000011 8.3190784999999998 2.6765782900000001 Au
atom 21.5319109100000006 8.3476301199999998 2.3488816099999998 Au
atom 24.3022285899999986 8.3087881800000005 2.5830364499999998 Au
atom 27.1352899000000001 8.2478763500000003 2.2731508599999999 Au
atom 1.8027560800000000 8.3208691100000003 2.4422690899999999 Au
atom 4.6055129900000003 8.1550509499999997 2.3958266799999999 Au
atom 8.8346652700000003 10.7240359699999992 2.5470062599999999 Au
atom 11.7058514299999992 10.8381187800000003 2.4720000600000001 Au
atom 14.4928596899999995 10.7675011200000004 2.4627055499999999 Au
atom 17.3149915099999987 10.7617463799999999 2.6725295600000001 Au
atom 20.1752765499999995 10.8721376700000008 2.5055576600000000 Au
atom 22.8923339199999987 10.8529724699999992 2.2682031500000002 Au
atom 25.7578983199999989 10.7712698699999994 2.3005706699999999 Au
atom 0.3710019200000000 10.7734959200000002 2.5744720499999998 Au
atom 3.1494469899999999 10.6847884999999998 2.6071471900000001 Au
atom 5.9209249699999997 10.6475472300000007 2.6665340700000000 Au
atom 7.9968321199999997 12.9718016400000007 5.6282655500000001 Cl
atom 7.9063840699999997 15.8085223399999997 8.4829056000000005 Cl
atom 7.9283469999999996 12.9930095800000007 8.5281917000000007 Na
atom 7.8763347100000001 15.7879167299999992 5.4721299900000000 Na
atom 7.9112295799999997 18.9122670600000014 5.6423287000000002 Cl
atom 8.1129781199999993 21.4847654000000006 8.6285910599999998 Cl
atom 8.0383943099999993 18.4672265200000005 8.3103781399999992 Na
atom 7.9049487899999997 21.4687528100000016 5.8177152899999998 Na
atom 7.7912594799999999 24.3042475399999987 5.7166602800000001 Cl
atom 7.9607113600000003 26.9284296699999999 8.7218722000000000 Cl
atom 7.9679988200000000 24.2186891399999986 8.3881910899999994 Na
atom 7.8779928500000000 26.8456192999999992 5.9051080999999996 Na
atom 8.0407314999999997 29.4988597699999993 5.6915690899999998 Cl
atom 7.9382079100000000 32.7061249200000006 8.3403395000000007 Cl
atom 7.9854938600000001 29.8731769500000013 8.3958678700000000 Na
atom 8.0388413900000000 32.5438452799999993 5.7015646499999999 Na
atom 8.0625771999999998 35.4258114200000023 5.4337107099999997 Cl
atom 7.7633447400000000 38.0909766300000001 8.2788289600000002 Cl
atom 7.9014769800000000 35.3786443199999994 8.1488022800000000 Na
atom 7.8946409900000001 38.3451014999999984 5.6763211699999996 Na
atom 7.8938143900000002 1.5673320100000001 5.6024055199999996 Cl
atom 7.7542397200000002 4.5629999899999998 8.4373446199999993 Cl
atom 7.8326026000000004 1.6705807600000000 8.1218932400000003 Na
atom 7.9094199400000003 4.4172369800000002 5.6800853900000003 Na
atom 7.8826905299999996 7.1850461900000004 5.5778805499999997 Cl
atom 7.8341288999999996 10.0078323400000002 8.1009219100000003 Cl
atom 7.9788522799999999 7.3956779199999998 8.2243987599999997 Na
atom 7.9716039199999997 10.0895817500000007 5.6148337000000001 Na
atom 10.7661611399999995 13.0705125899999999 5.5400077799999998 Na
atom 13.7179791400000006 13.0838113800000002 5.2755601399999996 Cl
atom 10.8665590299999995 15.8740523600000003 7.9077993900000001 Na
atom 13.8282363700000008 16.0981375000000000 8.1030339199999997 Cl
atom 13.6192640199999992 13.0895682099999995 7.9807416900000003 Na
atom 11.0519558000000000 13.2800549500000002 8.1338233500000001 Cl
atom 13.5343300899999992 15.7181754700000003 5.3181194600000001 Na
atom 10.8398824299999994 15.7635196799999999 5.3871818300000003 Cl
atom 10.7559490300000000 18.4369146499999985 5.5027604200000004 Na
atom 13.5181009000000003 18.8107499000000011 5.3602966900000002 Cl
atom 10.6477766700000007 21.2731957200000004 8.0969366899999997 Na
atom 13.4813388300000003 21.4952887299999986 8.2105668499999993 Cl
atom 13.5428533000000009 18.8153048799999993 7.9452385400000001 Na
atom 10.6395121699999997 18.6305220899999995 8.0748381699999996 Cl
atom 13.5744616100000002 21.6785828800000004 5.4287905500000004 Na
atom 10.7024084899999998 21.6294657800000003 5.5001162900000002 Cl
atom 10.8136567800000005 24.2960509900000012 5.7793444599999999 Na
atom 13.7549924299999997 24.3590205200000014 5.5510226200000004 Cl
atom 10.6887555899999995 26.9933915999999989 8.3117950700000005 Na
atom 13.4023453099999994 27.0526408700000012 8.5912996400000008 Cl
atom 13.6753792999999995 24.3381253000000015 8.1399722499999996 Na
atom 10.7567082000000003 24.2527207300000001 8.3382070899999992 Cl
atom 13.7092075999999992 27.0969501599999987 5.6511465000000003 Na
atom 10.7220626200000009 26.8565787600000014 5.6939107000000000 Cl
atom 10.7685346899999992 29.7452625700000013 5.6874533100000004 Na
atom 13.5918894699999999 29.7472753999999995 5.6058466400000002 Cl
atom 10.7708911500000006 32.6458538199999992 8.2092461100000005 Na
atom 13.5074548599999993 32.9105301600000004 8.5255961700000000 Cl
atom 13.5629768300000002 29.9385978900000005 8.1717694999999999 Na
atom 10.6937275700000001 29.9999308099999986 8.5265973499999994 Cl
atom 13.6438706100000005 32.7701840200000021 5.7407307599999999 Na
atom 10.9240448299999997 32.6566160400000030 5.6658060199999998 Cl
atom 10.7720029799999999 35.4749844199999984 5.7055009300000004 Na
atom 13.4013922799999996 35.6453199299999994 5.7705162600000000 Cl
atom 10.6147877000000008 38.4467695000000020 8.3310537500000006 Na
atom 13.2581450499999995 38.3532401699999994 8.4902457899999995 Cl
atom 13.4492970399999994 35.6127824900000007 8.3941995600000006 Na
atom 10.6092919299999995 35.4235497800000019 8.5651921099999999 Cl
atom 13.5307246600000006 38.3129811299999972 5.7992262700000001 Na
atom 10.7673914899999996 38.3956809499999991 5.1813117300000000 Cl
atom 10.8572601300000002 1.7871764500000000 5.6085326999999996 Na
atom 13.6346170400000002 1.8904045599999999 5.6261038000000001 Cl
atom 10.5235486399999996 4.5631244200000003 8.4064148400000001 Na
atom 13.6786944600000009 4.6205184099999999 8.5948259999999994 Cl
atom 13.5565679400000008 1.8825271699999999 8.3440750000000001 Na
atom 10.7007100800000003 1.6321376400000001 8.3899461500000001 Cl
atom 13.6166637900000005 4.7667460200000003 5.9138177199999999 Na
atom 10.9115115599999992 4.6448460999999996 5.8743467400000000 Cl
atom 10.6963287299999994 7.3515582200000003 5.7308925799999999 Na
atom 13.6866294400000008 7.4531050900000002 6.1071807900000001 Cl
atom 10.7719306800000005 10.2379755499999998 8.5388966300000000 Na
atom 13.7044454600000005 10.4346336300000004 8.4377454299999997 Cl
atom 13.5477976899999994 7.4409253599999996 8.5427539199999991 Na
atom 10.8460709699999995 7.3620158900000003 8.6151280499999991 Cl
atom 13.5572959500000003 10.2304443200000001 5.6668523600000000 Na
atom 10.7525561799999991 10.1546631000000005 5.6880375699999997 Cl
atom 16.4162467700000008 13.1764661800000003 5.5386321199999999 Na
atom 19.0918234899999995 13.2036734500000001 5.5378361800000002 Cl
atom 16.3940960199999992 15.8276121100000005 7.9299965300000004 Na
atom 19.2431145599999986 16.0721017199999991 8.2252667600000002 Cl
atom 19.2802077099999991 13.3210484400000002 8.0959434899999998 Na
atom 16.5435790599999990 13.1116932500000001 8.3340571400000005 Cl
atom 19.1053392100000003 15.9489867899999993 5.5597449699999997 Na
atom 16.4005713100000001 15.9828147600000001 5.2614577499999999 Cl
atom 16.3366554099999988 18.7991837500000010 5.5279765999999997 Na
atom 19.2477935600000016 18.6561947600000018 5.3939832399999998 Cl
atom 16.2695675400000006 21.4664550299999988 8.2637020499999991 Na
atom 19.2354244200000011 21.6211257100000012 8.4722028700000003 Cl
atom 19.2863219900000011 18.8707953000000010 8.1626523300000002 Na
atom 16.4593765599999990 18.7323373199999992 8.3264771199999998 Cl
atom 19.0421497500000001 21.6219669600000017 5.5663454000000003 Na
atom 16.2961613000000014 21.6050907899999984 5.3440094900000004 Cl
atom 16.4072889800000006 24.3273455399999996 5.7471710700000003 Na
atom 19.2662886299999982 24.3820999299999990 5.6511344000000001 Cl
atom 16.2736854899999983 27.1489618600000000 8.3485328299999999 Na
atom 19.2373872800000001 27.3272940599999998 8.6409284700000004 Cl
atom 19.3092969100000005 24.4146883499999987 8.2051963499999996 Na
atom 16.3614377500000003 24.3517654499999985 8.6062970199999995 Cl
atom 19.3235934900000004 27.4058899700000005 5.9624759400000000 Na
atom 16.5337987499999990 27.1611966600000017 5.8001220800000004 Cl
atom 16.3173921399999990 30.0167657000000005 5.7608981000000004 Na
atom 19.1889887399999992 29.9824017299999994 5.5695041200000004 Cl
atom 16.3122366099999994 32.7960832099999990 8.2178291399999992 Na
atom 19.2017974199999983 32.8345402799999988 8.5781987999999991 Cl
atom 19.2454489100000004 30.2185097399999982 8.2846005500000004 Na
atom 16.3808485499999996 30.0871236199999998 8.5261196199999993 Cl
atom 19.1104548899999998 32.6819466800000029 5.7203402700000003 Na
atom 16.3062024200000018 32.7569312400000001 5.5748526600000003 Cl
atom 16.4638883400000005 35.6099641200000008 5.7328030700000001 Na
atom 19.1607993699999994 35.4402016700000004 5.6265934599999996 Cl
atom 16.1245060600000016 38.3602066099999988 8.3476897500000007 Na
atom 19.0138263599999995 38.2175618899999989 8.5929090400000003 Cl
atom 19.0816436500000002 35.5194194999999979 8.3716744399999996 Na
atom 16.2860469099999996 35.4735140599999994 8.4036089799999996 Cl
atom 19.0940476399999994 38.5541487300000014 5.9701017700000003 Na