#===============================================================================
# Created using the Atomic Simulation Environment (ASE)

# Tue Dec 23 21:43:00 2025

#=======================================================
lattice_vector 28.1999999999999993 0.0000000000000000 0.0000000000000000 
lattice_vector 0.0000000000000000 39.4799999999999969 0.0000000000000000 
lattice_vector 0.0000000000000000 0.0000000000000000 62.3296083400000001 
atom 7.4433805399999997 14.7792605699999999 0.0645169200000000 Au
atom 10.1974855099999999 14.7698919199999992 -0.0881949100000000 Au
atom 13.0173982899999992 14.9146140400000000 -0.3094178100000000 Au
atom 15.8788877399999997 14.7051985100000007 -0.2142583200000000 Au
atom 18.7343979199999993 14.7669505900000004 -0.2961116100000000 Au
atom 21.5887296999999982 14.7761315199999999 -0.1866368200000000 Au
atom 24.3863544700000006 14.7916633199999996 -0.0461217500000000 Au
atom 27.1592302799999992 14.8153547799999998 -0.1433614100000000 Au
atom 1.8790461599999999 14.7203308300000000 -0.1474391000000000 Au
atom 4.6701864700000000 14.7457660300000004 -0.0662175000000000 Au
atom 8.8969600999999994 17.2912099300000008 0.1393162600000000 Au
atom 11.7093472500000004 17.3343275299999995 -0.1752695100000000 Au
atom 14.5923860500000000 17.2440686099999994 -0.1518142600000000 Au
atom 17.3943439300000016 17.2471907900000012 -0.3094743100000000 Au
atom 20.1354172300000016 17.2211190099999989 -0.3442484200000000 Au
atom 23.0101027900000012 17.2143832799999998 -0.2804722800000000 Au
atom 25.7900516499999988 17.2626095699999986 -0.1416775700000000 Au
atom 0.4072645000000000 17.2276249700000008 -0.0982045600000000 Au
atom 3.1961477700000001 17.2060282899999990 0.1386055500000000 Au
atom 6.0782251799999996 17.2073987300000013 0.2183760700000000 Au
atom 7.5218814700000003 19.7003904600000013 0.0317267400000000 Au
atom 10.2940886099999993 19.7273364200000003 0.1692420900000000 Au
atom 13.1444656799999997 19.8022125799999991 -0.1337364500000000 Au
atom 16.0069159600000006 19.7825997399999984 -0.1027219700000000 Au
atom 18.7355014199999985 19.7078978000000014 -0.1635519600000000 Au
atom 21.5532135700000005 19.6450902800000016 -0.3199893300000000 Au
atom 24.3745238499999992 19.7079497600000018 0.0597442600000000 Au
atom 27.2596206400000014 19.7956874200000001 0.0988696000000000 Au
atom 1.8513142899999999 19.7238944300000014 0.1257978900000000 Au
atom 4.6298041699999999 19.6678054099999997 -0.0312991200000000 Au
atom 9.0074245299999998 22.1566780200000011 0.3170031900000000 Au
atom 11.7272976300000007 22.2050911100000015 -0.0400684700000000 Au
atom 14.5074106999999994 22.2440658199999994 -0.2794985700000000 Au
atom 17.3897815999999992 22.1950745500000011 -0.1972582100000000 Au
atom 20.1721744799999989 22.1130260700000001 -0.1622592700000000 Au
atom 23.0824961399999999 22.1306497799999988 -0.0132911500000000 Au
atom 25.9325238099999993 22.2584911000000005 -0.0526650000000000 Au
atom 0.5835356300000000 22.1434716800000011 0.2455556300000000 Au
atom 3.3117955700000001 22.1800332000000004 -0.0858015400000000 Au
atom 6.1130313999999997 22.1427589500000011 -0.0018181700000000 Au
atom 7.5866647100000000 24.6329935000000013 0.2312724900000000 Au
atom 10.3475283299999994 24.6777306400000001 0.2609997100000000 Au
atom 13.1485667399999997 24.6669709700000013 -0.1316779700000000 Au
atom 16.0356692099999982 24.6018253099999988 -0.1557082800000000 Au
atom 18.8695850800000002 24.6853273800000004 0.0279504900000000 Au
atom 21.7429262899999998 24.6533520700000004 -0.0240723700000000 Au
atom 24.4656437900000014 24.6974008299999994 -0.0089861100000000 Au
atom 27.2616285299999994 24.6782237400000000 0.2875085100000000 Au
atom 1.8984749400000001 24.6360397800000008 0.2015887600000000 Au
atom 4.7892270600000000 24.6203130799999990 -0.0293007200000000 Au
atom 8.9872330399999996 27.0051535999999999 0.1532482100000000 Au
atom 11.7565321800000007 27.1679518999999985 0.1248892500000000 Au
atom 14.5697728299999998 27.0863955999999995 -0.0863291500000000 Au
atom 17.4150263400000007 27.1372838499999993 -0.2301835400000000 Au
atom 20.3186605100000008 27.1645500599999998 -0.2096271900000000 Au
atom 23.1684114600000015 27.1488461100000009 -0.2961130600000000 Au
atom 25.9008551400000009 27.0579909100000009 -0.0198456300000000 Au
atom 0.5386064400000000 27.0808310399999996 0.1767351300000000 Au
atom 3.4181005500000001 27.0342031799999987 0.0694879300000000 Au
atom 6.1905221700000004 27.0676581499999998 0.1431318600000000 Au
atom 7.5922524400000002 29.4738158400000003 -0.0449344600000000 Au
atom 10.4234754600000006 29.5696138300000015 -0.0458032400000000 Au
atom 13.1689275000000006 29.5787161300000001 -0.0970197100000000 Au
atom 15.9399232899999994 29.5214714899999997 -0.1595594300000000 Au
atom 18.9090681899999993 29.6174990700000009 -0.1695872800000000 Au
atom 21.6875290099999987 29.6605790399999982 -0.5228678500000000 Au
atom 24.5404624300000016 29.5726361500000010 -0.0444527100000000 Au
atom 27.3254959200000016 29.5514343599999982 0.1439930900000000 Au
atom 2.0085672600000000 29.5394658700000008 -0.1168071700000000 Au
atom 4.7489643399999997 29.5489221200000003 -0.0239593100000000 Au
atom 9.0378849799999994 32.1185730199999995 0.1190621100000000 Au
atom 11.7689763500000009 32.0892308600000007 0.0080921600000000 Au
atom 14.6104101499999999 32.0266117800000032 -0.0529427800000000 Au
atom 17.4515740199999989 32.0032881300000014 -0.1548138300000000 Au
atom 20.3212865899999997 32.1494893599999969 -0.1671278200000000 Au
atom 23.0834814199999983 32.1473169499999969 -0.1909312600000000 Au
atom 25.9922909299999993 31.9521217399999991 0.0546072600000000 Au
atom 0.6179859900000000 31.9644032500000002 0.0512593600000000 Au
atom 3.4018868200000001 31.9636856400000013 0.0771905500000000 Au
atom 6.1550598900000004 32.0176038800000029 0.2420710200000000 Au
atom 7.5621387000000002 34.5203493799999990 0.0272318400000000 Au
atom 10.3992430200000001 34.5175387900000032 -0.0230846400000000 Au
atom 13.2275673999999999 34.5514808599999981 -0.1385794200000000 Au
atom 15.9734984099999995 34.4739751899999973 -0.1063250700000000 Au
atom 18.8425327200000012 34.5730000399999966 -0.2917938800000000 Au
atom 21.7264647699999998 34.5882434199999977 -0.1011019100000000 Au
atom 24.5702768999999996 34.5652532300000033 -0.3468913900000000 Au
atom 27.3425038100000002 34.6134853499999977 -0.0391548300000000 Au
atom 1.9641840200000000 34.4974278299999995 -0.0489147700000000 Au
atom 4.8205398199999996 34.4562238800000031 -0.0830737200000000 Au
atom 8.9183318499999995 36.9804978000000020 0.0911441700000000 Au
atom 11.7413716699999995 37.0549039300000018 0.3003352700000000 Au
atom 14.5205798099999992 37.0301205900000028 -0.1121432200000000 Au
atom 17.3862339500000012 37.0207595299999994 -0.1631673300000000 Au
atom 20.1766675800000002 37.0254731599999971 -0.2067475900000000 Au
atom 23.0714173699999989 36.9898187000000007 -0.2022632700000000 Au
atom 25.9029774400000008 37.0497327200000015 -0.0778352900000000 Au
atom 0.6144250300000000 37.0174444499999993 0.1982643500000000 Au
atom 3.3482188700000002 36.9368791699999974 -0.0921544100000000 Au
atom 6.0499626099999997 36.9408716299999966 0.3114028400000000 Au
atom 7.4903433899999996 -0.1634826400000000 0.2700978100000000 Au
atom 10.2603652299999997 -0.0898759800000000 0.4713222500000000 Au
atom 13.1023356999999994 -0.0240631100000000 0.1294239100000000 Au
atom 15.9080987900000004 -0.0333677900000000 -0.1835607500000000 Au
atom 18.7601731899999997 -0.0338077200000000 -0.1904080800000000 Au
atom 21.6879748100000000 -0.0176544500000000 0.0110231800000000 Au
atom 24.4468338400000000 -0.0743636600000000 0.1939098200000000 Au
atom 27.1999085399999991 -0.0450413900000000 0.1559433600000000 Au
atom 1.9132856800000000 -0.0172898000000000 0.2520333900000000 Au
atom 4.6620172100000001 -0.0034988300000000 0.3480908100000000 Au
atom 8.9617944699999992 2.3473343400000002 0.3436638700000000 Au
atom 11.7299574999999994 2.3402439799999999 0.1890008600000000 Au
atom 14.5575282000000001 2.4548813799999998 -0.0163616200000000 Au
atom 17.4343816099999991 2.4974869000000002 0.1001550200000000 Au
atom 20.1743652699999991 2.5652647100000001 0.0193173200000000 Au
atom 22.9294054199999984 2.5388421700000001 0.1843164700000000 Au
atom 25.7059054399999987 2.3983258900000002 0.3627392200000000 Au
atom 0.3807878400000000 2.3801491800000001 0.1221981700000000 Au
atom 3.2090614000000000 2.4563300899999998 0.2447744000000000 Au
atom 6.1610257900000001 2.3591635599999998 0.5020993300000000 Au
atom 7.5781690800000003 4.7634021000000004 0.2937823600000000 Au
atom 10.3090630500000007 4.9073363499999996 0.1539384900000000 Au
atom 13.0920169400000006 4.8276679700000003 0.2299437300000000 Au
atom 15.8821638699999994 5.0051741900000000 0.0451147500000000 Au
atom 18.6403160800000016 5.0194499600000002 0.1856344100000000 Au
atom 21.3809879999999986 4.9989706900000002 0.1381668000000000 Au
atom 24.2066942199999993 4.8875793500000002 0.2830328500000000 Au
atom 27.0846841500000011 4.8646092500000000 0.3209597400000000 Au
atom 1.7562913899999999 4.9562161099999997 0.2554728900000000 Au
atom 4.6141360300000001 4.9407645899999997 0.2617595100000000 Au
atom 8.9039704000000004 7.3903521599999999 -0.0348108700000000 Au
atom 11.6300190499999996 7.3461447099999999 0.0261279700000000 Au
atom 14.4025506199999995 7.4557246599999996 0.2204734400000000 Au
atom 17.2061847999999991 7.4742088700000000 0.3593257100000000 Au
atom 20.0893604900000007 7.5642221000000003 0.0662235700000000 Au
atom 22.9675674100000009 7.3942232800000003 -0.0960465500000000 Au
atom 25.7439230999999999 7.3179827599999996 0.1663381900000000 Au
atom 0.3307813600000000 7.3134432000000000 0.0951693600000000 Au
atom 3.1654249200000000 7.3677591400000004 -0.1379709100000000 Au
atom 6.0657727899999996 7.2725373600000003 0.0580111100000000 Au
atom 7.4901157200000004 9.8343693499999993 0.1897828500000000 Au
atom 10.2163100000000000 9.8836256099999993 -0.0685365300000000 Au
atom 13.0757552300000004 9.8220332900000002 0.0034165900000000 Au
atom 15.8195902000000004 9.9102704399999997 0.1827167500000000 Au
atom 18.7406502800000005 9.8510058199999992 -0.0281882900000000 Au
atom 21.5533756600000004 9.9228928199999995 -0.2260782900000000 Au
atom 24.3571720499999991 9.8068518900000008 0.1175151800000000 Au
atom 27.1877507300000012 9.8764143700000009 -0.0550508700000000 Au
atom 1.7847957999999999 9.8114191799999997 -0.0523774300000000 Au
atom 4.6115868400000002 9.7659007700000000 -0.0424707700000000 Au
atom 8.7740136799999995 12.3912193500000001 -0.1654680500000000 Au
atom 11.5841839300000000 12.3473455199999993 -0.2209360200000000 Au
atom 14.4591320099999994 12.3076995100000008 -0.4319305600000000 Au
atom 17.3252807599999983 12.1776620199999996 -0.2444817200000000 Au
atom 20.1816022100000012 12.2818968700000006 -0.3591863200000000 Au
atom 22.9229338200000008 12.3700110199999997 -0.0235749900000000 Au
atom 25.7758991799999997 12.2312347300000006 -0.1442748500000000 Au
atom 0.4334385500000000 12.3182442600000002 -0.2453882800000000 Au
atom 3.2324411600000000 12.2257479000000000 -0.1281107000000000 Au
atom 5.9728663700000002 12.2547551800000001 0.1799679200000000 Au
atom 7.4758597000000000 13.1308743099999994 2.6492049000000000 Au
atom 10.2374559099999995 13.1213178900000003 2.6035584100000002 Au
atom 13.0523873100000003 13.1761439700000000 2.1404309499999998 Au
atom 15.8038845400000003 13.1790168399999992 2.2578063799999999 Au
atom 18.6933022300000005 13.1299668999999994 2.2493938600000001 Au
atom 21.4567299399999989 13.2499296500000003 2.4298347300000001 Au
atom 24.3782857799999988 13.1099083600000004 2.4643200400000000 Au
atom 27.2020910899999997 13.0914827599999999 2.4448050100000001 Au
atom 1.7736539600000001 13.1721818699999993 2.3806755000000002 Au
atom 4.6415437700000002 13.2242904400000008 2.5955128500000000 Au
atom 8.8656029400000005 15.5179001499999991 2.7264493399999998 Au
atom 11.6830085300000004 15.6270968000000003 2.4752488100000001 Au
atom 14.5405724200000002 15.6584217300000006 2.5910497800000001 Au
atom 17.3869469000000016 15.7007355000000004 2.2925619699999999 Au
atom 20.2032604199999994 15.6710286300000003 2.4068110800000002 Au
atom 23.0301996899999999 15.5909280100000007 2.5359723600000001 Au
atom 25.8003817399999988 15.6462647799999992 2.4222711499999998 Au
atom 0.4292448300000000 15.6106808600000004 2.4192836500000001 Au
atom 3.2745486700000002 15.6241867200000009 2.5595743799999999 Au
atom 6.0534486999999997 15.5778699399999994 2.7229212000000000 Au
atom 7.5705698999999997 18.1069098699999991 2.7975819000000000 Au
atom 10.4352176399999994 18.0705642500000003 2.6718916699999999 Au
atom 13.1766628499999996 18.1562328300000004 2.5477100099999999 Au
atom 15.9619494599999996 18.1517114600000014 2.4277189500000000 Au
atom 18.8144692999999990 18.0651545599999999 2.3181708599999999 Au
atom 21.6134404800000013 18.1326777899999989 2.2435869899999998 Au
atom 24.4025062099999985 18.0828126299999994 2.5104366400000000 Au
atom 27.1622436900000004 18.0888227199999996 2.4719530100000000 Au
atom 1.8251572599999999 18.0869343899999997 2.6068075099999999 Au
atom 4.6062460500000002 18.0820109699999989 2.7063251799999999 Au
atom 8.9514528799999997 20.4741822900000017 2.9485972600000001 Au
atom 11.8311325499999995 20.5744024400000001 2.6510476500000002 Au
atom 14.7188239099999993 20.5802502599999997 2.5372978399999999 Au
atom 17.5094395300000016 20.5927726100000008 2.4055284900000000 Au
atom 20.2289824799999991 20.6775198899999992 2.2587429800000001 Au
atom 22.9788025599999983 20.5916846699999994 2.6493316400000002 Au
atom 25.7041727599999987 20.6428340900000009 2.5149321100000002 Au
atom 0.4038206300000000 20.5094916500000011 2.8723598600000000 Au
atom 3.2341790499999998 20.6083347299999993 2.5891975999999999 Au
atom 6.1095824199999997 20.5234197899999984 2.6030713300000001 Au
atom 7.4695753299999996 22.9167176400000017 2.7384933500000002 Au
atom 10.4401286800000008 22.9902719600000012 2.8705422100000000 Au
atom 13.2715323299999994 23.0062725599999993 2.4758611300000002 Au
atom 16.0382273799999986 23.0772302099999997 2.4975299400000002 Au
atom 18.8498283700000009 23.0935221000000013 2.5022301300000001 Au
atom 21.6317945700000003 23.1485164999999995 2.5650256400000000 Au
atom 24.3976882199999991 23.1528658900000011 2.4762627600000000 Au
atom 27.2182954499999994 23.0662023000000005 2.8187697599999999 Au
atom 1.9059731000000000 23.0661169500000014 2.8141203099999998 Au
atom 4.6262523000000000 23.0379904599999996 2.5045835200000002 Au
atom 8.9064068899999995 25.4176836799999997 2.9407666799999999 Au
atom 11.8245066600000008 25.5330785200000001 2.7117544400000000 Au
atom 14.5067188599999994 25.5406026200000014 2.6545597500000002 Au
atom 17.3737715000000001 25.5694512399999994 2.4747084500000001 Au
atom 20.2792312599999995 25.7035908500000012 2.5829253300000001 Au
atom 22.9587886899999987 25.6395329099999998 2.5911000600000000 Au
atom 25.7103657199999986 25.5810780700000002 2.7493315100000002 Au
atom 0.4765803100000000 25.6088223799999994 2.8771794100000001 Au
atom 3.3324913600000001 25.5793456100000007 2.8117828100000000 Au
atom 6.1086155499999997 25.4821212700000004 2.6211573800000001 Au
atom 7.5760034599999999 27.8703974400000014 2.6779234900000000 Au
atom 10.3297263800000003 27.8689516200000007 2.6620186200000000 Au
atom 13.1845979199999999 28.0560850100000003 2.6521809799999998 Au
atom 15.9410714099999993 28.0195312500000000 2.5274305699999999 Au
atom 18.8002675799999999 27.9651727600000015 2.5475729800000000 Au
atom 21.6626672400000011 28.1413986800000018 2.0821979100000001 Au
atom 24.3694675300000014 28.0314896000000005 2.5313231300000001 Au
atom 27.2613769999999995 28.0274746300000004 2.8003663699999999 Au
atom 1.9724209800000001 28.0956232700000008 2.6208669000000002 Au
atom 4.7566277799999996 27.9596964600000000 2.7634774400000000 Au
atom 8.9780484499999993 30.3118462199999996 2.4754265300000000 Au
atom 11.7549877899999995 30.3826960200000009 2.5635448799999998 Au
atom 14.6135381399999993 30.4706139200000017 2.6621405700000000 Au
atom 17.3548984900000001 30.4064425199999988 2.2986246900000000 Au
atom 20.2907513199999983 30.4012114000000011 2.4761578100000001 Au
atom 23.0853244599999989 30.6473706800000016 2.3280531500000001 Au
atom 25.8173493600000015 30.4541711100000008 2.6678630399999999 Au
atom 0.5758948900000000 30.4534892399999997 2.6416079699999999 Au
atom 3.4044368299999999 30.4657594699999983 2.5704634600000000 Au
atom 6.1346648699999999 30.2384778800000014 2.6330355000000001 Au
atom 7.6072618299999997 32.7705446800000004 2.7656222499999998 Au
atom 10.4298581000000006 32.8050524800000005 2.6338387200000000 Au
atom 13.2225972100000000 32.8963942600000010 2.5346674999999999 Au
atom 16.0814186700000015 33.0346571999999981 2.6254378200000001 Au
atom 18.8966181499999983 32.8410920800000028 2.3700912999999999 Au
atom 21.6082276499999999 32.9557005599999968 2.6058310300000000 Au
atom 24.5188517099999999 33.0252043300000011 2.3410599400000001 Au
atom 27.3170032899999988 32.8405179200000035 2.6842837700000000 Au
atom 1.8816726900000000 32.9220580100000006 2.6687660700000002 Au
atom 4.8177680499999997 32.8576096199999981 2.6535478000000001 Au
atom 9.0358884199999991 35.2754223399999987 2.5789021999999999 Au
atom 11.7552297299999999 35.3370103399999991 2.6639337699999999 Au
atom 14.5820932600000006 35.4060987000000011 2.4214472699999998 Au
atom 17.5419728299999989 35.4469910899999974 2.3635760100000001 Au
atom 20.3195112999999985 35.4794273700000034 2.4417116600000002 Au
atom 23.1686000499999984 35.3659492199999974 2.4068757100000000 Au
atom 25.9628086399999987 35.3568801300000004 2.4335468800000002 Au
atom 0.4753211000000000 35.3811198399999967 2.7543993000000002 Au
atom 3.3944843800000002 35.3795292900000007 2.5097708299999999 Au
atom 6.1869167100000002 35.2730560400000002 2.8059542899999999 Au
atom 7.5909292600000002 37.8077449999999970 2.8458215199999999 Au
atom 10.4049449400000000 37.7310406599999979 3.0146247800000001 Au
atom 13.2398370900000000 37.8489419699999985 2.7769987299999999 Au
atom 16.0496888499999990 37.8271275800000026 2.5738259000000001 Au
atom 18.8084271700000016 37.9234483999999981 2.4478139099999998 Au
atom 21.7084442899999992 37.8314981600000024 2.3756185500000000 Au
atom 24.5320059899999983 37.8760355100000012 2.5465552200000001 Au
atom 27.3301083600000005 37.8246970800000000 2.6245726000000000 Au
atom 1.9732236500000000 37.8426123799999985 2.8055118600000002 Au
atom 4.7305598000000000 37.7841239099999981 2.9710671999999998 Au
atom 8.9684422200000000 0.7864650600000000 3.0177241900000000 Au
atom 11.7494741099999995 0.8380719800000000 2.8807988899999999 Au
atom 14.5352842100000004 0.7629311000000000 2.5697646399999998 Au
atom 17.2452408999999989 0.8436879300000000 2.4574297999999999 Au
atom 20.1544331999999997 0.8719335100000000 2.5085238300000001 Au
atom 23.0265115099999989 0.8546932800000000 2.6459619100000000 Au
atom 25.8806303000000000 0.8899279500000000 2.8913553599999999 Au
atom 0.4550905600000000 0.8384517400000000 2.7980491999999999 Au
atom 3.3331941899999999 0.9313840400000000 2.8784489000000000 Au
atom 6.1019843800000002 0.7192416100000000 3.0496847100000002 Au
atom 7.5547314900000000 3.2301487299999998 3.0463695799999999 Au
atom 10.4352972699999995 3.3220711399999998 2.9137103500000001 Au
atom 13.2490382300000000 3.2749884699999998 2.8941697199999998 Au
atom 16.0040569400000017 3.2421073800000002 2.6704644000000002 Au
atom 18.7722377199999997 3.3814468400000002 2.7103391800000001 Au
atom 21.6257047100000008 3.3074124999999999 2.7418988500000001 Au
atom 24.4159124100000007 3.4267865799999999 3.0609510000000002 Au
atom 27.2641631599999990 3.3750702299999999 2.8139047200000000 Au
atom 1.8279659300000000 3.3373291200000001 2.8437563799999999 Au
atom 4.6835331599999996 3.3872917299999998 2.8247719299999998 Au
atom 8.9399502700000006 5.6296792399999998 2.8436512700000001 Au
atom 11.7708219100000004 5.7735621300000002 2.7482826600000001 Au
atom 14.5459469400000003 5.8234913199999996 2.7400000400000000 Au
atom 17.3445618900000014 5.8458562199999999 2.9239120399999998 Au
atom 20.1713332600000008 5.8515128299999999 2.7542905900000001 Au
atom 22.9468321899999985 5.8760205900000004 2.7377390600000000 Au
atom 25.8022113600000012 5.8505041799999997 2.7721331600000001 Au
atom 0.4496789900000000 5.8445320199999999 2.9616897999999998 Au
atom 3.2576927699999998 5.8713330800000003 2.8017370399999999 Au
atom 6.1196611000000001 5.7126447799999998 2.7749803499999999 Au
atom 7.4841708200000001 8.0999376800000000 2.7176265499999999 Au
atom 10.1246193200000008 8.2193603199999998 2.5909027899999999 Au
atom 13.0228044599999997 8.2320914599999995 2.7403048600000002 Au
atom 15.8585508300000004 8.3290636700000000 2.8314102399999999 Au
atom 18.8037973399999991 8.4053772700000007 2.7534075800000002 Au
atom 21.5587446000000007 8.3069359400000007 2.5070512599999999 Au
atom 24.3177116399999989 8.3450321699999996 2.8339532300000001 Au
atom 27.2849440200000011 8.2891682000000007 2.7360830300000001 Au
atom 1.8830611300000000 8.2508206600000005 2.6613987799999999 Au
atom 4.6910921999999999 8.2420267900000006 2.5310032200000001 Au
atom 8.8230800400000007 10.6692516000000008 2.7889340900000001 Au
atom 11.6180230099999999 10.7480353199999996 2.4751965500000002 Au
atom 14.3843007499999995 10.8012521400000008 2.7195980400000002 Au
atom 17.2872444899999991 10.7723867299999991 2.7532152299999999 Au
atom 20.1342692300000010 10.8033100500000003 2.4239491499999999 Au
atom 22.8911368499999988 10.7749604100000003 2.5080207799999998 Au
atom 25.7727328100000008 10.6917796900000006 2.5580659899999998 Au
atom 0.4821260600000000 10.6728375799999995 2.4343075500000002 Au
atom 3.2608033299999999 10.7547603100000000 2.6076234999999999 Au
atom 6.0194884100000001 10.6305874700000000 2.7779049499999999 Au
atom 7.6412714800000003 13.1345518600000002 5.8170458099999998 Cl
atom 7.4591687999999996 16.0907593300000009 8.5503033199999994 Cl
atom 7.5185478600000000 13.4095259299999991 8.4878423400000003 Na
atom 7.5614450000000000 16.1148831900000005 5.7589581299999999 Na
atom 7.3078243299999999 18.8529973400000017 5.6202390199999996 Cl
atom 7.3806201299999996 21.7751800099999997 8.4944953900000009 Cl
atom 7.4826039599999996 18.8558593399999985 8.2111083199999992 Na
atom 7.4201019199999996 21.7729568399999991 5.7359067000000001 Na
atom 7.3038785099999997 24.5631369799999995 5.7589269099999996 Cl
atom 7.4516829900000001 27.3526931799999993 8.7406656700000003 Cl
atom 7.4505464899999998 24.5036647099999989 8.4239128099999991 Na
atom 7.3769820499999996 27.3698623000000012 6.0316498300000001 Na
atom 7.5060621999999997 30.0845561199999985 5.6883573299999997 Cl
atom 7.5909865800000000 32.5963782399999999 8.5910677799999995 Cl
atom 7.4777481500000000 29.9923608500000007 8.4492723800000000 Na
atom 7.3742218900000003 32.8390010600000011 5.8697195400000002 Na
atom 7.1980479400000004 35.7810124000000016 6.0670456200000000 Cl
atom 7.4852179400000001 38.6472888799999978 8.8823786299999998 Cl
atom 7.4789905699999997 35.7829386499999984 8.5937888499999993 Na
atom 7.4484653500000002 38.4358970799999966 6.0959380599999999 Na
atom 7.5954232099999999 1.8231166700000001 6.1005632500000004 Cl
atom 7.2599202700000003 4.8747374499999996 8.8096635699999997 Cl
atom 7.4568967199999996 2.1021129500000000 8.5851255000000002 Na
atom 7.4240953500000000 4.8360097700000004 6.1279008800000003 Na
atom 7.5520154000000002 7.6554149599999999 6.0182488400000000 Cl
atom 7.6501204800000000 10.6288055900000007 8.9377812999999993 Cl
atom 7.2367760700000003 7.8195462400000002 8.6225437199999995 Na
atom 7.5359182100000002 10.5011972100000008 5.9331398100000001 Na
atom 10.4277932100000008 13.3332124099999998 5.9038773500000001 Na
atom 13.0153165899999994 13.2372284499999999 5.5480795900000004 Cl
atom 10.3872648299999994 16.2172663700000008 8.3949426000000003 Na
atom 13.3421159199999995 15.8179382099999994 8.4679268600000004 Cl
atom 13.2852027899999996 13.1615172600000001 8.3350249499999993 Na
atom 10.4159262100000003 13.3121349799999997 8.4843937799999996 Cl
atom 13.2132717199999998 16.0421619399999997 5.6924773300000000 Na
atom 10.4015237799999998 16.0822137400000003 5.7057537600000003 Cl
atom 10.2904840300000000 18.8908617200000002 5.8944885600000001 Na
atom 13.0950743099999993 18.8483123600000013 5.8374979800000002 Cl
atom 10.1567295499999997 21.5672615199999989 8.3815461800000008 Na
atom 12.8512395599999998 21.8673691499999983 8.5420528499999993 Cl
atom 13.1408609999999992 18.8440383199999992 8.4952089999999991 Na
atom 10.1914973000000000 18.8741572700000013 8.4956578900000004 Cl
atom 13.0413235299999997 21.7095899800000005 5.6722245800000000 Na
atom 10.2044152399999994 21.7958581000000002 5.5631530700000003 Cl
atom 10.0500253399999995 24.4771726799999989 5.9811758199999998 Na
atom 13.1841021999999999 24.5399657699999985 5.8114059200000003 Cl
atom 10.3632795699999996 27.4977300599999985 8.5650180299999992 Na
atom 13.0414180300000009 27.1658031300000005 8.8024942500000005 Cl
atom 12.9862708300000005 24.4390539500000017 8.4617272999999997 Na
atom 10.1133468000000004 24.6615662200000010 8.6984038899999998 Cl
atom 13.1551586100000009 27.2566685000000000 5.8849319900000001 Na
atom 10.1760695699999992 27.2617964400000012 5.9751362400000003 Cl
atom 10.2695101599999994 30.1434484400000002 5.7957640300000000 Na
atom 13.2507644800000008 30.0113559899999984 5.7024371299999999 Cl
atom 10.3229201100000001 32.9852154200000030 8.5723693900000004 Na
atom 13.0238094699999998 32.9230583800000005 8.6301686199999992 Cl
atom 13.2139687200000004 30.2128079599999992 8.2601473700000003 Na
atom 10.4324200200000003 30.2270475199999993 8.7130561899999996 Cl
atom 13.1571951600000006 32.7971681599999982 5.9258745399999997 Na
atom 10.2983190499999999 33.1119913900000000 5.9601882499999999 Cl
atom 10.1585070999999996 35.7085015700000028 5.9808146600000001 Na
atom 13.0923419600000006 35.6420820700000007 5.8582669400000000 Cl
atom 10.1986966100000007 38.4860082399999968 8.6504933400000006 Na
atom 13.1458502700000004 38.5338774900000018 8.5380724000000008 Cl
atom 13.1555952699999992 35.7884568899999991 8.5045333400000001 Na
atom 10.3195579199999994 35.8298617900000025 8.9405860700000002 Cl
atom 12.9648750699999997 38.5120434000000031 5.8635373299999998 Na
atom 10.1353137100000001 38.5065388200000029 5.9849735099999997 Cl
atom 10.2994141999999993 1.8249290499999999 6.0973266900000000 Na
atom 13.0470956900000008 2.0252922099999999 5.9724832000000001 Cl
atom 10.2203295700000005 4.9113586099999997 8.7497884399999997 Na
atom 13.2452405399999993 4.6752413600000002 8.8001293799999996 Cl
atom 13.0035274100000002 1.8414752400000001 8.5297100199999996 Na
atom 10.2625042900000008 1.7871037599999999 8.8043343699999994 Cl
atom 13.1504507099999994 4.7043813900000000 6.0892694900000004 Na
atom 10.3582140099999993 4.6431066000000003 6.0138531000000004 Cl
atom 10.3315301599999998 7.5075386699999997 6.0073070199999998 Na
atom 13.2129195300000006 7.5194452099999998 5.7877918299999997 Cl
atom 10.3287649500000001 10.4030765499999998 8.6391335199999997 Na
atom 13.0222219799999994 10.4569303999999992 8.5754462399999998 Cl
atom 13.1910004000000001 7.7581788999999999 8.5060480100000007 Na
atom 10.2310138700000000 7.7278799800000000 8.8584335000000003 Cl
atom 13.0834835100000006 10.3525843500000008 5.8884247099999998 Na
atom 10.2151600699999996 10.2379786100000008 5.9134222999999997 Cl
atom 15.9440655200000005 13.2796979000000004 5.5952118799999999 Na
atom 18.8020179700000014 12.9324698199999997 5.7990250200000002 Cl
atom 15.9991761300000004 15.9825378199999992 8.3076245300000000 Na
atom 18.6877660900000002 15.9914700100000005 8.4809968700000002 Cl
atom 18.7882102800000013 13.2742989799999993 8.2790890299999997 Na
atom 15.9417135900000009 13.1893568699999992 8.4912597600000002 Cl
atom 18.6824574699999992 16.1164505700000014 5.7944949799999996 Na
atom 16.0880983600000000 15.9804705899999995 5.5148890499999998 Cl
atom 15.9368652700000002 18.8016542199999996 5.8953317099999998 Na
atom 18.7710531600000010 18.8596496599999988 5.5809131399999998 Cl
atom 15.8439314000000007 21.6182894200000000 8.2769707700000001 Na
atom 18.7935191000000010 21.4312870199999992 8.5265266499999992 Cl
atom 18.7068426899999984 18.5955158699999998 8.3671914399999991 Na
atom 15.9579074199999997 18.7465516900000004 8.6455046000000007 Cl
atom 18.7022574199999987 21.6692387300000000 5.6728087800000004 Na
atom 15.6548983699999997 21.5500152800000002 5.7242165700000003 Cl
atom 15.9573182100000004 24.3639413000000005 6.0091197500000000 Na
atom 18.7264485100000009 24.3617414100000005 5.8576081000000002 Cl
atom 15.8188021100000000 27.1341156699999999 8.5901516099999995 Na
atom 18.6649992299999994 27.1316427699999991 8.5399861500000007 Cl
atom 18.7706757599999996 24.2117795899999990 8.4753356600000007 Na
atom 15.9766457000000006 24.3002718500000015 8.7968655699999996 Cl
atom 18.7068350499999987 27.0336738499999996 5.8428303599999998 Na
atom 15.8181896099999992 27.1017005100000006 5.8638124200000004 Cl
atom 15.9324518099999999 29.9858484999999995 5.6752168200000002 Na
atom 18.6545113399999991 30.0261204299999989 5.5945638000000004 Cl
atom 15.9651464300000008 33.0750964799999991 8.4577141699999991 Na
atom 18.7679694499999989 33.0028157500000034 8.5759104100000005 Cl
atom 18.6533302100000000 30.0248659199999999 8.2929063200000002 Na
atom 15.8989273400000002 30.0858322200000003 8.5103575599999992 Cl
atom 18.6235292699999988 32.9581680100000014 5.8143771800000001 Na
atom 15.9965091400000006 32.8324311599999987 5.7580479499999999 Cl
atom 15.8687142800000007 35.7975990199999998 5.9770720900000001 Na
atom 18.5791229400000013 35.6601188599999972 5.7547212300000004 Cl
atom 15.9042408000000002 38.7266849499999992 8.4402740000000005 Na
atom 18.8002240100000009 38.6210304399999984 8.6376646800000003 Cl
atom 18.8496523300000014 35.8405399600000010 8.3111402699999992 Na
atom 16.0396858599999987 35.6998192200000020 8.6482107300000006 Cl
atom 18.7291330999999985 38.6111716300000012 5.8786201900000004 Na