#===============================================================================
# Created using the Atomic Simulation Environment (ASE)

# Tue Dec 23 22:26:41 2025

#=======================================================
lattice_vector 28.1999999999999993 0.0000000000000000 0.0000000000000000 
lattice_vector 0.0000000000000000 39.4799999999999969 0.0000000000000000 
lattice_vector 0.0000000000000000 0.0000000000000000 62.3296083400000001 
atom 7.5681836599999999 14.7066129199999995 -0.0662533800000000 Au
atom 10.3866180799999999 14.8819688299999999 0.0077469700000000 Au
atom 13.2698001100000003 14.8245131899999993 -0.0689858300000000 Au
atom 15.8952219299999999 14.8985578800000003 0.0226174500000000 Au
atom 18.6613438900000013 14.6530537600000006 -0.1438498900000000 Au
atom 21.5461695999999989 14.7480805200000002 0.0090021900000000 Au
atom 24.4832605799999996 15.0297589899999995 -0.1160510000000000 Au
atom 27.1217865300000014 14.7057501599999991 -0.2058922400000000 Au
atom 1.9563228800000001 14.9096114100000001 0.1882984300000000 Au
atom 4.6674469700000003 14.7881469299999999 -0.0373899900000000 Au
atom 9.1276647999999998 17.1548796900000013 -0.0307503700000000 Au
atom 11.5805168300000005 17.2981948500000016 -0.0169097400000000 Au
atom 14.5516743599999998 17.1230343500000011 0.0018807900000000 Au
atom 17.2895089000000013 17.2855486700000007 -0.0042280500000000 Au
atom 20.1075292099999992 17.1828891500000012 0.0214208500000000 Au
atom 23.0853503400000015 17.2759004000000012 -0.1838274400000000 Au
atom 25.8283965799999997 17.2540824099999988 -0.0778344100000000 Au
atom 0.6174797900000000 17.3789857699999999 -0.0668655600000000 Au
atom 3.2383093700000001 17.3574719100000010 0.0463431300000000 Au
atom 6.0237960499999996 17.2510365999999991 -0.0307340600000000 Au
atom 7.5301004100000002 19.6851008100000016 0.0647088700000000 Au
atom 10.4782472400000000 19.7588173800000000 -0.0611214300000000 Au
atom 13.2678561599999991 19.7254395500000008 0.0380544800000000 Au
atom 15.9161124199999993 19.8102102699999989 0.0202625200000000 Au
atom 18.8208049600000002 19.8256249900000014 0.0285252400000000 Au
atom 21.5942971999999997 19.8076914600000009 -0.0153309800000000 Au
atom 24.5480741100000017 19.8165027900000013 0.1958215700000000 Au
atom 27.2821018299999984 19.6382682399999986 0.0638336600000000 Au
atom 1.9204761500000000 19.8200925599999991 0.0612615700000000 Au
atom 4.5841064600000001 19.8764129999999994 0.0070247100000000 Au
atom 8.7162718899999998 22.1334716200000017 0.0661098100000000 Au
atom 11.6897430399999998 22.1934250199999994 0.0493634600000000 Au
atom 14.6999879799999995 22.2301523400000001 -0.1849847900000000 Au
atom 17.4162550699999983 22.2342024599999988 0.0343926700000000 Au
atom 20.2801341700000002 22.3038316499999993 -0.0156235700000000 Au
atom 23.0160277300000011 22.1829528499999995 0.0801700400000000 Au
atom 26.0901482700000003 22.1601732100000000 0.2560172600000000 Au
atom 0.4997047300000000 22.3761900800000006 0.0791441100000000 Au
atom 3.2718791000000000 22.1445699599999983 0.2142413600000000 Au
atom 6.0861406999999996 22.0609537399999986 0.0563092900000000 Au
atom 7.4705473900000001 24.8055416400000013 0.0227335100000000 Au
atom 10.2494311099999997 24.6824031999999995 0.0054849000000000 Au
atom 13.0191082900000001 24.7693682600000002 -0.0457613100000000 Au
atom 15.8374561200000006 24.6034652099999995 -0.0407161600000000 Au
atom 18.6667926999999985 24.8702814399999994 0.0479591100000000 Au
atom 21.6610010600000003 24.5801677000000005 0.0895863900000000 Au
atom 24.3573787400000015 24.5752560100000004 0.2363613200000000 Au
atom 27.2716124200000003 24.7253562400000000 0.2276347500000000 Au
atom 1.7473858900000001 24.7366900600000008 0.1918496900000000 Au
atom 4.9674452799999997 24.6652727600000006 0.0494190800000000 Au
atom 8.9835218000000001 27.2530025800000004 0.2365881200000000 Au
atom 11.6776044799999994 27.2474165500000005 -0.1724380000000000 Au
atom 14.6165157200000007 27.1077593099999987 0.0328113200000000 Au
atom 17.4602414199999991 27.0414592800000015 -0.0184602300000000 Au
atom 20.2192635799999998 27.0083877900000005 0.0571525300000000 Au
atom 23.0366735200000008 26.9959959199999986 0.1009307600000000 Au
atom 25.6514076200000005 27.2242980599999989 0.0666641900000000 Au
atom 0.5425032500000000 27.1886547400000005 0.2187239400000000 Au
atom 3.2724752100000001 27.1860339599999996 0.1835933500000000 Au
atom 6.1181408399999997 27.1277619600000008 0.1248826400000000 Au
atom 7.3648167600000001 29.7033571400000014 -0.0069179900000000 Au
atom 10.1617453199999996 29.5720484100000007 0.0520782000000000 Au
atom 13.1635410999999998 29.6565897999999990 -0.1165965900000000 Au
atom 16.1078146599999990 29.4519381799999991 0.1504713100000000 Au
atom 18.9148314800000001 29.5485283999999986 -0.1983289200000000 Au
atom 21.4174780799999986 29.6074468999999993 -0.0323802400000000 Au
atom 24.3184992000000015 29.6727224900000017 0.0720778800000000 Au
atom 27.3526604700000000 29.6636455099999985 0.0573593500000000 Au
atom 1.8412802900000000 29.6956323399999995 0.0117317000000000 Au
atom 4.7021765400000000 29.6319178500000007 0.1106330200000000 Au
atom 9.1102782300000005 32.2023408499999988 -0.1567898300000000 Au
atom 11.6878749400000004 32.0499472600000033 -0.1730625600000000 Au
atom 14.5549819300000003 32.0343801200000016 -0.0323471100000000 Au
atom 17.2405542099999991 32.1259232100000034 -0.0989337200000000 Au
atom 20.0586294000000009 32.1141651000000010 -0.1644244700000000 Au
atom 23.1308186300000003 32.0143985799999982 -0.1232915700000000 Au
atom 25.8858809000000001 32.0804772899999975 -0.3331186600000000 Au
atom 0.3875377700000000 31.9886471000000014 -0.1057004200000000 Au
atom 3.1813180600000002 32.1957288300000002 -0.0677600400000000 Au
atom 6.1388961200000001 32.1415392400000002 -0.1800437000000000 Au
atom 7.3724780900000004 34.5147219199999995 0.1059181800000000 Au
atom 10.2508972200000006 34.5183600700000000 -0.1820802900000000 Au
atom 13.1170988200000007 34.4768409500000033 -0.0221937000000000 Au
atom 15.9593554700000002 34.5209708599999985 -0.1389280900000000 Au
atom 18.6649971000000008 34.4869478700000016 -0.0277839500000000 Au
atom 21.5443900399999997 34.4643774099999973 0.1539329100000000 Au
atom 24.5208482200000013 34.4151127299999970 -0.1350144000000000 Au
atom 27.1844381800000008 34.3399396800000005 0.0362254900000000 Au
atom 1.9788114299999999 34.7126147600000010 0.0194450200000000 Au
atom 4.4488145200000000 34.5869126999999992 -0.0030144600000000 Au
atom 8.7695210400000008 37.1753723300000019 -0.0479689800000000 Au
atom 11.8368564799999998 37.0537039800000016 -0.0796461000000000 Au
atom 14.7170989199999998 37.1743242399999971 0.1669692100000000 Au
atom 17.4574697500000013 37.0068888500000028 0.1469325000000000 Au
atom 20.3050226599999988 37.0518898500000020 -0.0199824100000000 Au
atom 23.1102061899999995 36.9000359099999997 -0.0223364000000000 Au
atom 25.9741526500000006 37.0098341300000016 -0.0115447000000000 Au
atom 0.3614532400000000 36.7655561400000011 0.0856630200000000 Au
atom 3.1746257000000000 36.9883648799999989 -0.0956945900000000 Au
atom 6.0460055099999996 37.0545169399999992 -0.1467229700000000 Au
atom 7.5261630300000002 0.0276371000000000 0.2449942400000000 Au
atom 10.3271679899999995 0.1100087300000000 0.1517876900000000 Au
atom 13.1849742100000000 0.0422004200000000 0.0047487100000000 Au
atom 15.9947388700000008 -0.0874241200000000 0.2786356700000000 Au
atom 18.6626481700000006 0.0336900900000000 0.0864683600000000 Au
atom 21.6869142000000004 0.0701322900000000 0.0943248700000000 Au
atom 24.4105477899999990 0.0752445600000000 0.1195189800000000 Au
atom 27.2646103400000008 -0.0062346600000000 0.3190064900000000 Au
atom 1.9334512900000000 0.0059848000000000 -0.1035064800000000 Au
atom 4.5867752199999998 0.0334512700000000 0.2525979100000000 Au
atom 8.8073028099999995 2.5400457500000000 -0.0112366800000000 Au
atom 11.6821485599999999 2.5959494500000000 -0.0536885300000000 Au
atom 14.5667391199999994 2.3964739499999999 0.0675159700000000 Au
atom 17.2344654999999989 2.3795962199999998 0.0204996900000000 Au
atom 20.2885160099999986 2.5641335500000002 0.1223185500000000 Au
atom 22.9198136300000002 2.5305224100000001 0.3570863800000000 Au
atom 25.9378841499999986 2.5059627899999999 0.0411239100000000 Au
atom 0.6094810300000000 2.4643243899999998 -0.0062872100000000 Au
atom 3.3371992300000000 2.5709572299999999 0.0236138800000000 Au
atom 6.2416339000000001 2.5545185899999998 -0.0179035500000000 Au
atom 7.6015560500000001 4.8900027200000000 0.3595075100000000 Au
atom 10.2575455200000007 4.9396737799999997 0.1128855300000000 Au
atom 13.3441846200000001 5.0504378900000004 0.2374225400000000 Au
atom 15.9225321999999991 4.8691591299999999 0.1777037100000000 Au
atom 18.8984030300000008 4.9961442600000003 -0.0222938700000000 Au
atom 21.6086383300000016 5.1681666300000000 0.2245349600000000 Au
atom 24.5221433500000003 4.9026315000000000 0.0735155400000000 Au
atom 27.3161131600000004 4.7330741800000000 0.2299432400000000 Au
atom 1.9327525500000000 4.9105979800000004 0.2159267900000000 Au
atom 4.6560069899999998 4.8660811600000002 0.2983811400000000 Au
atom 8.8049253499999995 7.3099451599999998 -0.0006962200000000 Au
atom 11.8069462200000004 7.3880239500000000 0.1842125400000000 Au
atom 14.3006570699999997 7.4531760499999997 0.1583100000000000 Au
atom 17.2935751999999994 7.5679031300000004 0.1435511600000000 Au
atom 20.4108532300000007 7.4902389700000001 0.1134351700000000 Au
atom 22.9620297899999990 7.5273972300000001 0.1663413000000000 Au
atom 25.7866100699999983 7.4134824200000002 0.1296003400000000 Au
atom 0.3495313800000000 7.4201142400000002 0.1465927900000000 Au
atom 3.3176088400000001 7.4209171999999999 -0.0253513700000000 Au
atom 6.1318346799999999 7.4179746599999996 0.0588916400000000 Au
atom 7.5914152899999996 9.6674015600000001 0.0285408100000000 Au
atom 10.4975556599999997 9.8282058400000007 0.0013530400000000 Au
atom 13.0786119000000003 10.0760131699999995 -0.0992549300000000 Au
atom 15.8664229199999998 9.6897219400000001 0.0852204100000000 Au
atom 18.4916352999999987 9.6832884799999999 -0.0506723400000000 Au
atom 21.7864474299999991 9.6896070099999996 -0.1862148200000000 Au
atom 24.3421807799999996 9.7579405799999996 -0.0536077300000000 Au
atom 27.1296752999999988 9.8382153900000002 -0.0002458600000000 Au
atom 1.8987567400000001 9.8712121199999991 0.1311888800000000 Au
atom 4.7717279899999996 9.7371360300000003 0.0911183300000000 Au
atom 8.7768310300000003 12.4194757399999993 -0.1013947500000000 Au
atom 11.6889729399999993 12.4629659400000001 -0.1079690300000000 Au
atom 14.4575650200000005 12.2558702400000001 0.1059214800000000 Au
atom 17.2762453700000016 12.3280734100000000 -0.1698991900000000 Au
atom 20.2726524099999992 12.3428178299999995 -0.2534704000000000 Au
atom 22.9153115900000017 12.2284429200000009 0.0250565000000000 Au
atom 25.7350308100000014 12.4909712000000006 -0.0123574400000000 Au
atom 0.4730477700000000 12.2740104199999998 0.1699328000000000 Au
atom 3.1974985399999998 12.3622465699999999 -0.1416149400000000 Au
atom 6.1121917100000003 12.2047538200000005 0.0575928000000000 Au
atom 7.4027748100000004 13.2348609400000008 2.6049767500000001 Au
atom 10.3546716300000003 13.1185304100000000 2.6905836100000000 Au
atom 13.1090709400000005 12.9942855799999997 2.6120665900000000 Au
atom 15.8987941700000004 13.1578797200000004 2.6056914400000002 Au
atom 18.9222514299999993 13.1548400000000001 2.6513699900000001 Au
atom 21.7342841500000006 13.2563061100000006 2.7250878100000002 Au
atom 24.4689245699999987 13.2304678899999999 2.8544682600000000 Au
atom 27.3335524800000016 13.1577024999999992 2.5615564399999999 Au
atom 1.6956049700000000 13.2375462899999992 2.6294392100000001 Au
atom 4.6847594299999997 13.1539347499999995 2.3496144399999999 Au
atom 9.0475143199999994 15.8025016899999997 2.6240810200000002 Au
atom 11.9006455100000004 15.7133189200000007 2.4976189400000002 Au
atom 14.6320077000000008 15.8626900299999996 2.4292357899999999 Au
atom 17.3459618900000017 15.6242483300000004 2.7037638799999999 Au
atom 20.0780142899999987 15.6991667199999991 2.6733566999999998 Au
atom 23.0985998799999983 15.5116957000000006 2.5090048500000002 Au
atom 25.8864940899999993 15.5815677699999995 2.5854799300000000 Au
atom 0.5026417000000000 15.7801405199999998 2.6130368000000002 Au
atom 3.2111566599999999 15.6223148500000004 2.4007290600000002 Au
atom 6.1426563700000001 15.7472378600000003 2.6217111800000001 Au
atom 7.4880375800000003 18.1001089300000011 2.8527020400000000 Au
atom 10.1901009800000004 18.2919006199999998 2.6505700800000001 Au
atom 13.1960921500000001 18.0486725399999983 2.5031668400000000 Au
atom 15.8993245900000009 18.0866314099999990 2.5442790500000001 Au
atom 18.8430582599999994 18.0920761799999994 2.6724190600000002 Au
atom 21.5244107500000013 18.1787098900000004 2.6627066699999999 Au
atom 24.3619287600000014 18.0282935400000000 2.7041507400000002 Au
atom 27.1081480600000013 18.0829281799999997 2.5069024899999999 Au
atom 1.8459099800000001 18.2238192699999999 2.7464497799999998 Au
atom 4.7143782999999999 18.0345854099999983 2.6975056500000001 Au
atom 8.8580704699999995 20.5879052400000013 2.6598879599999998 Au
atom 11.7282333600000008 20.6393318599999986 2.7276257500000001 Au
atom 14.4785347699999996 20.5225539800000014 2.7560682399999998 Au
atom 17.3367505400000006 20.4473283899999991 2.5712474500000000 Au
atom 19.9500172000000013 20.4656440599999989 2.7189402199999999 Au
atom 23.0316676700000009 20.4446096600000011 2.7356912000000002 Au
atom 25.9312235700000002 20.5558873999999996 2.8218222000000002 Au
atom 0.3611234500000000 20.5771084299999991 2.7001398800000000 Au
atom 3.3989389100000000 20.5656042300000017 2.6325312300000001 Au
atom 6.1546410600000003 20.6969879799999994 2.6467081600000002 Au
atom 7.4449993799999996 23.0455698399999989 2.6148678900000002 Au
atom 10.2739122900000002 23.0966581600000005 2.7849357600000002 Au
atom 13.1152848100000003 22.9999988299999991 2.6510563700000001 Au
atom 16.0392860599999985 22.9272485199999991 2.6369604899999999 Au
atom 18.6677572900000008 23.2183540000000015 2.5754128000000001 Au
atom 21.6031359000000016 23.1441363299999985 2.6604510800000001 Au
atom 24.4123733099999995 22.9188806700000001 2.7284736800000000 Au
atom 27.2841834699999986 22.9420606000000014 2.5663682099999998 Au
atom 1.7917644100000001 23.0069703899999993 2.8077889400000000 Au
atom 4.7577376200000003 23.1140541800000001 2.6049122100000002 Au
atom 8.9553491399999992 25.5094777599999993 2.4633472900000002 Au
atom 11.6375966999999996 25.5019241699999988 2.5223261699999999 Au
atom 14.4759968800000003 25.5504436499999983 2.6541106900000000 Au
atom 17.2593168699999993 25.4233929399999994 2.7779532800000002 Au
atom 20.1262168899999985 25.6253411299999989 2.5768156000000002 Au
atom 22.9347556300000015 25.5696275799999988 2.8233680200000002 Au
atom 25.8321672299999996 25.6119040200000008 2.4970121600000001 Au
atom 0.5346911400000000 25.4103920899999984 2.6707715900000002 Au
atom 3.2834600900000002 25.5331767800000016 2.6824716600000000 Au
atom 6.2026879399999997 25.7162763699999992 2.7032483599999999 Au
atom 7.5239344800000003 28.0756638100000018 2.4995391400000000 Au
atom 10.2834401799999995 28.1752664899999985 2.7934746499999998 Au
atom 12.9935186900000001 28.0983996400000002 2.6729081300000002 Au
atom 15.9995978599999997 27.9136983299999990 2.7347519600000001 Au
atom 18.7053205799999986 27.9168982600000000 2.5466978400000002 Au
atom 21.5537175199999993 27.9585582200000005 2.6685446800000001 Au
atom 24.3387852900000006 28.0745342200000003 2.7692239299999999 Au
atom 27.2977211599999983 28.0057054100000009 2.7568219599999999 Au
atom 1.8689214999999999 27.9588320500000016 2.5727623899999998 Au
atom 4.6103684700000001 28.1171056399999983 2.8072903899999999 Au
atom 8.9325521000000006 30.5880416799999999 2.6340036900000001 Au
atom 11.7258173299999999 30.4416924900000012 2.4928399300000001 Au
atom 14.5332227700000001 30.3814833799999988 2.7000350599999998 Au
atom 17.3016068300000008 30.5381974300000003 2.6852462899999998 Au
atom 20.1273802599999989 30.5915654600000018 2.4098859500000001 Au
atom 23.0098441899999990 30.3299309599999987 2.6100645400000002 Au
atom 25.7513388200000009 30.3871614399999999 2.5778777599999998 Au
atom 0.3642732800000000 30.5035669700000014 2.8190589799999999 Au
atom 3.4928683000000000 30.5202863300000011 2.7505372399999999 Au
atom 6.1143766099999999 30.4458696700000004 2.7262869400000000 Au
atom 7.3287116699999997 33.0563814400000027 2.5307960299999999 Au
atom 10.2088840300000001 32.9825369699999982 2.4807077899999999 Au
atom 12.9740805199999993 33.0279685499999971 2.6799458899999999 Au
atom 15.9974262700000001 32.8193865300000027 2.6361272699999998 Au
atom 18.6800270499999996 32.9057397199999997 2.4392888199999998 Au
atom 21.6311625200000002 33.1160550399999991 2.5220444500000001 Au
atom 24.4203275600000005 33.0353736499999968 2.5735854300000001 Au
atom 27.4293606399999987 32.9848502299999993 2.7965783700000002 Au
atom 1.8451613400000000 33.0380285700000016 2.5706693899999999 Au
atom 4.6249933499999996 32.7405193100000034 2.7677011100000000 Au
atom 9.1698754400000002 35.3569446699999972 2.5659297300000001 Au
atom 11.6993897600000007 35.5556270900000015 2.6922382599999999 Au
atom 14.8573768000000008 35.1254799499999990 2.7582506699999998 Au
atom 17.4193817399999986 35.4084204400000004 2.7760729600000000 Au
atom 20.3165420800000014 35.3443519200000011 2.5013231199999999 Au
atom 22.9959220400000000 35.4986744400000021 2.6955555900000001 Au
atom 25.7974105599999994 35.3548813800000019 2.5380887799999998 Au
atom 0.5696367700000000 35.3996525700000007 2.6267726400000000 Au
atom 3.3117465300000002 35.3808454200000000 2.5529692300000000 Au
atom 6.0183267799999998 35.4432287099999996 2.6192429100000001 Au
atom 7.4249004500000000 37.7685329500000009 2.6951814700000001 Au
atom 10.3172493099999993 37.9394679899999971 2.8073679700000000 Au
atom 13.0838984800000002 37.9411006200000003 2.5374233099999999 Au
atom 15.9205614700000009 37.9134731799999969 2.6867323399999998 Au
atom 18.6398417999999992 37.8903750599999967 2.5698470000000002 Au
atom 21.5889160699999998 37.8794674000000029 2.7568670900000001 Au
atom 24.3675973399999997 37.8120385699999986 2.6591309100000000 Au
atom 27.4011527299999997 37.8813838499999989 2.6017861700000000 Au
atom 1.7987496199999999 37.9198426000000026 2.6815110400000002 Au
atom 4.6945058099999999 37.7083257000000032 2.9315752800000001 Au
atom 8.9685061600000004 0.7748770500000000 2.7529563000000001 Au
atom 11.8350435800000007 0.4363332600000000 2.8065245999999999 Au
atom 14.5530205699999993 0.8973468100000001 2.7381214599999999 Au
atom 17.1673816700000010 0.9950574200000000 2.7295895899999998 Au
atom 20.2383829000000013 0.8566419000000000 2.8363512499999999 Au
atom 22.8626636000000012 0.9198588100000000 2.6497101399999998 Au
atom 25.8631130200000001 0.8293503100000000 2.6661924600000000 Au
atom 0.4882916800000000 0.8035142000000000 2.8600435000000002 Au
atom 3.2419350400000000 0.8619673700000000 2.8018169300000002 Au
atom 5.9326798500000004 0.6893511500000000 2.6416435100000002 Au
atom 7.4495487899999997 3.2030220100000002 2.6956182499999999 Au
atom 10.4695527899999998 3.2940112300000002 2.6278415700000002 Au
atom 13.0820432899999997 3.2593837099999998 2.6467563900000002 Au
atom 15.9549474399999998 3.1764069500000001 2.7171739600000002 Au
atom 18.7206327500000000 3.2843826400000000 2.8065627200000001 Au
atom 21.4724132899999987 3.1809902800000001 2.7322942200000000 Au
atom 24.4369029900000001 3.2596942100000001 2.5882551800000000 Au
atom 27.3060276600000016 3.1682461700000002 2.8982090899999999 Au
atom 1.8712196900000000 3.2389752500000002 2.5963466199999998 Au
atom 4.6247613999999997 3.2940394099999999 2.8356435499999999 Au
atom 8.9244291499999999 5.8793703700000002 2.7433365400000000 Au
atom 11.7086408599999992 5.9071220300000000 2.7955207299999998 Au
atom 14.4193214699999999 5.7580055999999997 2.8095327200000000 Au
atom 17.3511876200000010 5.9118691700000001 2.7482442100000002 Au
atom 20.1701122999999995 5.9248161000000001 2.9027641599999998 Au
atom 23.0062265299999993 5.8894050599999996 2.6545915999999998 Au
atom 25.8777534500000002 5.7407922500000002 2.8851124300000000 Au
atom 0.5443268800000000 5.6521597999999997 2.7260492500000000 Au
atom 3.3667064299999998 5.8076340100000001 2.9254995300000002 Au
atom 6.3080314900000003 5.7558488299999997 2.5902468600000002 Au
atom 7.6479393299999998 8.1917826500000004 2.7423522800000000 Au
atom 10.2114949999999993 8.4446461199999998 2.5596377600000002 Au
atom 13.0830728000000001 8.1627075999999992 2.7250318800000000 Au
atom 16.0245265600000018 8.3972758699999996 2.7005646300000001 Au
atom 18.7635071999999994 8.2051108100000008 2.7316273299999998 Au
atom 21.3280812699999984 8.2007273600000001 2.7983784599999999 Au
atom 24.7057750600000006 8.4405445599999993 2.7411657800000002 Au
atom 27.1718226999999999 8.1892961399999997 2.6759921499999999 Au
atom 1.9141962600000000 8.3612523099999994 2.6467473799999999 Au
atom 4.6207126000000001 8.4264635800000001 2.6280518200000000 Au
atom 8.8416895400000008 10.7968842800000004 2.5292338200000000 Au
atom 11.8246810700000005 10.4907734200000000 2.6710921999999999 Au
atom 14.6058442500000005 10.6342138599999991 2.4900439200000002 Au
atom 17.3802839200000001 10.7270729199999995 2.7129495299999999 Au
atom 20.1120337999999990 10.6770258400000007 2.7164773599999998 Au
atom 23.2248878699999999 10.7973021899999999 2.6567738699999999 Au
atom 25.7450632500000012 10.9776304600000003 2.4012625800000000 Au
atom 0.4046377200000000 10.7521977300000007 2.6384983200000001 Au
atom 3.3401830200000000 10.6824209200000002 2.7242546399999998 Au
atom 6.2651267199999996 10.7621871599999999 2.6925948399999999 Au
atom 7.4275504500000000 13.1828629599999996 5.7657278900000000 Cl
atom 7.4762086500000002 16.0338370999999995 8.5513835599999997 Cl
atom 7.5035682399999999 13.0652935400000008 8.5293634899999997 Na
atom 7.5186803600000003 16.1873947300000012 5.8001464299999999 Na
atom 7.5296688500000002 18.7216808400000012 5.7038954999999998 Cl
atom 7.5976991700000003 21.6470371700000008 8.5292455100000009 Cl
atom 7.5159765500000004 18.6555926899999989 8.3117939799999991 Na
atom 7.5704079300000000 21.5199731499999984 5.7264975600000003 Na
atom 7.3565427200000002 24.4198593200000005 5.8089856500000003 Cl
atom 7.4421705899999999 27.0475069700000006 8.7439746500000002 Cl
atom 7.3045772600000003 24.4682886300000000 8.4843519100000009 Na
atom 7.4636351000000003 27.2316004900000017 5.8187656199999997 Na
atom 7.5292607800000004 30.0363763299999995 5.7474081100000003 Cl
atom 7.3796958799999999 33.0782434199999997 8.5124359599999995 Cl
atom 7.6953652899999998 29.9791510499999987 8.2772140099999998 Na
atom 7.6190374199999997 32.9797971200000006 5.8267595400000003 Na
atom 7.4689679000000000 35.6495373699999973 5.7576552400000001 Cl
atom 7.3404350100000002 38.5427409699999970 8.5864853100000005 Cl
atom 7.5321668500000003 35.6529983799999997 8.3710383099999994 Na
atom 7.6045931299999996 38.5774622200000010 5.8641167599999999 Na
atom 7.4519064500000001 1.8889989500000000 5.7887497200000002 Cl
atom 7.5967541399999998 4.6167067900000003 8.8316351399999995 Cl
atom 7.4435188400000003 1.9376692300000000 8.5212677499999998 Na
atom 7.4721510200000001 4.5861184799999997 5.8839367899999999 Na
atom 7.4880879499999997 7.5326238400000003 5.8003698200000002 Cl
atom 7.4573179800000000 10.3176145600000009 8.4702596200000002 Cl
atom 7.5948815300000003 7.6421432100000004 8.3971784500000002 Na
atom 7.6563807500000003 10.3538630299999994 5.8120847099999997 Na
atom 10.1814843699999997 13.1931838199999998 5.9280879600000000 Na
atom 13.3025870800000003 13.2129805600000001 5.6766839200000003 Cl
atom 10.3095117599999995 15.8859231399999992 8.4795362399999998 Na
atom 13.2362243700000004 16.0374137700000006 8.5279848000000005 Cl
atom 13.1667796700000004 13.1028719099999993 8.4514569200000000 Na
atom 10.1882829600000004 13.0469359399999991 8.5360746299999999 Cl
atom 13.0517538900000005 16.1837356399999983 5.8764044000000002 Na
atom 10.3127308800000002 16.0067416099999988 5.9189135500000001 Cl
atom 10.3421180199999991 19.0384519800000014 5.7630104600000003 Na
atom 12.9441612399999997 18.6748460999999999 5.7950143399999998 Cl
atom 10.3355497799999991 21.7024724300000003 8.2715540700000005 Na
atom 13.0162897500000003 21.6911859199999988 8.5529004299999993 Cl
atom 13.2203060499999996 18.8595238999999992 8.3875796400000002 Na
atom 10.1762317899999992 18.8445953000000017 8.4050639900000004 Cl
atom 12.9496611099999992 21.7516167500000002 5.6166566400000004 Na
atom 10.3179753600000002 21.5818206199999985 5.8630726600000003 Cl
atom 10.2842947000000002 24.4193387500000014 5.7515164600000004 Na
atom 12.9973939999999999 24.5594072099999998 5.4926749600000004 Cl
atom 10.1878619100000005 27.1986324400000008 8.3808527000000002 Na
atom 13.1189729300000000 27.1332041500000010 8.4944881900000002 Cl
atom 12.9243939099999992 24.3838080899999987 8.1691710499999992 Na
atom 10.3521577400000009 24.4997183300000003 8.5674912800000005 Cl
atom 13.1538852599999991 27.3626924699999989 5.9290390700000000 Na
atom 10.3001986599999995 27.1183871100000005 5.6336994799999998 Cl
atom 10.1763114100000003 30.1334732099999982 5.7944505900000003 Na
atom 13.0326225400000002 30.0922530899999998 5.7729100899999999 Cl
atom 10.1205915599999994 32.7703164599999965 8.2434970599999993 Na
atom 13.0752319700000008 32.9053493700000033 8.7250615000000007 Cl
atom 13.1012037800000005 30.0310390699999985 8.3626828599999996 Na
atom 10.3665618100000003 30.1627274400000012 8.6923478099999993 Cl
atom 13.1470175400000002 32.9006808700000022 5.8294237700000000 Na
atom 10.3464290200000004 32.9207350499999976 5.5998224900000002 Cl
atom 10.3913685900000008 35.6201899699999984 5.8853688699999998 Na
atom 13.0837354000000001 35.7066229899999996 5.7248753199999998 Cl
atom 10.1450346099999997 38.5777640399999981 8.4284543700000008 Na
atom 12.9683931000000001 38.4977315499999975 8.5346353300000004 Cl
atom 13.2673108600000003 35.5181390099999987 8.3237943800000007 Na
atom 10.1168760100000004 35.6683670800000030 8.6404522999999998 Cl
atom 13.1859965900000002 38.5564014200000003 5.8656965799999998 Na
atom 10.1747260199999996 38.4136876399999991 5.7388375900000002 Cl
atom 10.3399009300000007 1.8446686699999999 5.9081838700000002 Na
atom 13.1752535099999992 1.8909659500000000 5.8443794200000001 Cl
atom 10.3477066600000001 4.7369878200000004 8.5378734099999996 Na
atom 13.0544609200000004 4.9140138300000000 8.5345339599999992 Cl
atom 13.2414762800000005 1.9335852899999999 8.4722435699999998 Na
atom 10.3104432399999997 2.0753273900000000 8.6266895399999992 Cl
atom 13.1111663600000004 4.7200249200000002 5.8891834699999999 Na
atom 10.2545930500000004 4.4960406500000003 5.5537298000000002 Cl
atom 10.2695157800000008 7.6157129100000001 5.5362448500000001 Na
atom 13.0313175900000005 7.6380145300000004 5.8379734599999997 Cl
atom 10.3334372000000005 10.3392335099999997 8.4000485800000000 Na
atom 13.1834457500000006 10.2868233199999999 8.5848072599999998 Cl
atom 13.2448307199999995 7.5590489099999996 8.4665466100000000 Na
atom 10.4704910899999994 7.7363486300000002 8.5697206900000005 Cl
atom 13.3390035499999993 10.4738164200000003 5.7320984700000004 Na
atom 10.3418682000000004 10.4038533199999996 5.6721514600000003 Cl
atom 15.8164562699999998 13.1784082300000005 5.8415529700000004 Na
atom 18.8252227999999988 13.0409354299999993 5.5658899899999996 Cl
atom 15.9420974199999996 15.8758696599999993 8.4557651499999995 Na
atom 18.8199602800000001 15.9581423699999991 8.4799071900000005 Cl
atom 18.8044998099999994 13.2121260599999992 8.2862252999999999 Na
atom 16.1366901200000008 13.2568476799999999 8.2677245900000003 Cl
atom 18.8137791999999990 15.8994546099999994 5.8880524200000002 Na
atom 16.0512087000000001 15.9775303799999993 5.8149152500000003 Cl
atom 15.9646495599999998 18.8492801700000001 5.8436700100000003 Na
atom 18.8915951200000016 18.7981693599999993 5.8208699299999997 Cl
atom 15.8941626800000009 21.6376579800000002 8.0338099900000000 Na
atom 18.7641906799999987 21.7981774100000010 8.4636587500000005 Cl
atom 18.8741224500000015 18.8833506600000014 8.4811200299999996 Na
atom 15.9415964900000002 18.8946687199999985 8.6096068300000006 Cl
atom 18.8940974200000014 21.6166667900000000 5.7007344499999997 Na
atom 15.9134359599999993 21.7058755300000001 5.9010114900000001 Cl
atom 15.9667357200000009 24.7332526900000005 5.6825105499999999 Na
atom 18.7171303100000017 24.1961749799999986 5.7436392500000002 Cl
atom 15.9863558999999995 27.3284359899999991 8.6146404899999993 Na
atom 18.8507905999999998 27.2729950000000017 8.5663638700000000 Cl
atom 18.7941683399999988 24.4905321799999989 8.1689414899999999 Na
atom 16.0014715699999996 24.4736362999999990 8.5433693900000005 Cl
atom 18.7567803799999986 27.1618689700000004 5.8547583000000003 Na
atom 16.0899048499999999 27.2572425199999984 5.8082895700000003 Cl
atom 15.8553609400000006 30.1165261899999983 5.8054453900000000 Na
atom 18.8098677999999992 30.2956859899999991 5.7349166000000000 Cl
atom 15.9344103500000003 33.0938193100000007 8.3487595599999995 Na
atom 18.7398604499999983 33.0777113600000021 8.5490397300000005 Cl
atom 18.8486761700000010 30.0383758299999997 8.5760162399999995 Na
atom 16.0385413700000008 30.2828254100000009 8.6503727000000001 Cl
atom 18.8654086999999997 33.0534709300000031 5.8586006499999996 Na
atom 16.0333898800000014 32.8466654699999978 5.6881342500000001 Cl
atom 15.8162066800000005 35.7262716600000019 5.7711497800000000 Na
atom 18.8667125999999996 35.9240371599999975 5.7459407599999999 Cl
atom 15.9361893600000002 38.7200723199999999 8.3645907299999998 Na
atom 18.6325533300000004 38.5485428200000015 8.6324359499999996 Cl
atom 18.8240289499999989 35.8619585799999996 8.5234036000000000 Na
atom 15.9724724600000005 35.6914225100000024 8.5125869600000001 Cl
atom 18.7083903900000017 38.4827278200000009 5.8210378399999998 Na