#===============================================================================
# Created using the Atomic Simulation Environment (ASE)

# Tue Dec 23 22:26:58 2025

#=======================================================
lattice_vector 28.1999999999999993 0.0000000000000000 0.0000000000000000 
lattice_vector 0.0000000000000000 39.4799999999999969 0.0000000000000000 
lattice_vector 0.0000000000000000 0.0000000000000000 62.3296083400000001 
atom 7.5383376599999998 14.6101419700000008 0.2164144400000000 Au
atom 10.5056962299999999 14.7510048200000004 -0.1764663600000000 Au
atom 13.2653490499999993 14.8410596899999998 -0.2797492200000000 Au
atom 15.9339271100000008 14.6467306399999995 -0.0914684600000000 Au
atom 18.7299087799999988 14.7962349900000003 -0.2230295100000000 Au
atom 21.4466653200000010 14.8179146399999997 -0.0209967300000000 Au
atom 24.5018925900000006 14.8240070700000004 0.3829248400000000 Au
atom 27.4071529500000004 14.7750912099999994 -0.0558429000000000 Au
atom 1.9747304699999999 14.9361638200000009 -0.3117268300000000 Au
atom 4.4494287500000000 14.6242209200000008 0.2210166500000000 Au
atom 9.0730884500000002 17.3914689399999993 0.0246445000000000 Au
atom 11.5980727399999992 17.3568291200000004 -0.0748838700000000 Au
atom 14.6386922800000008 17.2873825399999994 -0.1735646200000000 Au
atom 17.4039214999999992 17.2060921899999997 -0.0478266800000000 Au
atom 20.4440649100000016 17.2717980500000010 -0.1366182000000000 Au
atom 23.0398897399999996 17.2317668799999986 -0.1149721700000000 Au
atom 25.8027203500000013 17.2886532700000011 0.1097905800000000 Au
atom 0.4369206100000000 17.3598387099999982 -0.2313513100000000 Au
atom 3.2221239200000000 17.2318067299999989 -0.1787171400000000 Au
atom 5.9843272100000000 17.2583879200000005 0.1022962600000000 Au
atom 7.2458280600000000 19.4387235400000016 0.4900946800000000 Au
atom 10.3343381200000000 19.8221937900000000 -0.0916442200000000 Au
atom 13.2559088000000003 19.5795390000000005 0.1184111500000000 Au
atom 16.1188238400000010 19.7130276900000005 -0.4463465400000000 Au
atom 18.9402058599999989 19.6828794999999985 -0.3292269700000000 Au
atom 21.3680076899999989 19.9265655899999992 -0.1622878600000000 Au
atom 24.4253685900000015 19.3955826900000012 0.1901178400000000 Au
atom 27.2307517399999988 19.7902097499999989 0.0139642300000000 Au
atom 1.8643681700000001 19.7589829399999992 -0.0855971400000000 Au
atom 4.6334855299999997 19.7383217399999999 -0.2912297800000000 Au
atom 8.7593460000000007 22.0103853100000002 -0.0495559800000000 Au
atom 11.7630454300000000 22.1881307200000002 -0.2820258200000000 Au
atom 14.7373534900000003 22.2339294500000015 -0.0754777600000000 Au
atom 17.2831323599999997 22.3596784799999995 -0.2804655200000000 Au
atom 20.2200773500000004 22.1818753099999988 0.1092243100000000 Au
atom 22.8792341300000004 22.2375386000000006 -0.2731318000000000 Au
atom 25.8259326000000016 22.1254102300000000 -0.1572125800000000 Au
atom 0.5436954300000000 22.1864343599999998 -0.1004909100000000 Au
atom 3.1411149799999998 22.2090341799999997 -0.0496498300000000 Au
atom 6.0741219299999996 22.1077343999999982 -0.0179092700000000 Au
atom 7.5282375600000000 24.5933822599999985 -0.3260405900000000 Au
atom 10.4003994500000001 24.5683445700000007 -0.3290118600000000 Au
atom 13.0380440899999996 24.8603117100000013 -0.2639352700000000 Au
atom 15.9462496700000003 24.6991966199999986 0.3278086000000000 Au
atom 18.9316167799999988 24.4559396699999994 -0.1275246800000000 Au
atom 21.8777414300000004 24.4688983399999991 0.1517018100000000 Au
atom 24.4026627000000005 24.8241779600000001 -0.3884554500000000 Au
atom 27.2858767100000001 24.6567107400000012 0.0925240800000000 Au
atom 1.8408079100000001 24.7989218700000009 -0.0042454000000000 Au
atom 4.7200083499999996 24.7536409800000001 -0.1396161000000000 Au
atom 9.0332446599999994 27.1402673800000009 0.1052034500000000 Au
atom 11.6479100100000004 27.3219574300000012 -0.1716521100000000 Au
atom 14.3936645500000004 27.0974562900000002 -0.3849792600000000 Au
atom 17.3766250400000004 26.9135320200000017 -0.0528576500000000 Au
atom 20.2694265499999986 27.0967607500000014 -0.4305842400000000 Au
atom 22.9723999700000014 26.9976683100000017 -0.2116565400000000 Au
atom 25.9041622199999999 27.3509239499999985 -0.3005352500000000 Au
atom 0.4631912200000000 27.1970325499999994 -0.0918020300000000 Au
atom 3.3911771000000002 27.2981454799999987 -0.0990913200000000 Au
atom 6.3051610100000000 27.0437502099999989 -0.2779919100000000 Au
atom 7.5867882299999998 29.5342368999999998 -0.0372499900000000 Au
atom 10.4969241600000007 29.6446900299999996 -0.1898976200000000 Au
atom 13.3534641300000008 29.8506479200000001 -0.4485059600000000 Au
atom 16.2098119400000016 29.6664959500000016 0.4486764600000000 Au
atom 18.8535068000000017 29.7703324999999985 -0.2541796300000000 Au
atom 21.6776680500000012 29.5054154199999985 -0.2506943100000000 Au
atom 24.4241327300000002 29.6730109900000016 -0.2428120300000000 Au
atom 27.2664633099999989 29.5623962800000015 -0.0069272700000000 Au
atom 1.9101979099999999 29.6870313199999991 -0.2541775300000000 Au
atom 4.9088832000000000 29.3958271000000018 0.1849540500000000 Au
atom 9.0079880400000008 32.1438127500000022 -0.3242016700000000 Au
atom 11.8843017500000006 32.4862512999999993 -0.1674363800000000 Au
atom 14.7054796299999992 32.1750922000000017 -0.1358718200000000 Au
atom 17.6274330699999986 32.2066004200000009 -0.0143698600000000 Au
atom 20.3989794300000007 32.1604882099999969 -0.4697638200000000 Au
atom 23.1611674600000015 32.1061338800000016 -0.3489990900000000 Au
atom 25.9038648800000004 31.9861414800000006 -0.1031295400000000 Au
atom 0.5230854900000000 32.2314418200000006 -0.0255153200000000 Au
atom 3.3349159500000001 32.1459238899999988 -0.0813938500000000 Au
atom 6.2539396099999998 32.0587580700000032 -0.1848926700000000 Au
atom 7.5927214899999997 34.5704329699999988 0.1378137300000000 Au
atom 10.4709241500000001 34.6806118699999999 -0.0661566400000000 Au
atom 13.3853462299999997 34.6700517700000006 0.1109327200000000 Au
atom 15.9445461999999996 34.5733132699999999 -0.0085921500000000 Au
atom 18.9902428400000005 34.4010467900000023 -0.0560815500000000 Au
atom 21.8331782099999998 34.5583297100000024 -0.2069328400000000 Au
atom 24.5293132800000002 34.5834854800000002 0.0686735800000000 Au
atom 27.2920514400000016 34.5552805100000029 0.0914743600000000 Au
atom 1.9057749399999999 34.7756080500000024 -0.0504269200000000 Au
atom 4.6139772600000004 34.5258071499999986 0.1441297500000000 Au
atom 8.9751652899999996 36.9581503200000014 0.1127160800000000 Au
atom 11.9497956799999994 37.1228157999999979 0.4683206700000000 Au
atom 14.8754982800000004 37.1352878300000029 -0.1230023200000000 Au
atom 17.5273388399999988 37.0647739999999999 0.1835128400000000 Au
atom 20.3090577199999984 36.9528158700000020 0.3008138900000000 Au
atom 23.3274365900000014 36.9060891199999972 0.2604316700000000 Au
atom 25.9150487600000012 37.2730177400000002 0.4870957800000000 Au
atom 0.5707408700000000 37.0982248999999982 0.2972073500000000 Au
atom 3.1605797000000000 36.9326580999999976 0.2845385800000000 Au
atom 6.1598974799999997 37.1527103800000020 0.2702360200000000 Au
atom 7.5295911699999998 0.0857604600000000 0.3260128000000000 Au
atom 10.4687987800000002 -0.1751032200000000 0.4362617900000000 Au
atom 13.2307631400000005 0.2069953100000000 0.3253161800000000 Au
atom 16.0718433599999990 0.1704797000000000 0.2337268100000000 Au
atom 18.9263393999999998 0.0540054200000000 0.1625977600000000 Au
atom 21.5027902799999993 0.0880423400000000 0.1039533700000000 Au
atom 24.2386484200000005 0.1618529000000000 0.5177788300000000 Au
atom 27.2790863500000000 0.2161127300000000 0.0731698700000000 Au
atom 1.8031283000000000 0.0912313400000000 0.5442824900000000 Au
atom 4.7070971600000000 -0.1451940300000000 0.5293844000000000 Au
atom 8.9966375200000002 2.4520733899999998 0.4559000300000000 Au
atom 11.7481049300000002 2.6099058600000000 0.2334161500000000 Au
atom 14.5384927400000006 2.5742172299999999 0.4191726800000000 Au
atom 17.5495674999999984 2.5250194000000001 0.2502207800000000 Au
atom 20.4438336000000014 2.3724289600000001 0.1841864000000000 Au
atom 22.8365600300000011 2.4252242599999998 0.4265519400000000 Au
atom 25.6733848100000017 2.6085077499999998 0.0263295200000000 Au
atom 0.3626751500000000 2.5337173499999999 0.8163346900000000 Au
atom 3.1613353800000001 2.2862241200000000 0.3847114400000000 Au
atom 6.1878850600000002 2.5890336299999999 0.3580459800000000 Au
atom 7.4299203199999999 4.9902197900000003 -0.1175927100000000 Au
atom 10.3807120200000007 4.7583852799999997 0.1190701900000000 Au
atom 13.2357506800000007 4.9750274000000001 0.2303419800000000 Au
atom 16.0777856399999983 4.9097737600000002 -0.0016014300000000 Au
atom 18.9275391800000001 4.9548625099999999 0.2309653400000000 Au
atom 21.9157244999999996 4.9353037300000002 0.2660721300000000 Au
atom 24.4223522700000011 4.9626546200000003 0.4909700100000000 Au
atom 27.4645559199999987 4.9354160599999997 0.5149343000000000 Au
atom 1.8510737500000001 4.8885550799999997 0.5385025400000000 Au
atom 4.7817881699999996 4.7958741600000003 0.2099428300000000 Au
atom 9.2736263500000007 7.4125876499999999 -0.0362393400000000 Au
atom 11.8469731199999995 7.7125064999999999 0.1849650200000000 Au
atom 14.6768232800000007 7.4389231699999998 0.0378914200000000 Au
atom 17.5024695900000005 7.2352553899999998 0.1562916600000000 Au
atom 20.3661493399999998 7.4944812299999999 0.1792547700000000 Au
atom 23.0223021800000005 7.5189729500000002 0.2464122100000000 Au
atom 26.0136471799999995 7.5451309499999999 0.1907455900000000 Au
atom 0.6703791900000000 7.4132669099999999 0.2808435900000000 Au
atom 3.2935948399999999 7.4686990700000004 -0.0285017800000000 Au
atom 6.3558163800000003 7.3817733299999997 0.2815171300000000 Au
atom 7.8520357199999999 9.7974970300000006 0.1210607400000000 Au
atom 10.4336585100000008 10.0605219600000009 0.1653263700000000 Au
atom 13.3891107900000002 9.7391790799999995 0.1464203000000000 Au
atom 16.1162743100000014 9.8194566999999999 -0.0743357000000000 Au
atom 18.8332002600000017 9.8156805899999995 0.1048786900000000 Au
atom 21.6582413799999998 9.9618720900000000 -0.1363074500000000 Au
atom 24.5247411000000000 10.0317190099999998 -0.0424480100000000 Au
atom 27.3302067499999986 9.7895496499999997 0.0029243900000000 Au
atom 1.9528566999999999 10.0297001600000009 0.0342182600000000 Au
atom 4.9472177600000000 9.7943649900000000 -0.2351526600000000 Au
atom 8.8148927300000004 12.3154423299999998 -0.2250869200000000 Au
atom 11.7548612200000004 12.2655672599999992 0.3037232700000000 Au
atom 14.5425275400000000 12.4439829000000000 0.1465188100000000 Au
atom 17.5140136499999990 12.3410354400000006 -0.1389855800000000 Au
atom 20.3032474100000009 12.3977618399999994 0.0343296000000000 Au
atom 23.1000789200000014 12.3209060600000004 0.0566846100000000 Au
atom 25.8285973499999990 12.3722606299999995 0.2197420700000000 Au
atom 0.7667713200000000 12.4008987899999994 -0.0772930300000000 Au
atom 3.2536036600000000 12.3003143799999997 -0.2200059400000000 Au
atom 6.3133871099999999 12.3053658099999996 0.1560328700000000 Au
atom 7.6106009999999999 13.1976437600000001 2.7447598400000000 Au
atom 10.3959642100000007 13.2531039600000007 2.3851273700000002 Au
atom 13.4052809300000000 13.2307813000000003 2.8479799699999999 Au
atom 16.1511884200000004 13.3952154300000004 2.7533623199999999 Au
atom 18.8978356900000009 13.3865736500000008 2.4833670799999998 Au
atom 21.5880907300000011 13.2640450899999998 2.7185870500000000 Au
atom 24.6800674700000009 13.0075535799999997 2.6103844500000002 Au
atom 27.4643178900000002 13.1096005400000006 2.6086388899999999 Au
atom 1.9764221000000000 13.3150000199999994 2.3139333400000002 Au
atom 4.7688653900000002 13.2341019499999994 2.7897887699999999 Au
atom 9.0792127300000001 15.9812231400000009 2.3514362000000002 Au
atom 11.7709591699999994 15.7175268900000003 2.1757965000000001 Au
atom 14.5374741200000006 15.8431577800000003 2.3714940200000001 Au
atom 17.3434157099999986 15.6922601099999994 2.6227760500000001 Au
atom 20.2868807500000017 15.8621629599999991 2.6255796999999998 Au
atom 23.1489644000000006 15.6900111700000000 2.6924231600000001 Au
atom 25.7923997999999983 15.6102597999999997 2.5642167699999998 Au
atom 0.5552481100000000 15.7435512499999994 2.4124748199999999 Au
atom 3.3931558599999998 15.8574266099999992 2.4386377200000000 Au
atom 5.9176148000000000 15.7136466000000006 2.4366935500000002 Au
atom 7.5406792200000003 18.0637846400000015 2.8989780199999999 Au
atom 10.3191437399999995 18.1479874000000017 2.5031751199999999 Au
atom 13.2858915199999998 18.0133734399999987 2.4647577599999999 Au
atom 16.0015475100000018 17.9732158300000009 2.3260999099999999 Au
atom 18.7343052199999995 18.2510189400000016 2.5397246700000000 Au
atom 21.5696991199999992 18.0302605800000002 2.3090641900000000 Au
atom 24.5312165399999991 18.1490824099999983 2.7536759700000002 Au
atom 27.1227902699999994 18.2124684200000004 2.8328039000000000 Au
atom 1.8987867800000000 18.3223993800000002 2.3977172200000001 Au
atom 4.9215403300000000 18.2871704000000008 2.5934628900000001 Au
atom 8.9717709100000000 20.4665629299999985 2.6733020900000000 Au
atom 11.8909576000000001 20.7476124800000008 2.5853088799999999 Au
atom 14.4092492399999994 20.4680395200000014 2.5512353900000000 Au
atom 17.4205905399999992 20.5209486299999995 2.2526024499999999 Au
atom 20.2333926200000001 20.4828289400000010 2.6305837200000002 Au
atom 22.8245466099999987 20.7047874800000002 2.6616615299999999 Au
atom 25.7133268000000008 20.6408122300000016 2.7219276300000002 Au
atom 0.4092179400000000 20.5697996299999986 2.6668933099999999 Au
atom 3.3540837400000001 20.6465058500000005 2.5278075100000001 Au
atom 6.1002368499999999 20.4651562100000000 2.7478528899999999 Au
atom 7.4517871299999996 23.2136145200000001 2.4031778600000000 Au
atom 10.4279625500000002 23.0369618699999990 2.2340827299999999 Au
atom 13.0897011200000009 23.1006487900000010 2.3962246399999998 Au
atom 16.0769796099999986 22.9552493499999990 2.4139719600000000 Au
atom 19.0136265800000004 23.1511195600000015 2.4106552300000001 Au
atom 21.5654581599999986 23.1409013100000003 2.6931195200000002 Au
atom 24.4446213300000004 23.1326913400000009 2.3389515599999999 Au
atom 27.1423291099999986 22.9893853999999997 2.6516129199999998 Au
atom 1.8406571599999999 23.0029931300000001 2.8160281800000000 Au
atom 4.5305595099999998 23.0206364800000003 2.3789779100000001 Au
atom 9.0621913099999993 25.4455440199999998 2.6381897099999998 Au
atom 11.7617258600000003 25.5576809999999988 2.4618441700000000 Au
atom 14.8107355199999997 25.6254711800000017 2.4363701400000002 Au
atom 17.5514429300000003 25.3685673800000018 2.5873709699999998 Au
atom 20.3039910900000002 25.7098032600000010 2.2401242600000000 Au
atom 23.0061488199999999 25.6223202999999984 2.4953446000000001 Au
atom 25.7556408700000006 25.3901563900000014 2.3481461900000000 Au
atom 0.4324197000000000 25.6079523599999987 2.7339586900000001 Au
atom 3.1618667999999999 25.3475208800000011 2.3757328700000002 Au
atom 6.2601872399999996 25.4875543299999983 2.6564478700000000 Au
atom 7.4633205599999997 28.0033108000000013 2.5686927900000001 Au
atom 10.4562672200000009 27.8715818400000011 2.5746677899999999 Au
atom 13.2610672300000001 27.9970175499999989 2.2867772899999999 Au
atom 16.0343599700000006 27.8485894899999984 2.4322555200000000 Au
atom 18.7435409399999990 28.0479063900000014 2.2569885799999998 Au
atom 21.6347788899999998 28.1031656100000014 2.2108984999999999 Au
atom 24.2744500599999995 27.9965114399999990 2.3839509699999999 Au
atom 27.2732315700000001 28.0019503800000003 2.4903817300000002 Au
atom 1.9662632400000000 27.8704660599999983 2.5073112499999999 Au
atom 4.6591877700000000 27.9954635600000010 2.8279641400000002 Au
atom 9.1198714899999995 30.2417453400000014 2.5319553500000000 Au
atom 11.8265437799999997 30.4757566299999993 2.4627162399999998 Au
atom 14.7055008600000008 30.5459549899999985 2.4110364600000000 Au
atom 17.4868625800000004 30.5410186000000010 2.6850342199999999 Au
atom 20.1985930700000011 30.4915684999999996 2.0936993400000001 Au
atom 22.9952037300000001 30.3998950000000008 2.4850686400000002 Au
atom 25.9769964800000004 30.3767305100000016 2.5264719300000000 Au
atom 0.5676899500000000 30.4229399399999991 2.4108315999999999 Au
atom 3.2448175199999998 30.3890047699999997 2.2787215399999998 Au
atom 6.1625562299999999 30.4954908200000006 2.4772896700000002 Au
atom 7.7337373999999999 32.7575895499999987 2.6403515700000000 Au
atom 10.4607796000000004 32.8746197400000000 2.5579499600000002 Au
atom 13.3304404699999992 32.9558995699999997 2.5419708200000000 Au
atom 16.0192626000000011 32.9263616900000002 2.9039863600000002 Au
atom 18.9840654099999995 32.7602713599999973 2.6739334200000000 Au
atom 21.8034338900000009 33.1892230099999992 2.3012574699999999 Au
atom 24.3503870099999986 32.9185747800000001 2.4365468099999998 Au
atom 27.4695039700000017 33.0032363300000000 2.4849143699999998 Au
atom 1.8880141300000000 32.9140767600000004 2.2432958200000002 Au
atom 4.7242767299999997 32.8271238800000020 2.5066027300000000 Au
atom 8.7272112100000001 35.3217690600000012 2.6976556100000000 Au
atom 11.5643149399999992 35.3178864599999969 2.8170374400000000 Au
atom 14.5915053900000000 35.4898486399999982 2.4868675800000002 Au
atom 17.7156334800000010 35.3234202000000010 2.7151230399999999 Au
atom 20.5239566499999988 35.5040389799999971 2.5871494099999999 Au
atom 23.1710736799999992 35.3097980699999994 2.5788763499999998 Au
atom 26.0685885199999987 35.4316935200000032 2.6057003600000002 Au
atom 0.5821346600000000 35.1568605699999992 2.6684662200000000 Au
atom 3.2701562200000001 35.4551263500000005 2.8561883400000001 Au
atom 6.0252707100000000 35.0342823300000035 2.9584858399999998 Au
atom 7.5208416600000003 37.8424121700000029 2.8332002900000002 Au
atom 10.5238238000000006 37.8370558100000025 2.9656061700000000 Au
atom 13.3500935999999992 37.7534823900000021 2.7939622599999998 Au
atom 16.0150593100000016 37.7577015000000031 2.7944381599999999 Au
atom 18.7796298899999989 37.8903501400000025 2.6458547299999999 Au
atom 21.5495479000000003 37.7964890100000019 2.7014473300000001 Au
atom 24.5516182900000004 37.8919630799999965 2.7682431900000002 Au
atom 27.3005919299999995 37.8644822099999985 3.1408973699999998 Au
atom 1.9963036100000000 37.7752390100000000 2.8429298500000000 Au
atom 4.8071100400000004 37.9108672799999979 3.0383354300000001 Au
atom 9.1037486100000002 0.8021323700000000 2.7935069100000001 Au
atom 11.9169859900000006 0.8968056900000000 3.0145076899999999 Au
atom 14.7739668399999999 0.8971770000000000 2.8650710699999999 Au
atom 17.5444931500000010 0.6953692500000000 2.5450783399999999 Au
atom 20.3284979499999992 0.8611232100000000 2.5146052900000000 Au
atom 23.1633116100000009 0.8159389200000000 3.0534127799999999 Au
atom 25.9503512699999987 1.0341888299999999 2.8834773500000002 Au
atom 0.5448116200000001 0.6889922300000000 2.9707797800000000 Au
atom 3.2803538400000001 0.9014890800000001 3.0537551700000001 Au
atom 6.1428509900000003 0.8966252300000001 2.8548083200000001 Au
atom 7.6325514999999999 3.2382365900000001 2.8422428300000000 Au
atom 10.4439917999999992 3.3202261399999999 2.7823323800000002 Au
atom 13.1333034200000007 3.4924457599999998 2.7157850899999998 Au
atom 16.0487108899999988 3.3909437699999998 2.8490512699999999 Au
atom 18.7721249999999991 3.2483167599999998 2.7174642800000002 Au
atom 21.6504392099999983 3.2762348200000000 2.7702201799999999 Au
atom 24.5570167599999998 3.3510496100000000 3.0770038899999999 Au
atom 27.2613792199999985 3.5529840500000001 3.0500129500000002 Au
atom 1.7925511000000001 2.9977303000000002 3.0040971700000001 Au
atom 4.8273259299999998 3.4250952300000002 2.7937871599999999 Au
atom 8.9673071199999992 5.8263804600000002 2.8188013500000002 Au
atom 11.9426151300000001 5.8933002400000003 2.8623642399999998 Au
atom 14.7285929899999992 5.8710047500000000 2.8878554099999998 Au
atom 17.4496698799999983 5.8988796600000004 2.4877207900000000 Au
atom 20.1407902900000018 5.7033473299999997 2.5919715000000001 Au
atom 23.1727078099999986 5.6677476300000000 2.7406223900000000 Au
atom 25.9662764499999987 5.7186402400000000 2.7000353300000000 Au
atom 0.5800824500000000 5.6984418799999998 2.9772071300000000 Au
atom 3.4456254799999999 5.6328240300000001 3.0769746900000001 Au
atom 6.3354406200000000 5.8320661800000000 2.9880390200000000 Au
atom 7.7499208599999996 8.3991086999999993 2.8282439300000002 Au
atom 10.4001011600000002 8.3248380500000003 2.9945777100000002 Au
atom 13.4257966000000000 8.0847850700000006 2.7238156600000001 Au
atom 16.0151768499999996 8.3883968899999992 2.8364855599999999 Au
atom 18.9301138299999998 8.2954894499999998 2.7012893400000002 Au
atom 21.4781219599999993 8.2025965200000002 2.6920458900000002 Au
atom 24.4130839199999983 8.4464614000000005 2.9384549500000001 Au
atom 27.2103638500000002 8.3344573200000003 2.5610773199999999 Au
atom 2.0546555000000000 8.3230074900000002 2.6568736600000000 Au
atom 4.9334121399999997 8.4602356299999997 2.7732924300000001 Au
atom 8.9083789299999996 10.6505648500000003 2.6789430900000002 Au
atom 11.9666800700000007 10.9266726700000003 2.8389251600000001 Au
atom 14.6676859799999999 10.8603830699999993 2.4823410500000000 Au
atom 17.3630739500000004 10.5500717599999998 2.4656652399999999 Au
atom 20.2344542800000013 10.6699888200000004 2.6994156100000000 Au
atom 23.2174177800000017 10.7753093100000008 2.5622824999999998 Au
atom 25.9086423900000007 10.7463784300000000 2.5429858699999999 Au
atom 0.6194716100000000 10.6790031299999999 2.5863597999999999 Au
atom 3.6005186100000000 10.8037537300000004 2.5582297500000002 Au
atom 6.4630301699999997 10.7227873900000006 2.8576030000000001 Au
atom 7.3033162699999998 12.8470985500000001 5.9938674199999999 Cl
atom 7.0787559800000004 15.9859843900000005 8.3215682300000005 Cl
atom 7.0727844099999997 13.2670546300000005 8.5760405399999993 Na
atom 7.0048297799999997 15.7455859799999995 5.7860346800000002 Na
atom 6.7530818000000004 18.7081539499999998 5.8592590199999997 Cl
atom 6.9942645800000003 21.7786342700000013 8.3799737299999997 Cl
atom 6.8939821600000002 19.0789861000000016 8.3718209899999998 Na
atom 7.1921387200000000 21.8939081500000015 5.7296697099999996 Na
atom 6.8751631000000000 24.6167095499999995 5.7067737100000002 Cl
atom 7.0143137500000003 27.6973760599999999 8.4828135000000007 Cl
atom 6.8199903800000001 24.5823331699999983 8.3108290799999995 Na
atom 7.0065418900000003 27.4591104000000001 5.6392074200000000 Na
atom 7.0428480000000002 30.5166003799999999 5.6361560300000004 Cl
atom 6.7160815999999999 32.9197310400000021 8.6585361400000007 Cl
atom 7.1084873699999997 30.2840163900000015 8.5843649000000006 Na
atom 7.0915935299999999 33.1602633999999981 5.8366129000000004 Na
atom 7.1267619399999997 35.9018337099999982 5.8131933800000004 Cl
atom 7.3110171499999996 38.4372315999999969 8.9448352599999996 Cl
atom 7.1961034300000000 35.7822658600000025 8.4544593199999998 Na
atom 7.1658236899999999 38.5931599800000029 6.0304259299999998 Na
atom 7.2262579799999997 1.8794598899999999 5.9384426699999997 Cl
atom 7.1375775900000002 4.9000495900000001 8.7731390600000001 Cl
atom 7.4410506300000003 1.8766792600000000 8.5244951300000000 Na
atom 7.2926501000000004 4.4649294099999999 5.9094619599999998 Na
atom 7.1686792199999996 7.4905506099999997 5.9647626899999997 Cl
atom 7.1875716599999997 10.2282538499999998 8.9795606299999999 Cl
atom 7.3908939800000004 7.6523668899999997 8.6442674299999993 Na
atom 7.0029237599999998 10.1307072199999997 5.8733864499999999 Na
atom 9.7799539899999992 13.1553700899999999 6.1750809100000001 Na
atom 12.9282488299999994 13.0611382500000008 5.7535975900000000 Cl
atom 9.9221001599999994 16.1394070499999991 8.4832783299999992 Na
atom 12.5875314100000004 15.9631616600000008 8.5531815400000006 Cl
atom 12.7970909899999992 13.2601543799999995 8.7755433000000007 Na
atom 9.9977148200000006 12.8364373000000001 8.9423892699999996 Cl
atom 12.7633980699999992 15.8596683600000006 5.8279016300000004 Na
atom 9.7639600800000004 15.7009571500000007 5.5206286899999997 Cl
atom 9.8561563700000008 18.7749466500000004 5.7421569999999997 Na
atom 12.6661342599999998 18.8333186999999995 5.8452140400000001 Cl
atom 9.8877643499999994 21.9474604900000010 8.3051358700000009 Na
atom 12.7490956900000008 21.7697224399999989 8.4624347600000007 Cl
atom 12.6819728299999994 19.2227642799999998 8.2866742999999996 Na
atom 9.9110599599999993 18.9266048399999995 8.1142739400000004 Cl
atom 12.6106319599999992 21.8566146000000003 5.5111675099999999 Na
atom 10.0649999500000007 21.7445297199999992 5.6159528700000001 Cl
atom 9.9816798200000001 24.4480918199999984 5.6313435800000002 Na
atom 12.7774854700000002 24.5269881500000011 5.5160853899999998 Cl
atom 9.9702124300000001 27.5047812200000017 8.1692599200000000 Na
atom 12.7924623700000009 27.4182300000000012 8.3818946699999994 Cl
atom 12.8562510900000007 24.7828831399999991 8.0365163899999992 Na
atom 10.2704547599999998 24.6983723600000005 8.5019870700000002 Cl
atom 12.6502413800000006 27.4522700999999998 5.6408756999999996 Na
atom 9.8091143499999998 27.1015532199999996 5.6239923300000001 Cl
atom 9.7459723100000009 30.3294518099999983 5.8136384500000000 Na
atom 12.3775793400000005 30.0645972000000015 5.6711979399999999 Cl
atom 10.0403472699999998 33.0786336099999971 8.3159486900000008 Na
atom 12.9893081200000005 32.9161378599999992 8.6220612800000005 Cl
atom 12.8016649600000001 30.1391772200000005 8.2568744299999999 Na
atom 9.9343973499999993 30.3459748000000005 8.5436901600000006 Cl
atom 12.8484297999999999 33.1473765200000017 5.8700246199999997 Na
atom 9.9411810000000003 33.1477228299999993 5.7945977400000004 Cl
atom 9.9984615600000009 35.9813770000000019 6.1993549400000001 Na
atom 12.7799424100000003 35.6472777700000023 5.9630864399999997 Cl
atom 9.8984463999999992 38.6750688199999999 8.5355570699999994 Na
atom 12.7910707200000004 38.3950673399999971 8.8760568299999996 Cl
atom 12.7623287500000000 35.8034194399999990 8.5437052700000002 Na
atom 10.0641510800000002 35.8356992000000005 8.9127112400000001 Cl
atom 12.9069280499999994 38.4490460100000035 5.8774873300000001 Na
atom 10.0194762700000002 38.4652307899999997 6.0193802400000003 Cl
atom 9.7821759499999992 1.8102079300000000 6.0562089500000003 Na
atom 12.7623341600000000 1.7142574900000001 6.1024527900000001 Cl
atom 10.1272590699999991 4.8061888599999998 8.7328583500000008 Na
atom 12.8171807799999993 4.6274216800000003 8.8721362199999998 Cl
atom 12.8157066299999993 1.9941032500000000 8.5617143999999996 Na
atom 10.1688477299999995 1.8754686800000000 8.9848986300000000 Cl
atom 12.9677786000000008 4.6828715499999998 5.8307843500000001 Na
atom 10.0638738900000000 4.5561600300000000 5.8910579900000002 Cl
atom 9.9232188099999998 7.4430439699999997 6.4475873999999997 Na
atom 12.9430258100000000 7.5798016700000002 6.1358966500000003 Cl
atom 10.1397480899999994 10.3157362300000006 8.6227339500000006 Na
atom 12.8811021199999995 10.3858415199999996 8.6907019999999999 Cl
atom 12.5618306499999992 7.6808972700000000 8.7369360900000004 Na
atom 9.9424421299999999 7.4757042199999999 8.9421767699999997 Cl
atom 12.8753341599999995 10.2998309300000006 6.0297685300000001 Na
atom 10.1512656299999993 10.3418012000000008 6.1461644299999998 Cl
atom 15.4920632600000001 13.1129288800000001 5.8323551299999998 Na
atom 18.1563349699999996 13.2119623599999994 5.4034255900000003 Cl
atom 15.4545657700000003 16.1105030900000017 8.6363666099999996 Na
atom 18.3253046799999986 16.0354368600000008 8.5972318899999998 Cl
atom 18.3294162599999986 13.3393484499999992 8.2665015900000007 Na
atom 15.6736615799999992 13.1745546699999991 8.7819529999999997 Cl
atom 18.4533799400000014 15.9216917900000006 5.8708743099999996 Na
atom 15.3834076000000000 16.0454250400000014 6.0123988600000002 Cl
atom 15.4282065199999998 18.7944934000000003 5.8878791000000001 Na
atom 18.4819828400000006 18.9006240199999986 5.6463149399999999 Cl
atom 15.3017309600000004 21.9537060799999999 8.1345925399999999 Na
atom 18.4101216299999990 21.9018288900000009 8.1514666600000005 Cl
atom 18.3893353899999994 18.9401700499999990 8.3211923599999995 Na
atom 15.6057314300000005 18.7964892900000002 8.3070679300000005 Cl
atom 18.3612323699999997 21.7516113699999991 5.4919635199999997 Na
atom 15.5401217500000008 21.7777778300000016 5.6852644699999999 Cl
atom 15.7315333800000001 24.4668072899999984 5.5675558799999996 Na
atom 18.3122661600000001 24.4426042099999989 5.3606616100000002 Cl
atom 15.6178248400000008 27.1890933200000013 8.0401489799999997 Na
atom 18.2952151299999990 27.4450143000000004 8.0488035000000000 Cl
atom 18.3891117299999998 24.7373940400000016 8.0297207400000001 Na
atom 15.7921948299999997 24.6062854199999990 8.4862457800000008 Cl
atom 18.3517730199999995 27.6491754599999986 5.4151189600000000 Na
atom 15.2303920500000007 27.8909473599999984 5.7439461400000003 Cl
atom 15.5075240599999997 30.2475601300000001 5.8601005199999996 Na
atom 18.4052542700000004 30.2378364799999986 5.5356495299999997 Cl
atom 15.8287268999999995 32.9692787500000009 8.2488165599999999 Na
atom 18.4775316799999985 32.9777219400000021 8.4498747600000002 Cl
atom 18.2852879199999983 30.3821181399999993 8.3377062700000000 Na
atom 15.5742160199999997 30.2954511599999989 8.3208625600000001 Cl
atom 18.3235543999999990 33.1248567900000026 5.6299242200000004 Na
atom 15.6108432100000005 32.9782101500000024 5.5137887599999997 Cl
atom 15.8576881200000006 35.6667320099999969 5.6105808200000000 Na
atom 18.2305553600000003 36.0916254799999976 5.7021878700000004 Cl
atom 15.6475612599999998 38.6618253800000033 8.5869070000000001 Na
atom 18.3848436699999986 38.5407079399999972 8.5814324899999992 Cl
atom 18.5210068200000002 35.7274484900000004 8.4555187899999993 Na
atom 15.7533304399999992 35.8829640200000028 8.7150883500000003 Cl
atom 18.3634368499999994 38.8939641300000005 5.8929547299999996 Na