#===============================================================================
# Created using the Atomic Simulation Environment (ASE)

# Tue Dec 23 21:42:57 2025

#=======================================================
lattice_vector 28.1999999999999993 0.0000000000000000 0.0000000000000000 
lattice_vector 0.0000000000000000 39.4799999999999969 0.0000000000000000 
lattice_vector 0.0000000000000000 0.0000000000000000 62.3296083400000001 
atom 7.5341387500000003 14.8189463000000003 0.0533284600000000 Au
atom 10.3188824900000000 14.8267626700000008 0.0173471300000000 Au
atom 13.1061377300000004 14.8016917899999996 0.0110723300000000 Au
atom 15.9513086099999999 14.8252210899999994 -0.0071451200000000 Au
atom 18.8038523600000005 14.8117268000000006 -0.0157202100000000 Au
atom 21.6312918100000005 14.8473379699999999 -0.0245548200000000 Au
atom 24.4524645800000009 14.7893797700000000 0.1059593900000000 Au
atom 27.2602757500000017 14.8121554000000000 0.0116951100000000 Au
atom 1.8727514300000001 14.7747587500000002 -0.0072607800000000 Au
atom 4.6717145999999996 14.8155499499999994 -0.0153465600000000 Au
atom 8.8743764699999996 17.3176121899999984 -0.0114620800000000 Au
atom 11.7171919199999994 17.2834738899999998 0.0194515400000000 Au
atom 14.5441477599999995 17.2705494000000002 -0.0315774800000000 Au
atom 17.3790891499999987 17.2815164400000008 0.0122966700000000 Au
atom 20.1900113499999989 17.2853436400000007 0.0355960700000000 Au
atom 23.0177325900000014 17.3092528799999990 0.0179245300000000 Au
atom 25.8391437800000006 17.2913139300000012 0.0195600900000000 Au
atom 0.4813048300000000 17.2906249400000007 0.0521603000000000 Au
atom 3.2357917899999999 17.2847754900000012 -0.0505589900000000 Au
atom 6.0772678800000000 17.2663855899999987 0.0535993700000000 Au
atom 7.5013481600000000 19.7711712300000002 0.1390648300000000 Au
atom 10.3507205100000004 19.7411897799999991 0.0419300600000000 Au
atom 13.1504818500000003 19.7377361200000010 0.1334165100000000 Au
atom 15.9573518900000000 19.7656930700000011 0.0322230500000000 Au
atom 18.7765106800000012 19.7313700099999991 0.0611580800000000 Au
atom 21.6046954400000004 19.7626410399999983 0.0690329300000000 Au
atom 24.4729193999999985 19.6962548999999996 0.1308813600000000 Au
atom 27.2718620499999993 19.7747245800000009 0.0632460800000000 Au
atom 1.8663670600000000 19.7787829799999990 0.0937792100000000 Au
atom 4.6684687399999998 19.7555668900000008 0.0836572200000000 Au
atom 8.8890227799999995 22.2011476899999991 0.0259926900000000 Au
atom 11.7486810399999992 22.1693799600000006 0.0666111700000000 Au
atom 14.5692284000000001 22.1996982500000009 -0.0233840000000000 Au
atom 17.3699267999999982 22.2085667300000011 0.0188661100000000 Au
atom 20.1716854900000016 22.1967897299999990 0.0500604500000000 Au
atom 23.0190605700000006 22.1806517800000016 0.0156276100000000 Au
atom 25.8211634100000005 22.2190577299999994 0.0408174900000000 Au
atom 0.4648394800000000 22.2451162700000005 0.0776978100000000 Au
atom 3.2753870400000000 22.2152763100000001 0.0485504100000000 Au
atom 6.0783095400000002 22.2071140999999983 0.0742990200000000 Au
atom 7.4884865500000002 24.6870591099999999 0.0583589400000000 Au
atom 10.3183603300000009 24.6832100399999987 0.1434050500000000 Au
atom 13.1407863200000001 24.6850661600000016 0.0728833300000000 Au
atom 15.9258464800000006 24.7101943400000010 0.0367583300000000 Au
atom 18.7650470100000000 24.6779008699999984 0.1482407500000000 Au
atom 21.6103117199999986 24.6748121000000005 0.1381497800000000 Au
atom 24.4093361599999987 24.6792629699999999 0.0267987300000000 Au
atom 27.2436486500000008 24.6864178000000010 0.0923740800000000 Au
atom 1.8647694600000000 24.6646468299999988 0.1637494400000000 Au
atom 4.6819666700000004 24.6903649300000012 0.1528679700000000 Au
atom 8.9180016900000005 27.1677297600000003 0.0953552700000000 Au
atom 11.7565544899999992 27.1119005599999987 0.0107466200000000 Au
atom 14.5718977899999995 27.1658470100000002 0.0505115300000000 Au
atom 17.3769233000000014 27.1146806600000012 0.0722539600000000 Au
atom 20.2278886699999987 27.1796566900000016 0.0477626200000000 Au
atom 23.0155651900000002 27.1472430799999991 0.0391336300000000 Au
atom 25.8442206100000007 27.1347924599999999 0.0089241600000000 Au
atom 0.4547190000000000 27.1172935099999997 0.0258574000000000 Au
atom 3.2737048600000000 27.1272170000000017 0.0153888500000000 Au
atom 6.0849425500000001 27.1041366699999990 0.0431615500000000 Au
atom 7.4955698100000001 29.6330201500000001 0.0271568900000000 Au
atom 10.3534025300000003 29.6063973199999992 0.0542987800000000 Au
atom 13.1429318199999994 29.6307745999999987 -0.0258681600000000 Au
atom 15.9462536799999999 29.6011602499999995 0.0170397500000000 Au
atom 18.7895247000000012 29.6070292500000001 -0.0057317800000000 Au
atom 21.6101908999999992 29.5927265400000010 0.1136516400000000 Au
atom 24.4174940199999995 29.6455033499999985 -0.0036062400000000 Au
atom 27.2608227499999991 29.6158622099999995 0.0666767900000000 Au
atom 1.8816238500000000 29.6255910299999989 0.0290465100000000 Au
atom 4.6875796100000002 29.5928897500000012 0.0690355200000000 Au
atom 8.9348460599999999 32.0333596999999983 -0.0026929600000000 Au
atom 11.7257441700000005 32.1020682899999983 0.0315265900000000 Au
atom 14.5325998700000003 32.0837649300000010 0.0402118300000000 Au
atom 17.3547781100000016 32.0638317499999985 0.0878095400000000 Au
atom 20.1923204200000015 32.0705344300000021 0.0375991000000000 Au
atom 23.0014088100000009 32.0974844899999994 -0.0219506700000000 Au
atom 25.8284941699999990 32.0977359199999981 -0.0028231500000000 Au
atom 0.4783317900000000 32.0931065099999984 -0.0291067100000000 Au
atom 3.3311619900000000 32.0758704499999965 -0.0004370500000000 Au
atom 6.1220298599999996 32.0921992199999977 -0.0171729800000000 Au
atom 7.5222381399999998 34.5669624599999992 -0.0131509100000000 Au
atom 10.3367060500000001 34.5599357600000019 0.0234404100000000 Au
atom 13.1285562599999999 34.5474204499999971 -0.0008983700000000 Au
atom 15.9548805500000004 34.5327044699999988 0.0402308500000000 Au
atom 18.7843850600000017 34.5344082900000018 -0.0160623900000000 Au
atom 21.6045952399999983 34.5375294800000034 0.0070044800000000 Au
atom 24.4417733099999985 34.5660039799999979 0.0284537900000000 Au
atom 27.2521132900000005 34.5379226000000017 0.0489215900000000 Au
atom 1.8918477400000000 34.5850475800000012 -0.0419817100000000 Au
atom 4.7116007099999999 34.5543793699999995 0.0614589100000000 Au
atom 8.9100670500000003 37.0216636299999990 0.0406292200000000 Au
atom 11.7413908500000002 37.0667382500000002 0.0774495400000000 Au
atom 14.5469803399999993 37.0131510599999984 0.0483129200000000 Au
atom 17.4136150200000017 37.0063705999999968 0.0370692300000000 Au
atom 20.2193844600000006 37.0193744800000033 0.0570175600000000 Au
atom 23.0042235999999995 37.0498880199999974 -0.0039941500000000 Au
atom 25.8604544499999989 37.0287067300000032 0.0400444500000000 Au
atom 0.4315150200000000 37.0305980400000010 0.0480379200000000 Au
atom 3.2601580100000001 37.0544263099999966 0.0239576900000000 Au
atom 6.0811067699999999 37.0051968499999973 0.0195081200000000 Au
atom 7.5166284200000000 0.0554054600000000 0.0138398900000000 Au
atom 10.3200781900000003 -0.0025178000000000 0.0686134800000000 Au
atom 13.1306622300000004 0.0585864300000000 0.0831463200000000 Au
atom 15.9671813599999997 -0.0133237900000000 0.0852174600000000 Au
atom 18.8001172499999996 0.0624258300000000 0.0543650000000000 Au
atom 21.5919497500000013 0.0204965200000000 0.1164819700000000 Au
atom 24.4185302499999999 0.0111297300000000 0.0885914900000000 Au
atom 27.2322121499999987 -0.0034558000000000 0.1234248000000000 Au
atom 1.8449337400000001 0.0359426700000000 0.0701863500000000 Au
atom 4.6530644399999996 0.0031614500000000 0.0932474900000000 Au
atom 8.8984546299999998 2.5143477999999999 0.0523072100000000 Au
atom 11.7132860799999996 2.4802380300000002 0.0863991100000000 Au
atom 14.5542665899999992 2.4991987299999998 0.0941314900000000 Au
atom 17.3305442099999993 2.4670573299999998 0.0492083500000000 Au
atom 20.1725751399999993 2.4927214200000001 0.0899044100000000 Au
atom 23.0072691999999996 2.4813543100000000 0.1165258500000000 Au
atom 25.8462393699999993 2.4783861200000001 0.0817730800000000 Au
atom 0.4770331200000000 2.5025643199999998 0.0073515600000000 Au
atom 3.2695378499999999 2.4724986900000001 0.1120538200000000 Au
atom 6.0872058800000000 2.4867765700000000 -0.0207508400000000 Au
atom 7.4671227299999998 4.9706741299999999 0.0458668400000000 Au
atom 10.3038296200000001 4.9603261400000003 0.0888643800000000 Au
atom 13.1478762099999997 4.9462855599999997 0.1701998000000000 Au
atom 15.9764868199999999 4.9588986600000000 0.0936685400000000 Au
atom 18.7642232200000016 4.9484716200000003 0.0953708700000000 Au
atom 21.5939161700000000 4.9355525800000004 0.0849282800000000 Au
atom 24.4342204199999991 4.9252159999999998 0.1400744200000000 Au
atom 27.2322849799999993 4.9374109099999997 0.1425154000000000 Au
atom 1.8655553700000000 4.9715100000000003 0.0879309300000000 Au
atom 4.6610489800000003 4.9586365700000004 0.1150324800000000 Au
atom 8.9040803200000003 7.4375653399999999 0.0915612500000000 Au
atom 11.7277964600000004 7.3746141700000001 0.0520289200000000 Au
atom 14.5471526200000003 7.3953239499999999 0.0354545300000000 Au
atom 17.3853206500000006 7.4145479900000000 0.1365453400000000 Au
atom 20.1718627999999995 7.4517242799999996 0.1012862700000000 Au
atom 23.0221269100000008 7.3799663600000001 0.0479936900000000 Au
atom 25.8419519999999991 7.4230572700000002 -0.0027244200000000 Au
atom 0.4655278800000000 7.3999332200000003 0.0063863200000000 Au
atom 3.2730375199999999 7.4229039700000001 0.0030478300000000 Au
atom 6.0739275800000003 7.4216349800000003 0.0494227900000000 Au
atom 7.5137991700000004 9.8521094399999996 0.0669199800000000 Au
atom 10.3484680800000000 9.8632915600000004 0.0224955000000000 Au
atom 13.1618446299999992 9.8351538099999996 0.0542373900000000 Au
atom 15.9993381200000009 9.8912012699999998 0.0348673400000000 Au
atom 18.7821828400000008 9.8841131200000003 0.1041355200000000 Au
atom 21.6434902700000009 9.8795667700000003 0.0325796900000000 Au
atom 24.4355735199999984 9.8828437099999995 0.0482202700000000 Au
atom 27.2552740699999987 9.8794322300000008 0.0773137000000000 Au
atom 1.8724975500000001 9.8515376200000002 0.0160867000000000 Au
atom 4.6902867400000003 9.9074694700000006 0.0300648300000000 Au
atom 8.9142561300000001 12.3321595500000001 -0.0124770400000000 Au
atom 11.7435152899999995 12.3041064999999996 -0.0358331000000000 Au
atom 14.5491831400000002 12.3637333100000006 0.0244861100000000 Au
atom 17.3556433100000014 12.3603778799999997 0.0439166800000000 Au
atom 20.1875283199999984 12.3580628200000007 -0.0250199000000000 Au
atom 22.9954788000000008 12.3679991600000001 0.0068099600000000 Au
atom 25.8291599699999992 12.3152745199999991 -0.0271716000000000 Au
atom 0.4837017700000000 12.3318850300000005 -0.0346096600000000 Au
atom 3.2892982599999998 12.3353123700000005 -0.0166260900000000 Au
atom 6.1249119099999998 12.3537593099999992 -0.0034330900000000 Au
atom 7.5026827699999998 13.1860470999999997 2.6833165399999999 Au
atom 10.3171006100000007 13.1935422500000001 2.5413101100000000 Au
atom 13.1343852999999999 13.1666350899999998 2.3600360600000001 Au
atom 15.9427212600000008 13.2024425500000007 2.5721260400000001 Au
atom 18.7907583299999992 13.2139388499999999 2.7263585799999999 Au
atom 21.6164189200000010 13.1863262700000003 2.5677298600000000 Au
atom 24.4520728699999985 13.1549819200000009 2.6380742300000000 Au
atom 27.2422107800000006 13.1926779500000002 2.5297676899999999 Au
atom 1.8800974200000000 13.2024826900000001 2.6349952100000000 Au
atom 4.6991081200000000 13.2133934899999996 2.5965430700000001 Au
atom 8.9025241699999995 15.6244001499999996 2.6160795900000000 Au
atom 11.7283499599999992 15.6642366699999993 2.5942120700000002 Au
atom 14.5494420499999997 15.6686394399999998 2.5742232600000001 Au
atom 17.3875049600000011 15.6490936099999995 2.6701256000000000 Au
atom 20.2033874000000004 15.6589954999999996 2.6018086700000000 Au
atom 23.0342448399999995 15.6245211600000005 2.6726162300000000 Au
atom 25.8349598699999987 15.6709959300000001 2.6303054900000000 Au
atom 0.4888157900000000 15.6472251599999996 2.6176716500000001 Au
atom 3.2808248500000001 15.6526709499999992 2.5996540000000001 Au
atom 6.1111471599999998 15.6485910199999996 2.6361386900000001 Au
atom 7.5279241700000004 18.0886766899999998 2.7085031200000000 Au
atom 10.3381698800000006 18.0972333399999989 2.5901367099999999 Au
atom 13.1415679599999997 18.0725118999999985 2.6534810400000000 Au
atom 15.9768231000000007 18.1110934199999996 2.6222941099999999 Au
atom 18.7822932899999984 18.1238726499999991 2.7351673900000000 Au
atom 21.6010744199999998 18.1194127199999997 2.6576932300000000 Au
atom 24.4050292199999994 18.0745571699999985 2.7580087099999999 Au
atom 27.2477908400000004 18.1277506200000005 2.6310693100000000 Au
atom 1.8860083100000000 18.1205273600000005 2.6457555300000002 Au
atom 4.6965335499999998 18.1110682300000008 2.6283385500000001 Au
atom 8.8905800199999998 20.5750907500000011 2.7289558600000001 Au
atom 11.7032014800000006 20.5720977299999994 2.7127204499999999 Au
atom 14.5757874800000007 20.5939440000000005 2.6460439099999999 Au
atom 17.3743827499999988 20.5842274100000004 2.6618841899999999 Au
atom 20.1818078800000009 20.5885464399999982 2.6673451199999998 Au
atom 22.9845943599999991 20.5708701699999992 2.7307610699999998 Au
atom 25.8264482300000004 20.5663238499999999 2.6724988399999998 Au
atom 0.4425982200000000 20.6079949000000013 2.6753167300000000 Au
atom 3.2606511299999998 20.5877870399999985 2.7454035900000000 Au
atom 6.0923983000000002 20.5966248599999986 2.7263964600000001 Au
atom 7.5294870800000000 23.0532502800000003 2.6355928400000002 Au
atom 10.3813779000000004 23.0384728599999988 2.6284892200000001 Au
atom 13.1756455399999997 23.0210853799999988 2.6442403799999998 Au
atom 15.9989934700000003 23.0789869299999992 2.5978498800000001 Au
atom 18.8282219399999988 23.0377086700000007 2.6209391499999999 Au
atom 21.6130980699999995 23.0752266100000014 2.6366831300000002 Au
atom 24.4243875700000004 23.0635803899999985 2.6661843099999998 Au
atom 27.2297709999999995 23.0625937400000005 2.6636965099999999 Au
atom 1.8625381599999999 23.0847392999999990 2.7114724799999999 Au
atom 4.6776468700000002 23.0432887099999988 2.7401480000000000 Au
atom 8.9155081599999999 25.5376500700000015 2.7226371899999999 Au
atom 11.7210066200000007 25.5488547600000011 2.7081747699999998 Au
atom 14.5593949200000008 25.5350105899999988 2.6717952199999999 Au
atom 17.3557478100000004 25.5701373799999985 2.6919916700000002 Au
atom 20.1940343899999988 25.5616836899999988 2.6835089999999999 Au
atom 23.0222200400000006 25.5354905800000012 2.7311180700000000 Au
atom 25.8522701999999995 25.5326620200000001 2.7103873500000000 Au
atom 0.4339714000000000 25.5344792299999988 2.7085522000000002 Au
atom 3.2818330599999999 25.5408858800000012 2.7208064799999998 Au
atom 6.1110254599999996 25.5307003299999984 2.7295381500000002 Au
atom 7.4934133100000002 28.0093173100000001 2.6164015900000002 Au
atom 10.3171980500000000 28.0116313699999999 2.6543899999999998 Au
atom 13.1302939500000004 27.9935138799999983 2.5936678999999998 Au
atom 15.9216332499999993 28.0116575700000006 2.6908903099999999 Au
atom 18.7450731300000015 28.0171198600000011 2.5836557700000000 Au
atom 21.5875616100000016 27.9980308899999990 2.7230039599999998 Au
atom 24.4481990200000006 28.0147850699999985 2.6245074900000001 Au
atom 27.2463800599999999 28.0261909399999993 2.7365498000000001 Au
atom 1.8529695100000001 28.0199832800000017 2.6275491299999998 Au
atom 4.6506492599999998 28.0087558899999998 2.7288325699999998 Au
atom 8.9209300099999993 30.4787616399999983 2.6133506000000000 Au
atom 11.7104060400000005 30.4664452899999993 2.6534246499999998 Au
atom 14.5306746800000006 30.4827020200000014 2.6729304800000002 Au
atom 17.3505270699999983 30.4237422799999990 2.6733544700000000 Au
atom 20.1711760899999994 30.4447668399999998 2.6565523999999998 Au
atom 22.9998188699999986 30.4380712200000012 2.6135555400000001 Au
atom 25.8492045200000007 30.5022933899999984 2.6419232500000001 Au
atom 0.4682604200000000 30.4719209800000002 2.6514169600000002 Au
atom 3.2645058100000002 30.4769762899999996 2.6560049499999998 Au
atom 6.0737169599999996 30.4713845300000017 2.5841352400000002 Au
atom 7.5152980400000002 32.9399575300000009 2.5674853099999999 Au
atom 10.3313063599999992 32.9288842300000013 2.6982494400000001 Au
atom 13.1585787799999991 32.9372691399999979 2.6940758200000001 Au
atom 15.9727820000000005 32.9296963500000004 2.6990079599999999 Au
atom 18.8050872099999999 32.9046854300000007 2.6022945700000002 Au
atom 21.6005580100000003 32.8893295600000002 2.7022436399999998 Au
atom 24.4137481399999992 32.9307344200000003 2.5954779700000001 Au
atom 27.2652465699999986 32.9098532699999993 2.6387254499999999 Au
atom 1.8726976600000000 32.9405056499999986 2.5279369300000001 Au
atom 4.7134401600000002 32.9568511800000010 2.6393145100000002 Au
atom 8.8993250899999996 35.3866076899999982 2.6254294200000001 Au
atom 11.7395935100000006 35.3636418800000030 2.6525279300000002 Au
atom 14.5842095900000004 35.3706271400000034 2.5657097200000001 Au
atom 17.3819445399999992 35.3986634199999983 2.6332424699999999 Au
atom 20.2059400300000007 35.3651203900000013 2.6133701199999999 Au
atom 23.0031933100000003 35.3763377100000014 2.6168276300000000 Au
atom 25.8458040500000017 35.3786649099999977 2.7319908200000000 Au
atom 0.4812850800000000 35.3835965999999971 2.6333825300000000 Au
atom 3.2824507399999998 35.4113990099999967 2.6638510599999998 Au
atom 6.0835812799999998 35.4160504399999994 2.6831992100000002 Au
atom 7.5226173699999999 37.8765575999999982 2.6102112800000001 Au
atom 10.3265413299999995 37.8708251999999987 2.6632000100000002 Au
atom 13.1379235699999999 37.8510609900000006 2.6635761200000001 Au
atom 15.9526721699999996 37.8615504599999966 2.6703658799999999 Au
atom 18.7977833600000004 37.8643514700000026 2.5934296600000000 Au
atom 21.6055852000000002 37.8296846599999981 2.7168678100000001 Au
atom 24.4121157300000000 37.8537449199999969 2.6399014900000002 Au
atom 27.2558425900000003 37.8358249699999973 2.7690315800000000 Au
atom 1.8553354200000001 37.8625513300000023 2.6033215900000002 Au
atom 4.6786491600000000 37.8640397400000026 2.7388720499999999 Au
atom 8.9263104200000001 0.8527961600000000 2.7460704599999999 Au
atom 11.7471759400000000 0.8478184100000000 2.7215804900000000 Au
atom 14.5649994899999999 0.8627825600000000 2.6899665700000002 Au
atom 17.4024793699999982 0.8587581399999999 2.7080500500000002 Au
atom 20.1776671500000013 0.8589442100000000 2.7584547800000001 Au
atom 22.9976176000000017 0.8552491800000001 2.6783747800000000 Au
atom 25.8070078699999996 0.8085761700000000 2.7231758199999998 Au
atom 0.4620211000000000 0.8428603099999999 2.7141918800000000 Au
atom 3.2929479399999999 0.8418601100000001 2.7050345800000000 Au
atom 6.1081247699999999 0.8222251300000000 2.6389780699999998 Au
atom 7.4986560799999999 3.3161821800000002 2.6353601400000000 Au
atom 10.3318845600000007 3.3182236399999998 2.7057508499999998 Au
atom 13.1409447799999999 3.3305095599999999 2.6854325499999998 Au
atom 15.9391223800000006 3.3092154599999999 2.6911402099999999 Au
atom 18.7328581800000009 3.3436125099999998 2.6575253999999999 Au
atom 21.6059784099999987 3.3001977899999999 2.6660455800000000 Au
atom 24.4208657400000000 3.3391876200000001 2.7434603800000001 Au
atom 27.2617391600000012 3.2976505399999998 2.6518752499999998 Au
atom 1.8577961900000000 3.3496153199999998 2.6918747199999999 Au
atom 4.7012596799999997 3.2980982499999998 2.6534086000000001 Au
atom 8.8991372399999999 5.7787286699999996 2.7108945200000001 Au
atom 11.7342861099999993 5.8107905799999999 2.7655371500000001 Au
atom 14.5493494499999994 5.8235893599999997 2.6773877499999998 Au
atom 17.3889091200000010 5.8102946400000004 2.7506362300000000 Au
atom 20.1958237199999999 5.7999567000000001 2.7261469100000002 Au
atom 22.9620385499999990 5.7991427599999996 2.7351784499999998 Au
atom 25.8299813399999998 5.7938265400000004 2.7025427400000002 Au
atom 0.4697801600000000 5.8078975499999999 2.7510769599999998 Au
atom 3.2804259999999998 5.8115022900000000 2.6800183799999999 Au
atom 6.1021456699999996 5.8094088399999997 2.7283612399999999 Au
atom 7.5077191499999998 8.2671645399999996 2.7319359900000002 Au
atom 10.3225123199999995 8.2746102799999992 2.6899997299999998 Au
atom 13.1717722599999991 8.2512674599999993 2.6451830099999998 Au
atom 15.9958911300000004 8.2435516799999995 2.6581882700000001 Au
atom 18.7994662499999983 8.2852160000000001 2.7586824000000001 Au
atom 21.5913936600000014 8.2676874599999994 2.6786576499999999 Au
atom 24.4389894299999995 8.2279132700000002 2.6498952400000002 Au
atom 27.2314175600000006 8.2766210000000004 2.6116508999999999 Au
atom 1.8703530900000001 8.2767525200000005 2.6656245400000000 Au
atom 4.6634667399999996 8.2447607600000001 2.5891765100000002 Au
atom 8.9149554099999992 10.7294849400000007 2.6756612199999998 Au
atom 11.7660591900000000 10.6968246400000009 2.5501887600000002 Au
atom 14.5930580899999995 10.7293574700000001 2.6349698199999998 Au
atom 17.4019162399999985 10.7542200099999992 2.6391308900000001 Au
atom 20.2336400000000012 10.7351595900000003 2.5994709000000000 Au
atom 23.0301675099999983 10.7576987200000005 2.6610651600000002 Au
atom 25.8408471499999983 10.7340987800000001 2.6691814500000000 Au
atom 0.4806819900000000 10.7512163800000007 2.6634374200000002 Au
atom 3.2879439200000000 10.7230514100000001 2.6360082399999998 Au
atom 6.0670991000000001 10.7587323000000001 2.5840034799999998 Au
atom 7.3223887400000001 13.0933983400000002 5.6276568800000000 Cl
atom 7.4551921400000003 15.9499554499999991 8.4942764600000000 Cl
atom 7.5183393299999999 13.1366195900000005 8.2264120399999996 Na
atom 7.4178973700000004 15.9697647400000005 5.7393836900000004 Na
atom 7.3442492499999998 18.8943764300000012 5.6436707799999999 Cl
atom 7.3352897700000002 21.6513980400000001 8.6815016000000007 Cl
atom 7.4648675500000001 18.7630061700000006 8.3152054500000006 Na
atom 7.3432772599999998 21.6792359099999992 5.8064311100000001 Na
atom 7.4058712199999999 24.4865166000000016 5.7562405900000000 Cl
atom 7.4512986400000001 27.2716548400000001 8.5827001900000006 Cl
atom 7.3983115200000000 24.4833583700000013 8.4003686200000001 Na
atom 7.4694700500000000 27.2667624599999989 5.8177393899999998 Na
atom 7.4832660799999999 30.0298532300000005 5.7267722100000000 Cl
atom 7.4444654500000000 32.9212634100000017 8.5776846700000000 Cl
atom 7.4246888899999997 30.0576093299999982 8.3940008000000006 Na
atom 7.4255319200000001 32.8935014500000023 5.8350638200000002 Na
atom 7.4524000199999998 35.7509397299999989 5.7122786899999998 Cl
atom 7.5403870599999996 38.5103982899999977 8.5237843000000009 Cl
atom 7.4929388899999996 35.7038511200000030 8.3597535999999995 Na
atom 7.4716691700000002 38.5752380200000005 5.8384385099999996 Na
atom 7.4973070699999997 1.8888167499999999 5.8175043700000000 Cl
atom 7.4506545199999996 4.6781336500000004 8.5940263600000009 Cl
atom 7.4754031100000002 1.8762182599999999 8.4662059799999998 Na
atom 7.4521765200000001 4.6568776400000003 5.8078379000000000 Na
atom 7.4379283799999998 7.4615696299999996 5.6417902099999999 Cl
atom 7.4073178700000000 10.2402104999999999 8.6420095900000007 Cl
atom 7.4510114500000002 7.4744914500000004 8.3489606199999997 Na
atom 7.5328226799999998 10.3230801299999992 5.9110809900000003 Na
atom 10.3447301599999992 13.0804669800000006 5.5452788499999999 Na
atom 13.1629435200000007 13.1835927999999996 5.7789635500000003 Cl
atom 10.4874421000000009 15.8931391200000007 7.9858071700000002 Na
atom 13.0650558100000005 16.2051959100000005 8.0488632100000004 Cl
atom 13.2146375599999999 12.5402547900000005 8.1059625700000009 Na
atom 10.3443724600000007 13.0613631699999999 8.2192551500000004 Cl
atom 13.0961438599999997 16.0980807699999993 5.4395836500000003 Na
atom 10.0896583100000008 16.0820348300000013 5.4785000699999999 Cl
atom 10.1970392899999993 18.8911816399999992 5.5380427499999998 Na
atom 12.9644501900000009 19.2314364799999993 5.2274102700000000 Cl
atom 10.1092203099999995 21.6978816600000002 8.2180194300000000 Na
atom 13.0641098099999997 21.8518207699999998 8.2873744899999995 Cl
atom 13.0821353100000000 18.8784786300000000 7.8374431600000003 Na
atom 10.2402183699999991 18.9161772799999994 8.3255587700000007 Cl
atom 12.9622082299999999 21.9084298900000007 5.6054216600000002 Na
atom 10.1031449400000000 21.6876193300000004 5.6444864399999997 Cl
atom 10.0672229299999998 24.5218974199999984 5.7450886299999997 Na
atom 12.7813768999999997 24.5706129199999985 5.4655372000000000 Cl
atom 10.1870274900000002 27.3041821599999999 8.3834135500000002 Na
atom 12.9028527400000002 27.3459664599999996 8.5890625200000006 Cl
atom 12.9933441399999996 24.5218574300000007 8.1991975400000001 Na
atom 10.0847593900000003 24.5402249800000014 8.5484048300000008 Cl
atom 13.0120057199999994 27.3161416999999993 5.7747515399999996 Na
atom 10.2483365499999994 27.2583775000000017 5.7301167700000004 Cl
atom 10.2532565200000008 30.1099150699999996 5.7989154699999998 Na
atom 13.1220377199999998 30.1091489299999999 5.7871992800000003 Cl
atom 10.3135869200000005 32.8900988099999978 8.4122595100000002 Na
atom 13.0898493899999995 32.9458612800000026 8.5602966299999999 Cl
atom 13.1014484400000004 30.1495107900000008 8.3920799000000006 Na
atom 10.2158731899999999 30.1278278399999984 8.5869067700000006 Cl
atom 13.1295082000000001 32.8884531499999966 5.8986289100000002 Na
atom 10.3080829299999994 32.8684559399999969 5.7803435900000002 Cl
atom 10.2924011699999998 35.7484055899999973 5.7736020000000003 Na
atom 13.1832540700000003 35.7331106199999979 5.7332606799999999 Cl
atom 10.3282484700000001 38.5553736800000024 8.3745624799999998 Na
atom 13.1883753800000001 38.5533076800000032 8.5871355699999992 Cl
atom 13.1914248599999997 35.7361983099999989 8.3721893800000000 Na
atom 10.3262401399999995 35.7101980400000016 8.4894891500000007 Cl
atom 13.1648854899999996 38.5848502899999986 5.8199040699999998 Na
atom 10.3620599999999996 38.5590702300000032 5.7145485899999997 Cl
atom 10.3037475700000005 1.8407752200000000 5.8655285900000003 Na
atom 13.1481387999999999 1.8428022600000000 5.7445867399999999 Cl
atom 10.2220340200000006 4.6326474099999997 8.4578650500000006 Na
atom 13.1813387700000000 4.5489442599999999 8.6293319900000007 Cl
atom 13.1356669499999992 1.8942338100000000 8.4466329800000004 Na
atom 10.3671847199999991 1.8701532199999999 8.6039494600000008 Cl
atom 13.0452937799999997 4.4847773100000001 5.7971368400000003 Na
atom 10.2801829700000003 4.6521640199999998 5.8002572700000004 Cl
atom 10.2234030100000002 7.4143680300000003 5.9250516199999996 Na
atom 13.0669047299999992 7.1051804100000000 5.6248652799999999 Cl
atom 10.4654126400000003 10.2121122700000004 8.5947238600000002 Na
atom 13.1378370699999998 10.0722178899999992 8.7604732399999996 Cl
atom 13.1073635199999998 7.3625939400000000 8.3527980999999993 Na
atom 10.1841577599999997 7.3354138500000001 8.6317866799999994 Cl
atom 12.9164367900000006 10.0181245299999997 5.3946574600000003 Na
atom 10.2455803799999998 10.1693665000000006 5.9004624899999998 Cl
atom 16.0792923200000004 13.2128909799999992 5.4911869199999996 Na
atom 18.8687293199999999 13.1141488499999994 5.6758906299999996 Cl
atom 15.8321997099999994 15.9955617500000002 7.9752698899999999 Na
atom 18.7385959600000014 15.8984629700000006 8.5861173700000002 Cl
atom 18.7461037700000013 13.1572117500000001 8.3033450299999991 Na
atom 16.1271780000000007 13.1325197899999999 8.2567301799999999 Cl
atom 18.9483248599999996 15.8807000299999999 5.7904124299999999 Na
atom 16.2810535799999982 15.9714776100000009 5.4563489599999997 Cl
atom 15.9486874800000002 18.9045120100000013 5.5307981200000000 Na
atom 18.8753029400000010 18.6207433999999985 5.5073482800000004 Cl
atom 16.0534344699999991 21.9071224399999984 7.8382123400000001 Na
atom 18.7767030099999985 21.8196436700000014 8.2567721499999998 Cl
atom 18.7627710699999994 18.7479589100000013 8.0825165699999992 Na
atom 15.9927989200000003 18.9672655900000002 8.1898236299999994 Cl
atom 18.8670147200000002 21.6147556999999999 5.4558830000000000 Na
atom 15.9224347999999996 21.7092899599999996 5.3557900800000002 Cl
atom 15.8698672100000007 24.5994673100000014 5.5187103000000004 Na
atom 18.8202256100000014 24.5612017400000013 5.5090214900000003 Cl
atom 15.9902642700000008 27.3534460800000012 8.1601421700000003 Na
atom 18.8031042500000005 27.1787579199999989 8.3050181100000007 Cl
atom 18.6437122399999993 24.2986719999999998 8.0701519400000006 Na
atom 16.0120593599999985 24.4420451099999987 8.2447433399999994 Cl
atom 18.8267099800000004 27.2809626700000010 5.6887731400000003 Na
atom 15.8420818400000005 27.5359457399999989 5.5865220200000003 Cl
atom 15.9825828399999992 30.2245450700000013 5.8528721600000004 Na
atom 18.8712506500000003 30.2156419499999984 5.6973199000000001 Cl
atom 15.9730013000000000 32.9404515700000005 8.3847209800000009 Na
atom 18.7937402899999988 32.9656859600000018 8.6597387099999992 Cl
atom 18.8102176499999985 30.1564837200000007 8.3677294399999997 Na
atom 16.0228773900000014 30.1275139699999990 8.6212789799999996 Cl
atom 18.8156652300000005 32.9448059200000003 5.8928285300000001 Na
atom 15.9618141799999993 32.9105309600000027 5.7340501200000000 Cl
atom 15.9642762999999999 35.7524692499999972 5.7620890899999999 Na
atom 18.7858033900000017 35.7460283500000031 5.7426165800000000 Cl
atom 15.9796415599999992 38.5385154700000001 8.3883094600000003 Na
atom 18.7373529499999982 38.5655566200000024 8.6223598500000005 Cl
atom 18.7586986399999986 35.7528860800000032 8.4120494800000003 Na
atom 15.9535398199999996 35.7342766299999965 8.5383728500000000 Cl
atom 18.7986591800000014 38.5776171600000026 5.8832331699999996 Na
atom 15.9807407700000006 38.5747966500000032 5.7085539199999999 Cl