#===============================================================================
# Created using the Atomic Simulation Environment (ASE)

# Sat Nov  1 21:48:33 2025

#=======================================================
lattice_vector 28.1999999999999993 0.0000000000000000 0.0000000000000000 
lattice_vector 0.0000000000000000 39.4799999999999969 0.0000000000000000 
lattice_vector 0.0000000000000000 0.0000000000000000 62.3296083400000001 
atom 7.5088691499999998 14.8126842300000003 0.0733736500000000 Au
atom 10.3102334100000004 14.7875907000000009 -0.0242247600000000 Au
atom 13.1781089900000001 14.8381425900000004 0.0658400700000000 Au
atom 15.9595895700000003 14.8403116700000002 0.0017354800000000 Au
atom 18.8148005299999994 14.8076562099999993 0.0900005700000000 Au
atom 21.5986656500000009 14.8918965599999993 0.0336815100000000 Au
atom 24.4083005600000007 14.8073115699999995 0.0585170200000000 Au
atom 27.2496938799999988 14.6237992000000006 0.0201879100000000 Au
atom 1.8729927300000000 14.8777666600000007 0.1110842000000000 Au
atom 4.7096341600000002 14.8156521100000003 -0.0296186400000000 Au
atom 8.9581260900000004 17.2940573200000003 0.0323223700000000 Au
atom 11.7480111800000007 17.2645798200000016 0.0400872300000000 Au
atom 14.5612647699999993 17.3046360999999997 0.0430465100000000 Au
atom 17.3733018100000010 17.2711668699999983 0.0303082700000000 Au
atom 20.2204211600000008 17.2984611100000016 0.0189848800000000 Au
atom 22.9991796899999983 17.2987058699999992 0.0382941800000000 Au
atom 25.8287265200000000 17.2599703700000013 0.0629122400000000 Au
atom 0.4579920500000000 17.3613870800000001 0.0463646900000000 Au
atom 3.2945800799999998 17.2702474600000002 0.0288800400000000 Au
atom 6.0997402699999999 17.2857554100000002 0.0233641700000000 Au
atom 7.5207426200000000 19.7795251400000005 0.0900727200000000 Au
atom 10.3209253299999997 19.7475364300000003 0.0946850600000000 Au
atom 13.1541317600000003 19.7772706199999995 0.0952060300000000 Au
atom 15.9689774000000000 19.7457391000000015 0.0488789900000000 Au
atom 18.7889243199999996 19.7149476099999994 0.1079275500000000 Au
atom 21.6147520600000007 19.7592727400000001 0.0568594300000000 Au
atom 24.4440150100000011 19.7670798999999988 0.1195897700000000 Au
atom 27.2240177099999983 19.7714018699999983 0.1716771900000000 Au
atom 1.8631946900000000 19.7133983800000010 0.1153734000000000 Au
atom 4.7059279900000002 19.7710148600000011 0.0613546300000000 Au
atom 8.9080620600000007 22.2290144100000013 0.0827850800000000 Au
atom 11.6823956199999994 22.2466471199999987 0.0906582100000000 Au
atom 14.5484707100000001 22.2349565600000005 0.0378621800000000 Au
atom 17.3843524699999996 22.2501054300000014 0.0919362400000000 Au
atom 20.1806221800000003 22.2558654099999984 0.0800960900000000 Au
atom 22.9869499899999994 22.2195138000000014 0.1102426300000000 Au
atom 25.8211657199999998 22.2047861500000003 0.1177021500000000 Au
atom 0.4293627000000000 22.2896085100000008 0.1835182700000000 Au
atom 3.2673704400000001 22.2271936200000013 0.0843819200000000 Au
atom 6.0843128899999996 22.2056784000000000 0.1059981600000000 Au
atom 7.4877326000000002 24.6916838699999985 0.0950968900000000 Au
atom 10.3158304399999992 24.6695187699999998 0.1059069400000000 Au
atom 13.1611006300000000 24.6961744699999990 0.0891422800000000 Au
atom 15.9439560199999999 24.7077205199999987 0.0640484700000000 Au
atom 18.7838629200000007 24.7389886799999985 0.0909485900000000 Au
atom 21.5824287400000010 24.6967003500000004 0.0764418000000000 Au
atom 24.4420678699999989 24.6931221500000007 0.0824759100000000 Au
atom 27.2319486200000007 24.7275303300000004 0.1321471700000000 Au
atom 1.8282277600000001 24.6572805200000005 0.1084490400000000 Au
atom 4.6768909900000004 24.7005281600000011 0.1074731100000000 Au
atom 8.8872199900000002 27.1889315200000006 0.0805751800000000 Au
atom 11.7230281900000008 27.1708291700000011 0.0572978100000000 Au
atom 14.5519969499999995 27.1574818100000002 0.0726830500000000 Au
atom 17.3924657200000006 27.1563421699999985 0.0802490900000000 Au
atom 20.1922690200000012 27.1325953999999996 0.0590967600000000 Au
atom 23.0007208900000002 27.1619748500000000 0.1074022600000000 Au
atom 25.8840614600000016 27.1856122599999992 0.0631326500000000 Au
atom 0.4566777000000000 27.1682245999999985 0.0353180800000000 Au
atom 3.2757043100000001 27.1713773299999986 0.0574911700000000 Au
atom 6.0730939199999998 27.1503763599999992 0.0617774400000000 Au
atom 7.4901083399999999 29.6427778599999989 0.0296272800000000 Au
atom 10.2964663200000004 29.5919130700000004 0.0586380300000000 Au
atom 13.1592663000000005 29.6646954799999989 0.0198238500000000 Au
atom 15.9654319600000001 29.6217884299999987 0.0672805700000000 Au
atom 18.7820124600000007 29.6384065499999991 0.0182964600000000 Au
atom 21.5988554300000004 29.6138302099999997 0.0529629000000000 Au
atom 24.4321991499999989 29.6442488100000006 0.0002833000000000 Au
atom 27.2129944600000009 29.7941754100000011 -0.0051125800000000 Au
atom 1.8788279100000000 29.7010003100000013 0.0301384000000000 Au
atom 4.6852550099999997 29.6127254899999990 0.0371342700000000 Au
atom 8.9069292600000001 32.0941868399999990 0.0177970500000000 Au
atom 11.7177685700000005 32.0900958399999965 0.0015287700000000 Au
atom 14.5555925399999992 32.0890910000000034 0.0545844800000000 Au
atom 17.3561450800000010 32.0714715299999966 0.0204764800000000 Au
atom 20.1998834400000007 32.0896225299999998 0.0126933000000000 Au
atom 23.0048774099999989 32.1129028499999976 0.0271696900000000 Au
atom 25.8497625800000002 32.1477565799999994 -0.0019473500000000 Au
atom 0.4488828200000000 32.1026840700000022 0.0305375800000000 Au
atom 3.2747946200000002 32.0827152800000022 0.0085698700000000 Au
atom 6.0939691800000002 32.0859455499999981 0.0110715700000000 Au
atom 7.5132060799999998 34.5595564600000031 0.0098562500000000 Au
atom 10.3289696099999997 34.5679768700000025 0.0674823700000000 Au
atom 13.1414569799999992 34.5744548199999997 -0.0104678800000000 Au
atom 15.9543550500000002 34.5505974300000034 0.0402567800000000 Au
atom 18.7786849300000007 34.5877244400000023 -0.0338359900000000 Au
atom 21.6088803200000008 34.5999905400000003 0.0684635300000000 Au
atom 24.4150458899999983 34.5463921300000010 0.0354684400000000 Au
atom 27.2487682000000007 34.4916735400000007 0.0465580700000000 Au
atom 1.8247461100000000 34.6411721899999989 -0.0102667900000000 Au
atom 4.7017088800000000 34.5610473400000018 0.0449404300000000 Au
atom 8.8898414199999998 37.0259017999999998 0.0440400900000000 Au
atom 11.7083791799999997 37.0331940100000025 0.0544838900000000 Au
atom 14.5246063099999994 37.0523719999999983 0.1510861200000000 Au
atom 17.4104500999999985 37.0488461799999982 0.0993718300000000 Au
atom 20.3660093599999996 37.0404668600000022 -0.0545267800000000 Au
atom 23.0486987499999998 37.0352909200000013 -0.0077068700000000 Au
atom 25.9599689799999993 37.0870192200000020 0.0596343800000000 Au
atom 0.4608019100000000 36.8924789200000021 -0.0955044800000000 Au
atom 3.2488498099999998 37.0274428299999983 -0.0019478300000000 Au
atom 6.0396154600000003 37.0354011599999993 0.1211360700000000 Au
atom 7.2730254399999996 0.0447557300000000 -0.0165515300000000 Au
atom 10.3530824199999998 -0.0067864700000000 -0.1789593500000000 Au
atom 13.0050621799999995 0.0421088900000000 -0.0814250100000000 Au
atom 16.2298172500000000 0.0346320500000000 0.2593730600000000 Au
atom 18.8993225799999998 0.0148443200000000 0.0280853700000000 Au
atom 21.6756211299999997 0.0272664200000000 0.1143104900000000 Au
atom 24.2917412500000012 0.0012003600000000 0.1906512100000000 Au
atom 27.3238793199999996 0.0662139700000000 0.1615024300000000 Au
atom 1.6915984600000000 0.0064835600000000 0.0256221500000000 Au
atom 4.5801955100000002 -0.0008373500000000 0.2095870900000000 Au
atom 8.8914407799999999 2.4684769300000000 0.0766291900000000 Au
atom 11.7277296900000003 2.5040768600000001 0.0759567200000000 Au
atom 14.5476491899999996 2.4729500099999999 0.0673823300000000 Au
atom 17.3966418999999988 2.4917984299999998 0.0672936000000000 Au
atom 20.1507097799999997 2.4997112300000000 0.0601672200000000 Au
atom 23.0146032100000006 2.4778000100000002 0.0930550000000000 Au
atom 25.8332165600000003 2.5211232600000000 0.0594996600000000 Au
atom 0.4513799100000000 2.3777276399999998 0.2156080300000000 Au
atom 3.2598413599999998 2.4976843799999999 0.0843705000000000 Au
atom 6.0875618600000001 2.4692582299999999 0.1028199400000000 Au
atom 7.5123899600000001 4.9582968100000002 0.0831451400000000 Au
atom 10.3249272800000007 4.9170095700000003 0.1033699600000000 Au
atom 13.1338105400000007 4.9502890400000004 0.1000039400000000 Au
atom 15.9670300699999999 4.9901168699999996 0.1043974700000000 Au
atom 18.8006246499999996 4.9513916199999999 0.1129374900000000 Au
atom 21.6038677800000016 4.9651311900000001 0.1169127400000000 Au
atom 24.4465289800000001 4.9632377600000002 0.0765005000000000 Au
atom 27.2601896199999985 5.0017451700000004 0.1371262000000000 Au
atom 1.9006708299999999 4.9560048500000002 0.0888136500000000 Au
atom 4.6755591900000004 4.9204444100000000 0.0773078300000000 Au
atom 8.8397339299999995 7.4151655900000000 0.0877442500000000 Au
atom 11.7707545800000002 7.4167064900000002 0.0283020700000000 Au
atom 14.5460782300000009 7.4326544099999996 0.0856589800000000 Au
atom 17.3898202300000015 7.4396082200000002 0.0802778400000000 Au
atom 20.1689178499999997 7.3998530200000001 0.1098610000000000 Au
atom 23.0347085900000010 7.3967634100000001 0.0666321600000000 Au
atom 25.8389944599999986 7.3496563899999998 0.0436256100000000 Au
atom 0.4291185000000000 7.3849201999999998 0.3497399500000000 Au
atom 3.2448301000000002 7.4084483700000003 0.0809762800000000 Au
atom 6.1352602999999997 7.4101166999999997 0.0670256300000000 Au
atom 7.4824657300000004 9.8757494399999999 0.0616336700000000 Au
atom 10.3195472400000003 9.8709863299999991 0.0080250000000000 Au
atom 13.1321652300000000 9.8729554799999999 0.1047556700000000 Au
atom 15.9455057799999995 9.8669234699999997 0.0158201400000000 Au
atom 18.8215724800000004 9.8937355799999995 0.0658098600000000 Au
atom 21.6126856499999995 9.8782356700000005 0.0319214900000000 Au
atom 24.4526724699999995 9.8766216900000003 0.0639016600000000 Au
atom 27.2339863999999992 9.8346189699999993 0.0870779300000000 Au
atom 1.8610288300000000 9.8784886299999997 0.0270362500000000 Au
atom 4.6887542099999999 9.8835683400000001 -0.0105908900000000 Au
atom 8.8975792800000004 12.3530989499999997 0.0244926700000000 Au
atom 11.7443588299999995 12.3501816000000009 0.0104528700000000 Au
atom 14.5473902200000005 12.3511471200000003 0.0057114300000000 Au
atom 17.3854630899999982 12.3345004500000002 0.0049908000000000 Au
atom 20.1922023199999998 12.3494479100000003 -0.0007568200000000 Au
atom 22.9978829100000013 12.3620278500000005 0.0111744400000000 Au
atom 25.8527063199999994 12.3478170400000007 -0.0657758600000000 Au
atom 0.4436388100000000 12.4217597099999999 0.0206104100000000 Au
atom 3.2663985100000001 12.3705076700000003 0.0238883900000000 Au
atom 6.0896794800000000 12.3546314600000002 -0.0007175300000000 Au
atom 7.4947126800000001 13.2053637800000008 2.7058122800000000 Au
atom 10.3243631300000001 13.1945601000000003 2.5086895400000002 Au
atom 13.1499769099999995 13.1682251899999994 2.6393057700000000 Au
atom 15.9713867100000009 13.1560303600000008 2.5469508200000002 Au
atom 18.7611333299999998 13.1833574000000002 2.6463969899999999 Au
atom 21.6368334800000000 13.2036943600000001 2.5351818800000001 Au
atom 24.4245555100000011 13.1781448700000006 2.6645226599999998 Au
atom 27.2491024099999990 13.1506937199999996 2.7215363899999998 Au
atom 1.8916662600000000 13.1660705500000006 2.7059495600000001 Au
atom 4.6854066500000000 13.1934668800000008 2.5377323600000001 Au
atom 8.9245386700000005 15.6741840700000008 2.5976718399999998 Au
atom 11.6933110399999993 15.6231387500000007 2.6401449100000001 Au
atom 14.5864885700000002 15.6395803900000008 2.6403343100000001 Au
atom 17.4024381199999993 15.6477062399999998 2.6443030300000001 Au
atom 20.1753397499999991 15.6425524700000000 2.6419739899999999 Au
atom 23.0414207799999993 15.6396904800000005 2.6615652399999998 Au
atom 25.8343720800000014 15.6211974100000006 2.5868520699999999 Au
atom 0.4643601600000000 15.6865882499999998 2.7375756400000002 Au
atom 3.2816947800000000 15.6589366499999993 2.6372827800000000 Au
atom 6.0810225999999998 15.6417636499999997 2.6487095100000002 Au
atom 7.5208518499999997 18.1307515899999991 2.7133008900000002 Au
atom 10.2957304900000004 18.0930931100000016 2.6073360600000002 Au
atom 13.1440017499999993 18.0634151100000011 2.6628491699999999 Au
atom 15.9386495200000002 18.1504598500000007 2.5417129400000000 Au
atom 18.7912721500000011 18.0731563800000004 2.6705540399999999 Au
atom 21.6064805000000000 18.1326310399999997 2.6304262899999999 Au
atom 24.4412494100000011 18.1015653100000016 2.6851153000000001 Au
atom 27.2391456500000011 18.1157184700000009 2.6628007100000000 Au
atom 1.8856892999999999 18.0837798899999989 2.6512110099999999 Au
atom 4.6650347300000004 18.1137363200000010 2.6306724400000001 Au
atom 8.9286199600000007 20.5619088000000012 2.7092517699999998 Au
atom 11.7396522399999998 20.5414861000000002 2.7146255500000001 Au
atom 14.5707075300000000 20.6102642799999991 2.6753666800000002 Au
atom 17.3502707600000008 20.5634665299999995 2.7032325799999999 Au
atom 20.2232780699999992 20.5499177999999993 2.7440624699999998 Au
atom 22.9958848499999995 20.5931213699999986 2.7033429600000001 Au
atom 25.8432698499999987 20.5355059500000010 2.6169039199999999 Au
atom 0.4913359400000000 20.6791321500000009 2.6961528000000001 Au
atom 3.2901173300000002 20.5721409900000012 2.7126098399999998 Au
atom 6.1000689000000001 20.6029575899999990 2.7352123000000002 Au
atom 7.5134599099999999 23.0370015499999994 2.6846232200000002 Au
atom 10.3436650799999992 23.0709881000000010 2.6887979000000000 Au
atom 13.1341451399999993 23.0562698200000007 2.6565961699999998 Au
atom 15.9769359600000005 23.1247444800000004 2.6844248799999999 Au
atom 18.8288101200000000 23.0183443099999998 2.6778542600000002 Au
atom 21.5846436200000014 23.0685114899999988 2.6858968600000002 Au
atom 24.4273690300000013 23.0048266199999993 2.6776461800000000 Au
atom 27.2264009000000016 22.9370482399999993 2.6373988000000002 Au
atom 1.8902075400000000 23.0552262399999996 2.7111246900000001 Au
atom 4.6915795200000003 23.0283314300000015 2.7134184900000000 Au
atom 8.9343691199999995 25.5752420600000008 2.7365051100000000 Au
atom 11.7518844599999994 25.5041906300000001 2.7214708700000001 Au
atom 14.6158752300000003 25.5176905199999986 2.7121946600000002 Au
atom 17.3822010099999993 25.5430446000000018 2.7142478400000001 Au
atom 20.1329292299999985 25.5295292600000003 2.7552441399999998 Au
atom 23.0244160099999995 25.5291030600000006 2.6958356700000001 Au
atom 25.8519547299999992 25.5063031199999983 2.6769861800000001 Au
atom 0.4421386700000000 25.2864781500000007 2.7938537100000000 Au
atom 3.2924281899999999 25.5661407599999997 2.7005764800000001 Au
atom 6.1007634599999996 25.5397791599999984 2.7201925700000000 Au
atom 7.5131629300000000 27.9827574599999984 2.6164088200000002 Au
atom 10.3191947499999994 28.0181638600000014 2.6642629100000002 Au
atom 13.1575657199999991 28.0079943200000017 2.5862435499999998 Au
atom 15.9543925699999996 28.0014995000000013 2.7031750200000002 Au
atom 18.8094747200000008 28.0072539800000015 2.6037359900000001 Au
atom 21.6129074099999983 28.0039229700000014 2.7034682499999998 Au
atom 24.4480999399999988 28.0183322200000013 2.6126349900000001 Au
atom 27.2484315899999991 28.2294523400000017 2.6767697600000000 Au
atom 1.8820959700000000 28.0115647000000010 2.6249972200000000 Au
atom 4.6894791099999997 28.0187907400000000 2.7128491100000001 Au
atom 8.9152165100000005 30.5031783899999986 2.6048928700000000 Au
atom 11.7416182300000003 30.4621524599999987 2.6226691799999999 Au
atom 14.5707092599999992 30.4647612800000012 2.6309399000000000 Au
atom 17.3878722500000009 30.4685268200000010 2.6621729599999999 Au
atom 20.1757953800000003 30.4481800000000007 2.6610240599999999 Au
atom 23.0191958499999991 30.4609987199999992 2.6350877499999998 Au
atom 25.8479710599999990 30.4422762499999990 2.6220042399999999 Au
atom 0.4457455200000000 30.6116513999999995 2.5442394300000002 Au
atom 3.2862190999999998 30.4860754199999988 2.6216468499999999 Au
atom 6.0863614699999999 30.4810074399999991 2.6177390900000002 Au
atom 7.4798350500000002 32.9215269500000005 2.5813618599999999 Au
atom 10.3366861500000002 32.9343237400000035 2.6557932499999999 Au
atom 13.0992691400000005 32.9257885000000030 2.5571035900000001 Au
atom 15.9707092700000004 32.9175052200000025 2.6709781700000002 Au
atom 18.8174673299999995 32.9167842800000017 2.5842320700000001 Au
atom 21.6314181800000007 32.9312485000000024 2.6957033799999999 Au
atom 24.4642835599999984 32.9265861499999986 2.5549485900000000 Au
atom 27.2543491799999984 32.9276377500000024 2.5476367500000001 Au
atom 1.8817411600000000 32.9410647300000008 2.5615470600000001 Au
atom 4.6900204600000004 32.9136229200000017 2.6887039800000001 Au
atom 8.9325094800000002 35.4044225800000021 2.6179598300000002 Au
atom 11.7289389100000001 35.3761693900000012 2.6676847100000001 Au
atom 14.5609774000000005 35.3693924299999978 2.6611230400000001 Au
atom 17.3768368299999985 35.3342766299999980 2.6424301500000000 Au
atom 20.2008563400000014 35.3757073900000023 2.6345551899999999 Au
atom 23.0354281599999986 35.3937294099999988 2.6506679499999999 Au
atom 25.8369681799999995 35.3338463799999971 2.6752743799999998 Au
atom 0.4440129500000000 35.2846179800000002 2.6546966500000000 Au
atom 3.2810070800000002 35.3608178599999974 2.6262669000000001 Au
atom 6.0789086599999997 35.3912680500000008 2.6406410100000000 Au
atom 7.5106938899999998 37.8427970600000023 2.6693543399999999 Au
atom 10.4410554900000001 37.8405806100000035 2.7238893000000002 Au
atom 13.0144871000000002 37.8550924600000016 2.5383559000000000 Au
atom 16.1979690900000008 37.8228140300000035 2.6049233900000002 Au
atom 18.5555176300000007 37.8758412000000035 2.5551547000000001 Au
atom 21.4564127400000011 37.8474005500000032 2.7844304400000000 Au
atom 24.5263808400000016 37.8507325400000028 2.6645836599999999 Au
atom 27.4519246700000004 37.8026600399999992 2.3967148900000002 Au
atom 1.9098786999999999 37.9085710900000024 2.6407698900000001 Au
atom 4.8006938799999999 37.8364325100000016 2.6539270899999998 Au
atom 8.8528342799999997 0.8622959200000000 2.7462829400000000 Au
atom 11.6502240399999994 0.8064993000000000 2.7015388400000000 Au
atom 14.5349290100000008 0.8490002800000001 2.6203638900000001 Au
atom 17.1513950599999987 0.8307977100000000 2.6782691299999999 Au
atom 20.1301121700000003 0.8213221300000000 2.7809865199999999 Au
atom 23.1103501300000005 0.8460476200000000 2.8057591099999999 Au
atom 25.8391027300000005 0.8356256500000000 2.7314455500000001 Au
atom 0.2583403500000000 1.0467849899999999 2.8971929300000001 Au
atom 3.3018945300000002 0.8164270400000000 2.7691557400000000 Au
atom 6.2049592300000000 0.8186895199999999 2.6271054100000000 Au
atom 7.5047907000000000 3.3078777800000001 2.6849646800000002 Au
atom 10.3222443300000002 3.3149523699999999 2.6867095200000000 Au
atom 13.1366751399999995 3.3323535999999998 2.6797009300000001 Au
atom 15.9839532500000008 3.2916566100000000 2.6804398900000002 Au
atom 18.8105299600000002 3.3215192600000001 2.6825141499999998 Au
atom 21.5808435500000009 3.2877650900000002 2.6527277300000001 Au
atom 24.4113116300000002 3.3454309400000000 2.6890714700000000 Au
atom 27.2240701999999999 3.2178153900000002 2.6087761100000000 Au
atom 1.8765544999999999 3.2857251299999999 2.6194294000000000 Au
atom 4.6965901800000003 3.3149782000000001 2.7228439500000001 Au
atom 8.8974589599999998 5.7617349400000002 2.6604769899999998 Au
atom 11.7202019800000006 5.8104139600000000 2.7186693900000001 Au
atom 14.5395670999999993 5.8231012900000003 2.6933103300000001 Au
atom 17.3703324499999994 5.7945220500000003 2.7248389700000000 Au
atom 20.1865559499999989 5.7962973299999998 2.7442582299999998 Au
atom 23.0143956199999984 5.8001151499999999 2.7164061400000001 Au
atom 25.8366716499999995 5.7288369200000000 2.7605353099999999 Au
atom 0.4694878300000000 5.8239910200000002 2.7991600900000000 Au
atom 3.2527502500000001 5.8005652899999998 2.7389540999999999 Au
atom 6.0799367100000001 5.7674126499999998 2.7251286600000002 Au
atom 7.4940798199999996 8.2587304600000007 2.7155343300000001 Au
atom 10.3070614099999993 8.2236081199999997 2.6333544600000001 Au
atom 13.1588158400000008 8.2547253099999995 2.7405953599999999 Au
atom 15.9796813600000007 8.2693688299999994 2.6515195299999998 Au
atom 18.7745483499999999 8.2890022499999993 2.6938719500000001 Au
atom 21.5982958499999995 8.2702346200000001 2.6399500400000000 Au
atom 24.4084962899999987 8.2831162599999999 2.7104732800000000 Au
atom 27.2525325000000009 8.0547281200000000 2.5365217000000002 Au
atom 1.8789082500000001 8.3073447799999993 2.7103140899999998 Au
atom 4.6937034600000000 8.2621287599999995 2.6336811199999999 Au
atom 8.9002911299999994 10.7044708100000001 2.6156189500000000 Au
atom 11.7383139599999993 10.7150459799999993 2.6567699700000000 Au
atom 14.5462165399999996 10.7424074300000001 2.6619047800000000 Au
atom 17.4061084100000016 10.7101608099999996 2.6360392400000001 Au
atom 20.2035319999999992 10.7094207499999996 2.6595001400000000 Au
atom 23.0091283699999991 10.7211653200000008 2.6536804100000002 Au
atom 25.8204358200000001 10.7721110099999997 2.6215795800000001 Au
atom 0.4510455100000000 10.7512705299999993 2.5820107999999999 Au
atom 3.2613175800000000 10.7021955999999996 2.6565616500000000 Au
atom 6.1141459100000004 10.7088415599999998 2.6234799999999998 Au
atom 7.4866096400000002 13.1587274399999998 5.7110583999999998 Cl
atom 7.5079479600000001 15.9835651100000007 8.5587353700000008 Cl
atom 7.4868659800000001 13.1567325299999993 8.3727631000000002 Na
atom 7.5174330899999999 16.0350514000000004 5.7972365600000000 Na
atom 7.5133409999999996 18.8161994999999997 5.7423537900000001 Cl
atom 7.5135072200000002 21.6085184300000002 8.5641489699999997 Cl
atom 7.5146198699999998 18.8003021600000011 8.3722968400000006 Na
atom 7.4941221000000002 21.6275694300000012 5.8194477700000000 Na
atom 7.5001044300000004 24.4445291299999994 5.7619158600000002 Cl
atom 7.4944070800000002 27.2586821000000015 8.5947633400000001 Cl
atom 7.4976505800000002 24.4364105299999999 8.3680056900000004 Na
atom 7.4893265800000002 27.2550845600000002 5.8338723799999999 Na
atom 7.5010698500000004 30.0716999499999993 5.7300596400000003 Cl
atom 7.4948150399999998 32.8981717400000022 8.5474543399999998 Cl
atom 7.4836564100000000 30.0825152899999999 8.3742260700000006 Na
atom 7.5054139099999997 32.8879351599999978 5.8240633099999997 Na
atom 7.4815027199999999 35.7271790499999966 5.7349331000000001 Cl
atom 7.5677674200000000 38.5541889100000006 8.5492218199999996 Cl
atom 7.4856734600000001 35.7322769000000022 8.3793865000000007 Na
atom 7.5280987499999998 38.5886294299999975 5.9143612200000000 Na
atom 7.5787025699999999 1.8871116699999999 5.7744786699999997 Cl
atom 7.5027107500000003 4.7223936999999996 8.5785373000000007 Cl
atom 7.5213304900000004 1.8941123300000000 8.5169552300000007 Na
atom 7.5142746200000001 4.7206050399999997 5.8416974599999998 Na
atom 7.4988542000000002 7.5130060099999998 5.7306628899999996 Cl
atom 7.5032656700000002 10.3508080200000006 8.5844702399999999 Cl
atom 7.5106948899999999 7.5497964399999997 8.4187292300000003 Na
atom 7.4776572500000000 10.3263507000000008 5.7816803400000003 Na
atom 10.3225345999999991 13.1730774999999998 5.8448792400000000 Na
atom 13.1273690900000002 13.1719849100000008 5.7317992499999999 Cl
atom 10.3400914099999994 15.9656599700000008 8.3670229299999992 Na
atom 13.1525271499999992 15.9995151100000008 8.5230572599999999 Cl
atom 13.1553322599999998 13.1725477299999998 8.3998143100000000 Na
atom 10.3257344700000004 13.1733927899999994 8.5673262999999995 Cl
atom 13.1661654699999993 16.0183634800000014 5.7556539500000001 Na
atom 10.3279104700000008 16.0094394199999996 5.7212423299999999 Cl
atom 10.3296044600000005 18.8393153300000016 5.8399780899999998 Na
atom 13.1613817599999994 18.8297657799999989 5.7193455699999998 Cl
atom 10.3104530099999998 21.6277579899999992 8.3855512399999999 Na
atom 13.1768886999999992 21.6280157499999994 8.5654535999999997 Cl
atom 13.1342420400000002 18.7835791100000016 8.3611951900000001 Na
atom 10.3173740899999995 18.8087704199999983 8.5619058900000002 Cl
atom 13.1166741200000008 21.6368968499999994 5.8287042099999997 Na
atom 10.3045082000000008 21.6181812899999990 5.7710815499999999 Cl
atom 10.3412731600000001 24.4500494699999997 5.8321889100000002 Na
atom 13.1507811700000001 24.4467285700000012 5.7627382699999998 Cl
atom 10.3256471399999992 27.2688914500000017 8.4062715000000008 Na
atom 13.1516467000000006 27.2564160300000005 8.5793455699999992 Cl
atom 13.1253616100000006 24.4174830999999983 8.3809072100000002 Na
atom 10.3092118599999996 24.4565804699999987 8.5689345299999999 Cl
atom 13.1143592899999994 27.2330874200000004 5.8306595899999998 Na
atom 10.3189598199999999 27.2605284899999987 5.7447405199999997 Cl
atom 10.3337672000000005 30.0808502900000008 5.8035773099999997 Na
atom 13.1332617599999999 30.0774207099999984 5.7421571399999998 Cl
atom 10.3147949800000003 32.8985882099999998 8.3993252199999997 Na
atom 13.1148388600000008 32.9133172399999978 8.5299007000000007 Cl
atom 13.0928907900000002 30.0918423200000014 8.3708917399999994 Na
atom 10.3175294700000002 30.0903330400000009 8.5376602899999998 Cl
atom 13.1420507299999993 32.8936143000000030 5.7981733699999998 Na
atom 10.3015197599999997 32.8963097600000012 5.7207003500000004 Cl
atom 10.3120800999999993 35.7446041999999977 5.8080728500000003 Na
atom 13.1322455599999994 35.7483739299999996 5.7399435199999997 Cl
atom 10.1108590599999992 38.5202996599999992 8.4625156199999996 Na
atom 13.3114686599999992 38.5356522800000008 8.4946237199999999 Cl
atom 13.1239063300000005 35.7203228699999968 8.3718412299999994 Na
atom 10.3133973900000004 35.7271348900000021 8.5420613999999997 Cl
atom 13.1515105699999992 38.5686498099999966 5.8454097300000001 Na
atom 10.4530970900000000 38.5558893899999973 5.8180780700000003 Cl
atom 10.3313320599999994 1.8820567399999999 5.9143511300000000 Na
atom 13.3084875199999999 1.8977467100000001 5.8137904599999999 Cl
atom 10.3247139400000005 4.6802360700000003 8.3990690299999997 Na
atom 13.1280757300000008 4.7312434000000003 8.5626248500000006 Cl
atom 13.0348514400000006 1.8803456300000001 8.3023061899999995 Na
atom 10.3437676599999993 1.8865971100000001 8.6198681700000002 Cl
atom 13.1234883300000007 4.7361200700000001 5.8334495600000000 Na
atom 10.3204379999999993 4.7082899999999999 5.7572226999999998 Cl
atom 10.3182812599999991 7.4984513599999998 5.8190862100000000 Na
atom 13.1391147499999992 7.5191795800000003 5.7241980000000003 Cl
atom 10.3022522500000004 10.3414700300000000 8.3793922100000007 Na
atom 13.1121201599999999 10.3365087700000000 8.5520797799999997 Cl
atom 13.1191200600000002 7.5088112699999998 8.3795216499999992 Na
atom 10.3046732599999995 7.5325389800000000 8.5914679700000001 Cl
atom 13.1266669700000005 10.3375291800000007 5.8066600199999998 Na
atom 10.3095889399999994 10.3359857599999998 5.7287899600000003 Cl
atom 15.9776862800000004 13.1828379899999995 5.8362278200000004 Na
atom 18.7743817700000015 13.1449748399999997 5.7195089899999996 Cl
atom 15.9952744300000003 16.0046800400000002 8.3765716700000006 Na
atom 18.7585409299999988 15.9785313999999996 8.5554523200000006 Cl
atom 18.7791767800000002 13.1486574399999991 8.3543075699999996 Na
atom 15.9465613600000005 13.1685248500000007 8.5615473099999999 Cl
atom 18.7646418500000003 16.0128667000000000 5.7961449199999997 Na
atom 15.9845289400000006 16.0090615599999992 5.6993199299999997 Cl
atom 15.9335190000000004 18.8422582399999996 5.7992671500000004 Na
atom 18.8015481899999983 18.8129067700000014 5.7235314400000004 Cl
atom 15.9414520300000007 21.6399306799999991 8.3798630599999999 Na
atom 18.7835295000000002 21.6023809799999995 8.5625285899999994 Cl
atom 18.7817162899999985 18.8082660399999995 8.4032884800000005 Na
atom 15.9433219400000006 18.8112599600000010 8.5654883799999997 Cl
atom 18.7834507399999993 21.6429816600000002 5.7945650799999999 Na
atom 15.9652736300000004 21.6312982200000015 5.7575331099999998 Cl
atom 15.9596007899999996 24.4342093799999986 5.8288610299999997 Na
atom 18.7777008800000011 24.4335973300000013 5.7218346699999998 Cl
atom 15.9656198800000002 27.2778367400000015 8.3758571199999992 Na
atom 18.7738957800000001 27.2590971700000004 8.5837305300000004 Cl
atom 18.7921528100000010 24.4233693400000007 8.3984564699999993 Na
atom 15.9425625699999998 24.4500159400000001 8.5976195999999998 Cl
atom 18.7711380100000014 27.2404597700000011 5.8244170999999998 Na
atom 15.9613254100000006 27.2480823900000004 5.7179470500000003 Cl
atom 15.9657370099999998 30.0721396900000002 5.7965130800000004 Na
atom 18.7800643200000010 30.0793064799999996 5.7246175399999997 Cl
atom 15.9411782399999993 32.9202009600000025 8.3974123899999995 Na
atom 18.7856905400000009 32.9099866700000021 8.5636410000000005 Cl
atom 18.8015173100000013 30.0579139799999986 8.3680733800000002 Na
atom 15.9544551999999999 30.0898548699999999 8.5638311799999993 Cl
atom 18.7764847599999989 32.9193583699999976 5.8401400499999996 Na
atom 15.9541020699999994 32.8960798000000025 5.7383366100000002 Cl
atom 15.9428663799999999 35.7540378400000023 5.8104788000000003 Na
atom 18.7621046699999994 35.7302974999999989 5.7331049299999997 Cl
atom 16.2075977900000012 38.5486105900000027 8.3015799200000000 Na
atom 18.8009694900000000 38.5520158599999974 8.6270043300000001 Cl
atom 18.7849039900000001 35.7425548300000031 8.4187414000000000 Na
atom 15.9494747100000005 35.7264502800000017 8.5801996500000008 Cl
atom 18.9349244799999994 38.5667106100000012 5.8300131300000002 Na
atom 15.9016689400000004 38.5602681499999989 5.6315730899999998 Cl