#===============================================================================
# Created using the Atomic Simulation Environment (ASE)

# Tue Dec 23 22:26:58 2025

#=======================================================
lattice_vector 28.1999999999999993 0.0000000000000000 0.0000000000000000 
lattice_vector 0.0000000000000000 39.4799999999999969 0.0000000000000000 
lattice_vector 0.0000000000000000 0.0000000000000000 62.3296083400000001 
atom 7.5515439200000003 14.8744230799999997 -0.0942866500000000 Au
atom 10.3962152700000008 14.8820656499999995 0.0452608100000000 Au
atom 13.1506431700000004 14.7847727500000001 0.2468704500000000 Au
atom 16.0170648399999997 14.7435960999999995 0.0211992800000000 Au
atom 18.8756034799999988 14.7092224399999996 -0.2312515400000000 Au
atom 21.6758922600000012 14.7837154500000008 0.0739244200000000 Au
atom 24.4674804899999998 14.7289793800000002 0.2677831000000000 Au
atom 27.2099198599999994 14.7610829500000005 0.1356421200000000 Au
atom 1.9364971499999999 14.7730834800000004 0.0139727100000000 Au
atom 4.7937759599999996 14.7565496899999999 -0.1316872700000000 Au
atom 8.9566634999999994 17.2191165800000014 0.2101480600000000 Au
atom 11.8292684999999995 17.2329423000000013 0.1718976400000000 Au
atom 14.6145176100000000 17.2256579000000016 -0.0733981800000000 Au
atom 17.5457344900000010 17.1314460599999983 -0.1422971100000000 Au
atom 20.2675926100000012 17.2308699099999991 0.0577043200000000 Au
atom 23.0109544200000009 17.1906197399999989 0.0142554100000000 Au
atom 25.8309087800000015 17.2370860099999987 0.2342597600000000 Au
atom 0.4487849400000000 17.5042057699999987 0.2901217100000000 Au
atom 3.2847587599999999 17.2288070299999987 0.0908213700000000 Au
atom 6.1551044700000004 17.3139386199999983 -0.0955668200000000 Au
atom 7.4981856599999999 19.6293594800000015 0.1614447300000000 Au
atom 10.3830151199999996 19.6679697800000000 0.2585879700000000 Au
atom 13.2209473099999997 19.7337157599999991 0.0751344800000000 Au
atom 16.0375955400000016 19.6482398600000003 0.0222001700000000 Au
atom 18.8477285200000004 19.6758019600000011 -0.0908477300000000 Au
atom 21.5753492700000002 19.6786225899999998 -0.0343573000000000 Au
atom 24.3118500399999995 19.7236470399999995 0.2932341900000000 Au
atom 27.1515720599999995 19.6411105399999997 0.3534247800000000 Au
atom 1.7356648200000000 19.7801918100000016 0.0968169300000000 Au
atom 4.5936973700000001 19.8312767699999988 -0.1267156300000000 Au
atom 8.9543810599999993 22.1185005100000005 0.1830205600000000 Au
atom 11.7524441999999993 22.1741217800000001 0.1778728400000000 Au
atom 14.5469144799999999 22.1187989000000016 0.2520418700000000 Au
atom 17.3855442300000007 22.2034532800000015 0.0304631900000000 Au
atom 20.1049729299999989 22.1591903399999985 0.1407202700000000 Au
atom 22.9624344499999999 22.1415699400000001 0.2300995400000000 Au
atom 25.6891903699999986 22.1553543200000007 0.2414178800000000 Au
atom 0.3777218800000000 22.2073731800000012 0.1652546100000000 Au
atom 3.1210168899999999 22.1288547800000011 0.0323263400000000 Au
atom 6.0689890200000001 22.1223867200000015 -0.0315548600000000 Au
atom 7.4576600400000004 24.5222791600000001 -0.1775512900000000 Au
atom 10.2357322499999999 24.5804389299999997 0.1217798400000000 Au
atom 13.0999110099999996 24.5956229399999984 0.2086173100000000 Au
atom 16.0466389700000001 24.6315241600000014 0.1302621100000000 Au
atom 18.8494386300000016 24.6421763300000016 0.3957722800000000 Au
atom 21.5492516999999992 24.6286933099999992 0.5960909599999999 Au
atom 24.3700409299999983 24.6009381000000005 0.2371133800000000 Au
atom 27.1995549700000012 24.6157761700000002 0.2512885500000000 Au
atom 1.7708495399999999 24.7031544700000012 0.0784063900000000 Au
atom 4.7162365299999998 24.5749965900000014 0.0161607100000000 Au
atom 8.9553259900000004 27.0042015500000012 -0.0182380200000000 Au
atom 11.7473784000000006 27.0876355000000011 0.0579403200000000 Au
atom 14.5427404500000002 27.1568685199999997 -0.0033478600000000 Au
atom 17.4171455100000010 27.1951987499999994 -0.3192394800000000 Au
atom 20.3057218199999987 27.0432679100000009 -0.0920165400000000 Au
atom 23.0570001200000014 27.0522843600000016 0.2025558400000000 Au
atom 25.8450305200000017 27.2018881499999985 0.1614250100000000 Au
atom 0.3330275300000000 27.0828003399999986 -0.2537655300000000 Au
atom 3.2574981099999998 26.9656558799999999 -0.1267909000000000 Au
atom 6.0997642499999998 26.9875535199999987 -0.2206001200000000 Au
atom 7.6094027799999999 29.5172515299999993 -0.2259830000000000 Au
atom 10.4534517699999991 29.6051808299999983 -0.1926341900000000 Au
atom 13.2278447400000001 29.6262286400000008 -0.0934815900000000 Au
atom 16.0568570299999998 29.6341757000000001 -0.1058644700000000 Au
atom 18.9028007000000002 29.5598756899999984 -0.1858299300000000 Au
atom 21.6256563799999988 29.5351064699999988 -0.0056139500000000 Au
atom 24.3447884499999994 29.5685484199999991 -0.0527050300000000 Au
atom 27.2500157899999991 29.5192278100000003 0.0654617300000000 Au
atom 1.9280853499999999 29.4585404900000007 -0.2863688900000000 Au
atom 4.7767365000000002 29.4982021100000011 -0.4536812400000000 Au
atom 8.9982921499999993 32.0259816499999985 0.0278319300000000 Au
atom 11.8543703399999991 32.0846153299999983 -0.0067762400000000 Au
atom 14.6180158400000000 32.1302207299999978 0.1749921300000000 Au
atom 17.4937458100000001 32.1283285100000029 -0.1247329700000000 Au
atom 20.2943655199999995 32.0052113899999995 0.1283884100000000 Au
atom 23.1127572699999995 32.1528432499999965 -0.0560563500000000 Au
atom 25.8661303899999986 32.0440574499999968 -0.1412283700000000 Au
atom 0.5104085000000000 32.1869441099999989 -0.4031897200000000 Au
atom 3.4281636000000000 32.0355881199999999 -0.2666033100000000 Au
atom 6.1886203699999998 32.0786916899999994 -0.1028403900000000 Au
atom 7.6389887300000003 34.4978476499999971 -0.0477762900000000 Au
atom 10.4179329500000009 34.4345902900000027 -0.2853522000000000 Au
atom 13.1943048800000007 34.6174823899999993 0.1130311100000000 Au
atom 16.0614296799999998 34.5917549199999996 0.0349627300000000 Au
atom 18.8317331199999991 34.6275795099999968 -0.1686888300000000 Au
atom 21.5505603000000008 34.4797344899999985 0.2258388100000000 Au
atom 24.4366109099999989 34.5087944300000018 0.1827591500000000 Au
atom 27.3880897999999995 34.4093360600000011 0.3261488200000000 Au
atom 1.9259207000000000 34.4896421600000025 -0.0863238100000000 Au
atom 4.8427472399999996 34.5468600499999994 -0.0781848000000000 Au
atom 9.0728854499999994 37.0068012600000031 -0.0811703900000000 Au
atom 11.6791269799999995 36.9811565400000006 0.4507189100000000 Au
atom 14.5709246399999994 37.0413375799999969 0.1677425200000000 Au
atom 17.3713429300000008 36.9885292800000016 -0.0428435300000000 Au
atom 20.1516400199999985 37.0085181800000029 0.4258052400000000 Au
atom 22.8758430799999992 36.9757007299999998 0.1558480300000000 Au
atom 25.8084019600000012 36.9119031700000022 0.2554658500000000 Au
atom 0.4885500100000000 37.0359485000000035 0.2978222800000000 Au
atom 3.2372629800000001 36.9100581100000014 0.0315265000000000 Au
atom 6.0959279200000003 37.0055526499999985 -0.2952559900000000 Au
atom 7.6827807500000000 -0.0137530000000000 0.0529004100000000 Au
atom 10.2224997500000008 0.0036676500000000 0.1044175800000000 Au
atom 13.3907144400000000 0.0063488900000000 0.2523494500000000 Au
atom 16.0705698000000012 0.0435107300000000 0.4192717800000000 Au
atom 18.8752674999999996 -0.0219434300000000 0.0693050200000000 Au
atom 21.5256301999999984 -0.0395578400000000 0.3313140100000000 Au
atom 24.4647266899999991 -0.0253116000000000 0.0541797800000000 Au
atom 27.1278368699999994 -0.0016988400000000 0.1247925700000000 Au
atom 1.9481599100000000 0.0266609600000000 0.2505136400000000 Au
atom 4.7195765400000003 -0.0443326700000000 0.1953021100000000 Au
atom 8.8630373900000006 2.4483889699999999 -0.0785060600000000 Au
atom 11.6880634000000008 2.3939716600000001 0.1041871100000000 Au
atom 14.5632699700000003 2.5030650500000000 0.0751491000000000 Au
atom 17.3759765600000016 2.4394790400000002 0.0522827900000000 Au
atom 20.2584772800000010 2.4787835100000000 0.1349832600000000 Au
atom 23.1746334400000009 2.4697746000000000 -0.0304906000000000 Au
atom 25.8872906299999990 2.5637354499999998 0.2680114500000000 Au
atom 0.3677458500000000 2.4569636400000001 0.0877374800000000 Au
atom 3.2706377600000001 2.3936169800000000 0.3156731900000000 Au
atom 6.0697795399999999 2.4638913400000000 -0.1512751500000000 Au
atom 7.3755366599999999 4.8148593499999999 -0.4572411800000000 Au
atom 10.2881478400000006 4.7462841800000000 -0.0533674000000000 Au
atom 13.1198654599999998 4.7907653699999999 -0.0733236100000000 Au
atom 16.0281805300000002 4.8984998700000002 0.1173936300000000 Au
atom 18.9050444400000011 4.7764389400000002 0.0456337800000000 Au
atom 21.6735612300000007 4.9066030899999999 -0.0011738700000000 Au
atom 24.5518445900000017 4.8947646200000001 -0.0237619200000000 Au
atom 27.3046074899999986 4.8457638400000000 0.0591541600000000 Au
atom 1.8202370000000001 4.8165431600000002 0.3312161300000000 Au
atom 4.6203225300000001 4.8392580900000004 -0.0665513300000000 Au
atom 8.9603852899999996 7.2248866800000000 0.0111964800000000 Au
atom 11.7515772599999995 7.2191907100000003 -0.3581812000000000 Au
atom 14.6172841099999999 7.2988910499999999 -0.3318179300000000 Au
atom 17.4288774999999987 7.2959851599999999 -0.0076151200000000 Au
atom 20.2481210099999984 7.3716690900000001 0.3216795100000000 Au
atom 23.1120765199999987 7.3645645000000002 0.0224728100000000 Au
atom 25.9575234399999992 7.2903054899999997 0.1174838200000000 Au
atom 0.4695830100000000 7.1885665799999998 0.1993115700000000 Au
atom 3.2806790200000000 7.3661661799999996 0.0081279100000000 Au
atom 6.1188279699999999 7.3037680900000002 -0.4069746600000000 Au
atom 7.4984959199999999 9.8488465900000008 0.0531743700000000 Au
atom 10.3862746200000000 9.8941455699999992 -0.0991326900000000 Au
atom 13.2102067200000004 9.7902246399999999 -0.2995923800000000 Au
atom 15.8586951799999998 9.8110499099999995 0.0530375800000000 Au
atom 18.7498526900000009 9.7642793200000000 0.0418056500000000 Au
atom 21.7037949300000008 9.7781636600000006 -0.1841782600000000 Au
atom 24.4615669599999990 9.7684202399999993 -0.2228168600000000 Au
atom 27.1821851599999995 9.8612122699999993 0.0250944200000000 Au
atom 1.9947290499999999 9.8515212200000004 0.1181602600000000 Au
atom 4.7195503199999997 9.7664286600000008 -0.2089736000000000 Au
atom 8.9969477999999992 12.4129137600000004 -0.3354942400000000 Au
atom 11.8537356200000001 12.2950680800000001 -0.2841424600000000 Au
atom 14.6126065900000004 12.3269928300000000 0.0644851300000000 Au
atom 17.4051203500000007 12.2022946200000000 -0.3660564200000000 Au
atom 20.2651676199999997 12.2268834200000001 -0.1850017200000000 Au
atom 23.0725378200000009 12.2819564099999994 -0.1684901200000000 Au
atom 25.8229378700000005 12.2715219199999996 0.3119070200000000 Au
atom 0.4108916100000000 12.1484316099999994 0.1024380900000000 Au
atom 3.3822258600000001 12.2877305600000000 -0.1936757400000000 Au
atom 6.1748346200000004 12.3205773099999991 -0.1556084000000000 Au
atom 7.5771282400000004 13.1164232100000007 2.4969096899999998 Au
atom 10.4475194899999995 13.1023329700000009 2.3868210599999999 Au
atom 13.2428899500000004 13.0711093999999992 2.6925711699999999 Au
atom 16.0571402300000017 13.0837452200000008 2.6706013899999999 Au
atom 18.8561368400000013 13.0995638299999992 2.3904081599999998 Au
atom 21.6493459199999982 13.0611968699999998 2.4673440000000002 Au
atom 24.3691419399999987 13.0914656500000000 2.8041965700000002 Au
atom 27.2519809500000001 13.2123380200000007 3.0640084999999999 Au
atom 1.8705836300000001 13.1844210700000009 2.4985345500000000 Au
atom 4.8087221099999997 13.2429452199999993 2.3292289099999999 Au
atom 8.9775445400000002 15.5994807299999998 2.6888096199999998 Au
atom 11.7911262499999996 15.6443842499999999 2.8107595999999999 Au
atom 14.6205315700000007 15.6067484400000005 2.6657124099999998 Au
atom 17.4732567900000006 15.6187354900000006 2.5184387099999999 Au
atom 20.2598166500000012 15.5532396800000008 2.6393089500000002 Au
atom 22.9443669399999983 15.6480931600000002 2.6122954100000002 Au
atom 25.8601772700000012 15.5927723599999997 2.8677103000000002 Au
atom 0.4714844300000000 15.5015651000000005 2.7321358899999999 Au
atom 3.4063232600000002 15.6523681999999997 2.5045801000000001 Au
atom 6.2362691400000001 15.6764917399999995 2.4843621900000001 Au
atom 7.5683400900000004 18.1562354900000003 2.7549235500000000 Au
atom 10.4793861499999998 18.1149354299999992 2.8031007200000002 Au
atom 13.2079806899999994 18.0461337999999998 2.6484324899999998 Au
atom 15.9779377999999994 17.9962683400000003 2.3910634900000001 Au
atom 18.8407832599999985 18.0932325100000000 2.4734802700000000 Au
atom 21.6469061300000014 18.0721431000000017 2.5420184699999999 Au
atom 24.4716032800000001 18.1485563700000014 2.8215103400000001 Au
atom 27.2928582800000008 18.1940582800000001 2.8816391900000000 Au
atom 2.0782859500000002 17.9175545499999984 2.7450140599999999 Au
atom 4.9272347500000002 18.2278130800000007 2.4122328799999999 Au
atom 8.8765633499999996 20.5572780100000010 2.7351156300000001 Au
atom 11.6762069200000003 20.6429977399999984 2.6606051599999998 Au
atom 14.5825848800000006 20.5635257200000012 2.7361737100000001 Au
atom 17.3744703600000001 20.6017218000000000 2.6639183399999999 Au
atom 20.2164869200000012 20.5283324500000006 2.7860749800000000 Au
atom 22.9936728600000002 20.5615730600000006 2.9303082100000002 Au
atom 25.8124208999999993 20.5142683699999999 2.9824774100000000 Au
atom 0.4450517000000000 20.3015957900000004 2.8593393800000002 Au
atom 3.4072543199999998 20.5858086100000008 2.8770462399999999 Au
atom 6.1805817000000003 20.6989325700000002 2.7158307100000001 Au
atom 7.5399414599999997 23.1273518100000004 2.5007624800000001 Au
atom 10.4378411799999995 23.0741908400000000 2.8140893100000000 Au
atom 13.2300648299999999 23.0547655599999999 2.9796888600000000 Au
atom 16.1243852099999998 23.0655569400000005 2.7744378500000000 Au
atom 18.7958190000000016 23.0567531999999993 2.8280237000000001 Au
atom 21.4832794599999986 22.9653659400000016 2.9013030000000000 Au
atom 24.3912462699999999 22.9936680200000012 2.8201195100000001 Au
atom 27.2087574699999983 23.1671658200000010 2.6999813000000001 Au
atom 1.8635291500000000 22.9752758800000016 2.7419473700000001 Au
atom 4.8107607500000000 23.0570385000000009 2.5428369100000001 Au
atom 8.9521690799999991 25.5475786300000003 2.6842028600000001 Au
atom 11.7424383700000003 25.6058488100000012 2.6471019299999998 Au
atom 14.4576374800000007 25.6257805699999999 2.5680713900000001 Au
atom 17.3149785799999982 25.6233429500000014 2.6153412600000001 Au
atom 20.2441674599999999 25.6051378900000017 3.0879647399999999 Au
atom 22.9803021399999992 25.5190103300000004 2.9732509500000002 Au
atom 25.7881364700000013 25.4378331700000011 2.7417513100000002 Au
atom 0.4611494400000000 25.3745326499999990 2.7535082599999998 Au
atom 3.3539892800000000 25.4254079699999984 2.4556401800000001 Au
atom 6.1725588199999999 25.5364475000000013 2.5634627499999998 Au
atom 7.5573187500000003 27.9560381500000013 2.4741291500000000 Au
atom 10.3761953400000007 28.0697582399999988 2.3074298999999998 Au
atom 13.1664186599999997 28.0379793299999989 2.6471301100000000 Au
atom 15.9863769700000002 28.0258000400000000 2.5622791800000000 Au
atom 18.8372550899999993 27.9492881500000010 2.3954785900000002 Au
atom 21.5928493400000008 27.9499987499999989 2.6300348200000001 Au
atom 24.4707431399999997 27.9719678800000011 2.6363575300000002 Au
atom 27.3179217899999998 27.6884778400000009 2.6626353200000001 Au
atom 1.8458894200000000 27.8518578400000010 2.3907256800000001 Au
atom 4.6618483900000003 27.9825660899999988 2.1649190400000000 Au
atom 8.8662803500000003 30.4058786000000012 2.5194735499999998 Au
atom 11.8008427099999995 30.5084201600000000 2.4351237100000001 Au
atom 14.5010721000000000 30.4085492700000017 2.7203063200000002 Au
atom 17.3435859100000016 30.3894001399999993 2.4516507900000000 Au
atom 20.1858899299999983 30.4193639299999994 2.6518700700000002 Au
atom 23.1656175100000006 30.4598931200000003 2.5674344499999999 Au
atom 25.8700951299999993 30.3739235100000009 2.6484014400000002 Au
atom 0.5650490100000000 30.2264496099999995 2.3957124599999999 Au
atom 3.3345975999999999 30.4075555100000017 2.1523184199999998 Au
atom 6.1277755100000002 30.4005619200000012 2.2877549099999999 Au
atom 7.5634843800000002 32.8387845800000022 2.6939483000000002 Au
atom 10.3102617799999994 32.8509254499999983 2.7095763800000001 Au
atom 13.2625729400000001 32.8979041199999998 2.7612890900000000 Au
atom 16.1226837500000002 32.9469338500000006 2.6943591300000000 Au
atom 18.8866816300000018 32.9922257799999983 2.6650618399999999 Au
atom 21.6620064399999990 32.8851736499999987 2.7678664400000001 Au
atom 24.5138436300000002 32.9398020100000011 2.5964710200000001 Au
atom 27.3508705300000017 32.8148242099999976 2.8757427899999999 Au
atom 1.9570321100000001 32.8762896100000006 2.3035704300000002 Au
atom 4.7459662500000004 32.8445219899999969 2.6464423099999999 Au
atom 8.9610640099999994 35.2598118599999992 2.5486050200000001 Au
atom 11.7226842300000005 35.2640982300000019 2.7213175600000001 Au
atom 14.5381918300000006 35.3652017200000017 2.6832986299999999 Au
atom 17.4438254300000004 35.5222608799999975 2.5275731499999998 Au
atom 20.2353965100000011 35.4561480400000022 2.8208878999999998 Au
atom 22.9881608899999996 35.4852182899999988 2.7517223799999999 Au
atom 25.8897484300000009 35.3140371599999980 2.9675361599999999 Au
atom 0.5412866500000000 35.4042434200000002 2.8213969300000001 Au
atom 3.3541801699999998 35.2808952600000012 2.5262735699999999 Au
atom 6.1666007299999999 35.3082310799999988 2.5526877400000001 Au
atom 7.3449369100000004 37.8054407200000000 2.4999739900000000 Au
atom 10.4272297199999997 37.6826382899999999 2.7256311300000000 Au
atom 13.0369822400000004 37.9598313500000017 2.8267172000000000 Au
atom 15.8989037100000008 37.8601571199999967 2.7260805299999999 Au
atom 18.8418504099999993 37.9600867099999988 2.7914340800000002 Au
atom 21.8293168699999995 37.9427896500000017 3.0982118399999998 Au
atom 24.3075263899999996 37.8968124200000034 2.3148717500000000 Au
atom 27.2510689200000016 37.7142052399999983 2.9077269600000002 Au
atom 1.8511819800000000 37.7837784399999990 2.8101933400000001 Au
atom 4.8434731299999996 37.7525442700000013 2.6724382200000001 Au
atom 8.8346797899999991 0.8948430800000000 2.6768829799999998 Au
atom 11.7506059000000000 0.8173958000000000 2.7021649499999998 Au
atom 14.4223983600000007 0.7817361500000000 2.8068783499999999 Au
atom 17.2974376999999997 0.9390563300000000 2.9043250299999999 Au
atom 20.2499203899999998 0.9710099700000000 2.8837177000000001 Au
atom 23.0875676699999985 0.8456896699999999 2.6584535800000002 Au
atom 25.7951797399999982 0.6328900400000000 2.8281539599999999 Au
atom 0.4818917100000000 1.1516556899999999 2.9408635599999999 Au
atom 3.4261984200000000 0.7142727300000000 2.9381129300000000 Au
atom 6.2313263499999998 0.8272620899999999 2.6658447100000000 Au
atom 7.5211101500000002 3.3344348199999998 2.3622802799999998 Au
atom 10.2593999000000000 3.2880000900000002 2.6622766200000001 Au
atom 13.0873011399999992 3.3587297299999999 2.6867045400000000 Au
atom 15.8660708600000007 3.2834267399999999 2.8125292700000002 Au
atom 18.7393235199999992 3.2780934099999999 2.6721662899999998 Au
atom 21.6810368199999992 3.3536674400000002 2.5186722200000000 Au
atom 24.5263621299999990 3.2750379100000000 2.7827532200000000 Au
atom 27.2901519400000012 3.2278074200000000 3.1319385400000002 Au
atom 2.0164622500000000 3.2299671800000000 2.8872583600000001 Au
atom 4.8675856499999997 3.2256376000000002 2.6417781599999999 Au
atom 8.9297004100000006 5.7793415299999999 2.5595664899999999 Au
atom 11.6238619100000005 5.7344881100000000 2.5506326800000001 Au
atom 14.5556081400000004 5.7870251100000001 2.5968781700000001 Au
atom 17.4379723300000009 5.7812248899999998 2.7521121200000001 Au
atom 20.1951544600000013 5.7580582700000003 2.7730653599999999 Au
atom 23.0594161699999987 5.7847439100000004 2.7774976699999998 Au
atom 25.8669508300000004 5.7205852799999999 2.8026707499999999 Au
atom 0.5579184200000000 5.8082976799999999 2.7965723100000002 Au
atom 3.4242325700000000 5.8079453399999998 2.9280707100000001 Au
atom 6.2813762600000000 5.7731839500000000 2.2000584100000000 Au
atom 7.6176894900000001 8.3440513299999992 2.7085612000000001 Au
atom 10.3850543200000001 8.2102448799999994 2.4012958000000002 Au
atom 13.1732764699999993 8.2856920200000008 2.2453400399999999 Au
atom 15.8653917799999995 8.2528742299999998 2.5564654999999998 Au
atom 18.6600718800000003 8.2041856499999994 2.8471682999999999 Au
atom 21.6367987900000003 8.2149126599999995 2.6376419900000001 Au
atom 24.4509306399999993 8.2037769899999997 2.4274255600000001 Au
atom 27.3164379400000001 8.0705694099999992 2.8687141700000001 Au
atom 1.9317321000000001 8.2813625500000008 2.7682537300000001 Au
atom 4.7609655999999996 8.1318789999999996 2.3974183299999998 Au
atom 9.0012943100000005 10.6621049800000005 2.3780120199999999 Au
atom 11.7179133300000000 10.7126310500000006 2.3469970700000000 Au
atom 14.4056530499999997 10.7133576999999995 2.5402793199999998 Au
atom 17.3924641899999983 10.6396367499999993 2.4511128499999999 Au
atom 20.1143013599999989 10.4984313000000000 2.5033755400000000 Au
atom 22.9169963599999988 10.6128169400000001 2.5464393500000000 Au
atom 25.8327697699999987 10.5695104400000002 2.7802988300000000 Au
atom 0.5435553300000000 10.6841921000000006 2.7858704599999999 Au
atom 3.3249576500000000 10.8007691999999995 2.6414694000000001 Au
atom 6.0699532899999999 10.7503937700000005 2.3965477700000002 Au
atom 7.1150429300000004 13.5711935399999994 5.5930732799999996 Cl
atom 7.2856111900000000 16.3857073500000006 8.6019087600000006 Cl
atom 7.1130189899999996 13.4098519199999995 8.2059488599999995 Na
atom 7.2474029299999998 16.2800402999999996 5.8200779000000002 Na
atom 7.2382579800000002 19.0209156600000000 5.6311834100000002 Cl
atom 7.3701397499999999 21.8969153799999994 8.7617606200000004 Cl
atom 7.3429450799999998 19.0264979700000012 8.3191487899999998 Na
atom 7.3202959500000002 21.8086245699999992 5.7409533499999998 Na
atom 7.3703097499999997 24.7180836600000013 5.5492223599999999 Cl
atom 7.2674287599999996 27.5507397599999990 8.7124614800000000 Cl
atom 7.3910815300000001 24.5609984399999988 8.2496219499999999 Na
atom 7.2255373100000000 27.5582242899999983 5.9201268000000002 Na
atom 7.3892947700000002 30.3964387199999990 5.7341806399999999 Cl
atom 7.5056819900000002 33.2290143900000032 8.6426797999999998 Cl
atom 7.5638687899999999 30.3456394100000004 8.3697437699999995 Na
atom 7.5261086199999996 33.2984718100000023 5.8564182599999999 Na
atom 7.4236235300000004 36.0916078400000018 5.8808664400000001 Cl
atom 7.4053673599999996 38.9266313999999980 8.5684044799999999 Cl
atom 7.4431405699999997 35.9520058100000028 8.5099654299999994 Na
atom 7.3834673899999999 38.7793361100000027 5.9238171599999996 Na
atom 7.1513551800000004 1.9938307799999999 5.8850060300000004 Cl
atom 7.3641675900000001 4.9411529700000001 8.5834126800000003 Cl
atom 7.5409712300000002 2.1962908799999998 8.5888002799999992 Na
atom 7.3305427500000002 4.8795643200000001 5.8911292599999996 Na
atom 7.2313517100000002 7.8892123400000003 5.5599608700000003 Cl
atom 7.3299528299999999 10.6573788100000009 8.2891991199999993 Cl
atom 7.3745865300000002 7.7070142800000001 8.2269372300000008 Na
atom 7.3385394499999999 10.5999574800000005 5.5538500300000004 Na
atom 9.8979866800000007 13.4299869600000008 5.6865911899999997 Na
atom 12.9325686100000006 13.4361840400000006 5.5870518499999999 Cl
atom 10.1353946300000004 16.0208562599999986 8.2470626800000009 Na
atom 12.9148863499999997 16.0787575199999999 8.4635102500000006 Cl
atom 12.9958654399999993 13.3113539500000009 8.2146829599999993 Na
atom 10.1720243600000000 13.3782183900000007 8.4840234999999993 Cl
atom 12.8508008999999994 16.1514099800000004 5.7254284200000001 Na
atom 10.0099952200000004 16.1821842099999991 5.5127890500000003 Cl
atom 10.1050386700000008 19.0436533600000004 5.6942738600000000 Na
atom 12.8477508799999995 19.0892091800000010 5.5591930800000000 Cl
atom 10.1652272099999994 21.8751281000000013 8.5304690599999997 Na
atom 12.7759987899999992 21.7869861500000006 8.6949944499999994 Cl
atom 12.8726655399999999 18.9090022699999984 8.2140776899999999 Na
atom 10.2074245999999995 18.9510478400000011 8.3932720399999994 Cl
atom 13.0609018799999994 21.8032353100000016 5.7604785200000004 Na
atom 10.1307468899999993 21.8351461499999999 5.8579874800000002 Cl
atom 10.2229840000000003 24.7050638599999992 5.7901933100000003 Na
atom 12.9976703499999999 24.7797246300000005 5.7975706000000002 Cl
atom 10.0912784799999997 27.5625430099999988 8.3744829299999992 Na
atom 12.8460356000000004 27.6106048299999998 8.6287597300000005 Cl
atom 12.8477746300000000 24.7594679199999987 8.3380474200000005 Na
atom 10.0353118299999995 24.6140438199999991 8.5117255699999994 Cl
atom 13.0071662099999994 27.5680541699999999 5.9103398800000004 Na
atom 10.1569388899999993 27.5189153100000006 5.7867203299999996 Cl
atom 10.2446659300000000 30.3185551999999987 5.9314610400000003 Na
atom 13.0089257699999994 30.2996861799999984 5.8163673999999999 Cl
atom 10.2423893499999998 33.2020669400000017 8.3288122599999994 Na
atom 12.9999571199999995 33.2975437300000010 8.6422393900000003 Cl
atom 13.0142815299999999 30.3962533499999985 8.4556588200000000 Na
atom 10.1569591399999997 30.4314562100000003 8.6726665000000001 Cl
atom 13.0482585499999999 33.3274764100000027 5.8793160899999997 Na
atom 10.2729277000000003 33.3504602000000006 5.8219684799999998 Cl
atom 10.2846793900000009 36.1036096500000028 5.9905094999999999 Na
atom 12.9471520800000004 36.1161162300000029 5.9676873400000003 Cl
atom 10.2202796700000000 38.8871417300000033 8.3966003899999997 Na
atom 13.0198534699999993 38.9014176800000016 8.6416192499999998 Cl
atom 13.0149535200000006 36.2267803900000018 8.5862279299999997 Na
atom 10.1656885399999997 36.0980999800000006 8.6553371299999995 Cl
atom 13.2510198700000004 38.8611401400000034 5.7743764899999999 Na
atom 10.0613639399999997 38.8429678400000000 5.9086970499999998 Cl
atom 10.3876633300000005 2.0760055600000000 5.9752281399999996 Na
atom 12.9721471200000007 2.0579684299999998 5.8170663600000001 Cl
atom 10.2713692299999995 4.9957238600000000 8.3305983700000006 Na
atom 12.9421317299999998 4.9645980999999999 8.6141178699999994 Cl
atom 13.0935210699999995 2.1220248900000001 8.5297105299999991 Na
atom 10.3659252100000003 2.2828896200000002 8.6985001999999998 Cl
atom 13.0476384799999998 4.9702652900000004 5.9388327399999996 Na
atom 10.1377837599999996 4.9034349900000000 5.8144020999999997 Cl
atom 10.0691928199999996 7.6975954099999999 5.8533231299999997 Na
atom 12.9230450099999992 7.6177425000000003 5.7283402499999996 Cl
atom 10.1201528599999993 10.5782112200000000 8.1601623300000004 Na
atom 12.8408115400000007 10.6722695699999992 8.4900502899999992 Cl
atom 12.9560359300000005 7.9046459599999999 8.3634594000000000 Na
atom 10.1055963700000007 7.8320335099999996 8.5610414699999993 Cl
atom 12.8886576300000009 10.4758651300000007 5.6003627199999997 Na
atom 10.0632312699999993 10.6358072600000000 5.5735267799999999 Cl
atom 15.6112450000000003 13.4298325799999994 5.5360101700000000 Na
atom 18.5003202999999985 13.6771229400000003 5.6000669399999996 Cl
atom 15.7419024099999998 16.1377472200000014 8.1733705699999994 Na
atom 18.5223571999999983 16.2571129399999990 8.5141854600000002 Cl
atom 18.5186637000000012 13.5687528900000007 8.3312972100000007 Na
atom 15.8227337800000001 13.3835819699999998 8.2731121900000009 Cl
atom 18.5504151099999994 16.3853381300000009 5.7663456899999996 Na
atom 15.7261244599999994 16.3267597799999997 5.4808745500000002 Cl
atom 15.7449814999999997 19.1320775400000009 5.7866994500000004 Na
atom 18.5285181200000011 19.1587606100000016 5.7281097599999997 Cl
atom 15.7591266000000001 21.7714203600000005 8.5980045300000008 Na
atom 18.6355463499999985 21.7178248200000006 8.7478296400000009 Cl
atom 18.4888269200000011 19.0195829299999986 8.2828648400000002 Na
atom 15.5976861200000005 18.9739462600000017 8.5295567699999992 Cl
atom 18.6198904799999987 21.9741583799999987 6.0038070200000000 Na
atom 15.8070750600000007 21.8537771800000016 5.8536421499999998 Cl
atom 15.7204410600000006 24.6771537000000016 5.8330087600000002 Na
atom 18.7143073000000015 24.7437985400000002 5.9836223300000002 Cl
atom 15.7354831300000004 27.5071446399999999 8.3528684700000007 Na
atom 18.4990057899999982 27.5239332999999995 8.6625464999999995 Cl
atom 18.4792240099999994 24.6941758000000000 8.6132678100000000 Na
atom 15.6273547799999992 24.5368210600000012 8.5283359099999991 Cl
atom 18.7095346499999984 27.4473932500000011 5.9184701700000000 Na
atom 15.6940711900000007 27.4922352100000005 5.7785365600000000 Cl
atom 15.9028432800000008 30.3062986400000014 5.8246304999999996 Na
atom 18.5504825699999998 30.1570058400000001 5.6738876899999999 Cl
atom 15.7415751600000000 33.1974882499999993 8.3936745899999998 Na
atom 18.7498343699999985 33.1785105599999994 8.4554640400000007 Cl
atom 18.5907012899999984 30.4323599800000011 8.3798452999999995 Na
atom 15.7363227800000001 30.3725344499999999 8.4837116800000008 Cl
atom 18.6180260400000002 33.1311544599999976 5.8988552399999996 Na
atom 15.8146980700000004 33.1790372800000029 5.7911884699999998 Cl
atom 15.7728585300000006 36.1219453799999997 5.7429165800000002 Na
atom 18.6222024700000013 36.0635789700000018 5.7903068500000003 Cl
atom 15.7980308199999993 38.8458470799999986 8.3865642299999994 Na
atom 18.7173999400000000 38.7558142000000032 8.6454601699999998 Cl
atom 18.5325108599999986 36.0738219300000011 8.4430905700000007 Na
atom 15.7812355400000008 36.0101174999999998 8.7004106100000005 Cl
atom 18.6639510699999995 38.9212031699999983 6.1305078300000000 Na