#===============================================================================
# Created using the Atomic Simulation Environment (ASE)

# Sat Nov  1 21:48:28 2025

#=======================================================
lattice_vector 28.1999999999999993 0.0000000000000000 0.0000000000000000 
lattice_vector 0.0000000000000000 39.4799999999999969 0.0000000000000000 
lattice_vector 0.0000000000000000 0.0000000000000000 62.3296083400000001 
atom 7.5794119300000000 14.9738474400000001 -0.1745463800000000 Au
atom 10.4574435399999999 14.7409576300000005 0.1806829100000000 Au
atom 13.2728885000000005 14.7677753500000009 0.3071012400000000 Au
atom 16.0728613899999999 14.8730733300000004 0.0461664500000000 Au
atom 18.7684813000000013 14.9590017300000007 0.0195893800000000 Au
atom 21.6328670400000007 14.7292439099999992 0.0282266400000000 Au
atom 24.4299480600000010 14.8861497099999998 -0.0976006100000000 Au
atom 27.1872410699999989 14.8023210899999995 0.1408965300000000 Au
atom 1.8326973499999999 14.8229138099999993 0.2023536500000000 Au
atom 4.8383641500000003 14.8830672300000000 -0.0010246000000000 Au
atom 8.8041655100000007 17.4293681800000009 0.2131360500000000 Au
atom 11.6806251499999991 17.3074759500000006 -0.0131393600000000 Au
atom 14.4439033999999999 17.3533320300000007 -0.0082119500000000 Au
atom 17.3010668800000005 17.3888852100000015 -0.1598991400000000 Au
atom 20.2179841600000003 17.2859579900000000 0.0236290700000000 Au
atom 22.9990067099999997 17.3345717099999987 -0.0593106100000000 Au
atom 25.8109578599999985 17.1243572800000017 -0.0214497800000000 Au
atom 0.4085698800000000 17.3217358300000015 -0.0353727100000000 Au
atom 3.2422593300000000 17.2541246800000003 0.1539726400000000 Au
atom 6.0509936499999997 17.3327254900000014 0.0374760000000000 Au
atom 7.6526683499999999 19.8248398899999998 0.0739199000000000 Au
atom 10.2571501900000008 19.7288017999999994 -0.0185568900000000 Au
atom 13.0786507400000005 19.7468549200000005 0.1608709000000000 Au
atom 16.1437075900000018 19.7806745299999989 -0.1226153000000000 Au
atom 18.8017843499999984 19.6729479199999986 0.0826510800000000 Au
atom 21.6549159799999984 19.6793309399999998 0.0967670400000000 Au
atom 24.3267563299999985 19.8612215799999987 0.1453170200000000 Au
atom 27.1198475799999983 19.8564203699999986 -0.0255336500000000 Au
atom 2.0497249300000000 19.9126391399999996 -0.0301576200000000 Au
atom 4.7225077400000002 19.7573921199999987 0.1265056200000000 Au
atom 8.9613062899999996 22.3052565700000009 0.1769259600000000 Au
atom 11.6771445600000003 22.3171277699999990 0.0531580800000000 Au
atom 14.6519117500000000 22.2433012699999999 0.1862205700000000 Au
atom 17.4697334799999986 22.2839072000000016 0.0790638300000000 Au
atom 20.0958112699999987 22.4098666400000006 0.0576077400000000 Au
atom 23.0212959099999992 22.3262708399999994 -0.0415127600000000 Au
atom 25.9188712999999993 22.0733519600000001 -0.0188663400000000 Au
atom 0.4341880300000000 22.2839078700000002 -0.0844944900000000 Au
atom 3.4268466700000002 22.4091324599999986 0.2201012600000000 Au
atom 6.2257832400000002 22.3154255399999997 0.0740320800000000 Au
atom 7.4084049800000003 24.4939358700000014 0.1070567500000000 Au
atom 10.3368617399999998 24.6321998700000009 0.1312520400000000 Au
atom 13.1675011400000006 24.7367500000000007 0.0858094500000000 Au
atom 15.9706827400000009 24.5971213199999994 0.1267422400000000 Au
atom 18.8209760300000006 24.7341639099999995 -0.1012774200000000 Au
atom 21.7507670799999993 24.7094105699999993 0.0599878400000000 Au
atom 24.5985871500000002 24.6565681300000001 0.2315949800000000 Au
atom 27.1637060699999999 24.6978551300000007 -0.0247891100000000 Au
atom 1.7988069099999999 24.5745339099999995 0.1187037500000000 Au
atom 4.7268613300000002 24.8098010400000000 0.2940240700000000 Au
atom 8.9882820500000005 27.3810626100000007 0.2249816200000000 Au
atom 11.7940489999999993 27.0663634699999989 -0.0940252100000000 Au
atom 14.4995156099999996 27.0998427299999989 -0.0874339800000000 Au
atom 17.3676342499999983 26.9725336499999990 0.0051684400000000 Au
atom 20.1043883000000001 27.3019122000000003 0.0884210500000000 Au
atom 22.9659214200000008 27.3341268699999986 -0.1606376500000000 Au
atom 25.9022048399999996 27.0391206000000004 -0.0089212100000000 Au
atom 0.5639584100000000 27.2868318400000014 -0.1087941300000000 Au
atom 3.3193274700000002 27.2611031100000005 0.0297789200000000 Au
atom 6.1566749999999999 27.0981252099999992 0.1209032700000000 Au
atom 7.5153618800000004 29.6511029899999983 -0.0789375000000000 Au
atom 10.4118509400000008 29.6282094799999989 -0.0830258000000000 Au
atom 12.9547044699999994 29.5119728399999985 -0.1622556700000000 Au
atom 15.9375266399999997 29.7235287600000007 0.0926230700000000 Au
atom 18.7892499000000015 29.5222975000000005 0.0547885700000000 Au
atom 21.5378639700000001 29.7446395000000017 -0.1339016800000000 Au
atom 24.3909911999999984 29.5955064400000012 -0.2085072600000000 Au
atom 27.2273326400000002 29.6574687899999994 0.0891871200000000 Au
atom 1.8747816100000001 29.5418383899999988 0.0608064900000000 Au
atom 4.6948914100000003 29.5188397299999998 -0.0164284500000000 Au
atom 8.9381190299999993 32.1411914800000034 -0.0546762900000000 Au
atom 11.8240768999999997 32.0219917800000005 0.0303344200000000 Au
atom 14.6003883200000004 32.0877396400000023 -0.0171262200000000 Au
atom 17.4547557799999993 32.1413505100000023 0.1383696300000000 Au
atom 20.1591973799999984 32.1577375399999994 0.0536264300000000 Au
atom 23.1173404200000014 32.0462332500000002 -0.3337362600000000 Au
atom 25.7034310499999989 32.2308521400000032 0.0397073600000000 Au
atom 0.4258700200000000 32.0937764399999992 -0.1224940800000000 Au
atom 3.2514346800000000 32.0705231700000013 -0.0546933800000000 Au
atom 6.2063127900000001 32.0719488200000029 -0.0615077100000000 Au
atom 7.4543976299999999 34.5301538800000003 0.0152499100000000 Au
atom 10.2632532699999999 34.5116964199999998 -0.0940578800000000 Au
atom 13.2554787899999997 34.5838941000000020 -0.1033203000000000 Au
atom 16.0590132799999985 34.4523649599999970 -0.0291020200000000 Au
atom 18.9766920900000002 34.5203252199999966 -0.1171595200000000 Au
atom 21.7047978000000015 34.4429141700000017 0.0157580500000000 Au
atom 24.5251131300000011 34.6376849899999968 -0.0819376500000000 Au
atom 27.3298521699999988 34.6826535200000023 -0.1200440400000000 Au
atom 1.7847637500000000 34.4262771400000034 -0.0295156600000000 Au
atom 4.5468605100000001 34.5628043199999979 -0.0250443900000000 Au
atom 8.9868555499999996 36.8570765500000022 0.0516939300000000 Au
atom 11.7693032899999999 37.0229215700000012 -0.0084905500000000 Au
atom 14.8676377599999991 37.1164274500000033 -0.0740893200000000 Au
atom 17.4674120700000017 37.0020688399999997 -0.0555888600000000 Au
atom 20.2069129700000012 37.1206941200000031 0.1434395400000000 Au
atom 23.0013679499999988 37.2041780400000022 0.0097100900000000 Au
atom 25.9205220899999986 37.0094308299999994 0.1532561000000000 Au
atom 0.5584113600000000 37.1450509800000006 -0.0361637700000000 Au
atom 3.1482104000000000 37.0981197799999975 0.0823736500000000 Au
atom 6.0443269900000001 37.0250053399999999 0.0972844400000000 Au
atom 7.6116174000000001 0.0508574500000000 0.1251641800000000 Au
atom 10.3198767799999995 0.1452270000000000 0.1412687000000000 Au
atom 13.1849144099999993 -0.0816552600000000 -0.0009226800000000 Au
atom 15.9506917700000006 -0.1385440100000000 0.0619402500000000 Au
atom 18.7729844200000002 0.0605008800000000 0.0243697400000000 Au
atom 21.4829064599999988 -0.1767881600000000 0.0593509300000000 Au
atom 24.4825754400000015 -0.1120700700000000 -0.0089345400000000 Au
atom 27.2333510700000012 -0.0616723500000000 0.0394610100000000 Au
atom 1.8077738800000001 -0.0146378900000000 0.0917957900000000 Au
atom 4.6928713399999999 0.0179404500000000 0.1211655700000000 Au
atom 8.9583277199999998 2.3797107500000001 0.1180906400000000 Au
atom 11.7343700099999992 2.3844380200000002 0.0085732300000000 Au
atom 14.4356168900000004 2.5602285899999999 0.1101076500000000 Au
atom 17.5836062800000015 2.6341421600000001 -0.1222486800000000 Au
atom 20.2956869600000012 2.3794856400000000 -0.0931428800000000 Au
atom 22.9044440300000005 2.5904849200000002 0.0357315000000000 Au
atom 25.8072610299999994 2.5392792200000001 0.1631333300000000 Au
atom 0.3478727800000000 2.4881222400000000 0.0772654400000000 Au
atom 3.2405377400000002 2.5422446600000002 -0.0601645200000000 Au
atom 5.9525925400000004 2.4001851599999999 0.1677025300000000 Au
atom 7.4863291800000002 4.8233528200000002 0.1907720800000000 Au
atom 10.2759608399999998 4.9540885899999996 -0.0622856300000000 Au
atom 13.1626452300000008 5.0031903099999999 0.1885452500000000 Au
atom 16.0694379500000011 4.8767376899999997 0.0901699700000000 Au
atom 18.7062914800000009 4.9023207800000002 0.0009750400000000 Au
atom 21.5822473200000005 4.7916456099999998 0.2406971000000000 Au
atom 24.2524038200000014 4.9855678599999997 0.1917998100000000 Au
atom 27.2647820500000009 5.0737365600000004 -0.1203035200000000 Au
atom 1.8317854800000000 4.7783114299999996 -0.0431667500000000 Au
atom 4.6277716699999996 4.7557583200000000 0.1022601500000000 Au
atom 8.9585896100000006 7.1849334100000002 -0.0119918200000000 Au
atom 11.8566398500000005 7.3181718299999998 0.0565565500000000 Au
atom 14.6808699300000001 7.3324277000000002 0.1733890300000000 Au
atom 17.5281965000000000 7.3199496999999996 0.1368865000000000 Au
atom 20.3215069799999988 7.2975356299999996 0.0817366500000000 Au
atom 23.1199230000000000 7.4661713900000004 -0.1558731400000000 Au
atom 25.7979229399999994 7.4058938000000003 0.1849172700000000 Au
atom 0.3048835800000000 7.3225592900000001 -0.0022746300000000 Au
atom 3.2919412900000000 7.3162865600000000 0.1706965200000000 Au
atom 6.2187885100000004 7.5269664799999996 0.2321930500000000 Au
atom 7.5537628000000003 9.8879052299999994 0.0612195500000000 Au
atom 10.4613750499999991 9.9937797699999997 -0.0530716800000000 Au
atom 13.1346624999999992 9.7881507499999998 0.2603627200000000 Au
atom 15.9846335800000006 9.8692383400000008 -0.0058147300000000 Au
atom 18.9626064099999994 9.7493128500000008 0.0963705500000000 Au
atom 21.6925254000000010 9.8852909300000000 0.1234025800000000 Au
atom 24.4331640800000010 9.9582977899999996 0.1172799800000000 Au
atom 27.2307332600000009 9.8003534200000004 -0.0400978200000000 Au
atom 1.8519127300000000 9.9768514699999997 -0.0139765400000000 Au
atom 4.8787970100000004 9.9064635499999998 -0.0429036800000000 Au
atom 8.9358548399999993 12.3894009799999996 0.0386378600000000 Au
atom 11.8076548100000007 12.1576670399999998 0.0412171500000000 Au
atom 14.3236562000000003 12.2933742099999996 0.1382390700000000 Au
atom 17.2636107000000010 12.3641818400000005 -0.0439515800000000 Au
atom 20.0109532500000000 12.3296787699999992 0.0276130000000000 Au
atom 22.8570557900000004 12.2779101500000003 -0.1970005700000000 Au
atom 25.8448931500000008 12.3448821599999992 0.1164313000000000 Au
atom 0.2831176200000000 12.2420676299999993 0.1777866600000000 Au
atom 3.3571101600000000 12.4862993099999997 0.0350201300000000 Au
atom 6.1383096999999998 12.2442269499999998 0.1323072000000000 Au
atom 7.4644138299999998 13.0273672200000004 2.8099570400000000 Au
atom 10.3380590399999992 13.2053445200000006 2.4596152800000000 Au
atom 13.2099209099999992 13.2283052899999998 2.4978976899999998 Au
atom 15.8271324100000008 13.2300522899999997 2.4736684300000000 Au
atom 18.8743686599999982 13.2206275699999996 2.6681218100000001 Au
atom 21.5129768000000006 13.0352912300000003 2.6076435000000000 Au
atom 24.4478899399999996 13.1600545600000007 2.6627475500000002 Au
atom 27.1757723200000001 13.1725252200000007 2.4541376800000001 Au
atom 1.8605987900000001 13.2135378600000006 2.5947447299999999 Au
atom 4.5315827300000002 13.3494432799999991 2.4501203299999998 Au
atom 9.0453729200000001 15.5486773399999993 2.5141651899999999 Au
atom 11.9010493600000000 15.8409266199999994 2.5180586599999999 Au
atom 14.6847593199999995 15.7316766999999995 2.5359687300000000 Au
atom 17.3830858500000005 15.4824795999999996 2.4769996299999999 Au
atom 20.1448389699999986 15.6753827300000008 2.7980543099999999 Au
atom 23.0952911299999997 15.6840024899999992 2.6574154399999999 Au
atom 25.8409045900000010 15.5955090999999992 2.7071924599999999 Au
atom 0.2065454300000000 15.5273774299999996 2.5938171699999999 Au
atom 3.2781738200000001 15.6030786999999993 2.6020882300000001 Au
atom 6.1992060300000000 15.6384276700000004 2.6334495100000002 Au
atom 7.4779962500000003 18.0482603300000015 2.6746324299999999 Au
atom 10.3453639699999993 18.2631593300000006 2.6341386600000001 Au
atom 13.0265419300000005 18.0809941199999997 2.6520666199999998 Au
atom 15.8291422300000004 17.9012149200000010 2.6379201299999999 Au
atom 18.8551670800000011 18.1751570999999998 2.6644174199999999 Au
atom 21.6913208299999987 18.1510798899999983 2.6803749200000002 Au
atom 24.4272964299999984 17.8673329000000010 2.5489085999999999 Au
atom 27.1098584000000002 18.1116297400000015 2.4419914000000000 Au
atom 1.7506452600000000 18.1898036300000001 2.5958150000000000 Au
atom 4.6924026400000001 18.1549625500000005 2.4960250899999998 Au
atom 8.7259016900000006 20.5844139300000002 2.7887175200000001 Au
atom 11.7424830399999998 20.4036125599999991 2.7213856700000001 Au
atom 14.5260640399999996 20.6677379300000013 2.7848714600000002 Au
atom 17.3312992699999988 20.3523435799999994 2.5362442600000001 Au
atom 20.2754146800000008 20.5431298499999997 2.7460926300000001 Au
atom 23.0035648299999984 20.6412171999999998 2.8222919700000002 Au
atom 25.7593315099999991 20.5076759399999986 2.6766076200000000 Au
atom 0.2722978400000000 20.7301880199999999 2.7178085500000000 Au
atom 3.2695368500000002 20.5839926200000001 2.8375883399999999 Au
atom 6.0694870400000003 20.5286963600000014 2.6351683200000000 Au
atom 7.4924281600000002 22.9629786799999991 2.7028262299999999 Au
atom 10.2322515999999997 23.1172567899999990 2.5356991400000002 Au
atom 13.1297313500000001 23.1041421999999983 2.5967473399999998 Au
atom 15.8817439399999998 23.0046260499999988 2.6739649800000000 Au
atom 18.6698154500000015 23.2127695000000003 2.7979793000000002 Au
atom 21.5579157200000004 23.1377361499999985 2.6566639699999999 Au
atom 24.3595043699999998 23.1625227100000011 2.5405128600000002 Au
atom 27.3288811799999998 23.0038337000000013 2.6358784100000001 Au
atom 2.0143517200000001 22.9804490500000007 2.5503950700000000 Au
atom 4.9913132700000000 23.0947801900000016 2.7292605200000000 Au
atom 8.9515000400000009 25.4172190399999991 2.7513160399999999 Au
atom 11.6760099600000000 25.6413734700000013 2.7644566899999998 Au
atom 14.6428506800000005 25.5235559599999995 2.7051067600000001 Au
atom 17.3566062700000003 25.4656490099999999 2.8785374500000001 Au
atom 20.1846538500000001 25.6620836300000015 2.7514833400000001 Au
atom 23.0703104900000007 25.3523542999999982 2.5924695400000002 Au
atom 25.9355867000000018 25.5319991500000008 2.7698249300000000 Au
atom 0.4776943100000000 25.4422887300000014 2.7749073100000001 Au
atom 3.1609200000000000 25.5226889600000000 2.7753610200000001 Au
atom 6.0763868499999996 25.5075490599999988 2.7589931100000000 Au
atom 7.6096578800000003 27.8237743100000010 2.6740024199999999 Au
atom 10.2886460500000005 28.0999031300000013 2.6982314399999998 Au
atom 13.1601296500000000 27.8560120600000012 2.4961506099999999 Au
atom 15.8508841399999998 27.7967234500000018 2.5355346900000000 Au
atom 18.8538214800000006 27.9672179499999984 2.7100944400000002 Au
atom 21.6988498300000003 28.0675111900000012 2.5331499700000002 Au
atom 24.4918025600000000 28.0529114300000018 2.7368572000000002 Au
atom 27.1760669600000000 27.9406530900000014 2.7426521300000002 Au
atom 1.8486138200000000 28.0985900599999994 2.3275381300000002 Au
atom 4.6090366100000004 28.2033378299999988 2.8098951500000000 Au
atom 9.0255885800000009 30.4623636200000014 2.5146586700000002 Au
atom 11.9027348400000008 30.5914103200000014 2.6116750999999998 Au
atom 14.4391097399999992 30.4022563900000016 2.5464563400000002 Au
atom 17.3240581300000009 30.2662073700000001 2.7469799300000002 Au
atom 20.3155857200000014 30.3890174500000008 2.7565586000000000 Au
atom 22.8854434699999985 30.2332381699999999 2.9113783799999999 Au
atom 25.8471432099999987 30.5539026199999988 2.6989954900000002 Au
atom 0.5334941500000000 30.4827142000000002 2.6301009099999999 Au
atom 3.2633521800000000 30.4316959500000017 2.6369159400000002 Au
atom 6.0011314699999998 30.4062837399999992 2.7324986800000000 Au
atom 7.4609256600000000 32.8338839800000031 2.5240821800000002 Au
atom 10.3534039300000007 32.8416951800000021 2.8229138800000002 Au
atom 13.2577159000000009 32.8277661400000014 2.6829160000000001 Au
atom 15.8758972000000007 32.8673081000000025 2.7293941700000000 Au
atom 18.6989054800000005 32.8679167600000000 2.5326569299999999 Au
atom 21.3911646500000003 33.0382486399999991 2.6759763500000000 Au
atom 24.4017356800000016 32.9572297699999979 2.4729966100000000 Au
atom 27.2720445699999985 32.7254268499999981 2.6214783599999998 Au
atom 1.8468154000000001 32.7253283499999981 2.5300082900000000 Au
atom 4.6997324899999997 32.9565789199999983 2.7222926099999998 Au
atom 8.9165436400000004 35.3830756099999988 2.6591971000000001 Au
atom 11.5955662600000000 35.2815705300000033 2.5354087399999998 Au
atom 14.6286096699999995 35.3993440799999988 2.7071131799999999 Au
atom 17.4609962400000001 35.4623330200000026 2.6568714700000000 Au
atom 20.3007344200000013 35.3812167600000009 2.5987790799999999 Au
atom 23.0705485699999997 35.2729218500000030 2.5734352199999999 Au
atom 26.0065757300000016 35.3885514400000005 2.6478274100000001 Au
atom 0.3624249400000000 35.4722824799999970 2.8140011199999999 Au
atom 3.2722096000000001 35.3557419999999993 2.6482606199999998 Au
atom 6.2006809000000001 35.3936211700000030 2.6987805800000002 Au
atom 7.4727689300000000 37.7954404400000001 2.5717205100000000 Au
atom 10.3216844600000002 37.8047826099999966 2.4346958200000000 Au
atom 13.1963834000000002 37.7068673400000023 2.5309972100000002 Au
atom 16.0422808500000009 37.9872515699999980 2.8268142100000002 Au
atom 18.7818581199999990 37.9749805200000026 2.6031510099999999 Au
atom 21.4969055000000004 37.7088753700000012 2.6193786499999998 Au
atom 24.3652065299999983 37.8169802500000003 2.4969341599999999 Au
atom 27.2532173499999999 37.9376095200000023 2.5481337399999999 Au
atom 2.0557998600000000 37.7676541100000023 2.6031542499999998 Au
atom 4.8025893499999999 37.8342596999999969 2.6624232800000001 Au
atom 8.9860388699999998 0.7822365500000000 2.6435209899999998 Au
atom 11.6299475300000008 0.9048302700000000 2.8101398799999999 Au
atom 14.7309307999999994 0.8876507300000001 2.7187764300000001 Au
atom 17.3465267599999997 0.8273869500000000 2.7369969599999999 Au
atom 20.2499550200000016 0.7429548300000000 2.6865950600000001 Au
atom 22.9655381100000007 0.8428101000000000 2.7366888899999999 Au
atom 25.5874446900000017 0.8877380200000000 2.6670348700000002 Au
atom 0.4950435500000000 0.7913222200000000 2.7298204199999998 Au
atom 3.3252324299999998 0.8632695800000000 2.5003154900000002 Au
atom 6.1335342400000004 0.8712225000000000 2.6684193700000001 Au
atom 7.5138548500000004 3.3609586899999999 2.5089959099999999 Au
atom 10.3719424300000007 3.2854650599999999 2.7156288900000001 Au
atom 13.1554027999999992 3.4726356900000002 2.6855468299999998 Au
atom 15.8906767400000000 3.1614296700000000 2.6594679200000000 Au
atom 18.5978558199999995 3.2217823999999999 2.6669341800000002 Au
atom 21.4836915399999988 3.3151696799999999 2.5165106000000002 Au
atom 24.4467695800000016 3.4535038600000001 2.7161507500000002 Au
atom 27.1609696800000009 3.2003062700000000 2.7146004000000001 Au
atom 1.9800445200000001 3.1817723199999999 2.6979079600000002 Au
atom 4.6809693799999996 3.2093583400000001 2.8082604000000000 Au
atom 8.8896159899999994 5.8069556599999999 2.5850072800000001 Au
atom 11.6835042900000001 5.7218350500000001 2.7509823600000001 Au
atom 14.4026378200000007 5.7173344699999999 2.5014844200000002 Au
atom 17.3845872899999989 5.6600589200000000 2.7833741900000000 Au
atom 20.2773361500000000 5.7234948599999997 2.7099705400000000 Au
atom 23.0403999900000009 5.9202649999999997 2.7898093799999999 Au
atom 25.8087889799999992 5.6724040599999999 2.7236192699999999 Au
atom 0.4282263800000000 5.9256910500000002 2.6877727299999998 Au
atom 3.2514249999999998 5.8347954199999998 2.6869630700000000 Au
atom 5.8541584300000000 5.8142445399999998 2.7221855499999998 Au
atom 7.4175730800000004 8.4226200700000007 2.7353069600000000 Au
atom 10.2572957200000001 8.2739881600000000 2.6715122800000000 Au
atom 13.0117965699999996 8.2330535400000002 2.8440288900000001 Au
atom 15.8747508899999996 8.3101027199999997 2.6412365300000000 Au
atom 18.8084584200000009 8.2936896499999992 2.6788080299999999 Au
atom 21.6507949999999987 8.1130589700000009 2.4696690000000001 Au
atom 24.6154476500000001 8.3349632699999994 2.5380648600000000 Au
atom 27.1601932999999995 8.2898302499999996 2.7058719099999999 Au
atom 1.9285250000000000 8.0648751700000005 2.7432567099999998 Au
atom 4.7367058399999999 8.2662430899999997 2.5589858099999998 Au
atom 8.7851701299999991 10.7234145499999993 2.6777200600000000 Au
atom 11.6809797000000000 10.7543016500000004 2.6478165200000001 Au
atom 14.5286097800000000 10.5628011700000002 2.5723797400000001 Au
atom 17.4402190899999994 10.5928154699999997 2.6766613800000001 Au
atom 20.3778878900000002 10.6389736199999998 2.5706114499999999 Au
atom 22.9969335400000006 10.7101282700000002 2.6216325700000001 Au
atom 25.8710657700000013 10.6817767700000008 2.7972662200000000 Au
atom 0.6466646600000000 10.7706064399999999 2.6390964299999999 Au
atom 3.3958249800000000 10.6653988399999999 2.4207907199999998 Au
atom 6.2084999300000003 10.7339279500000000 2.6849802399999998 Au
atom 7.4810966900000002 13.0732565600000008 5.7665929900000004 Cl
atom 7.6042184199999996 15.9678663299999997 8.5788878000000004 Cl
atom 7.4761340499999998 13.3306398599999998 8.4193519499999994 Na
atom 7.5091699500000004 16.0878175399999996 5.7667268399999996 Na
atom 7.4035080899999999 19.0138535600000012 5.8758112999999996 Cl
atom 7.5039806400000000 21.7005528199999986 8.6398840099999994 Cl
atom 7.5992002999999997 18.7441708700000014 8.2400352100000003 Na
atom 7.7582597599999996 21.5992645400000001 5.7637487700000003 Na
atom 7.4587017800000002 24.4280072299999986 5.6270357300000002 Cl
atom 7.3790635699999996 27.2333284900000017 8.5710760799999992 Cl
atom 7.5475300299999999 24.5360196100000003 8.3401359599999996 Na
atom 7.3184811800000000 27.3037672600000008 5.9377880000000003 Na
atom 7.5089918800000000 30.1326306799999983 5.8003878400000000 Cl
atom 7.5870619100000001 32.8927059099999965 8.5072351499999996 Cl
atom 7.5302270900000003 30.0384464599999994 8.4384978700000008 Na
atom 7.5264347899999997 33.0079253399999999 5.7813166499999999 Na
atom 7.4661952300000003 35.7924125199999992 5.7581849299999996 Cl
atom 7.4957660099999996 38.7190429300000005 8.4745717500000008 Cl
atom 7.6311694699999997 35.6826776500000022 8.2110488299999993 Na
atom 7.5090753000000001 38.4809170600000030 5.7441551899999999 Na
atom 7.6806505300000003 1.9252431800000001 5.7646425199999998 Cl
atom 7.5222913000000000 4.6600864599999996 8.6236856300000007 Cl
atom 7.3704259399999996 1.7204381399999999 8.2819479200000004 Na
atom 7.6003625200000000 4.6106270800000004 5.6878723899999999 Na
atom 7.5311317400000002 7.6510894199999999 5.8619818400000003 Cl
atom 7.4320880799999998 10.4705302000000007 8.6519931499999991 Cl
atom 7.4189312899999997 7.6316536499999996 8.5745603700000004 Na
atom 7.7122459299999999 10.4250748200000007 5.7287357999999999 Na
atom 10.4137863199999998 13.3486504299999993 5.8012241900000001 Na
atom 13.1583385899999996 13.0147758299999996 5.7095270999999999 Cl
atom 10.4178656800000002 15.8919880800000008 8.3773814499999997 Na
atom 12.8474039999999992 16.1976429300000007 8.6006040600000002 Cl
atom 13.0671134900000006 13.1418949099999995 8.2732913299999993 Na
atom 10.2710433099999996 12.9821659900000004 8.6201430299999995 Cl
atom 13.2923643600000005 16.1496663200000015 5.7197154000000001 Na
atom 10.4307814099999998 15.8816233800000006 5.6610172600000004 Cl
atom 10.3489287399999998 18.8347118000000009 5.6837351199999997 Na
atom 13.1601091100000005 18.9320526300000012 5.8574634500000000 Cl
atom 10.2877566199999997 21.5792270500000001 8.3627592300000000 Na
atom 13.1135364299999999 21.5863263699999983 8.5836497299999994 Cl
atom 13.0286600200000002 18.7007671600000016 8.4631177700000002 Na
atom 10.2396073300000001 18.8133512100000004 8.5769406799999999 Cl
atom 13.1277513999999993 21.6865285999999990 5.7917127700000002 Na
atom 10.2311618899999992 21.6278873000000011 5.5558636799999999 Cl
atom 10.2635555400000005 24.6569356500000012 5.8091243400000003 Na
atom 13.3273361999999995 24.4127095899999986 5.6416656900000000 Cl
atom 10.2096171899999995 27.3651292800000014 8.4712557099999994 Na
atom 13.2846904800000001 27.3098591100000014 8.6200257600000008 Cl
atom 13.2432574499999998 24.4282006600000017 8.3648805999999993 Na
atom 10.3592566999999995 24.5088538699999994 8.8090302499999993 Cl
atom 13.2053669899999999 27.2478112500000016 5.8230474200000000 Na
atom 10.4052271899999997 27.3111271100000010 5.8014428300000001 Cl
atom 10.1945537700000006 30.1871296999999998 5.8635498899999998 Na
atom 13.0273464499999996 29.9919216800000008 5.9277017900000004 Cl
atom 10.2795392999999997 32.9733156799999989 8.5360942400000006 Na
atom 12.8382742299999997 32.9477753199999981 8.4940807100000004 Cl
atom 13.1428715100000009 30.1068618400000005 8.3767629899999996 Na
atom 10.3649455600000007 30.0381621500000016 8.6745813599999995 Cl
atom 13.0043167700000009 32.7531538200000014 5.7102847099999998 Na
atom 10.4494607800000008 32.8754058099999966 5.5553231399999996 Cl
atom 10.2648753700000004 35.7967962000000028 5.8816498199999998 Na
atom 13.1297125200000000 35.8438406400000034 5.7865170600000004 Cl
atom 10.3479487599999995 38.5508831900000004 8.3316482999999995 Na
atom 13.1413750900000004 38.5092701399999982 8.4466760799999996 Cl
atom 13.2682080800000008 35.7843817700000031 8.5356214900000005 Na
atom 10.2423366900000001 35.6589714500000028 8.6562804100000008 Cl
atom 13.1455649700000006 38.6733654299999969 5.9170666900000004 Na
atom 10.3870793100000007 38.3573528000000010 5.8961686499999999 Cl
atom 10.3125997599999994 1.8099021600000000 5.9215621699999996 Na
atom 13.2221851299999997 1.8921866400000000 5.5560063199999998 Cl
atom 10.2388384099999996 4.7443152700000004 8.3867609099999996 Na
atom 12.9946809999999999 4.7886608700000002 8.5365310700000006 Cl
atom 12.9543377900000003 1.9985558500000000 8.4318094600000002 Na
atom 10.3544313799999994 1.7835643699999999 8.5527304399999995 Cl
atom 13.1992999300000005 4.6871838300000004 5.8376254200000002 Na
atom 10.3529384499999999 4.6873083199999996 5.7575579299999999 Cl
atom 10.6113358800000004 7.5932711900000003 5.7766546600000002 Na
atom 13.1171576800000000 7.4538539100000003 5.6160017900000003 Cl
atom 10.5158755900000003 10.2028595699999993 8.2746368700000001 Na
atom 13.2515947999999995 10.4273331799999998 8.6923822400000006 Cl
atom 13.2087992799999991 7.6052853400000000 8.4361965300000001 Na
atom 10.3867240200000008 7.6964981600000000 8.7406852100000005 Cl
atom 13.1805849399999992 10.2725760099999999 5.7597716400000003 Na
atom 10.4328664500000006 10.3074461399999997 5.8823551299999997 Cl
atom 16.0106092800000006 13.1866586300000002 5.6639795499999996 Na
atom 18.7054849099999991 13.2190749200000006 5.5983106800000000 Cl
atom 15.9912254399999991 15.9182911899999997 8.4172899000000001 Na
atom 18.8755612200000016 15.8012652599999992 8.4196432399999992 Cl
atom 18.9253791900000010 12.9920114699999996 8.3585168599999999 Na
atom 15.9451768600000001 13.1775398199999998 8.3468720100000002 Cl
atom 18.9243395300000010 16.0719545900000007 5.8938662099999997 Na
atom 16.0088493599999993 15.9241249200000006 5.8216824300000001 Cl
atom 16.1810588200000005 18.7698029899999987 5.8502267600000000 Na
atom 18.7152784799999985 18.7592250699999994 5.7749353799999996 Cl
atom 16.0211775600000017 21.3754656199999999 8.5256770399999997 Na
atom 18.7582297999999987 21.5796970100000003 8.5206336500000006 Cl
atom 18.9833783700000005 18.8373473999999987 8.4347058500000003 Na
atom 15.9547699900000008 18.8899481800000011 8.4903494199999994 Cl
atom 18.8005733900000003 21.7292083399999996 6.0410008199999998 Na
atom 15.8575202900000001 21.7904845099999989 5.5351758100000001 Cl
atom 15.7816386400000006 24.2978783400000005 5.7585813000000003 Na
atom 18.8073286099999990 24.4657453999999994 5.7190019000000003 Cl
atom 15.8781491700000004 27.3564961699999998 8.4532923100000001 Na
atom 18.7552573799999998 27.2995825100000005 8.6943128800000000 Cl
atom 18.9618529199999983 24.3576572499999990 8.4168945700000002 Na
atom 15.9843587599999992 24.3412372099999992 8.5111420500000001 Cl
atom 18.8360578099999998 27.3080095900000011 5.8693069299999996 Na
atom 15.9554016700000005 27.1888617000000004 5.7676227100000004 Cl
atom 15.7592343100000001 30.2290114800000005 5.8553587199999999 Na
atom 18.8006310899999995 30.1261853500000001 5.7693392299999999 Cl
atom 15.6885323700000008 32.9516691600000016 8.2960388599999995 Na
atom 18.6658561899999995 32.8910249699999966 8.5923180299999995 Cl
atom 18.7500931599999987 30.0963127399999983 8.3072193700000003 Na
atom 15.8724045999999994 30.0637339899999994 8.5840046300000008 Cl
atom 18.8267711200000001 32.9560990800000013 5.9051158600000004 Na
atom 15.8680703899999997 32.8400531999999998 5.6184846899999998 Cl
atom 15.9143895299999993 35.7002101499999966 5.7061475799999997 Na
atom 18.7660918099999989 35.6594227799999999 5.5463641299999997 Cl
atom 15.9435272599999998 38.5143461899999977 8.3847495399999996 Na
atom 18.6795169700000017 38.5901412199999996 8.6191669900000001 Cl
atom 18.7883599100000005 35.6560309300000000 8.3224296300000002 Na
atom 16.0135301699999992 35.7632797999999994 8.5810431099999995 Cl
atom 18.7605039299999987 38.5767176800000016 5.9063315200000002 Na