#===============================================================================
# Created using the Atomic Simulation Environment (ASE)

# Tue Dec 23 21:42:21 2025

#=======================================================
lattice_vector 28.1999999999999993 0.0000000000000000 0.0000000000000000 
lattice_vector 0.0000000000000000 39.4799999999999969 0.0000000000000000 
lattice_vector 0.0000000000000000 0.0000000000000000 62.3296083400000001 
atom 7.5010929500000003 14.9306202799999994 -0.3484479800000000 Au
atom 10.3053362199999992 14.7839556999999999 -0.3686260800000000 Au
atom 13.1650319200000006 14.9036972900000002 -0.3021224500000000 Au
atom 16.0001069600000001 14.8346694899999996 -0.2107214200000000 Au
atom 18.8088415900000001 14.8466991499999992 -0.2363831700000000 Au
atom 21.5955778800000004 14.8957173500000000 -0.1442971800000000 Au
atom 24.4541568299999987 14.8198649800000002 -0.1312357600000000 Au
atom 27.2569259600000002 14.8628947799999995 -0.2583786300000000 Au
atom 1.8980131899999999 14.8177562900000002 -0.1507374900000000 Au
atom 4.7308956499999999 14.8525929300000001 -0.0867654200000000 Au
atom 8.9428077600000009 17.3597740899999984 -0.1753227900000000 Au
atom 11.7217256899999995 17.2629432799999982 -0.2026435900000000 Au
atom 14.5317700399999996 17.3090122300000004 -0.0644822000000000 Au
atom 17.4318646500000014 17.3954045099999988 -0.1606882400000000 Au
atom 20.1784535299999988 17.3523202300000001 -0.0407495400000000 Au
atom 23.0927826100000004 17.2540844500000006 -0.0218333700000000 Au
atom 25.8858623299999984 17.2587100699999993 -0.2198799900000000 Au
atom 0.4572297000000000 17.3142013599999984 -0.2558441900000000 Au
atom 3.3125403599999999 17.3087922899999995 0.0724432700000000 Au
atom 6.1384563400000003 17.4112091900000010 -0.1052760900000000 Au
atom 7.4192862599999998 19.8698519800000000 -0.0226906200000000 Au
atom 10.3218298900000001 19.8586319499999995 -0.0632619500000000 Au
atom 13.1005631200000003 19.7231189600000008 0.1398994600000000 Au
atom 15.9499973799999992 19.7758857100000007 0.0888743900000000 Au
atom 18.7611433900000009 19.7258722300000002 0.3202828800000000 Au
atom 21.5958837099999990 19.7609774899999984 0.2201127000000000 Au
atom 24.4548477300000009 19.7256775399999995 0.1845566700000000 Au
atom 27.1883033500000018 19.7268818500000016 -0.0191917100000000 Au
atom 1.8154264000000000 19.7049663799999983 -0.0053960800000000 Au
atom 4.6020530700000002 19.8366027100000011 0.0051663800000000 Au
atom 8.8947301400000001 22.2781986699999983 0.1939086300000000 Au
atom 11.6665736899999999 22.2080353099999996 0.2880377800000000 Au
atom 14.5538530900000005 22.1622315199999989 0.3345235500000000 Au
atom 17.3177459499999991 22.2076324199999995 0.2141538100000000 Au
atom 20.1803373599999993 22.2134112600000009 0.2717633900000000 Au
atom 22.9631630199999996 22.2741657400000008 0.4630003400000000 Au
atom 25.7743407399999995 22.1937415000000016 0.0679553900000000 Au
atom 0.4388208100000000 22.1917885999999989 0.0847234700000000 Au
atom 3.1548784099999998 22.2586845900000014 -0.1513812700000000 Au
atom 6.0196075499999999 22.2285163300000015 0.1623027200000000 Au
atom 7.5691767399999996 24.7072820399999991 -0.0110611100000000 Au
atom 10.4006766800000001 24.6163769799999983 0.2832384800000000 Au
atom 13.2456382200000000 24.6992827599999991 0.2408610500000000 Au
atom 16.0157819799999999 24.6737369000000015 0.0951669000000000 Au
atom 18.8112220100000016 24.6319421299999988 0.4269000500000000 Au
atom 21.5637290800000017 24.6385057500000002 0.5454828600000000 Au
atom 24.4194166599999996 24.7050174499999997 0.2445523100000000 Au
atom 27.2538151299999996 24.6773563600000010 0.1900346200000000 Au
atom 1.8668974100000000 24.6102477399999984 -0.0316915900000000 Au
atom 4.7008137600000000 24.7070485499999997 0.1078780300000000 Au
atom 8.9457845900000006 27.1296812199999984 -0.0262935600000000 Au
atom 11.7156500700000006 27.0882293899999986 0.3957467300000000 Au
atom 14.5946951899999995 27.1235458399999985 0.4197243400000000 Au
atom 17.4515580399999983 27.2065359099999995 0.2361510600000000 Au
atom 20.3008433500000010 27.1029677400000004 0.5354053300000000 Au
atom 23.0443408199999986 27.1244542899999992 0.2005193200000000 Au
atom 25.8160419200000000 27.1848918200000007 0.2176961700000000 Au
atom 0.5558920700000000 27.0982068299999987 0.0606047200000000 Au
atom 3.3109074500000002 27.0983866300000003 0.1512266600000000 Au
atom 6.1439395699999997 27.1896613000000009 0.0687799000000000 Au
atom 7.4987263799999999 29.6964761499999987 -0.0378172000000000 Au
atom 10.3092526600000003 29.5580321899999987 0.3566206800000000 Au
atom 13.0880100600000002 29.4938973599999983 0.3081330300000000 Au
atom 15.8883444399999991 29.5118698100000003 0.1318360500000000 Au
atom 18.8013694399999984 29.5650523499999984 0.1495489900000000 Au
atom 21.7095089799999990 29.5827676100000012 0.0616520200000000 Au
atom 24.5351281099999987 29.5789770599999997 0.1160190500000000 Au
atom 27.4479235099999990 29.5962842500000001 0.2319099200000000 Au
atom 1.8977168799999999 29.6235755599999990 -0.0450581000000000 Au
atom 4.6637123699999998 29.6201934400000013 0.0415864400000000 Au
atom 8.9364575199999994 32.0378992400000016 0.0530981200000000 Au
atom 11.7484336299999992 32.0306798800000010 0.2760495600000000 Au
atom 14.5880720900000007 32.0012222300000033 0.2284455000000000 Au
atom 17.3909267599999993 32.0813165499999968 -0.0277543900000000 Au
atom 20.2172422000000012 32.1341775400000031 -0.1422832300000000 Au
atom 23.1194487600000009 32.0100484800000018 -0.1440034500000000 Au
atom 25.8785364599999994 32.0274058600000018 0.0627782800000000 Au
atom 0.5316112600000000 32.0562580599999976 -0.0066075100000000 Au
atom 3.2667847999999999 32.0609600800000010 0.1123790800000000 Au
atom 6.1248259000000003 32.0350681999999978 -0.1424856900000000 Au
atom 7.5544988000000002 34.5485743699999972 -0.0684171600000000 Au
atom 10.2975733799999993 34.4271968899999976 0.0885017700000000 Au
atom 13.1457539600000004 34.5002322400000025 0.1523584600000000 Au
atom 15.9636703499999992 34.4645070600000025 0.3317620900000000 Au
atom 18.8109785299999999 34.5272068599999997 0.0525299600000000 Au
atom 21.6795032300000017 34.4855868900000004 -0.0437454300000000 Au
atom 24.4503528000000010 34.5474273299999979 0.1898147800000000 Au
atom 27.2597686400000008 34.4971765900000022 -0.2379429900000000 Au
atom 1.8816132100000000 34.5364767800000010 -0.0711086000000000 Au
atom 4.6927164699999997 34.5151274299999997 0.0661040900000000 Au
atom 8.9188369099999996 36.9963402300000013 0.0591530700000000 Au
atom 11.6917537599999992 36.9695886299999970 0.1825887900000000 Au
atom 14.4179700400000002 36.9831123599999998 0.1123632900000000 Au
atom 17.3138718099999984 36.9899058299999979 0.1036677600000000 Au
atom 20.1861696799999990 36.9952272100000030 0.1516763700000000 Au
atom 23.0588721099999994 36.9821573899999976 0.0879255800000000 Au
atom 25.9316592999999997 37.0194823400000033 0.1736213700000000 Au
atom 0.4583456200000000 37.0392034799999976 -0.1697949000000000 Au
atom 3.2712911099999999 37.0682383199999990 -0.2018899800000000 Au
atom 6.0845385500000004 37.0738974300000024 -0.0807782700000000 Au
atom 7.5463444900000001 -0.0225983100000000 0.1531387200000000 Au
atom 10.4201939100000001 -0.0508016800000000 0.0539003400000000 Au
atom 13.1320589999999999 -0.0450878200000000 0.1821201400000000 Au
atom 15.9099438099999997 -0.0643632700000000 0.0919874400000000 Au
atom 18.7141225099999993 -0.0382384300000000 -0.0330544700000000 Au
atom 21.5465355199999991 -0.0011352500000000 0.3847296000000000 Au
atom 24.3474624499999983 -0.0500818000000000 0.1884427200000000 Au
atom 27.2599911900000009 0.0973113300000000 0.1148210300000000 Au
atom 1.8932317500000000 0.1331924400000000 -0.0797057500000000 Au
atom 4.7123439700000000 0.0586561200000000 -0.0174472800000000 Au
atom 8.7871510300000004 2.4555526500000000 -0.0121391300000000 Au
atom 11.6618226800000002 2.4273760700000002 -0.0494289800000000 Au
atom 14.5375080099999998 2.4070058599999999 0.0786807800000000 Au
atom 17.3369532500000005 2.4623770199999999 0.0483284900000000 Au
atom 20.1370662299999985 2.4427173700000000 0.2309254500000000 Au
atom 22.9415128000000017 2.4230480399999998 0.0022714200000000 Au
atom 25.7842381399999994 2.5479178899999999 -0.0252891600000000 Au
atom 0.4010449000000000 2.5623465599999999 -0.0212682800000000 Au
atom 3.2905385900000002 2.4842148700000002 -0.0447980200000000 Au
atom 6.0507858600000004 2.4987328799999999 0.1579013700000000 Au
atom 7.4732033099999997 4.9230302100000003 -0.0113030200000000 Au
atom 10.3804371000000000 4.8656617999999998 0.0152448600000000 Au
atom 13.0934994499999995 4.7779437400000004 0.1251226100000000 Au
atom 15.9623375999999997 4.9069330999999998 -0.0057452100000000 Au
atom 18.7929153699999993 4.8431217300000000 0.1400389900000000 Au
atom 21.5507896000000017 4.8975963800000004 0.0584139400000000 Au
atom 24.3379332700000006 4.9604404700000000 0.2624487300000000 Au
atom 27.1375716300000001 5.0760519100000003 0.2714123600000000 Au
atom 1.7812954299999999 5.0037382499999996 0.2122744100000000 Au
atom 4.5861120000000000 4.9176950100000001 0.0943320000000000 Au
atom 8.9110531200000000 7.3049463899999996 -0.1567470000000000 Au
atom 11.8016866900000004 7.2578511299999997 -0.1487190100000000 Au
atom 14.5322266800000008 7.2816151900000001 -0.1453410200000000 Au
atom 17.3684981100000009 7.3767143700000002 -0.0955088200000000 Au
atom 20.0846792200000017 7.3179912500000004 0.0692237900000000 Au
atom 22.8931153899999984 7.3117576900000003 -0.0540142900000000 Au
atom 25.7006368800000011 7.4322468300000004 0.0333840800000000 Au
atom 0.3409532700000000 7.4785890799999999 0.0721584300000000 Au
atom 3.3218543299999999 7.3942622499999997 0.0402764500000000 Au
atom 6.1621591100000002 7.3868650000000002 -0.0100323300000000 Au
atom 7.5279153399999998 9.8368426600000003 -0.1215028500000000 Au
atom 10.3326335199999999 9.8147043200000006 -0.1890538700000000 Au
atom 13.1325139699999998 9.8171951199999992 -0.2725001900000000 Au
atom 15.9606724000000000 9.8270729600000006 -0.0668176700000000 Au
atom 18.7837371799999993 9.8841703899999995 -0.1571689600000000 Au
atom 21.6325377699999990 9.8856916500000001 -0.0909328500000000 Au
atom 24.4256213100000004 9.8428629300000008 -0.1987724400000000 Au
atom 27.3037401899999992 9.8679232399999997 -0.1560392800000000 Au
atom 1.9265084699999999 9.8424068600000005 0.0221764400000000 Au
atom 4.7159128099999998 9.8942504499999995 -0.1582420800000000 Au
atom 8.9127012899999993 12.2597738199999995 -0.2659876900000000 Au
atom 11.7824945299999992 12.4305241300000002 -0.0875664700000000 Au
atom 14.5510618600000008 12.2819260099999994 -0.1879928000000000 Au
atom 17.4227147299999992 12.3392734599999994 -0.2556125300000000 Au
atom 20.2107003700000014 12.4679242000000006 -0.0895030600000000 Au
atom 22.9475739700000005 12.3709531399999992 -0.2021909100000000 Au
atom 25.7788861099999984 12.3431974600000007 -0.4383266900000000 Au
atom 0.4566650200000000 12.2665624500000003 -0.2415516400000000 Au
atom 3.3625037700000000 12.4045062799999997 -0.2638819600000000 Au
atom 6.1232050100000004 12.3249366100000000 -0.3350605200000000 Au
atom 7.4715316899999999 13.2866367400000005 2.2847466700000001 Au
atom 10.3565755700000004 13.3334444100000002 2.4771369000000001 Au
atom 13.2973266599999995 13.1095540100000001 2.3994756499999998 Au
atom 16.0338847499999986 13.1335834499999997 2.3848393600000000 Au
atom 18.7799448799999986 13.1774605000000005 2.5290072299999999 Au
atom 21.5853498600000009 13.1749008799999991 2.5212942800000002 Au
atom 24.4707661099999996 13.0310024599999998 2.4555455799999999 Au
atom 27.2741684199999987 13.1922028000000005 2.2079350299999998 Au
atom 1.8875425900000000 13.2328626499999995 2.3754423999999998 Au
atom 4.6166604800000002 13.2369899300000000 2.3825610400000001 Au
atom 8.8984108800000001 15.6985734899999994 2.4247811600000002 Au
atom 11.7737500700000002 15.6585876200000005 2.3118478300000000 Au
atom 14.5418471100000009 15.5912055299999999 2.4549192000000000 Au
atom 17.3131719400000001 15.5792577600000008 2.3937397900000001 Au
atom 20.1271483599999996 15.5730795200000003 2.5212690300000000 Au
atom 23.0275615199999990 15.6397922999999999 2.4935401100000001 Au
atom 25.8262929600000000 15.5729956299999994 2.4789722300000001 Au
atom 0.4537526400000000 15.7022902099999992 2.4307858499999999 Au
atom 3.2995524700000001 15.6397767499999993 2.5974426199999998 Au
atom 6.1170903000000001 15.7156032200000002 2.4134892899999998 Au
atom 7.4467221099999996 18.2485591700000001 2.5898823100000001 Au
atom 10.3864109599999992 18.1459377599999989 2.2478807600000001 Au
atom 13.2391728900000007 18.0836381899999985 2.6194190200000000 Au
atom 16.0425733599999987 18.1071299799999998 2.5726947199999999 Au
atom 18.8373547899999991 18.0227257700000010 2.7317113900000001 Au
atom 21.6905159800000007 18.1172974499999988 2.4863130800000000 Au
atom 24.5064409400000009 17.9698063400000017 2.6774592199999998 Au
atom 27.2396685400000003 18.0713565600000017 2.4763418900000000 Au
atom 1.8998226800000000 18.1302514099999996 2.6044327300000001 Au
atom 4.6291495400000002 18.1671560399999983 2.5212658499999998 Au
atom 8.8960328799999999 20.4991905599999988 2.8048576100000000 Au
atom 11.6542133099999994 20.5086076199999994 2.7620737599999998 Au
atom 14.5635555300000004 20.5007661799999994 2.8485797100000001 Au
atom 17.3376478799999987 20.5222196799999992 2.8969961000000000 Au
atom 20.3601848200000006 20.5131051000000006 2.8891285600000001 Au
atom 23.0906499300000014 20.5857117800000005 2.9600930600000002 Au
atom 25.7793292899999997 20.5553797200000012 2.8134298400000000 Au
atom 0.4660635900000000 20.5523785399999994 2.6113004599999998 Au
atom 3.2346663300000000 20.6740441399999995 2.6356721300000001 Au
atom 6.0044659899999999 20.6371014700000011 2.5875913499999998 Au
atom 7.5012401200000003 23.0704670100000016 2.7110971899999998 Au
atom 10.3313873899999997 23.0078012500000000 3.0470058199999999 Au
atom 13.1636152400000004 23.0495280600000001 2.7795760999999999 Au
atom 15.9747454700000002 23.0392311999999997 2.6997772900000001 Au
atom 18.7689847500000013 22.9428653300000001 3.0003419400000002 Au
atom 21.5911542099999991 23.0516052400000007 3.1319308200000000 Au
atom 24.4952977999999995 23.1101677000000016 2.8499943499999998 Au
atom 27.2366109399999985 23.0903165600000015 2.8085642900000001 Au
atom 1.8470409699999999 23.0846089399999990 2.5677729800000000 Au
atom 4.6015658300000002 23.1434211300000001 2.6871700000000001 Au
atom 8.9546118099999994 25.5099559000000013 2.8120287500000001 Au
atom 11.7922386299999999 25.5330475700000008 2.9261991799999998 Au
atom 14.5963006199999992 25.5013746400000016 2.7938223099999999 Au
atom 17.3310924200000009 25.5312511200000003 2.9508249000000002 Au
atom 20.0869539500000016 25.5977052500000006 3.1529045999999998 Au
atom 23.0180461299999983 25.5542109000000011 2.8751762400000000 Au
atom 25.8565204900000012 25.6495685500000015 2.7969346000000002 Au
atom 0.4581110000000000 25.5951745399999986 2.6222709399999999 Au
atom 3.2526102500000000 25.5518462600000014 2.7322661500000001 Au
atom 6.1527044999999996 25.5715639199999991 2.7126528699999999 Au
atom 7.6053408999999998 28.1083184199999998 2.5578223599999999 Au
atom 10.3174922000000002 27.9353478700000011 2.9441510399999999 Au
atom 13.1944631900000005 27.9929997399999984 2.9795711400000000 Au
atom 16.0653766699999991 28.0568376000000015 2.9622243500000001 Au
atom 18.7811127700000000 28.0517894500000011 3.0026237899999999 Au
atom 21.6617529799999993 28.0381667999999991 2.8566064500000001 Au
atom 24.4522975600000017 28.0516422600000013 2.6756130300000001 Au
atom 27.2909652300000012 28.0711520300000004 2.8653976600000002 Au
atom 1.8734982700000000 28.0118530399999983 2.6943716499999999 Au
atom 4.7569459199999997 28.0864791700000005 2.7516715899999999 Au
atom 8.9356537100000004 30.5496478099999997 2.8585759700000000 Au
atom 11.7651377900000007 30.4765750900000008 2.9034154900000000 Au
atom 14.6395147399999992 30.4209966399999985 2.8624410999999998 Au
atom 17.3198825999999997 30.4744546700000001 2.6829745599999999 Au
atom 20.2392802200000013 30.4549629300000007 2.6135260200000001 Au
atom 23.0296044900000005 30.5124068599999987 2.6238128199999999 Au
atom 25.9708490599999990 30.4907629600000014 2.8057009200000000 Au
atom 0.5037738200000000 30.5195393400000015 2.7063478299999999 Au
atom 3.2415010999999998 30.5026015299999997 2.6294507800000000 Au
atom 6.1285838300000002 30.5718682999999984 2.6831512300000000 Au
atom 7.5927132700000000 33.0097172999999984 2.4683759500000000 Au
atom 10.3982490199999997 32.9356206900000004 2.8607764599999999 Au
atom 13.1996333799999999 32.9591121699999974 2.7219699899999998 Au
atom 15.9345985700000004 32.9504683999999983 2.9168453400000001 Au
atom 18.7626219100000000 32.8440674400000034 2.5409942900000000 Au
atom 21.6504801399999991 32.8650632200000032 2.6338798799999998 Au
atom 24.4954146600000016 32.9334027700000007 2.5681324700000001 Au
atom 27.3208819799999993 32.9990270099999989 2.7106906300000002 Au
atom 1.9589218900000001 33.0790539400000014 2.6164474400000000 Au
atom 4.7149579499999996 32.9780308400000024 2.4166638400000000 Au
atom 8.9784563399999993 35.4304306100000019 2.7699890100000002 Au
atom 11.7220250000000004 35.4670201699999978 2.6676373899999999 Au
atom 14.5255427499999996 35.3667805899999976 2.8621662899999998 Au
atom 17.4069888599999985 35.3963053100000025 2.7321734300000000 Au
atom 20.2784858300000010 35.2893982100000017 2.6559998800000000 Au
atom 23.0278688299999992 35.2960711699999976 2.6229842799999998 Au
atom 25.9411036899999985 35.3876023500000016 2.7007756299999999 Au
atom 0.5849079700000001 35.4411756699999998 2.3729538200000002 Au
atom 3.3745400900000000 35.5428565100000000 2.6168312899999999 Au
atom 6.1722207600000001 35.5028863599999980 2.5760108499999999 Au
atom 7.5127003500000002 37.9529792599999993 2.6480084700000002 Au
atom 10.2446941200000001 37.9388910400000015 2.6987073399999999 Au
atom 13.0495850600000001 37.8657482599999966 2.7946688100000001 Au
atom 15.9084362299999995 37.7518516399999982 2.6911691700000002 Au
atom 18.8026590099999993 37.7715463500000013 2.6249632200000002 Au
atom 21.7365614399999991 37.7832020299999982 2.8623148100000000 Au
atom 24.4811006900000017 37.8241980600000005 2.5676115700000000 Au
atom 27.3544913899999997 37.8456956400000024 2.7933785100000001 Au
atom 1.8924354000000001 37.8752219400000030 2.4278215599999999 Au
atom 4.6730015800000002 37.9597925799999985 2.6570805599999998 Au
atom 8.9712118200000006 0.9858532000000000 2.7541027699999998 Au
atom 11.7341058599999997 0.9256859500000000 2.7617570599999999 Au
atom 14.5675925599999996 0.8355338400000000 2.7744409499999998 Au
atom 17.3362468099999987 0.8301155700000000 2.7425680200000002 Au
atom 20.1006760000000000 0.7806326500000000 2.8063518900000002 Au
atom 23.0898271599999987 0.8532758800000000 3.0741934299999998 Au
atom 25.9244795100000012 0.8384039800000000 2.7267846599999999 Au
atom 0.5461611200000001 0.9279694800000000 2.7348604299999999 Au
atom 3.2376567700000001 0.9393296700000000 2.6211029400000001 Au
atom 6.0694122799999999 0.9110599700000001 2.7640808300000002 Au
atom 7.5510794199999998 3.4411406400000000 2.6128326199999998 Au
atom 10.3575421799999994 3.3613516200000002 2.5059438100000002 Au
atom 13.2396887700000008 3.3002253499999998 2.6678606100000000 Au
atom 16.0002644300000014 3.1943997600000000 2.6453601299999998 Au
atom 18.7668509400000012 3.2848305899999999 2.8764995400000002 Au
atom 21.6537498799999995 3.1900910200000001 2.5793266799999999 Au
atom 24.4312930000000001 3.2656041199999999 2.7859918600000002 Au
atom 27.2020904399999992 3.3321456399999998 2.6784856900000000 Au
atom 1.8253230100000000 3.4085719800000001 2.6716113300000002 Au
atom 4.6762936899999996 3.4205560099999999 2.5462410000000002 Au
atom 8.9081919799999998 5.8588109399999997 2.5725548499999999 Au
atom 11.6782899400000009 5.7393330200000001 2.6828583300000002 Au
atom 14.4682534500000006 5.8656124199999997 2.7014570800000000 Au
atom 17.2724298500000017 5.7645001000000002 2.6971141200000002 Au
atom 20.1704356599999990 5.6922891699999996 2.7964941600000000 Au
atom 22.9741350599999983 5.7877012800000003 2.8215776400000001 Au
atom 25.8200345200000001 5.8638604699999997 2.9116108000000001 Au
atom 0.3827232700000000 5.8424966400000002 2.9019883100000001 Au
atom 3.2755737699999998 5.8503062100000003 2.6955227800000001 Au
atom 6.0192943100000003 5.8861817500000004 2.6834552999999999 Au
atom 7.5353385199999998 8.3699903899999999 2.4925057800000001 Au
atom 10.2937465499999998 8.2715909300000003 2.4373217299999999 Au
atom 13.0712788999999994 8.2777022299999992 2.3907717300000000 Au
atom 15.9605277500000007 8.2470543999999997 2.4111269499999999 Au
atom 18.7062709900000002 8.2562912399999995 2.5862607799999999 Au
atom 21.5277415699999999 8.2679486999999998 2.6168851300000000 Au
atom 24.3008210399999989 8.2916346799999996 2.5160388000000000 Au
atom 27.2094037299999982 8.2552446899999996 2.5494884799999999 Au
atom 1.7846604699999999 8.2804392199999999 2.6275449900000001 Au
atom 4.6230921699999996 8.4044533900000005 2.5229024700000000 Au
atom 8.9625825100000007 10.7940569499999999 2.4333019199999999 Au
atom 11.7064957300000003 10.7906577699999993 2.3728137700000000 Au
atom 14.5750840499999992 10.6592528099999999 2.5290435699999998 Au
atom 17.3985223699999985 10.7194106599999994 2.3893409100000000 Au
atom 20.1847883599999989 10.7780676700000004 2.4575016100000000 Au
atom 23.0152319200000015 10.7083704700000002 2.5126770000000000 Au
atom 25.8745793800000001 10.6828125200000006 2.2822516600000000 Au
atom 0.5246909700000000 10.7615692400000000 2.6653909400000000 Au
atom 3.3264487200000001 10.8467690700000006 2.4972243800000000 Au
atom 6.1708878900000004 10.7998560000000001 2.3420561000000002 Au
atom 7.4215968700000001 13.0623820500000001 5.4308023900000002 Cl
atom 7.5061449400000004 15.9030597100000008 8.4859216199999992 Cl
atom 7.3985875900000000 13.1152064599999996 8.2610698800000009 Na
atom 7.6202155600000001 16.0767128399999990 5.7710601700000002 Na
atom 7.5542815499999998 18.8325290099999982 5.7429370500000001 Cl
atom 7.5574468699999997 21.5263603699999990 8.6298396799999999 Cl
atom 7.3980979500000004 18.8437252999999991 8.3926379400000002 Na
atom 7.3629137399999998 21.6578539300000017 6.0272095400000003 Na
atom 7.3623942500000004 24.4982638299999991 5.8890186299999998 Cl
atom 7.3692533899999999 27.2860735900000009 8.7288367900000008 Cl
atom 7.3314547299999999 24.4633545099999985 8.5465944599999997 Na
atom 7.5369354599999996 27.4098523500000013 5.9646676000000003 Na
atom 7.3794702100000000 30.1626456000000012 6.0015938599999998 Cl
atom 7.3222152800000000 33.0954797400000018 8.8034658399999994 Cl
atom 7.3581858200000001 30.1402327600000000 8.5102800599999995 Na
atom 7.4461956899999997 32.9433831799999979 6.0263510299999998 Na
atom 7.4571665200000004 35.8632527299999992 5.8015604900000000 Cl
atom 7.3851493200000000 38.5591361399999997 8.6965731000000002 Cl
atom 7.4060592400000003 35.8859146699999982 8.4677994900000009 Na
atom 7.3174431999999996 38.7477931100000035 5.9513718400000002 Na
atom 7.2378679699999999 2.0047875099999999 5.8936771500000003 Cl
atom 7.4969132299999997 4.8390825000000000 8.6364846400000008 Cl
atom 7.4180773799999997 2.0896722400000001 8.4818671899999991 Na
atom 7.3202972500000003 4.7833604599999999 5.6969410199999997 Na
atom 7.2582218599999999 7.5372246699999996 5.4352541600000004 Cl
atom 7.4461960899999999 10.3929168599999997 8.3141960499999996 Cl
atom 7.3240549000000001 7.7242043499999999 8.1164972500000001 Na
atom 7.3816926199999999 10.4385057000000003 5.5327897400000001 Na
atom 10.2054936499999993 13.1694714600000005 5.6065102400000004 Na
atom 13.1068929900000004 13.3283886900000006 5.6327974599999999 Cl
atom 10.2414868099999996 16.0052588100000008 8.4077190999999996 Na
atom 13.1362205299999992 16.0215506999999988 8.5783264700000004 Cl
atom 13.0653285500000003 13.2596758399999999 8.2609483200000007 Na
atom 10.2930813099999998 13.1485310900000005 8.3282109400000000 Cl
atom 13.1408607400000008 16.1182207999999996 5.6772171499999997 Na
atom 10.2735064299999994 16.1690359599999987 5.6879122899999999 Cl
atom 10.3295570600000008 18.9467787299999983 5.8258274900000000 Na
atom 12.9407890400000003 18.9666084899999987 5.6596314599999999 Cl
atom 10.1406479500000000 21.7333441600000015 8.4425204800000007 Na
atom 12.9882007999999995 21.5320896200000007 8.9372122600000008 Cl
atom 13.0647046299999996 18.7494403799999994 8.3876659599999996 Na
atom 10.2749639100000003 18.8007053299999995 8.6105554000000009 Cl
atom 13.0998756099999998 21.7653474699999983 6.1152614099999996 Na
atom 10.2791418100000005 21.7164645299999997 5.8310731799999997 Cl
atom 10.2049032299999993 24.6529184299999997 5.9173939999999998 Na
atom 13.0550223899999995 24.6559564400000006 5.9655369599999997 Cl
atom 10.2229199800000004 27.4384287700000016 8.6105407399999994 Na
atom 13.0841893900000006 27.4577700299999989 8.8797743899999997 Cl
atom 13.0866834999999995 24.4725858999999986 8.6029906999999994 Na
atom 10.2289699400000007 24.3894888200000004 8.7255510600000008 Cl
atom 13.1100790299999996 27.3735907000000012 6.1413623399999997 Na
atom 10.2804600100000005 27.4211413600000000 5.9441846500000004 Cl
atom 10.2211600899999997 30.1364012899999985 5.8622479399999996 Na
atom 13.1292447100000000 30.1292896399999997 5.9953417599999996 Cl
atom 10.2019414000000008 32.9948695799999996 8.4143312800000007 Na
atom 13.0999008099999994 33.0176353100000028 8.6332967099999998 Cl
atom 13.0564975200000006 30.1673165200000000 8.6656126899999997 Na
atom 10.2752546099999993 30.2541140900000016 8.6584789900000008 Cl
atom 13.1009282700000007 33.0135515799999979 6.0487121699999999 Na
atom 10.3497675200000003 32.8623601099999973 5.8961626200000001 Cl
atom 10.2965586699999996 35.8771135499999971 5.7655040499999997 Na
atom 12.9230110099999997 35.9095235099999996 5.8066563100000002 Cl
atom 10.1899717899999995 38.6560633699999983 8.4580475300000000 Na
atom 12.8990191999999997 38.6821789299999992 8.5705431999999995 Cl
atom 12.9406920700000008 35.8514756499999976 8.5329685200000007 Na
atom 10.2862546100000003 35.7488875600000000 8.5063536299999996 Cl
atom 12.9934596500000001 38.7262783999999982 5.8702641499999997 Na
atom 10.1001153299999995 38.7855609799999996 5.7316394900000001 Cl
atom 10.1725133999999997 2.0840833299999999 5.7691366600000000 Na
atom 13.1401699099999991 2.0290090200000002 5.7592349599999997 Cl
atom 10.1901325800000002 4.8616095200000000 8.2510367500000008 Na
atom 12.9720508300000006 4.9300451199999999 8.4866275899999994 Cl
atom 12.9876516899999999 2.0437509800000000 8.3638075599999997 Na
atom 10.3215184200000003 1.8974345300000000 8.5289647399999993 Cl
atom 13.0760147599999996 4.7498984100000001 5.7428308499999998 Na
atom 10.2827800899999993 4.7357989800000002 5.6617305699999996 Cl
atom 10.2282379199999998 7.5485772899999999 5.6234264100000004 Na
atom 12.9894578400000000 7.5260470200000000 5.7880620299999999 Cl
atom 10.3188468499999999 10.4687862299999992 8.1291211800000003 Na
atom 13.1419319699999999 10.4604888000000003 8.3337138700000004 Cl
atom 12.9111367900000005 7.5829775100000001 8.4126665299999992 Na
atom 10.1508219200000003 7.6857502000000002 8.4095595799999998 Cl
atom 13.1891154999999998 10.4415284899999996 5.4194351699999999 Na
atom 10.3124960600000009 10.3634515199999999 5.4980028000000001 Cl
atom 15.8087058299999992 13.2034606599999993 5.5381086300000000 Na
atom 18.6244307000000013 13.3456754199999992 5.5166421600000000 Cl
atom 15.8810145499999997 15.8062896100000003 8.3062837300000005 Na
atom 18.6054916800000001 15.8751967700000005 8.6083256000000006 Cl
atom 18.6434715599999983 13.2079947000000004 8.2304641699999994 Na
atom 15.7715387800000002 13.1179615399999996 8.4384002500000008 Cl
atom 18.6191928500000010 15.9719959100000004 5.8295803399999997 Na
atom 15.8943887900000007 16.2178480900000004 5.6272140700000000 Cl
atom 15.7855285999999992 18.9602340500000004 5.6809182199999997 Na
atom 18.6873789600000002 18.7834071700000003 5.6110142300000003 Cl
atom 15.8307173799999994 21.5689088899999994 8.5621860600000002 Na
atom 18.6633980999999984 21.4780321000000001 8.7174917500000006 Cl
atom 18.8262416100000003 18.7473719800000005 8.2674367100000001 Na
atom 15.8042443800000001 18.8017949800000004 8.2898226899999994 Cl
atom 18.7930896599999997 21.7782707000000002 5.8681685400000001 Na
atom 15.8349544400000006 21.7776245800000012 6.0036502399999998 Cl
atom 15.8629551400000004 24.4777803100000000 6.0908433200000003 Na
atom 18.6010442400000002 24.7245064700000015 5.9562480700000000 Cl
atom 15.9159062299999992 27.5617851899999984 8.7076859500000001 Na
atom 18.7799964800000012 27.4813414400000013 8.8250142300000007 Cl
atom 18.7570422500000014 24.2840619999999987 8.5189398300000008 Na
atom 15.9114494600000000 24.4569882599999993 8.8285613299999994 Cl
atom 18.5732211900000017 27.4516012099999998 6.1025562700000000 Na
atom 15.8660970199999998 27.1770314800000001 6.0419618000000002 Cl
atom 15.9666085300000002 30.3283046499999998 6.0638120600000001 Na
atom 18.6214549299999987 29.9859133000000000 5.7838439900000003 Cl
atom 15.9041804500000001 33.0362863499999975 8.5106883799999995 Na
atom 18.6055868000000011 32.9523978599999978 8.6231434500000006 Cl
atom 18.8335482899999995 30.1848645200000014 8.4291101800000003 Na
atom 16.0055511499999987 30.2644391100000014 8.6846553800000006 Cl
atom 18.6526714200000008 33.1506724300000002 5.8643591400000004 Na
atom 15.8760077400000004 33.1567347699999999 5.8212364699999997 Cl
atom 15.8440233799999994 35.8839295699999994 5.9416520100000003 Na
atom 18.6547220600000010 35.7284023500000032 5.8198860300000002 Cl
atom 15.7417128000000002 38.6419834499999979 8.4690756500000006 Na
atom 18.6664005300000007 38.5917644199999970 8.4877930799999994 Cl
atom 18.5768377700000009 35.8295386599999972 8.3747736100000001 Na
atom 15.8058504000000006 35.7886853199999990 8.7311748700000003 Cl
atom 18.6891522700000010 38.6132259099999970 5.6784287700000000 Na