#===============================================================================
# Created using the Atomic Simulation Environment (ASE)

# Tue Dec 23 22:26:13 2025

#=======================================================
lattice_vector 28.1999999999999993 0.0000000000000000 0.0000000000000000 
lattice_vector 0.0000000000000000 39.4799999999999969 0.0000000000000000 
lattice_vector 0.0000000000000000 0.0000000000000000 62.3296083400000001 
atom 7.4200167300000004 14.7196764299999998 -0.1277556500000000 Au
atom 10.2784863099999999 14.7793095900000004 -0.6051462399999999 Au
atom 13.1213600499999998 14.7450939999999999 -0.5697569099999999 Au
atom 15.8899108400000006 14.7377794099999999 -0.3922628700000000 Au
atom 18.7877921900000011 14.8419524500000009 -0.3571581200000000 Au
atom 21.5270052800000009 14.8548694700000006 -0.4223235800000000 Au
atom 24.3671484800000009 14.7744756699999993 -0.3053853800000000 Au
atom 27.2017519900000018 14.8011123799999993 -0.1135849600000000 Au
atom 1.7986158299999999 14.8991260400000005 -0.1504306900000000 Au
atom 4.6298360799999996 14.7170676100000009 -0.2609715000000000 Au
atom 8.8493924800000006 17.2564328700000011 -0.2928767100000000 Au
atom 11.6357443600000003 17.1515857400000016 -0.2171721100000000 Au
atom 14.4494024599999999 17.2342356899999984 -0.1593402500000000 Au
atom 17.2712099200000004 17.3075614299999998 -0.3923736400000000 Au
atom 20.1854069299999992 17.3123167199999983 -0.4026674000000000 Au
atom 23.0163732100000011 17.3555803200000014 -0.3367520900000000 Au
atom 25.7856231399999984 17.1949130100000005 0.0378300300000000 Au
atom 0.3338343200000000 17.3033868499999990 -0.0230719400000000 Au
atom 3.2433551299999999 17.3132126100000008 -0.0567910100000000 Au
atom 5.9926409500000002 17.2371888499999990 -0.0580983800000000 Au
atom 7.4731075100000002 19.7878298100000016 -0.3139533600000000 Au
atom 10.2767724299999994 19.7795596600000003 -0.3744449500000000 Au
atom 13.1303050100000007 19.7473798500000015 -0.0627077200000000 Au
atom 15.9902006399999994 19.8727488500000007 0.0332823700000000 Au
atom 18.4809612200000011 19.8199383900000008 -0.3826099000000000 Au
atom 21.4917974399999991 20.0224275700000014 -0.0774763500000000 Au
atom 24.2531036799999988 19.8086840500000001 -0.0998706400000000 Au
atom 27.1193577899999987 19.6959747100000016 -0.1093421400000000 Au
atom 1.7541970899999999 19.6682072900000016 0.1754132300000000 Au
atom 4.7098211000000001 19.6703420499999986 0.1753961400000000 Au
atom 8.8385808299999997 22.2993936300000009 0.0009599700000000 Au
atom 11.6904027799999994 22.2950591100000004 -0.1950066500000000 Au
atom 14.5493556000000002 22.2781599399999983 -0.0827294000000000 Au
atom 17.3035469400000004 22.3758151000000005 0.0726385600000000 Au
atom 20.1689305700000006 22.0971239100000005 -0.0752650100000000 Au
atom 22.8907772600000001 22.2157284500000003 0.0324973500000000 Au
atom 25.6507968099999992 22.1649742600000010 -0.1230844600000000 Au
atom 0.4636131900000000 22.1379590399999984 -0.0698482900000000 Au
atom 3.3171663400000000 22.1450290000000010 -0.1345007000000000 Au
atom 6.0443510399999996 22.2340378100000002 0.1783114200000000 Au
atom 7.4897974100000004 24.7002125700000015 0.1217405100000000 Au
atom 10.2404973300000002 24.7636222500000009 0.0615631900000000 Au
atom 13.1326483599999992 24.6990221800000000 0.1644758200000000 Au
atom 16.0176741800000002 24.8829482099999986 0.0939627300000000 Au
atom 18.7112769300000004 24.7730072200000002 0.0041256800000000 Au
atom 21.6365370000000006 24.6479425799999987 0.0171584600000000 Au
atom 24.4625932100000014 24.6897752299999986 0.1044620300000000 Au
atom 27.3108982100000013 24.7251736400000013 -0.1185823300000000 Au
atom 1.9812853100000001 24.7343062799999984 -0.0221756700000000 Au
atom 4.7184001899999997 24.7037161999999988 0.1551971000000000 Au
atom 8.7769719100000003 27.3135342399999992 0.0321828300000000 Au
atom 11.6971701199999991 27.1430766199999987 0.1473171800000000 Au
atom 14.4084606199999996 27.2470934199999988 -0.0477600700000000 Au
atom 17.1547497100000008 27.0265169500000013 -0.0893366900000000 Au
atom 20.0766068299999993 27.1591740000000001 -0.0596189000000000 Au
atom 22.9952397300000015 27.0908182000000011 0.0410413500000000 Au
atom 25.7933805599999992 27.0839504200000007 0.0078069800000000 Au
atom -2.0984849500000000 27.0525366399999996 -0.0791025100000000 Au
atom 3.1046697499999998 27.2044697400000004 0.3476989200000000 Au
atom 5.9457399300000002 27.1884568800000004 0.3378837900000000 Au
atom 7.4416509000000000 29.7405332700000002 0.0408883800000000 Au
atom 10.2401899200000006 29.6987715799999989 -0.0298914900000000 Au
atom 13.1124244799999996 29.7011507799999990 0.0580675300000000 Au
atom 15.6635947200000007 29.6614400099999997 -0.1214051200000000 Au
atom 18.5837591999999994 29.7260701699999998 0.0596593300000000 Au
atom 21.5772935100000005 29.5361382399999997 0.0362154900000000 Au
atom 24.3683872100000016 29.5731712800000004 -0.0230597600000000 Au
atom 29.6049666000000009 29.8123886400000018 0.1028170400000000 Au
atom 1.7474786099999999 29.7095857899999984 0.0331831200000000 Au
atom 4.5258913300000003 29.6839406600000011 0.2621837800000000 Au
atom 8.7696437800000009 32.1982227600000002 -0.0644653700000000 Au
atom 11.5544251800000009 32.1470548200000010 -0.2755045500000000 Au
atom 14.4212995999999993 32.1203783400000020 -0.2949643200000000 Au
atom 17.1779628100000004 32.2357025000000021 -0.2383469700000000 Au
atom 20.1867122899999991 32.0748490399999966 -0.3122058600000000 Au
atom 22.9932599099999990 32.0741415000000032 -0.0477488500000000 Au
atom 25.6104517600000001 32.1163088999999999 0.0614669700000000 Au
atom 0.5420277800000000 32.0995475499999969 0.1992691800000000 Au
atom 3.1189020099999998 32.1490097699999993 0.0535437300000000 Au
atom 5.8986735200000000 32.1729977099999971 -0.3004028000000000 Au
atom 7.3642370699999997 34.6633348399999974 -0.0425258300000000 Au
atom 10.2096760000000000 34.6619527000000005 -0.1722390100000000 Au
atom 12.9912120699999996 34.5426211699999968 -0.2051140100000000 Au
atom 15.8296761499999992 34.6893638700000011 -0.2021634300000000 Au
atom 18.7194908099999999 34.5124636299999992 -0.1972458700000000 Au
atom 21.5634605499999985 34.5137403399999982 -0.1367742800000000 Au
atom 24.2913962199999993 34.5667201600000027 -0.2645851900000000 Au
atom 27.0337951799999985 34.6104167700000005 0.4256869100000000 Au
atom 1.6879431000000000 34.5120452499999999 0.0880214500000000 Au
atom 4.5354561499999999 34.5906642799999986 -0.0475107600000000 Au
atom 8.8081705800000005 37.1033760999999984 0.0491128200000000 Au
atom 11.5690142300000005 37.0923142799999965 -0.2425147500000000 Au
atom 14.4588731700000004 37.0421690100000021 -0.1628640200000000 Au
atom 17.2693205600000006 34.8302516899999972 0.1314960500000000 Au
atom 20.0723761399999994 36.9528218000000024 -0.1392760600000000 Au
atom 22.8470778999999986 36.9478159199999965 -0.0833775600000000 Au
atom 25.5719010199999985 38.9429052699999971 0.3772475600000000 Au
atom 0.1971977200000000 36.9593789700000031 0.1369221500000000 Au
atom 3.0892837300000000 37.0051356800000022 -0.0455625800000000 Au
atom 6.0007092899999996 37.1673205399999986 0.1104553700000000 Au
atom 7.3150828099999998 0.2730394300000000 -0.1270733500000000 Au
atom 10.2033294699999999 0.0533744800000000 0.0073206000000000 Au
atom 13.1348447600000000 0.0996527100000000 0.0751608400000000 Au
atom 16.0322485199999996 2.1968918199999998 0.1111191400000000 Au
atom 18.6853519400000003 0.0300497500000000 -0.1660821300000000 Au
atom 21.5101152599999992 -0.0139680000000000 -0.0405664600000000 Au
atom 24.3418491800000005 -0.2003144500000000 0.3270659000000000 Au
atom 27.1323681999999984 -2.0048572199999999 0.3146219500000000 Au
atom 1.6589228800000000 -0.0750634000000000 -0.1454401100000000 Au
atom 4.6023284799999997 0.0367991900000000 0.0584821000000000 Au
atom 8.8610065099999993 2.4452427000000001 0.1796745600000000 Au
atom 11.6161048000000005 2.5046182099999998 0.1012113900000000 Au
atom 15.0088667900000008 2.5020171900000001 0.0891825600000000 Au
atom 16.8140558700000007 2.4532784099999998 -0.0317168700000000 Au
atom 20.1290632000000009 2.4736823100000001 0.0999485900000000 Au
atom 22.8290736800000005 2.6203227199999999 0.0572407900000000 Au
atom 25.8463553700000013 2.3505649300000000 0.2608108000000000 Au
atom 0.3457085700000000 2.4302135200000001 -0.1086481000000000 Au
atom 3.0871128300000001 2.4191914400000001 -0.2068145500000000 Au
atom 6.1654705700000001 2.3539865000000000 -0.0401395800000000 Au
atom 7.4323285600000002 4.9200342199999998 0.0734398200000000 Au
atom 10.2798766799999992 4.9531354600000004 0.1364733200000000 Au
atom 13.0786178100000008 4.9483662700000002 0.2272617100000000 Au
atom 15.8837105500000000 4.8970119399999996 -0.1493511800000000 Au
atom 18.7115575199999995 4.9374758099999996 -0.0311797400000000 Au
atom 21.6275497200000011 4.9345217899999998 0.1607646600000000 Au
atom 24.4635775399999993 4.7616553499999998 -0.0691662500000000 Au
atom 27.3082033300000013 4.8670950499999996 -0.0158572600000000 Au
atom 1.5607119599999999 4.9545936900000003 0.1380333600000000 Au
atom 4.8723046500000002 4.8754350100000003 0.0158306100000000 Au
atom 8.8902401300000005 7.3863013799999999 0.2979435700000000 Au
atom 11.6430291100000005 7.3808893199999996 0.1215187700000000 Au
atom 14.5347458399999994 7.3501343700000001 -0.0166370400000000 Au
atom 17.3110648400000002 7.3622599700000002 -0.1970523700000000 Au
atom 20.1045904899999996 7.4160489299999997 -0.1574981000000000 Au
atom 22.9984605100000010 7.4523467900000000 0.0738882800000000 Au
atom 25.7227506699999999 7.3238664900000003 -0.1738405300000000 Au
atom 0.3878913600000000 7.4086847100000002 -0.1334840400000000 Au
atom 3.2495760300000001 7.4714062099999996 -0.0216104500000000 Au
atom 6.0709479999999996 7.5485131699999997 -0.1093082200000000 Au
atom 7.5557699400000002 9.8338061600000000 0.0538562300000000 Au
atom 10.3045030700000009 9.8190860200000003 -0.0416710100000000 Au
atom 13.1334350900000008 9.8295618699999991 -0.1038763800000000 Au
atom 16.0041376500000005 9.7898386599999991 -0.0081378600000000 Au
atom 18.8009282599999992 9.8511228800000001 0.0348751400000000 Au
atom 21.5271436899999991 9.8380052300000003 -0.2851425400000000 Au
atom 24.3039330699999994 9.8740579200000003 -0.1632180200000000 Au
atom 27.1453569100000003 9.8499905200000004 -0.0479324300000000 Au
atom 1.7078986500000000 9.9219028799999993 -0.2454017000000000 Au
atom 4.6024729100000004 9.9214939599999994 0.0245349600000000 Au
atom 8.8208909400000000 12.2775946299999994 -0.4911870600000000 Au
atom 11.6754350400000000 12.3085904700000004 -0.4511099300000000 Au
atom 14.5162180500000009 12.2321629099999996 -0.4296432900000000 Au
atom 17.3685310400000006 12.3871991799999996 -0.1294189600000000 Au
atom 20.1855976999999989 12.2930326399999998 -0.1360056000000000 Au
atom 22.9710778200000014 12.3297924000000005 -0.2564564800000000 Au
atom 25.7650072200000011 12.3405045999999992 -0.2558831100000000 Au
atom 0.3653962700000000 12.3739453299999997 0.1075831200000000 Au
atom 3.0980576900000001 12.3285434600000006 -0.0053059200000000 Au
atom 6.0344193199999996 12.2962488699999994 -0.1575511600000000 Au
atom 7.4497301499999997 13.2000296400000003 2.5491690800000000 Au
atom 10.2469617199999998 13.1748427800000005 1.9687539300000001 Au
atom 13.1237114100000003 13.1825839699999996 2.0035865799999999 Au
atom 15.8884608800000002 13.2324228999999995 2.3738766899999999 Au
atom 18.7543304100000015 13.2371750899999991 2.5190844700000001 Au
atom 21.6129215099999996 13.3322648800000003 2.1223705800000001 Au
atom 24.3616593700000017 13.1923726099999996 2.4415689700000001 Au
atom 27.1626036800000001 13.2303718900000007 2.5334042999999999 Au
atom 1.8542935000000000 13.2093763200000005 2.6140716199999998 Au
atom 4.6625588899999997 13.0817322899999997 2.3804918200000000 Au
atom 8.7322712700000000 15.6153028200000001 2.2457758000000001 Au
atom 11.5629429500000001 15.5646967800000002 2.2958602899999998 Au
atom 14.4333302499999991 15.5822522200000009 2.3805518499999998 Au
atom 17.3197569999999992 15.6886645900000001 2.1686372199999999 Au
atom 20.1524720600000009 15.6256111099999995 2.2620345199999998 Au
atom 23.0572760899999984 15.7421974099999993 2.2136263800000000 Au
atom 25.8738787300000013 15.6965972800000007 2.5425688300000000 Au
atom 0.4740020500000000 15.5905056000000002 2.3270202200000001 Au
atom 3.2513410899999999 15.5447671599999993 2.5081594500000000 Au
atom 6.0107761499999999 15.5442838000000005 2.5883071300000000 Au
atom 7.4138702199999997 18.1681275000000007 2.2668877400000000 Au
atom 10.3270997900000001 18.2132346799999993 2.2994315500000000 Au
atom 13.0185005500000006 18.1277703800000012 2.4837181500000001 Au
atom 15.8786503999999997 18.0413278000000012 2.3961234400000002 Au
atom 18.6802842399999989 18.0977146799999993 2.1615053899999999 Au
atom 21.6752376200000008 18.0843771999999987 2.3048840199999998 Au
atom 24.3851538900000016 18.0934064899999996 2.7346363000000000 Au
atom 27.2263578300000013 18.0871421999999988 2.5695549600000001 Au
atom 1.8325861100000000 18.0834035600000007 2.7561235599999998 Au
atom 4.6969250400000000 18.0214066099999997 2.7126815899999999 Au
atom 8.8949321700000006 20.6149974699999987 2.3737362499999999 Au
atom 11.6915268700000006 20.6881863099999990 2.3331769900000001 Au
atom 14.5251602399999999 20.6802248499999983 2.5129010200000002 Au
atom 17.2797467500000010 20.5306144900000014 2.6140824500000002 Au
atom 20.2058908499999994 20.5441204699999993 2.5698802000000001 Au
atom 22.9993960800000004 20.5879250499999991 2.5367324500000001 Au
atom 25.7486607800000016 20.5605628699999983 2.5557511100000001 Au
atom 0.3830950400000000 20.6237280799999994 2.7065903499999999 Au
atom 3.1630268600000000 20.5900471799999991 2.5969079800000001 Au
atom 6.0903112100000003 20.6330337499999992 2.8242475599999999 Au
atom 7.4633961500000003 23.0337928000000005 2.8582054399999999 Au
atom 10.2472082600000007 23.1206741300000012 2.5697459500000002 Au
atom 13.1044389700000004 23.0717557999999983 2.7882024599999999 Au
atom 15.8244829700000000 23.0853365699999991 2.8194600099999998 Au
atom 18.6608609899999998 23.1198038299999986 2.5702844100000002 Au
atom 21.5692653000000014 23.0377917399999994 2.6704727699999999 Au
atom 24.4163419099999999 22.9912864399999997 2.6861142800000000 Au
atom 27.1812376499999999 23.0345473200000015 2.3814792300000001 Au
atom 1.8522793500000001 23.1122325800000006 2.4833461200000002 Au
atom 4.6151738900000003 23.1889649700000007 2.5377691200000001 Au
atom 8.7360228299999996 25.6771928900000006 2.5350814499999998 Au
atom 11.6236186900000007 25.5488022900000011 2.8063301100000002 Au
atom 14.5442110800000002 25.7124664799999998 2.6539638100000000 Au
atom 17.4356297500000004 25.6013610699999994 2.6760881300000001 Au
atom 20.2706513699999995 25.4606316300000017 2.4601221199999999 Au
atom 23.0621151200000014 25.5797301700000013 2.6914185300000000 Au
atom 25.8249229900000010 25.4872989099999998 2.6667896999999998 Au
atom 0.3942179700000000 25.5779078700000007 2.5158977999999999 Au
atom 3.1721175200000000 25.5411082699999987 2.7882503100000000 Au
atom 5.9732157199999998 25.5921893099999984 2.8508728200000002 Au
atom 7.3292899900000004 28.2369420700000013 2.6024146799999999 Au
atom 10.2600191699999996 28.1557653499999994 2.6061454199999998 Au
atom 13.0200815599999995 28.0332211399999984 2.6601656500000002 Au
atom 15.9244135100000008 28.1226684400000018 2.4600349800000001 Au
atom 18.7006838399999999 28.0268306500000008 2.6454572700000001 Au
atom 21.6316441399999988 27.9592671099999990 2.5942917099999998 Au
atom 24.4983803800000004 28.0509735099999986 2.6290803899999999 Au
atom 27.0717933500000001 28.0271473700000016 2.6156641800000000 Au
atom 1.7186547900000000 28.1032583100000011 2.7592362000000001 Au
atom 4.6939420399999996 27.8119671799999999 3.0388610900000002 Au
atom 8.8394090199999997 30.6044134700000008 2.6595854999999999 Au
atom 11.6720148800000008 30.5588552799999995 2.5659825800000000 Au
atom 14.6600114399999999 30.7900664800000001 2.6142801699999998 Au
atom 17.2765510800000008 30.4853427600000018 2.5398446400000001 Au
atom 20.3063637600000000 30.4937048699999984 2.4907335700000002 Au
atom 22.7904171700000013 30.4919949999999993 2.6872648799999999 Au
atom 25.7519059400000003 30.4831583899999998 2.6301854400000000 Au
atom 0.3114986600000000 30.5481980200000010 2.7584887600000001 Au
atom 2.9768995399999998 30.7659849500000000 2.7625655199999999 Au
atom 6.0135976900000001 30.6395178699999988 2.4826012899999998 Au
atom 7.3805698499999997 33.0426575299999996 2.5223404100000000 Au
atom 10.0950322099999994 33.1143196000000017 2.5066091199999998 Au
atom 13.0248123800000002 32.8882703499999991 2.3424624500000002 Au
atom 15.7838862700000000 32.6988869799999975 2.4071574199999999 Au
atom 18.8226221100000011 32.8810474400000032 2.3751069100000000 Au
atom 21.5639918299999991 32.9357871500000030 2.6278368900000002 Au
atom 24.4193289699999987 32.9157616800000028 2.5733955599999998 Au
atom 27.2927709100000015 32.8627326800000006 3.0059696699999998 Au
atom 1.7729075100000000 32.9647469100000023 2.7478521300000001 Au
atom 4.5963633699999997 33.0046812599999981 2.4818444899999998 Au
atom 8.8253526900000008 35.3678932600000024 2.6013252900000001 Au
atom 11.6124379799999993 35.4294708299999996 2.3343385400000001 Au
atom 14.4537690600000008 35.3833905500000014 2.4811222599999998 Au
atom 17.3143898699999994 35.2938326200000034 2.5948478100000001 Au
atom 20.1205880199999996 35.4192502000000005 2.5157107999999999 Au
atom 22.9444481200000006 35.4129674799999989 2.4559329499999998 Au
atom 25.6144693299999986 35.5255390100000028 2.9631840999999999 Au
atom 0.3500508000000000 35.5002790899999994 2.8477405800000000 Au
atom 3.1263956199999998 35.4563530200000017 2.6926368699999998 Au
atom 5.9420721299999997 35.5197695600000003 2.5133107799999999 Au
atom 7.4950025100000000 37.8702578899999978 2.7325450299999998 Au
atom 10.3673160800000002 37.8950966100000031 2.6452202699999998 Au
atom 13.1583161999999998 37.9318352200000035 2.4158904600000000 Au
atom 15.9181128600000008 37.8254645700000012 2.7882052499999999 Au
atom 18.6856697199999999 37.8673090799999983 2.4948236100000001 Au
atom 21.5199368600000014 37.8753722300000035 2.4913385300000002 Au
atom 24.3155048899999997 37.8426235700000007 2.8387534600000000 Au
atom 27.0319233399999987 37.8305712100000022 3.0171895300000000 Au
atom 1.6741362500000001 37.9106996699999996 2.4955554499999999 Au
atom 4.5684240999999997 37.9183551100000003 2.6189800800000000 Au
atom 8.9787828800000007 0.8275929500000000 2.7003699999999999 Au
atom 11.7690322599999995 0.9258619400000000 2.5332462900000001 Au
atom 14.5948318199999996 0.8849153800000000 2.6540863300000002 Au
atom 17.3576227199999984 0.8884434900000000 2.6458468100000001 Au
atom 20.1431435000000008 0.8332009600000000 2.5568657500000000 Au
atom 22.9003815599999996 0.9157340800000000 2.7649958799999999 Au
atom 25.6875371799999996 0.9462742200000001 3.1096587800000002 Au
atom 0.2205252200000000 0.9890889700000000 2.5833977699999999 Au
atom 3.1790478800000002 0.9205293800000000 2.4361234100000000 Au
atom 6.1166916499999999 0.7745714800000000 2.5524596800000001 Au
atom 7.3249329100000002 3.3451273399999999 2.6739853899999999 Au
atom 10.2966346499999997 3.3200893900000001 2.7692327699999999 Au
atom 13.1167777799999996 3.3245205100000002 2.7676953100000001 Au
atom 15.8326712300000008 3.4299498599999998 2.6126994600000000 Au
atom 18.7509297599999982 3.3426139400000001 2.7956380099999998 Au
atom 21.3633387600000013 3.3417357600000002 2.7663725000000001 Au
atom 24.2462175500000008 3.3612723899999999 2.6027039300000001 Au
atom 27.1175552000000017 3.3851449100000002 2.6728607400000000 Au
atom 1.7710537300000000 3.3438390099999999 2.4710632600000002 Au
atom 4.5918379500000004 3.3728497800000001 2.4806853200000001 Au
atom 8.7793034300000006 5.6979341699999999 2.8048136900000000 Au
atom 11.6283578199999997 5.9125230100000001 2.7221289099999999 Au
atom 14.4211875099999993 5.8698468799999999 2.6593924200000001 Au
atom 17.2925414500000016 5.8673192900000002 2.5603934200000000 Au
atom 20.0802788999999997 5.8713470799999996 2.4247930499999999 Au
atom 22.8818082199999999 5.8407464999999998 2.6297316300000002 Au
atom 25.6972691699999984 5.8092334100000000 2.4332680500000001 Au
atom 0.3448139200000000 5.7530117799999996 2.6386539099999999 Au
atom 3.2630539299999999 5.8823331999999997 2.6380411700000002 Au
atom 6.0367340900000004 5.8977589400000001 2.5300653899999999 Au
atom 7.1138511700000002 8.7126036800000008 2.5933731099999999 Au
atom 10.1622975899999997 8.2798257900000003 2.7961032100000001 Au
atom 13.0849065099999997 8.3376427399999997 2.4292208999999998 Au
atom 15.8998490500000003 8.4034093399999996 2.5340341400000002 Au
atom 18.6072288099999987 8.3528069299999999 2.4975075200000001 Au
atom 21.4750773799999983 8.3044739100000005 2.4928689400000001 Au
atom 24.6789232799999994 8.3158591899999994 2.5757354800000001 Au
atom 26.8166800000000016 8.2948588200000000 2.4451899500000001 Au
atom 1.7217598400000000 8.2663329700000006 2.4333871899999999 Au
atom 4.4586081999999996 8.5122405200000006 2.4835084300000001 Au
atom 8.9247678700000002 10.7595243899999993 2.4821811600000001 Au
atom 11.6315406600000006 10.7918582799999996 2.4875118199999999 Au
atom 14.4855949800000001 10.8523192300000009 2.4915706700000002 Au
atom 17.3634500799999998 10.8364965099999999 2.6881525700000002 Au
atom 20.1850171799999991 10.7421531199999993 2.5134834200000000 Au
atom 23.0332839299999996 10.7879086100000006 2.5004010100000000 Au
atom 25.8163745499999990 10.8245872599999995 2.3595993200000001 Au
atom 0.4831895300000000 10.7589856099999999 2.5230945700000000 Au
atom 3.3502811800000001 10.4931306299999996 2.6384162400000002 Au
atom 6.4049484999999997 10.3249563299999991 2.4765347599999998 Au
atom 7.8850647399999998 12.9510104800000008 5.5562648399999999 Cl
atom 7.9811660299999998 15.9277891500000006 8.4567169399999997 Cl
atom 7.8186954499999999 13.0649450999999992 8.2966637500000004 Na
atom 7.8137986899999996 15.8305870599999992 5.5960419100000003 Na
atom 7.8242747399999999 18.6659258500000007 5.5463452000000002 Cl
atom 8.0276449700000008 21.5830790599999993 8.4642102700000006 Cl
atom 7.9472125000000000 18.4277735400000005 8.2753465700000000 Na
atom 8.0413501600000004 21.4618970299999994 5.7123040899999999 Na
atom 8.0601460899999999 24.4668317500000008 6.0667766399999996 Cl
atom 8.0993221999999996 27.3141586300000014 8.4614240299999999 Cl
atom 8.1298227399999998 24.5210812099999984 8.2834027399999997 Na
atom 7.7502883699999998 27.3108310799999998 5.6629439100000001 Na
atom 7.7704844299999998 30.1667424199999985 5.6677624599999996 Cl
atom 7.9226573499999997 32.7955060000000032 8.1073204000000008 Cl
atom 7.8958784199999998 30.0470688300000006 8.4400396600000001 Na
atom 7.8020910800000003 32.8747935399999989 6.3306267500000004 Na
atom 7.7239337800000003 35.5958153300000006 5.5226618600000004 Cl
atom 7.8634417399999998 38.5516908299999983 8.3952431599999997 Cl
atom 7.9462070300000001 35.7596349399999980 8.3608560099999991 Na
atom 7.9367865300000000 38.6459633400000016 5.7120948499999997 Na
atom 7.9236044600000000 2.0075878800000000 5.5526953900000002 Cl
atom 7.9039814200000000 4.5088957100000000 8.5635352600000001 Cl
atom 7.9276604900000001 1.9083954000000001 8.2251654700000003 Na
atom 7.9702899699999996 4.6876397399999998 5.8658472100000001 Na
atom 7.9439248700000000 7.4642705700000000 5.3373028800000002 Cl
atom 7.3334892700000003 10.0137364600000005 8.3573854399999998 Cl
atom 7.8530899400000003 7.2420354800000002 8.6149676599999996 Na
atom 7.8374426699999997 10.2344248899999997 5.7151837800000003 Na
atom 10.8064345999999993 13.0644828299999993 5.2882908500000001 Na
atom 13.5866069899999999 12.8730023899999999 5.3644702400000002 Cl
atom 10.7313191200000002 15.9886324099999992 7.8792426300000002 Na
atom 13.4478055600000008 15.9363968299999996 8.2691762299999994 Cl
atom 13.7261397200000008 13.1521781400000002 8.0979791199999998 Na
atom 10.9024549000000004 13.2799035799999992 8.1857824699999995 Cl
atom 13.3561699500000000 15.9310218500000005 5.3693385899999999 Na
atom 10.6168105700000002 16.0136419200000013 5.3357109300000003 Cl
atom 10.6367635200000006 18.7135613700000007 5.6004510500000002 Na
atom 13.6475976299999999 18.8977353800000003 5.5305208099999996 Cl
atom 10.7991586200000000 21.7428269100000016 8.0540705399999997 Na
atom 13.6626230599999996 21.4138408799999986 8.6414091000000006 Cl
atom 13.5894216700000001 18.7042052699999992 8.0848571400000004 Na
atom 10.8760780300000004 18.9241804500000015 8.6570783500000008 Cl
atom 13.6946422900000009 21.6802881899999988 5.8386756599999998 Na
atom 10.7657775400000002 21.7038587999999990 5.9921251399999997 Cl
atom 10.7359198300000003 24.4615715099999989 5.7308918400000000 Na
atom 13.4718546900000007 24.1595822799999986 5.8001560000000003 Cl
atom 10.8951494100000001 26.8901905399999990 8.2686202899999994 Na
atom 13.7618486499999992 27.0310674800000008 8.4591520399999993 Cl
atom 13.7529554399999991 24.3068477499999993 8.3913524499999994 Na
atom 10.8781769900000000 24.6638912899999987 8.5534194400000008 Cl
atom 13.8021896700000006 27.1803248099999983 5.7213622500000003 Na
atom 10.8099300399999994 27.2361930799999996 5.8520206999999997 Cl
atom 10.5441114000000002 29.9943598899999984 5.7323673700000004 Na
atom 13.5536833500000000 29.9558779100000017 5.4339160900000003 Cl
atom 10.7220965899999996 32.8473155699999992 7.8156465600000002 Na
atom 13.6093755000000005 32.7771414899999982 8.2686064199999993 Cl
atom 13.6145195900000004 29.8941571400000008 8.1350233299999992 Na
atom 10.7317817099999999 29.8447366299999999 8.5054621099999999 Cl
atom 13.5737220599999997 32.5627095199999985 5.5292047300000000 Na
atom 10.5910851800000003 32.6760856599999983 5.6591861000000003 Cl
atom 10.7372363499999999 35.6772275800000003 5.8486813099999999 Na
atom 13.5985523300000004 35.5627337399999988 5.2591278399999997 Cl
atom 10.8681966400000007 38.6181629599999994 8.2651087099999998 Na
atom 13.7355357100000006 38.1518818999999993 8.1421168999999995 Cl
atom 13.6147856899999997 35.8441161300000033 8.0192909500000003 Na
atom 10.8021906699999999 35.5746976599999982 7.9147234099999997 Cl
atom 13.7073129500000004 38.4360987399999985 5.8464625799999999 Na
atom 10.8700884099999993 38.5020741200000032 5.7675332299999997 Cl
atom 10.8196728300000000 1.7089622300000000 5.6805821099999996 Na
atom 13.6057574700000004 1.7562190799999999 6.1503390500000004 Cl
atom 10.7041959900000005 4.6577284299999997 8.3189995900000007 Na
atom 13.5402702500000007 4.6337361300000000 8.5459714800000004 Cl
atom 13.5974657899999993 1.7349843500000000 8.2380425299999995 Na
atom 10.7210597500000002 1.8726904300000000 8.5642656299999995 Cl
atom 13.7250560400000001 4.5529457200000003 5.8706745800000002 Na
atom 10.9601132600000000 4.5341899400000001 5.7717581400000002 Cl
atom 10.6540300600000002 7.4066224600000004 5.8240361700000003 Na
atom 13.6673987199999996 7.2835388300000004 5.7794965500000002 Cl
atom 10.8394238000000005 10.3562591099999999 8.5665791799999997 Na
atom 13.6560853200000007 10.2773624100000003 8.4367692600000002 Cl
atom 13.6014012399999995 7.4371754499999998 8.0513066299999991 Na
atom 10.7597076000000005 7.4799228800000002 8.6544654100000002 Cl
atom 13.6143186000000007 10.0600056000000002 5.7101227000000003 Na
atom 10.8418823000000000 10.2334954200000006 5.7802283100000000 Cl
atom 16.4253258100000004 12.8740286400000006 5.4798586499999997 Na
atom 19.4015821399999986 12.8590196599999995 5.4128971699999999 Cl
atom 16.3888625200000000 15.9262191699999995 8.2246004799999994 Na
atom 19.1985311000000003 15.7776336399999995 8.1412698300000006 Cl
atom 19.2106683800000013 12.9569595700000004 7.6453838100000002 Na
atom 16.3827076600000012 13.1778925499999993 8.0619778600000007 Cl
atom 19.4251173500000007 15.9183327899999991 5.4503705499999997 Na
atom 16.3118314899999994 16.0460128399999995 5.0112521799999996 Cl
atom 16.6373633100000013 18.9409217699999992 5.3720459800000002 Na
atom 19.3751276600000004 18.7240768399999986 5.3337291200000001 Cl
atom 16.6152704900000003 21.3905883599999989 8.3242432199999996 Na
atom 19.4104979299999982 21.3664993699999997 8.3995300499999992 Cl
atom 19.2300503999999997 18.6840049199999996 7.9314254499999999 Na
atom 16.3000687299999996 18.6355642400000008 8.1582313899999992 Cl
atom 19.3655527499999991 21.8681028300000015 5.6644106100000000 Na
atom 16.5091905099999998 21.6719082500000013 5.6375466300000001 Cl
atom 16.3862450899999992 24.3491152799999995 5.6285540400000000 Na
atom 19.4819913100000015 24.0709200099999983 5.8066015799999997 Cl
atom 16.6257115000000013 27.1715825799999990 8.2132659900000000 Na
atom 19.2104068000000012 26.9301360099999982 8.5603502599999999 Cl
atom 19.4425270200000000 24.2462555600000016 8.1142494099999993 Na
atom 16.4214827600000000 24.0899785699999995 8.3917854300000005 Cl
atom 19.4028818700000016 27.2022044799999989 5.5403272599999998 Na
atom 16.0358918199999998 27.0992952500000008 5.7260905500000003 Cl
atom 16.4358269200000002 29.9653693899999993 5.6148554500000003 Na
atom 19.1860528300000013 29.8854554400000012 5.8144096799999998 Cl
atom 16.4972594100000016 32.6454082099999994 8.1940757800000004 Na
atom 18.8130128899999995 32.9080904500000031 8.4670873899999997 Cl
atom 19.2103777499999993 29.7924950499999994 8.3454672900000002 Na
atom 16.3211666000000015 29.8628222600000015 8.3737179200000007 Cl
atom 19.2048612100000007 32.7713826000000026 5.8159950399999998 Na
atom 16.4169352300000000 32.8525322899999992 5.4931085700000004 Cl
atom 16.4582171300000013 35.7212923299999972 5.8119777099999999 Na
atom 19.1608086200000010 35.9838806300000016 5.7276098299999996 Cl
atom 16.4793718499999997 38.4782783100000003 8.0350255100000005 Na
atom 19.2198801099999983 38.5698949299999967 8.6225972700000000 Cl
atom 19.1409508799999983 35.7939029899999994 8.4273949199999993 Na
atom 16.3668057400000002 35.6099311600000021 8.4953178099999995 Cl
atom 19.3117769999999993 34.5488622499999991 5.7877596499999999 Na