#===============================================================================
# Created using the Atomic Simulation Environment (ASE)

# Tue Dec 23 21:42:42 2025

#=======================================================
lattice_vector 28.1999999999999993 0.0000000000000000 0.0000000000000000 
lattice_vector 0.0000000000000000 39.4799999999999969 0.0000000000000000 
lattice_vector 0.0000000000000000 0.0000000000000000 62.3296083400000001 
atom 7.4688492699999998 14.8358941499999997 0.1340713400000000 Au
atom 10.2995191800000008 14.8306442999999994 -0.0429962400000000 Au
atom 13.1413514700000000 14.8112906899999999 -0.0979196000000000 Au
atom 15.9436456000000000 14.7631587399999997 -0.0504499900000000 Au
atom 18.7696081100000001 14.7547486299999999 0.1297008800000000 Au
atom 21.6022375999999987 14.7471613099999992 0.0870175200000000 Au
atom 24.4048751999999993 14.7211485199999998 -0.0349460100000000 Au
atom 27.1961942800000003 14.7720555600000001 -0.0969794400000000 Au
atom 1.8580040099999999 14.7424982100000008 -0.0446229500000000 Au
atom 4.6714458099999998 14.8201131299999993 0.0398252600000000 Au
atom 8.8980352200000006 17.3329143999999999 -0.0747490500000000 Au
atom 11.7091709000000002 17.2986673800000013 -0.0003536300000000 Au
atom 14.5530570600000004 17.2510457099999996 0.0889101300000000 Au
atom 17.3638829600000015 17.2061507200000001 0.1083752200000000 Au
atom 20.1620025100000007 17.1982697100000017 0.0624616300000000 Au
atom 22.9926330499999985 17.2350338000000001 0.0604120200000000 Au
atom 25.7693417400000016 17.2474110899999999 -0.0004846600000000 Au
atom 0.4452663300000000 17.2651168199999994 0.0312696100000000 Au
atom 3.2735448300000001 17.3045012999999983 -0.0497511100000000 Au
atom 6.1223455800000002 17.2888696000000017 0.0649356300000000 Au
atom 7.4730954799999996 19.7794071900000006 0.1108781700000000 Au
atom 10.3238946100000000 19.8011932600000016 0.1006335200000000 Au
atom 13.1325724800000003 19.7476727200000006 0.1756479600000000 Au
atom 16.0027544800000001 19.6705675299999996 0.0547324300000000 Au
atom 18.8170201299999995 19.6929878699999996 0.0501004100000000 Au
atom 21.6281380900000002 19.6833302299999993 -0.0353555100000000 Au
atom 24.4329216100000011 19.7417819299999984 0.0814692200000000 Au
atom 27.2347870400000005 19.7446111100000010 0.0390166300000000 Au
atom 1.8766121200000001 19.7212881200000005 0.1937634900000000 Au
atom 4.6498360099999996 19.8006305599999983 0.0755322300000000 Au
atom 8.9294699499999997 22.2572766599999987 -0.0060305000000000 Au
atom 11.8182755000000004 22.2302144699999999 0.1200511400000000 Au
atom 14.5655718200000006 22.2018672799999983 0.1814304100000000 Au
atom 17.3766203899999994 22.1559332399999995 0.0808198600000000 Au
atom 20.2118038599999998 22.1347948499999987 0.0929251600000000 Au
atom 22.9875257300000015 22.2166902499999992 0.1248099000000000 Au
atom 25.8494662300000009 22.2311796500000014 0.0932277500000000 Au
atom 0.4720360600000000 22.1810636199999998 0.1472774600000000 Au
atom 3.2899837600000001 22.2620919099999988 0.0839933200000000 Au
atom 6.1016664100000000 22.2320885500000003 0.1146471700000000 Au
atom 7.5348932299999998 24.6670091900000017 0.1760321800000000 Au
atom 10.3342063700000004 24.6741396100000010 0.0726253100000000 Au
atom 13.1744269900000006 24.6647187499999987 0.2123189100000000 Au
atom 15.9860742600000005 24.6368800199999995 0.0871372100000000 Au
atom 18.7997492100000017 24.6711481100000007 0.0491240500000000 Au
atom 21.5708980699999984 24.6574618799999996 0.1132161800000000 Au
atom 24.4205072299999983 24.7066206999999984 0.0695805200000000 Au
atom 27.2219606300000017 24.6817860200000005 0.0596533400000000 Au
atom 1.8521890500000000 24.6905671399999989 0.0707262700000000 Au
atom 4.7206276899999997 24.7321680800000010 0.0161347400000000 Au
atom 8.9377059800000005 27.0831952600000001 0.0644598600000000 Au
atom 11.7123771300000001 27.1566061199999993 0.0391999600000000 Au
atom 14.6010391599999991 27.1006080300000001 0.0750603300000000 Au
atom 17.4205917300000017 27.0895550699999994 0.0442043400000000 Au
atom 20.1827540899999995 27.1481051300000011 -0.0096430100000000 Au
atom 22.9531531599999994 27.1359639299999991 0.0399000400000000 Au
atom 25.7967816300000017 27.1475921900000010 0.0222145800000000 Au
atom 0.4553247600000000 27.1206647200000006 0.0263112500000000 Au
atom 3.2443515900000000 27.1489947399999991 0.0615522600000000 Au
atom 6.0738213400000003 27.2456149600000010 0.0568539000000000 Au
atom 7.5066304199999996 29.6116257599999990 -0.0384881600000000 Au
atom 10.2952082199999992 29.5756575499999990 0.0237703000000000 Au
atom 13.1408064299999996 29.6376391499999983 -0.0474003900000000 Au
atom 15.9849273800000002 29.6519820199999984 0.0813024900000000 Au
atom 18.7642064600000005 29.5835757599999987 0.0355505700000000 Au
atom 21.5972420700000001 29.5927014499999999 -0.0188794100000000 Au
atom 24.3588493100000001 29.5929904199999996 0.1489582100000000 Au
atom 27.1775796599999993 29.5922437100000018 0.0175670200000000 Au
atom 1.8295602099999999 29.5603715600000001 0.0223402700000000 Au
atom 4.6079314499999997 29.6199146099999986 0.0190917700000000 Au
atom 8.8875043399999996 32.0549764200000027 -0.0218994200000000 Au
atom 11.7046472500000007 32.0703879499999971 0.0071436200000000 Au
atom 14.5248464500000001 32.0897413400000033 0.0572153900000000 Au
atom 17.3829075499999988 32.0816228999999993 0.2281701200000000 Au
atom 20.1578353300000011 32.0416447099999999 -0.0137886200000000 Au
atom 22.9558219100000009 32.0208940899999988 0.1245303400000000 Au
atom 25.7897537099999994 32.0877649299999987 -0.0951380600000000 Au
atom 0.4246991000000000 32.0115016900000029 0.0247549500000000 Au
atom 3.2050494999999999 32.0589568199999988 -0.0204748900000000 Au
atom 6.0130039599999998 32.0323262000000000 -0.1308989200000000 Au
atom 7.4748479000000003 34.5490516899999989 -0.0365423000000000 Au
atom 10.2968922400000000 34.4963860399999973 0.0710305000000000 Au
atom 13.1257575299999996 34.5476828899999973 -0.0448262300000000 Au
atom 15.9570982600000004 34.5359357900000035 -0.0467541100000000 Au
atom 18.7668633400000004 34.5515086400000015 0.1503691100000000 Au
atom 21.5649094499999983 34.5179079799999968 -0.0250309300000000 Au
atom 24.3965060800000018 34.5464451300000022 -0.1063733700000000 Au
atom 27.2122337899999991 34.5261087700000004 -0.0296173100000000 Au
atom 1.8047126499999999 34.5259319500000004 -0.1171727600000000 Au
atom 4.6704192600000001 34.5233175099999983 0.0201122800000000 Au
atom 8.9426744500000002 36.9797181799999990 0.0240334600000000 Au
atom 11.7132801299999993 36.9882194799999979 -0.0468760400000000 Au
atom 14.5295106799999996 37.0369601599999996 -0.0565155500000000 Au
atom 17.3415589499999996 36.9902850799999996 0.0219084000000000 Au
atom 20.1986051099999990 37.0110669600000008 0.1089378800000000 Au
atom 22.9876665200000012 36.9821006900000029 0.0495717500000000 Au
atom 25.8369479400000017 36.9855674200000024 -0.0736602700000000 Au
atom 0.4265668800000000 36.9983515600000032 0.0714202100000000 Au
atom 3.2155632600000001 37.0084752100000003 -0.1597257500000000 Au
atom 6.1178351500000003 37.0041000800000006 -0.0505194200000000 Au
atom 7.5333133800000001 -0.0342173400000000 0.1201079000000000 Au
atom 10.3415081799999999 -0.0000256500000000 0.2920916600000000 Au
atom 13.1364309600000002 0.0164332400000000 0.1930329100000000 Au
atom 15.9625777299999996 -0.0354642700000000 0.2499015900000000 Au
atom 18.7659639700000014 -0.0095373200000000 -0.0173312500000000 Au
atom 21.6316938599999986 -0.0005999900000000 0.1507353200000000 Au
atom 24.4177769699999985 -0.0231813700000000 0.0630479500000000 Au
atom 27.2296188800000003 -0.0163893400000000 0.1326289700000000 Au
atom 1.8594948099999999 -0.0484566800000000 0.0921388800000000 Au
atom 4.7105877100000004 -0.0092833500000000 0.0919533500000000 Au
atom 8.9101306800000000 2.4504136600000002 0.1706701700000000 Au
atom 11.7366883800000004 2.4606175800000001 0.1823941700000000 Au
atom 14.5549616499999992 2.4156670800000000 0.0700592500000000 Au
atom 17.3663939700000007 2.4344034200000002 -0.0458493700000000 Au
atom 20.1666973700000014 2.4614224199999999 0.0784983300000000 Au
atom 23.0436654400000016 2.4643284599999999 0.0202513900000000 Au
atom 25.8650225300000010 2.4814292700000000 -0.0385133200000000 Au
atom 0.4650477200000000 2.4175445299999998 0.0063870500000000 Au
atom 3.3001369299999999 2.5090388799999999 0.2161546300000000 Au
atom 6.1167332900000000 2.4100659699999998 0.0502232800000000 Au
atom 7.5373106999999999 4.9263833400000001 -0.0500797200000000 Au
atom 10.3254878399999992 4.8866470299999998 0.2402591800000000 Au
atom 13.0888686199999995 4.8993250799999997 -0.0094455200000000 Au
atom 15.9137363999999994 4.8837253499999997 0.0324423300000000 Au
atom 18.7894409300000014 4.8963516699999996 0.0082657700000000 Au
atom 21.6472367299999995 4.9388119300000000 0.0555782800000000 Au
atom 24.4343130299999984 4.9834888800000003 0.0697336200000000 Au
atom 27.2886042000000018 4.9041184700000002 0.1023266700000000 Au
atom 1.8979550800000000 4.8978644400000002 0.0774314700000000 Au
atom 4.7355432899999998 4.9442377799999999 0.1370189500000000 Au
atom 8.9228600900000004 7.4019648000000000 0.1650944300000000 Au
atom 11.7375914699999999 7.4071648699999999 0.2054653700000000 Au
atom 14.5379514899999993 7.3987108099999999 0.1277663600000000 Au
atom 17.3720191499999999 7.3481903900000001 0.1145088100000000 Au
atom 20.1684293799999992 7.3529707599999998 0.0914016000000000 Au
atom 23.0746589100000001 7.4215584899999998 0.1356169800000000 Au
atom 25.8891882699999982 7.3816784100000001 -0.0753247700000000 Au
atom 0.4670824800000000 7.3379941400000002 0.0907266800000000 Au
atom 3.2853682200000001 7.3575144200000002 -0.0452132900000000 Au
atom 6.0956847999999999 7.4145717900000001 0.0201191000000000 Au
atom 7.5119377900000002 9.8386639900000006 0.0340711600000000 Au
atom 10.3367823199999993 9.8645881200000005 0.0026865800000000 Au
atom 13.1757923100000003 9.9035285200000001 -0.0634999700000000 Au
atom 15.9820539499999992 9.8356079100000002 0.0555692400000000 Au
atom 18.7794832599999992 9.7976587599999991 0.0523477000000000 Au
atom 21.5651699199999989 9.7725428700000005 -0.0058357000000000 Au
atom 24.4362911899999986 9.8601989200000002 0.0234330500000000 Au
atom 27.3132587499999993 9.8038319299999994 0.0332139600000000 Au
atom 1.8857784000000000 9.7886171599999994 -0.1098535600000000 Au
atom 4.7055142400000003 9.8771623900000005 0.0334819400000000 Au
atom 8.9619852200000008 12.3173686599999996 -0.0331030100000000 Au
atom 11.7730086200000006 12.4032415799999995 0.0139376400000000 Au
atom 14.5828438299999998 12.3265361900000006 0.0357306000000000 Au
atom 17.4032971299999986 12.3262921999999993 0.0475981800000000 Au
atom 20.1887104899999983 12.3047017000000007 -0.0047644800000000 Au
atom 23.0044586899999999 12.2418029399999995 0.0148672200000000 Au
atom 25.8443338800000006 12.2801377499999997 -0.0479197300000000 Au
atom 0.4644425900000000 12.3003309099999996 -0.0120755700000000 Au
atom 3.3226820799999999 12.3214700799999992 -0.0446746900000000 Au
atom 6.1615863600000003 12.3587793999999995 0.0076695600000000 Au
atom 7.5332972600000003 13.1929017799999997 2.7018618999999999 Au
atom 10.2895251699999992 13.1813988500000008 2.5351786700000001 Au
atom 13.0911419599999999 13.1795292199999992 2.7112833500000000 Au
atom 16.0217775099999997 13.1603739799999992 2.5973573900000000 Au
atom 18.8345953699999988 13.1976666599999994 2.8002897500000001 Au
atom 21.6130345499999983 13.2264686499999993 2.6439073899999999 Au
atom 24.3954871500000010 13.2051283700000006 2.5134185000000002 Au
atom 27.2721896000000008 13.2063801099999996 2.5440731599999999 Au
atom 1.9061564300000000 13.2036326600000002 2.6079881999999999 Au
atom 4.6981742400000002 13.1494720899999997 2.4559940500000002 Au
atom 8.9438805499999994 15.6645026299999994 2.5921039100000001 Au
atom 11.7753761699999995 15.6094042599999998 2.5239960300000002 Au
atom 14.5895854299999996 15.5638222699999993 2.6648514699999999 Au
atom 17.3497660899999993 15.6194889600000000 2.7441281599999998 Au
atom 20.2348290499999983 15.6940353699999999 2.6253214699999998 Au
atom 23.0721309099999985 15.6971416200000000 2.6890818699999999 Au
atom 25.8257210300000004 15.6489601300000007 2.5745618399999999 Au
atom 0.4304187300000000 15.6149830299999994 2.6235004399999999 Au
atom 3.2484485900000002 15.6717914599999997 2.4993169200000001 Au
atom 6.0977001700000004 15.6369088999999999 2.7371859900000000 Au
atom 7.4783673799999999 18.0630094600000000 2.6561111700000000 Au
atom 10.3169067000000005 18.1172630099999985 2.6098596900000000 Au
atom 13.1292051599999997 18.0498494100000002 2.6993450800000001 Au
atom 15.9576582699999996 18.0735491699999997 2.5779540100000000 Au
atom 18.7483346200000014 18.1026883000000005 2.7364755800000000 Au
atom 21.6307182900000008 18.1569758899999982 2.6435238299999999 Au
atom 24.4314406899999987 18.1491615499999988 2.6260907300000000 Au
atom 27.2342293300000016 18.1440776399999990 2.5554954400000001 Au
atom 1.8705179400000000 18.0774828399999983 2.7474305200000000 Au
atom 4.6100675600000001 18.1307234800000003 2.5809118799999999 Au
atom 8.8699066999999996 20.5875732900000017 2.7001557799999998 Au
atom 11.6956511200000008 20.5587459499999987 2.7650557700000000 Au
atom 14.5357446800000005 20.5076735499999998 2.7081927000000001 Au
atom 17.3759773499999994 20.5748904500000016 2.6726474599999999 Au
atom 20.2111696700000003 20.5826291200000000 2.7279220300000002 Au
atom 23.0408748400000007 20.6056054599999996 2.6963671699999998 Au
atom 25.8408123200000013 20.6743905699999999 2.6960518900000001 Au
atom 0.4717935100000000 20.5963627299999992 2.7117997800000002 Au
atom 3.2792114500000000 20.5819524300000012 2.7946374199999999 Au
atom 6.0839874700000003 20.5457722999999994 2.7107841399999999 Au
atom 7.4867427400000004 22.9824334800000010 2.7382059999999999 Au
atom 10.2952683300000007 23.0960741799999987 2.6176036900000001 Au
atom 13.0850319499999994 23.0021223900000003 2.7974107799999999 Au
atom 15.9520292799999996 23.0126126500000012 2.7646378299999999 Au
atom 18.7761148800000015 23.0429608399999992 2.7104850699999998 Au
atom 21.5891064300000011 23.0914199099999990 2.7190045500000002 Au
atom 24.3721581200000017 23.0813293900000005 2.6848368699999998 Au
atom 27.3004084200000001 23.0999945000000011 2.6780716000000000 Au
atom 1.8674246400000001 23.0817132399999991 2.7710697099999999 Au
atom 4.6730283799999999 23.0578488300000011 2.6690431999999999 Au
atom 8.8759242199999999 25.5317501900000003 2.7693869699999998 Au
atom 11.7324275199999999 25.5574490400000016 2.6595191699999998 Au
atom 14.5297978899999993 25.4443740799999993 2.7723078200000000 Au
atom 17.3533781100000013 25.4999322200000016 2.6899032500000000 Au
atom 20.1362553300000009 25.6083268599999982 2.6889287799999999 Au
atom 22.9401915699999996 25.5483414400000015 2.7276292799999999 Au
atom 25.7921520700000002 25.5173073700000010 2.6434688300000002 Au
atom 0.4394087800000000 25.5747986500000017 2.7255396099999998 Au
atom 3.2422236999999998 25.5303882900000012 2.5784803100000002 Au
atom 6.1079523199999999 25.5451607199999984 2.6490087899999999 Au
atom 7.5153914899999998 28.0238089300000013 2.5695514099999999 Au
atom 10.3095632599999991 27.9868570800000001 2.6894499900000000 Au
atom 13.1470966300000001 27.9657094999999991 2.5995576200000001 Au
atom 15.9796256900000007 27.9838550300000009 2.6315522699999998 Au
atom 18.7870965400000003 27.9980032299999984 2.5969360799999999 Au
atom 21.5701478000000009 28.0583268399999994 2.6081985200000002 Au
atom 24.4412266000000002 27.9846660299999996 2.6469703400000002 Au
atom 27.2443964200000011 28.0104512099999994 2.6985072699999999 Au
atom 1.7945142100000000 28.0136733000000007 2.6429966100000000 Au
atom 4.6514777900000004 28.0267213599999998 2.7333913299999999 Au
atom 8.8782848399999992 30.4227936700000008 2.6108066999999999 Au
atom 11.7536712300000001 30.4498721600000017 2.5378130799999998 Au
atom 14.5781146300000000 30.4189972600000011 2.6261546899999999 Au
atom 17.3916244499999983 30.4359451700000001 2.8215790699999999 Au
atom 20.2224906500000010 30.4938265299999998 2.5191813199999999 Au
atom 23.0623093799999985 30.5203395600000000 2.6798899000000000 Au
atom 25.8357493399999996 30.5204929999999983 2.5908807899999999 Au
atom 0.4283463700000000 30.4769387099999989 2.6616413500000000 Au
atom 3.2138607399999999 30.4781634100000005 2.6534590499999999 Au
atom 6.0235370599999998 30.4976349599999992 2.5604078100000001 Au
atom 7.5415429300000003 32.9135972300000006 2.4958543899999999 Au
atom 10.3077982099999996 32.9345095199999989 2.6989057299999999 Au
atom 13.0742662000000003 32.8880999399999965 2.5979727600000002 Au
atom 15.9032067999999995 32.9164450800000026 2.7137653300000002 Au
atom 18.8135223399999987 32.8984219199999970 2.7538493800000001 Au
atom 21.6034698100000000 32.9665153999999987 2.6359454800000002 Au
atom 24.4060094300000010 33.0047760699999984 2.5216197600000001 Au
atom 27.2297561600000009 32.9462032699999980 2.5891340600000001 Au
atom 1.8666259500000000 32.9336217399999995 2.5706128700000002 Au
atom 4.6946075900000004 32.9162278900000018 2.6539164500000001 Au
atom 8.8845919900000005 35.4262163100000009 2.6617324700000000 Au
atom 11.7308826400000008 35.3745943500000024 2.6634728700000001 Au
atom 14.5331207599999992 35.3533265399999976 2.5656901200000002 Au
atom 17.3889671600000000 35.3863115600000029 2.6773735400000001 Au
atom 20.2247184199999985 35.4769766200000021 2.7639760700000000 Au
atom 22.9753053800000018 35.4162506899999983 2.5978490100000000 Au
atom 25.8481909700000010 35.4315062299999965 2.5404736899999998 Au
atom 0.4741396000000000 35.4264764799999980 2.6456623200000000 Au
atom 3.2415158000000002 35.3913806799999975 2.4538263900000001 Au
atom 6.0563110800000004 35.3415224499999994 2.6710969000000002 Au
atom 7.4653090999999998 37.8219374900000034 2.5784186500000001 Au
atom 10.2987546400000003 37.8511970699999978 2.6999971899999999 Au
atom 13.1846484400000001 37.8341741400000018 2.6179305899999998 Au
atom 15.9545825000000008 37.7918946500000033 2.7034803300000001 Au
atom 18.7746056800000005 37.9533378599999978 2.5262906900000002 Au
atom 21.6118768099999983 37.8936864300000025 2.7739498800000000 Au
atom 24.4224257499999986 37.8542948400000014 2.6183419300000002 Au
atom 27.2378628700000007 37.8496135400000000 2.7402338600000000 Au
atom 1.8620027500000000 37.8792081699999983 2.6134519300000001 Au
atom 4.6754481999999999 37.8427746799999980 2.5551828699999999 Au
atom 8.9169262099999997 0.8146400499999999 2.8845253000000000 Au
atom 11.7584671699999994 0.8306348500000000 2.8205721000000001 Au
atom 14.5276533899999993 0.8497334600000001 2.9041642300000001 Au
atom 17.3769807900000011 0.9032742400000000 2.7275311100000001 Au
atom 20.1710998299999993 0.8761100000000001 2.6717124600000002 Au
atom 22.9772523000000000 0.8562924500000000 2.7210053099999998 Au
atom 25.8379902699999988 0.8526746800000000 2.6741105400000000 Au
atom 0.4677643300000000 0.8691284500000001 2.7448866299999999 Au
atom 3.3079563099999998 0.8272818900000000 2.7337297100000000 Au
atom 6.1216146399999998 0.8700203200000000 2.7861737199999999 Au
atom 7.5447126500000001 3.3897814199999998 2.6104957500000001 Au
atom 10.3420822300000008 3.2789524000000001 2.8568343500000002 Au
atom 13.1255475199999996 3.3472565900000002 2.6915922800000001 Au
atom 15.9897177500000005 3.3057004399999999 2.6002592299999998 Au
atom 18.7989795199999996 3.3331044400000001 2.6714508299999999 Au
atom 21.5900914800000017 3.3190138199999999 2.5947733300000002 Au
atom 24.4261205200000013 3.3177773899999998 2.6493951600000001 Au
atom 27.2470779999999984 3.3328197700000000 2.6400637400000000 Au
atom 1.8355167900000000 3.3410379600000000 2.7117757400000002 Au
atom 4.7044797999999997 3.4102433200000002 2.7612364999999999 Au
atom 8.9459139000000008 5.7915836000000001 2.6863413899999999 Au
atom 11.7459197999999994 5.8388236700000000 2.7623016100000002 Au
atom 14.5757572999999994 5.7626936799999999 2.7006651900000000 Au
atom 17.3576852899999992 5.8255225800000003 2.7084137300000002 Au
atom 20.1846079899999999 5.7763294099999998 2.6499824099999998 Au
atom 23.0075661400000016 5.7600963900000002 2.7759912700000000 Au
atom 25.7961484399999996 5.7823461299999996 2.5894320099999999 Au
atom 0.4389550400000000 5.8213992399999999 2.8499324399999999 Au
atom 3.2349011900000000 5.8028137800000001 2.7503310299999999 Au
atom 6.1118823700000000 5.8140680500000004 2.6749713700000002 Au
atom 7.5613172700000000 8.2760569000000004 2.7378533100000002 Au
atom 10.3560105900000003 8.2916894100000000 2.7350134200000000 Au
atom 13.2253775699999991 8.2719183399999991 2.7357164900000002 Au
atom 16.0014090399999986 8.2926000999999996 2.6834432399999999 Au
atom 18.8457145500000003 8.2777004600000001 2.7852222300000000 Au
atom 21.6413354399999989 8.2395642099999993 2.6369371799999999 Au
atom 24.4596474300000004 8.3164459900000001 2.5746722700000002 Au
atom 27.2737079999999992 8.2365171099999994 2.6432847599999998 Au
atom 1.8990368600000000 8.2770680500000005 2.5695895499999999 Au
atom 4.6952147499999999 8.2523230099999996 2.5769616200000001 Au
atom 8.9309066000000001 10.7166827500000004 2.6622746799999999 Au
atom 11.7613416500000003 10.6999358200000003 2.5854804499999999 Au
atom 14.5747286799999998 10.7468086500000002 2.6473232300000000 Au
atom 17.4520966900000012 10.7203021399999994 2.6317854999999999 Au
atom 20.2715416799999986 10.7535910399999999 2.5623217000000000 Au
atom 23.0675545900000003 10.7363707999999995 2.6365285400000000 Au
atom 25.9069016900000015 10.7680628699999996 2.6225685699999999 Au
atom 0.4932510000000000 10.7448291200000003 2.6103668199999999 Au
atom 3.2584037499999998 10.7076737499999997 2.6313604399999999 Au
atom 6.0973418500000003 10.7322937399999994 2.6548675700000000 Au
atom 7.4237566800000003 13.1667066899999998 5.6104369199999997 Cl
atom 7.4680104700000003 15.9253963200000008 8.6048835300000004 Cl
atom 7.5250775000000001 13.1041809300000001 8.2712437199999993 Na
atom 7.4955108600000004 16.0144992299999984 5.8387721499999996 Na
atom 7.4936573500000003 18.7985511800000005 5.7124209300000004 Cl
atom 7.5408856200000001 21.5854296099999985 8.6371474100000007 Cl
atom 7.5613243499999996 18.7712571100000005 8.3763502899999995 Na
atom 7.5275655400000003 21.6193343800000015 5.8820565000000000 Na
atom 7.4597018300000002 24.4379900799999987 5.7999186399999996 Cl
atom 7.5669754600000001 27.3100109499999988 8.5886393800000000 Cl
atom 7.5567120200000000 24.4323960599999985 8.4698612499999992 Na
atom 7.4545821300000004 27.2583100000000016 5.8243115400000001 Na
atom 7.4193984300000002 30.0971549299999985 5.5855351600000001 Cl
atom 7.4221258399999996 32.9781823100000011 8.4677828999999996 Cl
atom 7.5161367500000003 30.0860525199999991 8.2114615000000004 Na
atom 7.4963773800000002 32.9573099899999988 5.7818022999999998 Na
atom 7.4605307500000002 35.9519088300000007 5.6977825800000002 Cl
atom 7.5392834999999998 38.6956657300000018 8.7095197399999993 Cl
atom 7.4549139799999997 35.7952358399999966 8.3180609200000006 Na
atom 7.4723467499999998 38.8059938199999976 5.9777778200000000 Na
atom 7.5057089200000000 1.9980939900000001 5.9307575600000000 Cl
atom 7.4769751500000003 4.7419335800000004 8.7376744700000000 Cl
atom 7.4407975400000002 2.0641766200000000 8.5377921200000007 Na
atom 7.5179225000000001 4.8102783499999999 5.9339838900000004 Na
atom 7.3882328299999998 7.5013649400000002 5.7691415199999998 Cl
atom 7.5083498500000001 10.4143091400000003 8.5636300199999997 Cl
atom 7.4621993399999997 7.5965536599999997 8.4501822099999995 Na
atom 7.5135265300000000 10.3105204199999996 5.8387233800000002 Na
atom 10.3450156700000004 13.1815514999999994 5.7725434800000004 Na
atom 13.1835733299999998 13.1946165400000002 5.7445272200000002 Cl
atom 10.4085111700000006 15.9374056399999997 8.4396119299999999 Na
atom 13.1709846699999993 16.0184383100000005 8.5882448199999999 Cl
atom 13.1616903900000004 13.1988390300000002 8.3594330100000001 Na
atom 10.3098309900000000 13.1197123700000002 8.4735006399999993 Cl
atom 13.1414636700000003 15.9623029899999995 5.8096826500000001 Na
atom 10.3707387099999995 15.9765390800000002 5.6965061300000004 Cl
atom 10.3323228199999999 18.8377665299999997 5.8413893200000002 Na
atom 13.1450058700000003 18.7823369000000007 5.7381605200000001 Cl
atom 10.3445094100000006 21.5997990199999990 8.4336787500000003 Na
atom 13.1615213400000002 21.5772465699999998 8.6200979600000007 Cl
atom 13.1585964400000002 18.8370129400000010 8.4398648200000004 Na
atom 10.4214712699999996 18.8073400299999989 8.5914956199999999 Cl
atom 13.1911133599999992 21.6234115200000012 5.8776544700000004 Na
atom 10.2682053700000004 21.6971562099999993 5.8232176500000001 Cl
atom 10.3468659299999999 24.5124019000000004 5.9361245499999997 Na
atom 13.2127072299999995 24.4943990999999990 5.8201388100000004 Cl
atom 10.3378316699999999 27.3804176499999983 8.4214956799999996 Na
atom 13.1044317400000008 27.3140220400000011 8.6032430000000009 Cl
atom 13.1388780199999999 24.4505303400000003 8.4899898399999998 Na
atom 10.3273882100000005 24.5249195499999999 8.6196272599999997 Cl
atom 13.1311239099999995 27.2663463300000011 5.8924053900000004 Na
atom 10.2859763300000004 27.1806901699999983 5.6794912100000001 Cl
atom 10.3338741200000008 30.0664342500000004 5.6537061199999998 Na
atom 13.2814743899999996 30.1236392399999993 5.7365432099999998 Cl
atom 10.3022979800000005 32.9668808500000026 8.3048620000000000 Na
atom 13.1391050499999995 32.9651671399999984 8.5565497399999995 Cl
atom 13.1027203500000002 30.2086936900000005 8.3551070099999993 Na
atom 10.3015620299999995 30.1670357100000004 8.4053576600000000 Cl
atom 13.1565006400000009 33.0561729599999978 5.8413859600000002 Na
atom 10.2494394100000008 32.9622638199999969 5.6746306400000002 Cl
atom 10.2984374499999998 35.8470674200000019 5.8529328300000003 Na
atom 13.1404078599999998 35.8993376999999967 5.8124689800000002 Cl
atom 10.2821582300000003 38.6961018699999997 8.4989743000000004 Na
atom 13.1034813799999998 38.6064445000000021 8.7127165000000009 Cl
atom 13.0718952399999999 35.8414424099999991 8.5177499799999996 Na
atom 10.3098509600000003 35.7965858700000013 8.5328321700000007 Cl
atom 13.1498280800000007 38.6333985500000026 5.9369333900000001 Na
atom 10.2815493599999996 38.7567651700000013 5.9057322900000004 Cl
atom 10.3543490200000008 1.9707445600000000 5.9411663700000004 Na
atom 13.1574627000000000 1.9329074799999999 5.8815873999999999 Cl
atom 10.4401431500000008 4.8019311399999998 8.5219975399999992 Na
atom 13.1474920300000004 4.8003945200000002 8.6200959200000007 Cl
atom 13.1495782600000002 2.0079780800000000 8.5190109300000003 Na
atom 10.3301765700000008 2.0153474400000002 8.7319289999999992 Cl
atom 13.1836465399999998 4.7544995200000004 5.8637794200000002 Na
atom 10.3119710199999997 4.7765235600000002 5.8866179299999999 Cl
atom 10.4168505800000002 7.5180294900000000 5.7992070499999997 Na
atom 13.1703698199999995 7.5799594800000003 5.7781095200000001 Cl
atom 10.3051537399999997 10.3221117200000005 8.2907168599999999 Na
atom 13.1244360899999997 10.4111742399999994 8.5680770400000004 Cl
atom 13.1774648499999998 7.7051223300000000 8.4103996900000002 Na
atom 10.3408449099999995 7.6049827299999997 8.5672789399999996 Cl
atom 13.0965374299999997 10.3647083400000000 5.7702732799999996 Na
atom 10.2655153000000006 10.3768948999999999 5.7001287999999999 Cl
atom 15.9498183400000002 13.1620185400000000 5.9170155800000002 Na
atom 18.8147555400000002 13.2323100599999997 5.7920175699999996 Cl
atom 15.9594041699999991 15.9553707300000003 8.3563622199999994 Na
atom 18.8215207800000002 16.0275300799999982 8.6246072100000006 Cl
atom 18.8528249000000017 13.1996638900000001 8.3445568500000000 Na
atom 15.9107864600000006 13.2354834799999992 8.6700769399999995 Cl
atom 18.7943241500000013 16.0289150199999995 5.7860975600000000 Na
atom 16.0299988700000000 16.0359635199999992 5.6807768899999997 Cl
atom 15.9787208900000000 18.7697362100000014 5.8909084399999996 Na
atom 18.8560354500000003 18.8252949500000000 5.7798445699999998 Cl
atom 16.0060162300000002 21.7183355099999993 8.4031619699999993 Na
atom 18.8573577400000012 21.7386700799999986 8.5707903299999995 Cl
atom 18.8737938800000009 18.8257244899999989 8.4131263000000001 Na
atom 16.0184270099999999 18.7222720500000008 8.5682751699999997 Cl
atom 18.8694172699999996 21.6895429600000007 5.7843257499999998 Na
atom 16.0187112899999988 21.5947307200000012 5.7892637499999999 Cl
atom 16.0262652099999983 24.4589657500000008 5.8924760100000002 Na
atom 18.7558436899999990 24.5066241500000004 5.8404044900000001 Cl
atom 15.9546388500000003 27.3829516099999992 8.4486145700000002 Na
atom 18.8945221200000013 27.3314485199999986 8.6317767799999991 Cl
atom 18.8116688500000002 24.5232612000000003 8.4632264799999994 Na
atom 15.9453825899999995 24.5234577099999989 8.6143877700000004 Cl
atom 18.8097479800000009 27.3207920000000009 5.8235841500000003 Na
atom 16.0473155799999994 27.3463835700000004 5.7439176200000004 Cl
atom 15.9687976799999998 30.2216592900000016 5.8074591499999997 Na
atom 18.8679401499999990 30.1946651199999998 5.7280576099999996 Cl
atom 15.9131732899999996 32.9926658700000033 8.4048563299999994 Na
atom 18.8855703400000010 32.9896450099999967 8.6931431600000000 Cl
atom 18.8321095499999984 30.1510870599999983 8.3942047399999993 Na
atom 16.0591322900000009 30.1577836400000017 8.5874316299999993 Cl
atom 18.8058881900000010 32.9933275599999973 5.8929844300000003 Na
atom 15.9082314000000000 32.9541814399999993 5.7459501299999998 Cl
atom 15.9911975999999996 35.8435569800000025 5.8181602799999999 Na
atom 18.8049746800000008 35.8586458999999991 5.7530607399999996 Cl
atom 15.9031752599999994 38.6408958700000014 8.4102978299999993 Na
atom 18.7414562099999991 38.7275348499999978 8.6580736500000004 Cl
atom 18.8074656800000000 35.7401447599999997 8.4810350299999993 Na
atom 15.9633965100000008 35.8283963800000009 8.6277092500000006 Cl
atom 18.8692296199999987 38.6833053699999994 5.9077091700000004 Na