#===============================================================================
# Created using the Atomic Simulation Environment (ASE)

# Tue Dec 23 21:42:46 2025

#=======================================================
lattice_vector 28.1999999999999993 0.0000000000000000 0.0000000000000000 
lattice_vector 0.0000000000000000 39.4799999999999969 0.0000000000000000 
lattice_vector 0.0000000000000000 0.0000000000000000 62.3296083400000001 
atom 7.5505421400000001 14.8837219899999997 0.0223339900000000 Au
atom 10.3064556300000003 14.8703595300000000 -0.1548149000000000 Au
atom 13.1154933099999997 14.8265264699999992 -0.4321959800000000 Au
atom 15.9284762099999995 14.8180965400000009 -0.3067541700000000 Au
atom 18.7351528300000005 14.7281561700000001 -0.0153688000000000 Au
atom 21.6300696200000004 14.8281539099999993 -0.2002844100000000 Au
atom 24.4177538799999994 14.8006268500000004 -0.1424184000000000 Au
atom 27.1666801199999988 14.7840169800000005 -0.2400565200000000 Au
atom 1.7981702600000000 14.7893951099999992 -0.2380628200000000 Au
atom 4.6641736299999996 14.7440091800000008 -0.1393335400000000 Au
atom 8.8864721299999996 17.4023495500000003 -0.1670295900000000 Au
atom 11.7154779700000002 17.3494385300000005 -0.2814358000000000 Au
atom 14.6150692000000006 17.2900373999999992 -0.3074492500000000 Au
atom 17.3803078199999987 17.3227381499999993 -0.0976585900000000 Au
atom 20.0945912399999997 17.1908847099999988 -0.0507624300000000 Au
atom 23.0034736399999993 17.2642969099999988 -0.0389209400000000 Au
atom 25.7957027699999983 17.2590338000000010 -0.1111812800000000 Au
atom 0.3876206800000000 17.2844133400000004 -0.2300977500000000 Au
atom 3.2807824800000001 17.2229398200000006 -0.3263967200000000 Au
atom 6.0928179299999998 17.2649058699999998 -0.3989571200000000 Au
atom 7.5212375800000002 19.8629747200000004 -0.3401835300000000 Au
atom 10.3768783500000001 19.9188944300000017 -0.1455693900000000 Au
atom 13.1621059700000007 19.8010139699999996 -0.2496136200000000 Au
atom 15.9499583499999993 19.8054336400000004 -0.0761132900000000 Au
atom 18.8119066400000001 19.7383917300000000 -0.0067367200000000 Au
atom 21.5868759300000015 19.7653968599999992 -0.1879170400000000 Au
atom 24.4208313399999994 19.7205947500000001 0.0508813400000000 Au
atom 27.1940586499999988 19.7347376399999987 0.0212233700000000 Au
atom 1.8762455099999999 19.7842030899999983 -0.1687606700000000 Au
atom 4.6889275399999999 19.7549850999999990 -0.1327735200000000 Au
atom 8.9887131799999995 22.3570414299999989 -0.1946286800000000 Au
atom 11.7817816299999993 22.2396207399999994 0.0614068800000000 Au
atom 14.5646573600000000 22.2854979299999982 -0.0564901100000000 Au
atom 17.4591809699999985 22.2763366900000008 0.1784716400000000 Au
atom 20.2980749899999999 22.2718553200000002 -0.0114683500000000 Au
atom 23.1226367300000000 22.1774549400000005 -0.0185129700000000 Au
atom 25.8386401100000000 22.2129501500000011 0.2315312000000000 Au
atom 0.4583497300000000 22.2202492700000001 0.0100230200000000 Au
atom 3.3521541099999999 22.3024106599999996 -0.1262039500000000 Au
atom 6.1309507600000002 22.3139144800000011 0.0469984500000000 Au
atom 7.6004620899999997 24.7569985499999987 0.0032113800000000 Au
atom 10.4331337699999995 24.6569183099999982 0.2799522400000000 Au
atom 13.1392376399999993 24.7348944099999990 0.2415014500000000 Au
atom 16.0005391699999997 24.7395077100000016 0.1145204700000000 Au
atom 18.8140813199999997 24.7444656199999997 0.0143248700000000 Au
atom 21.6711477399999985 24.7481389900000011 0.2832003600000000 Au
atom 24.4536266299999987 24.7293961399999986 0.4138082900000000 Au
atom 27.2160443699999988 24.6453590200000008 0.2178180200000000 Au
atom 1.9222752599999999 24.6856054200000017 -0.1248234600000000 Au
atom 4.7214710400000000 24.7653281199999995 0.2152059200000000 Au
atom 9.0353999500000004 27.1234184800000016 0.1597525000000000 Au
atom 11.8259991499999995 27.1612058400000009 0.2349512100000000 Au
atom 14.6856547200000005 27.1307685399999983 0.1857812200000000 Au
atom 17.4567195599999998 27.1366267199999989 0.0513465000000000 Au
atom 20.2781675700000008 27.1685323600000004 0.1259422000000000 Au
atom 23.1016533200000005 27.1851949600000005 0.0562804800000000 Au
atom 25.7618302200000002 27.0682882499999984 0.1743561500000000 Au
atom 0.4138616100000000 27.1163740100000012 0.1943754700000000 Au
atom 3.2747905400000001 27.1825931199999999 0.1248369400000000 Au
atom 6.1039964900000001 27.2800162099999994 -0.0194209400000000 Au
atom 7.7073442800000000 29.5677297599999989 -0.0509204600000000 Au
atom 10.4566018799999991 29.6603440700000007 -0.1289567800000000 Au
atom 13.4134244599999999 29.5988994199999986 -0.0063879200000000 Au
atom 16.1784119699999991 29.5665772400000009 0.2150379500000000 Au
atom 18.8465174399999995 29.6907221999999997 -0.0833938100000000 Au
atom 21.7048394100000017 29.6938712799999998 -0.0152797700000000 Au
atom 24.6081654000000007 29.5427941099999991 0.0300119300000000 Au
atom 27.4230361299999998 29.6339501500000004 -0.0509798700000000 Au
atom 1.9230033099999999 29.6589764299999992 -0.0303013800000000 Au
atom 4.8205156999999996 29.6870850200000014 -0.2372208500000000 Au
atom 9.0045531800000003 32.1751991900000007 0.0720312800000000 Au
atom 11.9058720600000001 32.0526629700000001 -0.1232850200000000 Au
atom 14.6898952200000004 32.0659777400000010 0.0398501500000000 Au
atom 17.4808746500000005 32.1062192400000015 0.1416596800000000 Au
atom 20.2458571399999983 32.0922331100000022 0.0114015500000000 Au
atom 23.0232261600000001 32.1412601199999983 -0.0788229600000000 Au
atom 25.9593552800000005 32.0889952799999989 0.0960321100000000 Au
atom 0.5119037600000000 32.1238880599999987 -0.1132259000000000 Au
atom 3.4511100099999998 32.2145364400000034 -0.1331037700000000 Au
atom 6.2034576899999996 32.2164407300000022 -0.2877100500000000 Au
atom 7.5312584100000004 34.6849054899999985 -0.1237495200000000 Au
atom 10.3923845299999993 34.5780665500000026 0.0784899300000000 Au
atom 13.2615348700000002 34.5549713600000032 -0.0241583500000000 Au
atom 15.9715472500000004 34.5348874399999985 -0.1006549300000000 Au
atom 18.8764767199999994 34.4931725200000017 -0.0431660200000000 Au
atom 21.7013173700000017 34.6102879399999992 -0.4702788100000000 Au
atom 24.4570742999999986 34.4685647800000012 0.0134693900000000 Au
atom 27.2853684899999998 34.5343403099999975 0.1650826800000000 Au
atom 1.9278619100000001 34.5632183399999988 0.0841120800000000 Au
atom 4.7624810399999999 34.5738223000000033 -0.1382741700000000 Au
atom 8.9752391199999995 36.9840916500000034 0.0054950600000000 Au
atom 11.7883398100000001 37.0676229800000030 0.0320841300000000 Au
atom 14.6095329899999999 37.0239028100000027 -0.0387983100000000 Au
atom 17.4451020600000000 36.8869583800000029 -0.0078766100000000 Au
atom 20.2573201400000009 37.0195108799999986 -0.0542750800000000 Au
atom 23.0694535300000005 37.0176766900000018 -0.2755927300000000 Au
atom 25.8060129499999995 37.0117287799999986 0.0280297700000000 Au
atom 0.5216857600000000 36.9443151799999967 0.1194735700000000 Au
atom 3.3455762199999999 37.0481984199999985 -0.0157439100000000 Au
atom 6.1110922099999998 37.1290897200000032 -0.1432973300000000 Au
atom 7.5852417299999999 0.0355006500000000 -0.0522163400000000 Au
atom 10.3236043399999993 0.0588065100000000 -0.0727461100000000 Au
atom 13.1474373300000007 0.1448081000000000 0.1455953500000000 Au
atom 15.9700117800000001 -0.0568051300000000 0.2438567000000000 Au
atom 18.7520622299999999 -0.0329448600000000 0.1564338600000000 Au
atom 21.6430501000000000 0.0882210900000000 -0.1553757900000000 Au
atom 24.4290908599999987 0.0170524900000000 -0.0684009800000000 Au
atom 27.2855182700000007 0.0185946800000000 0.1768031500000000 Au
atom 1.9538036200000000 0.0543688800000000 0.0473648100000000 Au
atom 4.7372197700000003 -0.0262532600000000 0.2547106800000000 Au
atom 9.0889014100000001 2.5478334000000000 0.2684250900000000 Au
atom 11.7633715500000005 2.5984727300000001 0.0950303700000000 Au
atom 14.5928944999999999 2.5455865800000002 0.2145438500000000 Au
atom 17.4229846500000001 2.5207590600000001 0.1519332200000000 Au
atom 20.1942693800000015 2.4423884999999999 0.1082966100000000 Au
atom 23.0550442599999990 2.5554516600000001 0.0022411300000000 Au
atom 25.7998159800000018 2.4323626599999999 0.1628297200000000 Au
atom 0.4155426300000000 2.4988080799999999 0.1004898300000000 Au
atom 3.3100889200000001 2.5145832399999999 0.1328323000000000 Au
atom 6.2153662499999998 2.5207391399999999 0.0151708800000000 Au
atom 7.6470469000000003 5.0304178799999999 0.0634084800000000 Au
atom 10.4280708499999992 5.0367090599999997 0.1311705100000000 Au
atom 13.2249452499999993 5.0118150000000004 0.2072263800000000 Au
atom 16.0203235399999997 4.9539329600000004 0.0089603000000000 Au
atom 18.8679224000000012 4.9247620300000001 0.1111955500000000 Au
atom 21.6453486899999987 4.9872844199999999 0.1354136800000000 Au
atom 24.4592773100000009 4.9393322299999998 0.0029835400000000 Au
atom 27.2583554399999990 4.8701930899999999 0.0438444500000000 Au
atom 1.8458067899999999 4.8978204400000003 0.2227035400000000 Au
atom 4.7192183200000004 4.9295863600000001 0.1600104700000000 Au
atom 8.9912405900000003 7.6182382600000000 0.0810600100000000 Au
atom 11.8534097900000006 7.4595807799999996 -0.1052264700000000 Au
atom 14.6447315899999992 7.4952444199999997 0.0078708700000000 Au
atom 17.4953976299999994 7.4137550100000000 0.0607705000000000 Au
atom 20.2941987799999985 7.4743018899999996 0.1255173800000000 Au
atom 23.1221937199999985 7.5249063500000002 0.0030642700000000 Au
atom 25.9013047699999994 7.4089212699999996 -0.0568708300000000 Au
atom 0.4687120900000000 7.3945130299999997 -0.0255242200000000 Au
atom 3.3042734500000002 7.3852201900000001 0.1408701300000000 Au
atom 6.0974547599999998 7.3708248699999999 0.0583408400000000 Au
atom 7.4610344599999996 9.9493247399999998 -0.1398702400000000 Au
atom 10.3693375700000008 9.9554099500000000 0.0874183100000000 Au
atom 13.2277746900000004 9.9077645699999994 0.0273434600000000 Au
atom 16.0433983799999993 9.8737490999999995 -0.0155161200000000 Au
atom 18.8213947399999988 9.8818249799999993 -0.1553727000000000 Au
atom 21.6276629900000010 9.8918634999999995 0.0497510700000000 Au
atom 24.4576085600000006 9.9310579800000003 -0.1276992400000000 Au
atom 27.2698788299999997 9.7875952399999999 0.2724707900000000 Au
atom 1.8560231500000000 9.8298266800000000 0.1693109400000000 Au
atom 4.7028903800000004 9.8464434099999991 0.3483400900000000 Au
atom 8.8441899999999993 12.3886756299999998 -0.1696247900000000 Au
atom 11.7090460400000005 12.3712037800000001 -0.1160000900000000 Au
atom 14.5677759200000008 12.3860774199999994 -0.3861409100000000 Au
atom 17.4118651000000000 12.2610945400000002 -0.1856615800000000 Au
atom 20.2221870199999998 12.3362607299999993 -0.2978842700000000 Au
atom 23.0365659399999991 12.3844192199999998 -0.2369217400000000 Au
atom 25.7907783399999992 12.3781847999999997 -0.0308834500000000 Au
atom 0.3790332700000000 12.3525099500000000 0.0559741600000000 Au
atom 3.1996595200000000 12.3182756999999992 0.1808838400000000 Au
atom 6.0741530499999996 12.3406510600000008 0.1760772000000000 Au
atom 7.5549122600000000 13.3207626700000006 2.6264467200000001 Au
atom 10.3395268100000006 13.2973085999999991 2.5106183600000000 Au
atom 13.2132717700000004 13.2882105700000004 2.2647238600000001 Au
atom 16.0086803700000004 13.2839862899999996 2.1873586999999999 Au
atom 18.8697302299999983 13.2263731000000000 2.5838506799999998 Au
atom 21.6200046400000012 13.2462657999999998 2.2378935000000002 Au
atom 24.2943614299999986 13.2151309099999992 2.4943680200000000 Au
atom 27.1841842199999988 13.2736046999999999 2.5517906600000000 Au
atom 1.8612039800000000 13.3344672499999994 2.7382449599999998 Au
atom 4.7578485500000003 13.2898638499999997 2.6970244600000002 Au
atom 8.8948510299999999 15.7401510600000005 2.6299085899999999 Au
atom 11.7322714000000001 15.6943335000000008 2.2581036299999999 Au
atom 14.6158591700000002 15.6547338299999996 2.3599906800000001 Au
atom 17.3935180199999984 15.7283911300000003 2.5968258600000000 Au
atom 20.1314873299999988 15.7913231599999992 2.5194312000000001 Au
atom 22.9690223399999986 15.6276340900000008 2.5055019500000002 Au
atom 25.7910177199999993 15.6788688500000006 2.3835913299999998 Au
atom 0.4257443000000000 15.6412034799999997 2.4526218399999999 Au
atom 3.1946160300000002 15.7304224599999998 2.3518129000000001 Au
atom 6.1120934599999996 15.7785694000000003 2.4553784799999998 Au
atom 7.5261125399999997 18.2039499000000013 2.2956205199999999 Au
atom 10.3564712399999994 18.1778991699999999 2.3538025500000002 Au
atom 13.2169693200000005 18.0946846199999989 2.2544603900000002 Au
atom 15.9754622299999998 18.1169533300000012 2.3586726699999998 Au
atom 18.7669802399999988 18.1771142300000008 2.5710656500000000 Au
atom 21.6697642299999984 18.1963608999999984 2.4306355100000001 Au
atom 24.3820289499999987 18.1185090500000001 2.6019840699999999 Au
atom 27.2947378799999996 18.1415735699999985 2.5808590699999998 Au
atom 1.8682470300000000 18.2054989899999988 2.3055162800000000 Au
atom 4.6078727400000004 18.2087368299999994 2.2089828599999999 Au
atom 8.9571225999999999 20.7195345899999985 2.4026948799999999 Au
atom 11.7572643100000001 20.5610737800000010 2.5590063900000000 Au
atom 14.5620786399999993 20.6393134399999987 2.4873585500000002 Au
atom 17.3860325300000014 20.6819384699999986 2.7637094900000001 Au
atom 20.1832825699999994 20.6527416700000011 2.4941622699999999 Au
atom 22.9102462799999991 20.6866488599999983 2.6839590000000002 Au
atom 25.7328727300000004 20.4714883599999986 2.8464066099999998 Au
atom 0.4994947600000000 20.6001054699999990 2.4939898299999999 Au
atom 3.3396692400000001 20.7370909999999995 2.4986110300000002 Au
atom 6.1213899100000004 20.6534236900000003 2.4618754100000002 Au
atom 7.4891784799999996 23.1059344600000003 2.6251155800000001 Au
atom 10.3016076299999995 23.0159422000000013 2.6621157000000002 Au
atom 13.1104244800000007 23.0451535599999993 2.7560769100000000 Au
atom 15.9387555400000007 23.1110945200000018 2.5379137599999999 Au
atom 18.7829565800000005 23.0209325500000013 2.7717094699999998 Au
atom 21.5836957900000002 23.1405972300000009 2.6126607700000002 Au
atom 24.4094590499999988 23.0014104199999991 3.0351974300000002 Au
atom 27.1233022300000002 23.0393013099999990 2.6943351299999998 Au
atom 1.8723606500000001 23.0499784400000003 2.5082062100000000 Au
atom 4.8006736600000002 23.1061163000000001 2.7520087900000001 Au
atom 8.9463075900000000 25.4719537400000000 2.8653501499999998 Au
atom 11.7463324399999998 25.4708503300000011 2.9093789100000000 Au
atom 14.5788563799999995 25.4754206799999992 2.7580230100000001 Au
atom 17.3913717900000009 25.5967021000000017 2.6862242400000000 Au
atom 20.2214008599999993 25.4839742899999990 2.7616507000000001 Au
atom 23.0698480100000012 25.5276696600000008 2.9070016600000002 Au
atom 25.9335049899999994 25.5726944699999983 2.8764276099999999 Au
atom 0.5778287200000000 25.4788142700000009 2.5736494099999998 Au
atom 3.3812120900000000 25.5316419799999998 2.8620512200000001 Au
atom 6.1542413500000004 25.6348985599999999 2.6092394699999999 Au
atom 7.6597941399999998 28.0523919699999986 2.6886814000000001 Au
atom 10.4137342299999993 27.9784465000000004 2.6856724500000002 Au
atom 13.1769038599999995 28.0039555500000006 2.7688222400000000 Au
atom 15.9875367500000003 28.0311385999999985 2.7747047800000000 Au
atom 18.8323232300000001 28.1230591300000015 2.5960936800000001 Au
atom 21.6275532199999994 28.0076735100000001 2.6043804399999999 Au
atom 24.4684202800000001 28.0429658099999983 2.7326147000000001 Au
atom 27.2531399299999997 28.0455936299999991 2.6509484900000002 Au
atom 1.9107548800000000 27.9641841000000007 2.6376687799999998 Au
atom 4.7982846600000002 28.0410780799999984 2.6035970300000000 Au
atom 9.0582775000000009 30.5177582600000008 2.5763964499999998 Au
atom 11.8563396099999991 30.5370955899999998 2.4234088100000002 Au
atom 14.6326917800000000 30.5536970100000005 2.6551414599999998 Au
atom 17.4675151500000005 30.5504631800000013 2.6816415899999999 Au
atom 20.3287418799999990 30.5524440999999989 2.5731300799999999 Au
atom 23.1339094100000011 30.5342758699999983 2.5004630400000001 Au
atom 25.9438787499999997 30.5326753500000017 2.6495712299999998 Au
atom 0.5008330700000000 30.4108097400000013 2.6480229300000002 Au
atom 3.4397258300000000 30.4193557000000006 2.3757751699999998 Au
atom 6.2332394600000001 30.4933825200000008 2.3464285500000002 Au
atom 7.6615998300000001 33.0737027799999979 2.4090130200000002 Au
atom 10.4558190500000006 32.9621077099999980 2.7120003000000001 Au
atom 13.1771652400000008 32.9953617299999991 2.4529217000000001 Au
atom 16.0941550299999996 33.0090106899999967 2.5826187599999999 Au
atom 18.9197125700000015 33.0063526799999991 2.7141872500000002 Au
atom 21.7182844800000012 33.1110273700000022 2.3526786799999999 Au
atom 24.5558006599999992 32.9619141499999984 2.6257419700000000 Au
atom 27.4513511500000007 32.8968738399999978 2.6447186899999999 Au
atom 2.0685751500000000 32.8819798099999971 2.5411587800000000 Au
atom 4.8725967499999996 32.9281328499999972 2.4841521100000001 Au
atom 8.9666071400000007 35.4831858200000028 2.6631168100000000 Au
atom 11.7684967999999994 35.3931545399999976 2.5050060599999999 Au
atom 14.6443241200000003 35.3849628500000009 2.4723733000000001 Au
atom 17.4272776799999995 35.4210087900000019 2.4739798600000000 Au
atom 20.1828428899999999 35.4951819200000003 2.4785852799999999 Au
atom 23.0601036700000002 35.4574988399999995 2.4261963700000000 Au
atom 25.9514267099999998 35.4077977800000028 2.5318945400000001 Au
atom 0.5459231200000000 35.4249107600000031 2.7664665400000001 Au
atom 3.3780163999999999 35.3446201900000005 2.6705831799999999 Au
atom 6.2073031299999997 35.4136176199999966 2.5195934000000002 Au
atom 7.5173643999999999 37.8938979099999997 2.4887866399999998 Au
atom 10.4142163300000004 37.8871916299999967 2.5973862699999999 Au
atom 13.1713855199999994 37.8458911999999970 2.7237620699999998 Au
atom 15.9975704800000003 37.8224751099999992 2.6686290700000002 Au
atom 18.8607325199999991 37.9495460099999988 2.6945369200000000 Au
atom 21.7250192999999996 37.8337661099999991 2.3400671700000002 Au
atom 24.5113233100000016 37.9035688700000009 2.5079917300000001 Au
atom 27.3068596499999998 37.9598900700000002 2.6716719499999999 Au
atom 1.9557507500000000 37.8764486500000004 2.5429200999999999 Au
atom 4.7390984700000001 37.7419814900000006 2.9310109099999999 Au
atom 8.9988933600000003 0.9109980900000000 2.7700795700000000 Au
atom 11.7298650200000001 0.8080231900000000 2.5696770099999999 Au
atom 14.5454728899999992 0.7512192900000000 2.8153379699999999 Au
atom 17.4128390700000004 0.8688849199999999 2.7296002700000002 Au
atom 20.2476862900000008 0.8111361000000000 2.7201355199999999 Au
atom 23.0643910800000000 0.8971780300000000 2.5378323200000001 Au
atom 25.8578666699999999 0.7903049500000000 2.7576257599999998 Au
atom 0.5243517500000000 0.8977875400000001 2.7878019100000002 Au
atom 3.3306467099999999 0.7756892200000000 2.7574321700000000 Au
atom 6.1177327799999999 0.9349380900000001 2.7268675800000000 Au
atom 7.5284318600000004 3.4309392700000001 2.6699522600000001 Au
atom 10.4174786000000008 3.3703601000000001 2.9871801300000000 Au
atom 13.1777792900000001 3.3172327899999998 2.7750436399999998 Au
atom 15.9829472799999994 3.3758890500000001 2.8142280999999998 Au
atom 18.8559594299999986 3.3367681700000000 2.7980966600000001 Au
atom 21.5789005200000013 3.2986781000000001 2.7601547900000001 Au
atom 24.4695141499999984 3.2992121499999998 2.7786636300000001 Au
atom 27.2412434899999987 3.3254874900000000 2.8816404400000000 Au
atom 1.8772272600000000 3.3576792000000002 2.5984166300000000 Au
atom 4.6559065200000003 3.3790733999999998 2.8332941900000002 Au
atom 8.9561732799999998 5.8693574399999999 2.6103214000000001 Au
atom 11.7986155499999992 5.9131444100000001 2.7515865000000002 Au
atom 14.6902086700000005 5.8639157500000003 2.6694084000000000 Au
atom 17.4443535400000016 5.8394532600000000 2.5443049499999999 Au
atom 20.2520792299999997 5.8168164100000004 2.7363157299999998 Au
atom 23.1014530200000010 5.8162870800000004 2.5626144200000001 Au
atom 25.8565727199999991 5.8552946199999996 2.6693282200000001 Au
atom 0.4564581700000000 5.8449711899999999 2.6742511000000002 Au
atom 3.2502714199999998 5.8369809899999998 2.9053067800000001 Au
atom 6.1538871799999999 5.9668996400000003 2.6443865799999999 Au
atom 7.4946281900000002 8.4060511800000004 2.5996324400000002 Au
atom 10.3982164800000003 8.3440835399999997 2.6086711299999998 Au
atom 13.2434288999999996 8.3411171700000004 2.5368698099999998 Au
atom 15.9798950200000007 8.3200661700000005 2.6996027900000001 Au
atom 18.9030742700000012 8.3467116099999998 2.7478935799999999 Au
atom 21.6562135799999993 8.2536413900000003 2.5709454300000001 Au
atom 24.4841212900000009 8.2866252599999992 2.5482101199999998 Au
atom 27.3077828300000007 8.3073219199999997 2.8118483699999999 Au
atom 1.8635815200000001 8.3890898499999995 2.7252347499999998 Au
atom 4.6595822399999998 8.3373561600000006 2.8738987300000001 Au
atom 8.9469975200000000 10.9160159799999992 2.5060388300000001 Au
atom 11.7375166899999996 10.7937915600000007 2.7023514199999998 Au
atom 14.6811975100000005 10.8235016799999997 2.5048625300000000 Au
atom 17.4385746499999996 10.7598164900000004 2.4972964100000001 Au
atom 20.2889449999999982 10.7349868700000002 2.6003987500000001 Au
atom 23.0461788600000013 10.7425133400000004 2.5011770599999998 Au
atom 25.7777892199999989 10.7986645899999996 2.7714865999999998 Au
atom 0.5032988900000001 10.7723674400000000 2.6847731399999999 Au
atom 3.3355802699999999 10.9178644499999997 2.7717445100000000 Au
atom 6.2054623700000002 10.8097421800000006 2.7795770499999999 Au
atom 7.3694941800000002 12.9794899099999999 5.7253049999999996 Cl
atom 7.2388250699999999 15.5733629499999999 8.4156620300000000 Cl
atom 7.0939372199999999 12.7829358200000005 8.2541776599999999 Na
atom 7.2751583000000002 15.7173401399999992 5.6530759100000001 Na
atom 7.2243720800000002 18.5165468599999983 5.3239732499999999 Cl
atom 7.1982468700000002 21.3056321299999993 8.5535595600000001 Cl
atom 7.3143494699999998 18.4736007800000017 8.0201043799999994 Na
atom 7.2174431400000003 21.3612616200000005 5.6876493799999999 Na
atom 7.1280948100000003 24.0624591800000012 5.6836062099999998 Cl
atom 7.1608053399999996 27.1418112600000008 8.5286886899999992 Cl
atom 7.1262977200000002 24.1039555999999990 8.4544174900000009 Na
atom 7.0691182399999999 26.9486818100000001 5.7830058400000004 Na
atom 7.1279002900000004 29.7516328600000008 5.5653030799999996 Cl
atom 7.1895033799999997 32.4860490800000008 8.6141061000000008 Cl
atom 7.1636247099999997 29.8208686900000011 8.3012364000000005 Na
atom 7.2060039400000004 32.4104500999999985 5.8579581100000002 Na
atom 7.2488897100000003 35.5187585299999995 5.8556596000000001 Cl
atom 7.1801032400000002 38.2061030899999992 8.6124822299999995 Cl
atom 7.2942579900000002 35.4146416900000034 8.5238212400000002 Na
atom 7.2072697200000002 38.2449042599999984 5.8042864999999999 Na
atom 7.3327610700000001 1.5357296499999999 5.8893592000000003 Cl
atom 7.1916514200000003 4.4240779999999997 8.5769432299999995 Cl
atom 7.2666258800000003 1.5427002599999999 8.4278372299999997 Na
atom 7.2156905399999998 4.4048347200000002 5.8092900800000002 Na
atom 7.2589797300000001 7.2154177900000001 5.6735744600000002 Cl
atom 7.2284250600000002 9.9920660699999999 8.3222883000000003 Cl
atom 7.0654923900000002 7.1621449899999998 8.2706099799999997 Na
atom 7.4620981100000003 10.0164992999999996 5.6095048099999998 Na
atom 10.2122446199999999 13.0399812799999992 5.6639682999999996 Na
atom 12.8248377399999995 12.8458559399999999 5.7134513499999997 Cl
atom 10.1787522500000005 15.8595225400000004 8.2868594099999999 Na
atom 13.0517381500000003 15.5673999700000003 8.3403337400000002 Cl
atom 12.7907400599999992 12.8984136700000001 8.2727526400000002 Na
atom 10.2262910900000001 12.9975269499999992 8.5899805600000008 Cl
atom 12.9096317900000006 15.7596109799999997 5.6339986199999998 Na
atom 10.1859496200000006 15.6884245199999999 5.7311313300000002 Cl
atom 10.2568991100000009 18.7321671800000011 5.5270523300000001 Na
atom 13.0513932399999995 18.3730345100000001 5.4655173100000001 Cl
atom 9.9985094399999994 21.3896282500000012 8.2693728100000001 Na
atom 12.9367833999999995 21.3032376200000009 8.2293211999999993 Cl
atom 12.9499929199999997 18.4277157400000000 8.1926063899999999 Na
atom 10.0693753400000006 18.6337643300000018 8.3364161600000006 Cl
atom 13.0060384300000003 21.4033286099999991 5.5700194900000000 Na
atom 9.9285106200000008 21.4221295699999992 5.5818303299999998 Cl
atom 10.0094561300000002 23.9931784300000004 5.8449007200000000 Na
atom 12.8458844899999995 24.2777336499999983 5.5907516700000004 Cl
atom 10.0498894399999994 26.9478639300000005 8.4025995299999998 Na
atom 12.7466219200000008 26.8124374299999992 8.4736978399999998 Cl
atom 12.7891594200000007 24.1084938300000005 8.2879957599999994 Na
atom 10.0192601700000008 24.0857006399999989 8.5129387500000000 Cl
atom 12.9415063299999993 27.0093988100000004 5.8488838100000002 Na
atom 10.1785613599999998 26.8017685000000014 5.8285914400000003 Cl
atom 10.0084339700000005 29.7643038100000012 5.6557748999999999 Na
atom 12.8661962400000007 29.8051608899999998 5.6364510399999999 Cl
atom 9.9554155499999997 32.5263816900000009 8.4968251299999995 Na
atom 12.7963956000000003 32.5259494499999988 8.5549222199999999 Cl
atom 12.8649856200000006 29.7244948999999998 8.2287753099999996 Na
atom 9.9254719700000003 29.7247953199999984 8.3821794000000001 Cl
atom 12.6985461599999994 32.4639001199999981 5.9019471599999997 Na
atom 9.8961234200000003 32.5053721499999995 5.7523646299999998 Cl
atom 9.9838080500000004 35.5072047700000013 5.8442255100000002 Na
atom 12.6631511999999997 35.2585073500000021 5.6373188299999999 Cl
atom 10.1213186099999994 38.1671261500000014 8.4144138700000006 Na
atom 12.8491609400000009 38.0399575400000032 8.5247352299999992 Cl
atom 12.8656368800000003 35.2904718300000013 8.3553428000000007 Na
atom 10.0153563200000004 35.3400800900000007 8.6231588699999993 Cl
atom 12.7449166500000004 38.2434329000000020 5.8921047499999997 Na
atom 9.9243608299999995 38.1821689599999985 5.6606457299999997 Cl
atom 9.9755059900000003 1.5637848800000000 5.7620359399999996 Na
atom 12.7316445599999994 1.5062731899999999 5.8468504699999997 Cl
atom 10.0710734700000000 4.4433279499999996 8.5805419399999998 Na
atom 12.6891997100000005 4.2388573300000001 8.6181859500000009 Cl
atom 12.8364912300000000 1.4873191100000001 8.5403417600000004 Na
atom 10.1700493699999992 1.5184156600000001 8.7994580199999994 Cl
atom 12.7158673300000000 4.3622475800000000 5.8401798700000001 Na
atom 9.9718948899999997 4.2444358299999996 5.9654674400000003 Cl
atom 10.0616557300000000 7.0513477800000004 5.8594703600000004 Na
atom 12.8174885399999994 7.1908326599999999 5.8134847199999999 Cl
atom 9.9680581600000000 10.1449682200000009 8.2944008300000007 Na
atom 12.8032920099999998 10.0470105899999993 8.4921332700000001 Cl
atom 12.6399761099999992 7.2562918999999999 8.4086868799999994 Na
atom 9.9850072700000005 7.3979435699999998 8.6489857099999998 Cl
atom 12.8269473900000008 9.9149721900000003 5.7248927299999997 Na
atom 10.1239139799999993 10.1382997499999998 5.7081050299999996 Cl
atom 15.6448021700000002 12.7322734799999999 5.7449376399999998 Na
atom 18.3099359899999996 12.5753913399999995 5.8607058800000003 Cl
atom 15.6753391799999999 15.6008560400000000 8.3853562700000008 Na
atom 18.4416542499999991 15.6119180899999996 8.4305517800000001 Cl
atom 18.3636371199999999 12.7354866300000005 8.3511991800000001 Na
atom 15.5045022600000006 12.8678522900000001 8.6501813999999992 Cl
atom 18.5687856400000015 15.5601361300000001 5.7204168400000004 Na
atom 15.5971595099999991 15.7026269099999993 5.6268142200000000 Cl
atom 15.6624632800000008 18.4386492100000012 5.6550676700000002 Na
atom 18.4744315999999991 18.7843809899999989 5.6086972800000003 Cl
atom 15.6648726699999994 21.2998184600000009 8.3420773500000003 Na
atom 18.5503891900000006 21.3909341200000007 8.6220358099999999 Cl
atom 18.4712538399999993 18.5401149499999995 8.1141134000000008 Na
atom 15.7136472400000002 18.4275183899999995 8.4820324399999993 Cl
atom 18.5798159399999996 21.3777963600000014 5.7933919500000002 Na
atom 15.7585438000000000 21.2146190799999985 5.6071681099999999 Cl
atom 15.7119110200000005 24.1069679100000016 5.7170944300000004 Na
atom 18.6201742099999983 24.1938182099999999 5.6405567599999999 Cl
atom 15.6669958499999993 26.8461359900000005 8.5292188800000002 Na
atom 18.6768920399999985 26.8922223799999998 8.5560284600000003 Cl
atom 18.4518668699999999 24.2771626400000002 8.4335957100000005 Na
atom 15.6496768100000008 24.0275948700000015 8.5894937500000008 Cl
atom 18.5478627699999983 26.9828210599999991 5.6954761700000001 Na
atom 15.7088085999999993 26.8907594199999984 5.8194587200000001 Cl
atom 15.6475888199999993 29.7520549900000013 5.7802724100000002 Na
atom 18.5764920099999991 29.6228340800000005 5.7194509599999996 Cl
atom 15.7514205000000000 32.5736967200000009 8.2850166299999994 Na
atom 18.4342709400000011 32.5508275800000035 8.4567586899999991 Cl
atom 18.5414628700000002 29.6120227800000002 8.3369013200000008 Na
atom 15.7662735499999993 29.6320130000000006 8.4595986700000001 Cl
atom 18.4309404900000011 32.5339031099999971 5.7228785799999997 Na
atom 15.7552034699999997 32.6521905500000003 5.6785074499999997 Cl
atom 15.5759168500000005 35.4216315600000016 5.7475986800000003 Na
atom 18.4711993300000010 35.3808754499999978 5.6597233700000000 Cl
atom 15.5830368799999999 38.1591635600000032 8.5223747099999994 Na
atom 18.3476771700000008 38.2361506199999965 8.4912045599999999 Cl
atom 18.5147721099999991 35.3533730999999989 8.3248563299999994 Na
atom 15.6930604000000002 35.4714985600000006 8.5178221500000006 Cl
atom 18.2830922499999993 38.2512994300000031 5.7575542100000003 Na