#===============================================================================
# Created using the Atomic Simulation Environment (ASE)

# Tue Dec 23 22:26:08 2025

#=======================================================
lattice_vector 28.1999999999999993 0.0000000000000000 0.0000000000000000 
lattice_vector 0.0000000000000000 39.4799999999999969 0.0000000000000000 
lattice_vector 0.0000000000000000 0.0000000000000000 62.3296083400000001 
atom 7.5851699000000004 14.9044920399999992 0.0242326600000000 Au
atom 10.2626178299999999 14.8475831500000002 -0.0002043900000000 Au
atom 13.1513731800000002 14.7082459100000005 0.0711695800000000 Au
atom 16.1019637799999984 14.7978536199999997 0.1325791800000000 Au
atom 18.7848101800000009 14.8034846200000008 0.1051380700000000 Au
atom 21.6610744900000007 14.6509205900000001 -0.0298453100000000 Au
atom 24.4981751599999988 14.7307552600000005 0.0107972900000000 Au
atom 27.1882428099999984 14.9317369200000005 0.0183824100000000 Au
atom 1.8364431200000000 14.7563832799999997 0.1596300200000000 Au
atom 4.8505185900000001 14.9899442999999994 0.0993529600000000 Au
atom 8.7463801599999993 17.2621609599999992 0.1314304600000000 Au
atom 11.5514012000000008 17.2411350100000007 0.2138054000000000 Au
atom 14.5953542899999995 17.2610584399999993 -0.0054073700000000 Au
atom 17.1724211699999998 17.5085674100000013 -0.0277834500000000 Au
atom 20.1626062600000004 17.4160622099999998 -0.0958659600000000 Au
atom 23.0975534600000003 17.2152632200000006 -0.2295738100000000 Au
atom 25.7434348399999990 17.1297292699999986 0.1133188500000000 Au
atom 0.3399089100000000 17.4739769600000017 0.0710580000000000 Au
atom 3.2068918700000002 17.4451217599999993 0.0000657900000000 Au
atom 6.0475144199999997 17.4069878100000004 0.0964515400000000 Au
atom 7.5461372100000004 19.7557511999999988 -0.0785421200000000 Au
atom 10.2586551600000000 19.5982527500000003 -0.0036373000000000 Au
atom 13.1964466300000005 19.7897038599999995 0.1651644100000000 Au
atom 15.9870322300000005 19.6494696100000006 -0.1685427400000000 Au
atom 18.7087168400000010 19.6528478699999987 -0.0511411400000000 Au
atom 21.5667610299999986 19.6402824600000017 -0.0368482900000000 Au
atom 24.3542420100000001 19.9179428700000010 0.0423728200000000 Au
atom 27.1834930499999992 19.7190300600000015 0.3243290900000000 Au
atom 1.7344888400000000 19.7790323900000011 0.2216279000000000 Au
atom 4.5972115000000002 19.8506423199999986 -0.0353627000000000 Au
atom 9.1226340399999994 22.2389644799999999 -0.0097711500000000 Au
atom 11.9184312600000002 22.2083967700000002 0.0243199400000000 Au
atom 14.5337533499999996 22.2056148399999991 -0.0140377000000000 Au
atom 17.2615777900000005 22.1336859600000011 0.1249307400000000 Au
atom 20.2041143800000000 22.3361054800000005 0.1437156500000000 Au
atom 23.0156611300000016 22.2374260799999988 0.0180791100000000 Au
atom 25.6426356499999990 22.4586820100000004 -0.0883532100000000 Au
atom 0.4876432400000000 22.1496213100000006 0.0547754800000000 Au
atom 3.2009855800000002 22.2317145700000012 0.0119986100000000 Au
atom 5.9576520100000003 22.3635873399999987 0.0519293600000000 Au
atom 7.5543887200000004 24.8486293099999997 -0.0173231400000000 Au
atom 10.4857233300000008 24.7912622700000007 0.1605411900000000 Au
atom 13.3325746400000007 24.7139846299999988 0.1601690000000000 Au
atom 16.1664187199999994 24.8393203100000015 0.2462055500000000 Au
atom 18.8237033199999999 24.5817616399999999 0.2063116400000000 Au
atom 21.6337009299999998 24.6249972600000007 -0.0219344700000000 Au
atom 24.5023333399999999 24.6881254299999995 0.1182172800000000 Au
atom 27.3069198299999982 24.5655191600000009 0.1129801000000000 Au
atom 1.9628666200000000 24.7676479900000004 0.2631729300000000 Au
atom 4.6770243400000000 24.6957310999999997 0.1180975200000000 Au
atom 8.9848269100000007 26.9220677700000017 0.1086444200000000 Au
atom 11.7467866000000001 27.1850746299999990 0.0245788500000000 Au
atom 14.6347406699999993 27.2184027899999990 -0.2019606600000000 Au
atom 17.3711894800000017 26.9870061899999989 0.0282541000000000 Au
atom 20.1903247400000012 27.0035483599999999 0.0240273900000000 Au
atom 23.1052805399999990 27.1681851300000012 0.1966876300000000 Au
atom 26.0097525099999984 26.9849874599999993 0.1178850300000000 Au
atom 0.4341116800000000 27.2106276800000018 0.2061692700000000 Au
atom 2.9697460200000001 27.3014037999999992 0.2182332200000000 Au
atom 5.8656850100000000 27.1788749500000009 0.2942181000000000 Au
atom 7.4256065600000003 29.5769905400000006 0.1020892500000000 Au
atom 10.3150409700000001 29.6663928800000001 0.0705403800000000 Au
atom 12.9359660800000000 29.4250318300000018 0.1017882900000000 Au
atom 15.9136066300000003 29.6252692400000015 0.1072523300000000 Au
atom 18.8104610399999999 29.4986942399999990 0.2096188700000000 Au
atom 21.8583427700000001 29.4492164199999991 -0.0561899900000000 Au
atom 24.4664237699999987 29.4374631499999992 0.0516196100000000 Au
atom 27.1831531999999996 29.7827979399999982 0.0479958800000000 Au
atom 1.8374782400000000 29.5625003399999997 -0.0028273700000000 Au
atom 4.7216350800000004 29.7042201000000006 0.1961604200000000 Au
atom 8.9615773000000001 31.9223578299999993 -0.0624206500000000 Au
atom 11.7303117700000001 32.0453275899999994 0.1141298700000000 Au
atom 14.5384148599999996 32.0925095999999996 -0.0179696200000000 Au
atom 17.3543775499999988 32.1488688600000003 -0.0180133600000000 Au
atom 20.3154853700000011 32.0410289499999976 -0.0622881700000000 Au
atom 22.9284312700000008 32.2328387700000007 0.0017270400000000 Au
atom 25.9345010299999998 32.2297219100000021 -0.0154340000000000 Au
atom 0.4775199400000000 31.9707193099999998 -0.0882695200000000 Au
atom 3.1911027900000000 32.1593181499999972 -0.0511440400000000 Au
atom 5.9743347800000004 32.0065098899999967 0.0207889500000000 Au
atom 7.3190567800000004 34.4913827999999967 0.0358262000000000 Au
atom 10.2701979399999992 34.5152432300000029 -0.1826710100000000 Au
atom 13.1026763299999995 34.4811259399999983 -0.1123794100000000 Au
atom 15.9467467999999997 34.5712719899999996 -0.1666038100000000 Au
atom 18.7382481699999985 34.3894600200000014 -0.0814130700000000 Au
atom 21.6717301000000013 34.4486906699999977 -0.1127354800000000 Au
atom 24.3663957599999996 34.8714982699999965 -0.1444318900000000 Au
atom 27.1683199000000002 34.4000933599999996 -0.0771570000000000 Au
atom 1.8554189200000000 34.4323061699999968 -0.0833591200000000 Au
atom 4.6475161600000003 34.4973943000000034 0.1795549000000000 Au
atom 8.9702227800000003 37.0405702799999972 -0.0422277600000000 Au
atom 11.7846260199999993 37.0336372299999965 0.1083623400000000 Au
atom 14.5907810599999994 37.0098306900000011 0.0299831800000000 Au
atom 17.4652153299999995 36.8379978399999999 -0.0259898700000000 Au
atom 20.2878464100000002 36.9833638500000035 0.3020536300000000 Au
atom 23.0939392300000002 36.9813838899999965 0.1241165500000000 Au
atom 25.8774085499999984 37.1115784599999969 -0.0101134700000000 Au
atom 0.3939356500000000 36.8273868599999972 0.3183267300000000 Au
atom 3.3343259299999999 37.1355638599999978 0.1535739200000000 Au
atom 6.2427390599999999 37.0389308800000023 0.1349100800000000 Au
atom 7.6220628100000001 0.1177911400000000 -0.1143149500000000 Au
atom 10.2291218799999992 -0.1005604200000000 0.2448846600000000 Au
atom 13.0743219699999997 -0.0226118100000000 0.0181458800000000 Au
atom 15.8934933699999998 0.0932256700000000 0.0143808700000000 Au
atom 18.7515040299999995 -0.0230060100000000 -0.0047125100000000 Au
atom 21.4786814799999988 -0.0989156500000000 0.1569675600000000 Au
atom 24.3262314800000006 0.1564015600000000 0.1165208400000000 Au
atom 27.2528022499999985 -0.0470913800000000 0.0811144200000000 Au
atom 2.1923466100000000 0.0311304900000000 0.0929233200000000 Au
atom 4.5285703000000002 0.0252497500000000 0.4043837200000000 Au
atom 9.0641467999999996 2.5818898199999998 0.1705421900000000 Au
atom 11.5987050099999998 2.4679946500000001 0.3048430000000000 Au
atom 14.6549923599999996 2.6322950299999999 0.0045532000000000 Au
atom 17.3630370300000010 2.4243532499999998 -0.1039746300000000 Au
atom 20.2497995800000012 2.4259415500000001 0.0783538000000000 Au
atom 22.9056604399999983 2.4053183900000001 0.0390764300000000 Au
atom 25.9827298300000002 2.3704571600000000 -0.0490851600000000 Au
atom 0.3881112000000000 2.4536389100000000 0.0352010200000000 Au
atom 3.2859236599999999 2.3674656999999999 0.0006265700000000 Au
atom 6.1291060599999998 2.2955185500000002 0.1289545300000000 Au
atom 7.5404771700000000 4.8862877600000001 0.1002285100000000 Au
atom 10.3446760999999992 5.1213373700000000 0.2545591500000000 Au
atom 13.1613460799999995 4.9148211300000000 0.1628809100000000 Au
atom 16.0624041400000017 4.8028053699999997 0.0986810100000000 Au
atom 18.5973330600000004 5.1010241199999999 0.1623595000000000 Au
atom 21.5940294199999983 4.9610048000000004 0.1766432900000000 Au
atom 24.3146564299999994 4.9455830599999997 -0.0605420000000000 Au
atom 27.2058702799999992 4.9084971399999997 0.0424612200000000 Au
atom 1.8468290700000001 4.8952679100000003 0.0849707500000000 Au
atom 4.8626772999999996 4.8921652399999997 0.1972095300000000 Au
atom 9.0583941400000008 7.4455325500000002 0.0283453400000000 Au
atom 11.7775719500000005 7.5947164999999996 0.1193104500000000 Au
atom 14.6283633599999998 7.3287063699999999 0.0946452600000000 Au
atom 17.2247614599999999 7.3441463699999998 0.1160151600000000 Au
atom 19.9502293600000016 7.4743435600000003 0.0189096200000000 Au
atom 23.1222293299999997 7.5090209500000000 0.2348504600000000 Au
atom 25.6033399899999985 7.4006386500000003 0.0684513300000000 Au
atom 0.4419278500000000 7.2657761299999999 -0.0578753000000000 Au
atom 3.3605747699999999 7.4991074299999996 0.1693438900000000 Au
atom 6.0426150999999999 7.2222266700000004 0.0296310900000000 Au
atom 7.5554056500000000 10.1025000699999996 0.0103471000000000 Au
atom 10.4506662299999995 9.8023027000000003 0.0182918400000000 Au
atom 13.1712471900000008 9.8802208300000007 0.1364520500000000 Au
atom 16.0165717799999996 10.0205938600000000 -0.0242937500000000 Au
atom 18.6934151499999999 9.7991979800000006 0.0186417900000000 Au
atom 21.6010015799999984 9.7874006500000004 0.1550883300000000 Au
atom 24.2643900399999985 9.8752839199999993 0.0175672900000000 Au
atom 27.3013935200000013 9.7534946599999994 0.0685974000000000 Au
atom 1.8418415600000000 10.0113242600000003 0.0328438100000000 Au
atom 4.5242754999999999 9.8001998500000003 -0.0189985900000000 Au
atom 8.9118774900000002 12.5287526899999992 -0.0624943800000000 Au
atom 11.6904851000000001 12.4285584599999996 0.0306486200000000 Au
atom 14.6210643099999995 12.4707909299999997 0.0657384200000000 Au
atom 17.4147648100000012 12.3593677500000005 -0.0744405000000000 Au
atom 20.1626117899999997 12.3444293599999995 0.0762281400000000 Au
atom 22.9747579799999997 12.3987954699999996 -0.0184537100000000 Au
atom 25.8696350700000011 12.3924336900000007 0.1207524600000000 Au
atom 0.4365866300000000 12.3993736699999992 -0.1824861800000000 Au
atom 3.1219881699999998 12.3227770099999994 -0.1583489500000000 Au
atom 6.3713746899999997 12.2634448200000001 -0.0252073100000000 Au
atom 7.4183775399999998 13.1647723499999998 2.6535258599999998 Au
atom 10.3737381600000003 13.3610476100000000 2.6729159299999998 Au
atom 13.1684816199999997 13.0335106399999994 2.3279846399999999 Au
atom 16.0717855699999994 13.0746257900000007 2.3636062799999999 Au
atom 18.7995157400000004 13.2595525500000004 2.6205117499999999 Au
atom 21.6235646000000017 13.1977100200000006 2.6004243200000001 Au
atom 24.3822647699999990 13.1821196000000000 2.8246987200000002 Au
atom 27.1144002099999994 13.0835461100000003 2.7422385100000000 Au
atom 1.9181937200000001 13.1723372899999998 2.5238805700000002 Au
atom 4.5828959100000004 13.1054866400000005 2.4736017600000002 Au
atom 8.9219832199999995 15.3863237399999999 2.5256996799999998 Au
atom 11.6255733699999997 15.8071964600000001 2.6121438600000002 Au
atom 14.4689305600000004 15.5350903099999993 2.5387289000000002 Au
atom 17.4879509999999989 15.7381644900000008 2.5880869899999999 Au
atom 20.1902718900000018 15.6432735100000002 2.7269110099999998 Au
atom 22.8999509699999990 15.7098065400000007 2.5669154900000000 Au
atom 25.6474749200000005 15.7529244899999998 2.5325390500000000 Au
atom 0.4467743500000000 15.5096841600000008 2.6400128600000001 Au
atom 3.3669517099999999 15.7368822799999997 2.8082742800000000 Au
atom 6.2401055999999997 15.6724103800000005 2.6769338100000000 Au
atom 7.4945450600000001 18.2666303100000000 2.6970807600000000 Au
atom 10.2294674000000008 18.0488694299999999 2.6129922799999998 Au
atom 13.0343637099999992 17.9642380899999985 2.4643273799999998 Au
atom 15.9598336399999994 18.2790226900000015 2.6242460699999999 Au
atom 18.7479776700000009 18.2148581999999983 2.6323856999999999 Au
atom 21.6490199200000006 18.1880302399999998 2.5990900600000000 Au
atom 24.4062855300000017 17.9803396900000010 2.5835542600000001 Au
atom 27.3240475899999993 18.0569391199999991 2.7456555499999999 Au
atom 2.0815974800000001 18.0541746299999986 2.6378813600000002 Au
atom 4.7991866600000002 18.1845857899999999 2.5962910600000000 Au
atom 8.9103368199999995 20.3902785599999987 2.6655498000000000 Au
atom 11.6896202799999998 20.6379832500000013 2.6331255599999999 Au
atom 14.6202694599999994 20.5708089200000011 2.6138083499999998 Au
atom 17.3918149799999995 20.5876772099999990 2.4912766899999998 Au
atom 20.0973794099999985 20.4158174300000006 2.7469140400000001 Au
atom 22.8883885800000009 20.5264662800000011 2.7580553999999999 Au
atom 25.8428412099999996 20.6289450099999989 2.7634046099999998 Au
atom 0.5096756200000000 20.5889648899999997 2.8327440600000000 Au
atom 3.1992851700000000 20.5575970300000002 2.7320766100000000 Au
atom 6.0085471600000000 20.6759925399999993 2.7123174699999999 Au
atom 7.4293010700000002 23.0705601899999984 2.7470716600000000 Au
atom 10.1999785700000007 22.9425131499999999 2.6120913400000001 Au
atom 13.1825442800000001 23.1053601899999990 2.8151761400000002 Au
atom 15.8363718299999992 23.1651445100000011 2.5091005499999999 Au
atom 18.6844604200000006 23.1567072600000010 2.7635835700000002 Au
atom 21.4917828200000010 22.9257392700000011 2.5719698599999998 Au
atom 24.3714110099999992 23.1014401999999990 2.9282385999999998 Au
atom 27.0232725500000015 23.0049437899999987 2.6922734300000002 Au
atom 1.9306903399999999 22.8983140399999989 2.4500488200000001 Au
atom 4.7895893000000003 23.1325440600000007 2.6693526900000002 Au
atom 8.7665120000000005 25.6090187799999995 2.7768341799999998 Au
atom 11.6580475400000001 25.7576389299999988 2.8427894399999998 Au
atom 14.7425515399999991 25.4899040200000009 2.9067529900000002 Au
atom 17.5849881400000001 25.7304899999999996 2.7962870000000000 Au
atom 20.2061245400000011 25.5129621100000001 2.7639994600000000 Au
atom 23.1292315299999984 25.7391018600000017 2.6158865699999998 Au
atom 25.8816272299999994 25.4658259200000003 2.8043519400000001 Au
atom 0.5520933800000000 25.4974454199999983 2.8872675999999999 Au
atom 3.3274609399999999 25.5423101400000014 2.7664171000000000 Au
atom 6.2177470000000001 25.4928117800000003 2.7907345499999998 Au
atom 7.4364097500000002 27.9249770099999992 2.4957697200000002 Au
atom 10.3277796899999998 28.0769061600000001 2.4790559499999998 Au
atom 13.0666326900000005 28.1419341400000000 2.6406989300000001 Au
atom 16.0467406100000005 27.9756481199999989 2.6078306499999999 Au
atom 19.0104330399999988 28.0814357000000001 2.7497209400000000 Au
atom 21.5756486400000007 27.9957683300000006 2.8551336500000000 Au
atom 24.2758346699999983 27.9702201099999996 2.5074191699999999 Au
atom 27.0581587299999988 28.0271284499999993 2.7457333199999998 Au
atom 1.8082992200000001 28.0632861899999995 2.4967780899999998 Au
atom 4.5380618000000004 28.1159170200000013 2.6265218699999999 Au
atom 8.7443928799999995 30.5229268299999994 2.6421651399999999 Au
atom 11.6733301600000008 30.3284457600000010 2.6635793699999999 Au
atom 14.6557957499999993 30.4592022799999995 2.6560073900000001 Au
atom 17.2757700700000001 30.4324955099999990 2.6995868999999999 Au
atom 20.1626671500000008 30.4033376400000002 2.6488735399999999 Au
atom 23.1354701799999987 30.5876553099999988 2.4502730300000000 Au
atom 25.9660785300000008 30.3460492299999984 2.8694098800000001 Au
atom 0.3587119700000000 30.5134728399999986 2.5029685200000000 Au
atom 3.2741100099999998 30.2396790600000003 2.6275157199999999 Au
atom 6.1643323399999996 30.6738681699999987 2.4623813200000000 Au
atom 7.4214894600000001 33.0602458799999965 2.6458033799999998 Au
atom 10.3279059400000008 32.8255194199999991 2.8020408699999999 Au
atom 13.3715532600000007 32.8441593800000007 2.4452049800000002 Au
atom 15.9283639800000003 32.9437437300000013 2.7325066499999999 Au
atom 18.7102196300000010 32.8045419999999979 2.6709770900000001 Au
atom 21.7497568100000009 32.9384478699999974 2.5383931799999999 Au
atom 24.5234855600000010 32.8928575199999997 2.5162324400000000 Au
atom 27.2003907600000012 32.9249360499999995 2.8376077700000000 Au
atom 1.7051170099999999 33.0038053000000033 2.5780744300000000 Au
atom 4.6383343300000002 32.8114126400000004 2.7542845900000001 Au
atom 8.8707798100000002 35.3697786600000015 2.6915018200000000 Au
atom 11.7062586700000004 35.2317579600000030 2.6672809499999999 Au
atom 14.4816553999999993 35.3837671900000004 2.6968210699999999 Au
atom 17.4316789700000001 35.3592084200000016 2.5729770900000002 Au
atom 20.3167764599999998 35.4809674799999968 2.8129636200000001 Au
atom 23.1312066600000001 35.2862913299999974 2.6186453699999999 Au
atom 25.7948783299999995 35.5264367400000012 2.7405263400000002 Au
atom 0.4433712800000000 35.3659993600000035 2.6914291000000001 Au
atom 3.3086418100000001 35.4488272099999975 2.5853039799999999 Au
atom 6.0345315299999998 35.2862864599999995 2.5054223900000001 Au
atom 7.5108879599999998 37.8381017099999966 2.6727308800000000 Au
atom 10.4156401299999999 37.7099986300000012 2.7461170500000001 Au
atom 13.2522035900000006 37.7045237700000015 2.7167127500000001 Au
atom 15.8286852299999996 37.8608928000000020 2.6255406799999998 Au
atom 18.7043720499999999 37.7114584199999996 2.5766702399999999 Au
atom 21.7936296100000000 37.7972628400000019 2.7420318899999998 Au
atom 24.4337050699999985 37.8595369900000023 2.6735461400000000 Au
atom 26.9751552900000000 37.7723910300000014 2.5731541199999999 Au
atom 1.7650054500000001 37.7171592799999971 2.7898435500000001 Au
atom 4.6072774000000001 37.8852645300000006 2.6334014400000001 Au
atom 8.9736025900000005 0.8422229200000000 2.5737975400000002 Au
atom 11.7110769399999999 0.9168264500000000 2.5905454600000000 Au
atom 14.6501007699999999 0.9312530400000000 2.7237026100000001 Au
atom 17.3545073000000016 0.7889241100000000 2.6083983599999998 Au
atom 20.3041465199999998 0.7443680900000000 2.8555309200000001 Au
atom 23.1042946700000016 0.7667026100000000 2.6447835199999998 Au
atom 25.7657907600000016 0.9980790600000000 2.7569538300000000 Au
atom 0.5920706400000000 0.7556490900000000 2.7814806000000001 Au
atom 3.2073115200000002 0.6500499199999999 2.7064115599999998 Au
atom 5.9867859200000000 0.8568477500000000 2.7828643500000001 Au
atom 7.6659616599999998 3.4649010699999998 2.6689140199999999 Au
atom 10.3001402399999993 3.1254408699999998 2.7407866599999999 Au
atom 12.9820121200000003 3.2102263600000001 2.7513704500000000 Au
atom 15.8775654300000006 3.3002344300000002 2.5772309700000000 Au
atom 18.8963894699999990 3.1214880900000002 2.8947524300000000 Au
atom 21.5326994999999997 3.3379154999999998 2.6167362199999999 Au
atom 24.4480919000000014 3.5101560500000000 2.6728850300000002 Au
atom 27.4626661399999996 3.3700394400000002 2.3216356000000000 Au
atom 2.1381190700000001 3.4482275900000001 2.8552643999999998 Au
atom 4.7674196300000000 3.2018598400000000 2.7827569200000002 Au
atom 8.7542211200000004 5.8453606699999998 2.7728375399999998 Au
atom 11.7046444300000001 5.7317769199999997 2.7438052200000000 Au
atom 14.5548882499999994 5.9154922499999998 2.6860523700000001 Au
atom 17.3353112500000002 6.0887526999999997 2.8563546899999999 Au
atom 20.1706021699999987 5.8952682799999998 2.7364929600000001 Au
atom 23.0098121499999984 5.7406900900000002 2.6854891900000002 Au
atom 25.9015100599999997 5.5555537900000003 2.5891562499999998 Au
atom 0.6044724000000000 5.7683609300000001 2.6842924799999999 Au
atom 3.1867671299999998 5.7701541399999998 2.6485308700000001 Au
atom 6.1530920000000000 6.1117892200000004 2.7280797899999998 Au
atom 7.4242571499999999 8.2674221200000009 2.7065235699999999 Au
atom 10.4047884100000001 8.3534236499999999 2.6112310900000000 Au
atom 13.2461695299999995 8.3223306400000006 2.4591465499999998 Au
atom 15.8454004200000007 8.1525499299999993 2.7781098499999999 Au
atom 18.7619943499999984 8.1786462600000007 2.8757500899999999 Au
atom 21.6777984000000004 8.2328806500000002 2.6991949000000002 Au
atom 24.4743819400000007 8.2556221999999995 2.7988461899999999 Au
atom 27.3502489900000008 8.1800565400000007 2.6939889899999998 Au
atom 1.7871942800000000 8.2823991499999998 2.6884524500000002 Au
atom 4.5737771100000000 8.2364430199999994 2.5758789599999998 Au
atom 8.8099296000000002 10.8221338700000000 2.8180110500000000 Au
atom 11.8133575400000002 10.7719887700000001 2.6950931699999998 Au
atom 14.6395086299999999 10.8339965399999993 2.8060080300000001 Au
atom 17.3986516900000012 10.5805110599999992 2.7259671200000000 Au
atom 20.3487420400000012 10.7990124699999992 2.7275090199999998 Au
atom 23.0004295499999998 10.8741114200000002 2.7867458699999998 Au
atom 25.7909438000000009 10.7264559800000008 2.7960546499999999 Au
atom 0.3564605300000000 10.6841515499999993 2.6079042100000001 Au
atom 3.3917817600000002 10.7417720400000007 2.7713647799999999 Au
atom 6.2676160999999997 10.8282542599999996 2.6899226100000000 Au
atom 7.3967871499999998 13.2436427900000009 5.3516940599999998 Cl
atom 7.5410960100000004 15.8349918299999999 8.5523761900000004 Cl
atom 7.4593035299999997 13.0298111300000006 8.2860964399999997 Na
atom 7.3548376700000002 16.0376906800000008 5.5999478600000003 Na
atom 7.3824498900000002 18.9346082299999985 5.5840932099999998 Cl
atom 7.3765823900000003 21.8313320100000006 8.6320076300000004 Cl
atom 7.5787392000000002 18.8009349700000001 8.2357551499999992 Na
atom 7.5167818600000000 21.4988104900000003 5.7665099299999998 Na
atom 7.4454842899999996 24.3699229700000011 5.6239024300000002 Cl
atom 7.4983044999999997 27.2638978499999993 8.5266909099999992 Cl
atom 7.3216973000000003 24.3558694200000012 8.4302706999999995 Na
atom 7.6257409100000002 27.1933018699999991 5.8360490199999999 Na
atom 7.4355853200000004 30.1600377199999983 5.6456969299999997 Cl
atom 7.5335175999999997 32.8368725999999995 8.4319658900000007 Cl
atom 7.3740203600000003 30.1558054599999998 8.3890242599999993 Na
atom 7.5516156800000003 32.9229585100000008 5.7686618100000002 Na
atom 7.5678087200000004 35.9197694499999969 5.6951458099999996 Cl
atom 7.5722459400000002 38.6864590400000026 8.6459501799999998 Cl
atom 7.2877893499999997 35.5670511699999992 8.5219926200000007 Na
atom 7.4158951499999999 38.8180704399999996 5.7514200400000002 Na
atom 7.4955978300000004 2.1579378999999999 5.7307604300000001 Cl
atom 7.4007352600000003 4.6304417999999998 8.6060087799999998 Cl
atom 7.4898575200000002 1.7951193100000000 8.3942531799999998 Na
atom 7.4076083900000000 4.6874935300000002 5.7972599899999997 Na
atom 7.5492608900000002 7.5518416200000003 5.7409245899999997 Cl
atom 7.5351434299999998 10.3544930199999996 8.6077673800000003 Cl
atom 7.3096742600000004 7.4572809099999997 8.3667822100000002 Na
atom 7.4236135699999997 10.4571680499999999 5.8620566299999997 Na
atom 10.5572150100000002 13.0877691299999999 5.5484313700000003 Na
atom 13.1770932100000007 13.2019973799999999 5.6677740200000004 Cl
atom 10.5943239600000005 15.9776002199999994 7.9758011299999998 Na
atom 13.0761693700000006 16.2597797899999996 7.9703563500000003 Cl
atom 13.1047383199999992 12.4390314699999998 7.9979466099999996 Na
atom 10.5737426400000007 13.0624046400000005 8.2613627300000001 Cl
atom 13.0270761000000004 16.3650801000000001 5.3240566500000002 Na
atom 10.0609552400000002 15.9884787700000004 5.3543159400000002 Cl
atom 10.1539422100000003 18.8840625200000005 5.6715398099999996 Na
atom 13.0519579500000003 19.1950520299999994 5.2700279400000003 Cl
atom 10.2961088499999995 21.6807295899999986 8.1207663100000005 Na
atom 13.2563820200000002 21.8487985400000007 8.0040110599999998 Cl
atom 13.0496420799999999 18.8212005299999987 7.7598776100000002 Na
atom 10.4732351999999995 18.8995453799999993 8.2568996899999991 Cl
atom 12.8744503100000003 21.8953397900000013 5.3353230800000002 Na
atom 10.1871599899999996 21.6814805300000017 5.4100811599999998 Cl
atom 10.2306752700000008 24.5502959599999997 5.8653534599999997 Na
atom 12.8261955499999996 24.6446475900000017 5.5866654000000002 Cl
atom 10.2363275999999992 27.5081948999999994 8.4855642600000003 Na
atom 13.0002124600000002 27.3010078500000013 8.4494845900000008 Cl
atom 13.2749497299999994 24.4689976899999984 8.2047281600000002 Na
atom 10.0953633200000006 24.5281481499999998 8.7166381899999994 Cl
atom 13.0213559199999995 27.1837717900000015 5.7612309499999999 Na
atom 10.3425944699999999 27.2019090000000006 5.8719300600000004 Cl
atom 10.2034880200000000 30.1810495400000001 5.7071265000000002 Na
atom 13.0859884399999995 30.1079499700000000 5.4993069800000001 Cl
atom 10.2218485399999999 32.8862565800000013 8.4313771699999993 Na
atom 13.3642126200000000 32.9962370000000007 8.5880749099999996 Cl
atom 13.2928647400000006 30.1427597499999997 8.1351225399999993 Na
atom 10.3195977800000005 30.0253115400000006 8.4024404900000000 Cl
atom 13.1744634699999992 32.8102354700000021 5.6979312200000001 Na
atom 10.4123483199999995 32.9877148300000016 5.8978641800000000 Cl
atom 10.5184552599999996 35.7883181400000012 5.8595243100000003 Na
atom 12.9504617199999998 35.7336144000000004 5.7241726999999996 Cl
atom 10.3899284200000004 38.5232347999999973 8.3891308700000007 Na
atom 13.4701883500000008 38.6882504200000028 8.4771800800000001 Cl
atom 12.9960606100000007 35.7840136299999969 8.4344789200000001 Na
atom 10.3717454000000000 35.6823134600000031 8.6850410700000005 Cl
atom 13.2396104000000001 38.5865728699999977 6.0010154900000003 Na
atom 10.2371748799999995 38.6215050699999978 5.5770483799999999 Cl
atom 10.3217440400000005 1.8071278900000001 5.6982345199999997 Na
atom 13.1342100100000003 1.9270919099999999 5.8362113600000001 Cl
atom 10.2194191199999995 4.7249602099999999 8.1860946299999995 Na
atom 13.1617116900000006 4.5254184700000000 8.5812814300000007 Cl
atom 13.1605237400000004 1.9044222300000000 8.6108308099999995 Na
atom 10.2911927500000004 1.7340203500000000 8.5388466500000000 Cl
atom 13.1475621700000005 4.4360460000000002 5.8607543599999996 Na
atom 10.3371897700000002 4.7041604399999999 5.7489423100000003 Cl
atom 10.1932871100000000 7.6731713199999998 6.1361347899999998 Na
atom 13.2255275300000008 6.9936934099999997 5.7542744499999996 Cl
atom 10.3817574799999992 10.3521208500000004 8.8886239099999997 Na
atom 13.0634458299999991 9.9812399400000000 9.0156687899999994 Cl
atom 13.2680146000000008 7.5400947599999997 8.2481879100000004 Na
atom 10.0652024000000004 7.4090748399999997 8.4315801199999996 Cl
atom 13.0443810700000000 9.8941427999999991 5.0691650700000004 Na
atom 10.2946812100000002 10.2587910900000008 5.9089135500000003 Cl
atom 16.1055386399999989 13.1692544599999994 5.3289169799999998 Na
atom 19.1130497999999989 13.0746839799999997 5.5787608400000002 Cl
atom 15.8067120499999998 15.8761756999999992 8.0226938899999993 Na
atom 18.7378722999999994 15.8455206400000002 8.4475709299999995 Cl
atom 18.7810522599999992 13.2044614300000003 8.4001688300000001 Na
atom 16.1510704499999989 13.0254171000000003 8.1942443699999998 Cl
atom 19.0214540599999999 15.7901252900000006 5.5396562400000002 Na
atom 16.2262658500000008 16.1709482400000013 5.4301693699999998 Cl
atom 16.1618344799999996 18.7680400700000014 5.4842136999999997 Na
atom 19.1077928200000002 18.4342844799999988 5.4367122400000003 Cl
atom 16.1599367299999983 21.7319339700000000 7.5467864100000002 Na
atom 18.8197438499999983 21.7258451599999987 8.1664218300000009 Cl
atom 18.7842381200000013 18.6283929599999993 8.0670066200000008 Na
atom 16.0213944599999998 18.8416602500000003 8.0083907100000005 Cl
atom 19.0760652999999998 21.5195258100000011 5.5969419399999998 Na
atom 15.6630037000000009 21.6279977099999989 5.2779046799999998 Cl
atom 16.0048299599999986 24.3546317899999991 5.6016804000000002 Na
atom 19.0299873700000006 24.5943799699999985 5.3507951199999999 Cl
atom 16.1076365800000012 27.3366314599999995 8.1777284500000000 Na
atom 18.7959493100000010 27.1568982900000009 8.4395689699999998 Cl
atom 18.5836212699999983 24.3418753599999995 8.1557765900000003 Na
atom 15.9075861900000000 24.2744415199999999 8.2995568300000002 Cl
atom 18.8888032000000017 27.3256679200000008 5.6840854399999996 Na
atom 16.0011679999999998 27.3213161500000012 5.4228677100000002 Cl
atom 16.1202983099999990 30.0545886399999986 5.7395786400000004 Na
atom 18.8822736099999986 30.3433224800000012 5.7673059200000001 Cl
atom 15.9035897800000008 32.9555567800000020 8.5627317699999992 Na
atom 18.7627816400000000 32.8433308899999972 8.6887747999999991 Cl
atom 18.8845302400000001 30.0799365499999993 8.5605105600000009 Na
atom 15.9022038400000003 29.8914014100000003 8.4683484999999994 Cl
atom 18.8542568800000012 32.9524465599999985 5.9104178100000002 Na
atom 15.9987767400000003 32.9776669299999980 5.8634949799999996 Cl
atom 15.7104935500000007 35.6234383099999974 5.7934891600000000 Na
atom 18.6860560299999996 35.8369148100000032 5.6739565000000001 Cl
atom 15.9678862899999991 38.5149776499999987 8.4834773699999992 Na
atom 18.5961884300000015 38.5595831400000009 8.7653438700000006 Cl
atom 18.6989878999999988 35.7405445699999973 8.1990563999999999 Na
atom 15.9999921700000005 35.6711108800000005 8.6061188800000004 Cl
atom 19.0382957099999999 38.6403722700000003 5.7082849299999996 Na