#===============================================================================
# Created using the Atomic Simulation Environment (ASE)

# Tue Dec 23 22:26:59 2025

#=======================================================
lattice_vector 28.1999999999999993 0.0000000000000000 0.0000000000000000 
lattice_vector 0.0000000000000000 39.4799999999999969 0.0000000000000000 
lattice_vector 0.0000000000000000 0.0000000000000000 62.3296083400000001 
atom 7.3450978400000002 14.9021758099999992 0.2625389300000000 Au
atom 10.1369536700000005 14.9303907999999996 0.0538776200000000 Au
atom 13.0167886599999996 14.7920529900000002 -0.1774731300000000 Au
atom 15.8547703500000008 14.9097561100000000 0.1683899800000000 Au
atom 18.6788404600000000 14.8849035300000008 0.4819294300000000 Au
atom 21.5335196599999996 14.9205418200000004 0.2100372100000000 Au
atom 24.4752116700000002 14.6959833000000000 0.0765414600000000 Au
atom 27.0664750800000000 14.9094335699999991 -0.1777539500000000 Au
atom 1.7274602500000000 14.8422459399999997 0.1502449000000000 Au
atom 4.6501046199999996 14.8780279800000006 -0.1565729500000000 Au
atom 8.7958154000000004 17.3490102600000000 0.0929223900000000 Au
atom 11.6396658899999998 17.3220160099999987 0.1252675800000000 Au
atom 14.4449301200000004 17.3145915600000002 0.1298512600000000 Au
atom 17.2593508799999995 17.2402109900000013 0.1325450900000000 Au
atom 20.1407557399999995 17.2616051800000001 0.2795505000000000 Au
atom 22.8330490399999988 17.6173979400000000 0.5162526000000000 Au
atom 25.7761878899999992 17.3052768999999991 0.0966673800000000 Au
atom 0.3180960200000000 17.2580348800000003 0.2545313900000000 Au
atom 3.1542370000000002 17.2774031500000014 0.0347218400000000 Au
atom 5.9502775200000002 17.4143359400000008 -0.0872947100000000 Au
atom 7.4610469500000001 19.8180267199999989 0.0624506800000000 Au
atom 10.3341836499999999 19.7724648800000011 0.0187895000000000 Au
atom 13.2246752200000000 19.7658066900000016 0.2884323000000000 Au
atom 15.9563242600000006 19.6986776299999988 0.1163459500000000 Au
atom 18.6797319500000008 19.7019970600000001 -0.0271912900000000 Au
atom 21.5923484499999994 19.7058410600000009 0.3455155800000000 Au
atom 24.4664623799999994 19.7895900599999983 0.3494808300000000 Au
atom 27.2304744599999999 19.7536611099999995 0.3441976900000000 Au
atom 1.8509717900000000 19.8025614400000016 0.4584285900000000 Au
atom 4.6951209299999999 19.8523098299999994 0.2748784600000000 Au
atom 8.8206745800000004 22.3516477500000015 0.1425652200000000 Au
atom 11.5603283799999996 22.6686040599999998 0.4501255200000000 Au
atom 14.5594102700000008 22.2156537100000016 0.3445195000000000 Au
atom 17.3314492999999992 22.1206928900000008 0.1663575700000000 Au
atom 20.1224192200000012 22.1736295299999995 0.1776389800000000 Au
atom 23.0050896800000011 22.2217873300000015 0.1545350100000000 Au
atom 25.8311660200000013 22.1817611499999998 0.2499930100000000 Au
atom 0.3982576700000000 22.0907336799999996 0.3924235600000000 Au
atom 3.2417958699999998 22.3452997199999999 0.4567794200000000 Au
atom 6.0529681300000000 22.2468255500000005 0.5274562600000000 Au
atom 7.4852361299999997 24.7397343899999989 0.5442530300000000 Au
atom 10.5692366599999996 24.3711713199999984 0.3870165200000000 Au
atom 13.1924466099999993 24.7650749999999995 0.5647660100000000 Au
atom 16.0062289699999987 24.6120448500000002 0.2039358400000000 Au
atom 18.7805991399999996 24.6064964999999987 0.4094144600000000 Au
atom 21.5424215200000013 24.6719173100000013 0.2081337900000000 Au
atom 24.2466048200000017 24.7641385999999990 0.1044801200000000 Au
atom 27.1654255199999994 24.6754863100000001 0.3514297200000000 Au
atom 1.9761782200000000 24.7773350900000011 0.2910736100000000 Au
atom 4.5712158100000000 24.9728719400000010 0.2680659400000000 Au
atom 8.8860720099999995 27.0860263400000001 0.2288578000000000 Au
atom 11.6552069399999993 27.2010595899999998 0.0314979000000000 Au
atom 14.5178934099999992 27.0888630600000013 0.1961700700000000 Au
atom 17.3298487700000017 27.0688265500000007 0.0907869200000000 Au
atom 20.2782111799999996 27.0823549399999983 0.1422429600000000 Au
atom 23.3855627499999983 26.9435913400000011 0.2062508800000000 Au
atom 25.7780298300000013 27.0979001000000004 -0.1451562700000000 Au
atom 0.3393419300000000 27.2268729900000004 0.0992362000000000 Au
atom 3.4303115700000002 27.0207734700000017 0.1918573200000000 Au
atom 6.1539607299999997 27.2882486700000015 0.2862324900000000 Au
atom 7.4457006300000002 29.7280156099999999 0.2656654800000000 Au
atom 10.1655659899999993 29.6167687000000015 0.3046782500000000 Au
atom 13.0817848300000001 29.5444155600000009 0.1378814200000000 Au
atom 15.6586591100000003 29.9744075000000016 -0.0807016300000000 Au
atom 18.8334087200000013 29.4911084499999987 0.0874445500000000 Au
atom 21.7216508099999999 29.4444042699999997 0.3476071700000000 Au
atom 24.4689951800000003 29.6646708600000011 -0.1420904800000000 Au
atom 27.3072808999999985 29.4884304499999992 0.0618902200000000 Au
atom 1.8265713299999999 29.4924847200000002 -0.0749009800000000 Au
atom 4.5799588800000004 29.6065988699999991 0.0561567400000000 Au
atom 8.8233077699999996 32.1479434700000013 0.3044121600000000 Au
atom 11.6420921100000001 31.9469959800000005 -0.0871030100000000 Au
atom 14.8773091700000002 31.5063544399999991 -0.2222042800000000 Au
atom 17.4237849199999992 32.0152480400000030 -0.1515945000000000 Au
atom 20.2395667099999983 31.8641466700000002 0.2949278800000000 Au
atom 23.0559837899999991 32.0059587599999986 -0.1372951000000000 Au
atom 25.7913051200000005 32.1382090399999996 -0.1750009500000000 Au
atom 0.3670653900000000 31.9535120500000005 -0.1451778600000000 Au
atom 3.1722112000000000 32.0502056500000023 0.1937153200000000 Au
atom 6.0077105599999996 32.0782104199999978 0.1123666900000000 Au
atom 7.4102148400000001 34.4853917699999997 -0.2220208100000000 Au
atom 10.2925994500000009 34.4134327599999992 -0.3007151200000000 Au
atom 13.1680665000000001 34.4242971899999972 -0.2926288900000000 Au
atom 16.0292873100000008 34.4600360900000027 -0.2577379100000000 Au
atom 18.8575566300000013 34.4543132599999993 -0.2144716300000000 Au
atom 21.6870648800000012 34.4217768299999989 0.2228740800000000 Au
atom 24.4608877299999996 34.6493648100000016 -0.3791919200000000 Au
atom 27.2513011100000000 34.4648525899999996 -0.0799020500000000 Au
atom 1.8237947800000001 34.4934107099999991 0.0389031100000000 Au
atom 4.6380444199999999 34.5030356700000027 -0.3306021000000000 Au
atom 8.9398488799999996 37.0269664899999995 -0.2613213900000000 Au
atom 11.6904697399999993 36.8862351799999999 -0.3028439900000000 Au
atom 14.4700476600000005 36.9575310600000009 -0.2658257400000000 Au
atom 17.2707672000000017 36.9774108200000029 -0.1696013600000000 Au
atom 20.1090819200000013 36.8970560500000033 -0.1806871800000000 Au
atom 22.9538875699999991 36.9438777800000011 -0.1332018500000000 Au
atom 25.9144039299999989 35.3425721699999968 -0.1049248900000000 Au
atom 0.3784039800000000 36.9868979600000003 0.2314289800000000 Au
atom 3.3723642100000002 36.8898641400000002 0.0412059100000000 Au
atom 6.1822653799999996 36.9384316900000016 -0.1110492600000000 Au
atom 7.4467402800000002 -0.0069684200000000 -0.3210913600000000 Au
atom 10.2487857400000006 -0.0226495000000000 -0.0383473400000000 Au
atom 13.0116228700000001 0.0487912700000000 -0.4193541200000000 Au
atom 16.0434456400000016 -0.0392998900000000 -0.4905881000000000 Au
atom 18.5192447000000016 -0.0806014000000000 -0.4123920600000000 Au
atom 21.4671312900000011 -0.1222628900000000 -0.1253880100000000 Au
atom 24.2752328199999994 -0.0044905500000000 -0.0425698100000000 Au
atom 27.0818514800000010 1.7665303699999999 0.0138719800000000 Au
atom 1.7226005400000000 0.0455779500000000 -0.2539520000000000 Au
atom 4.5910473900000000 -0.1143375900000000 0.1385676000000000 Au
atom 8.8301908299999994 2.3742470999999998 -0.0398663400000000 Au
atom 11.6185123200000007 2.4384562900000000 -0.0180986600000000 Au
atom 14.4333639900000001 2.4034347000000000 -0.4890507200000000 Au
atom 17.2963142099999985 2.5141592899999998 -0.4397595500000000 Au
atom 20.0990188399999994 2.3916480700000000 -0.2324382300000000 Au
atom 22.9209201000000000 2.4756433400000000 -0.1297497100000000 Au
atom 25.7076026300000002 2.3919143900000002 0.1848724000000000 Au
atom 0.3368618300000000 2.4859621100000000 -0.1274122600000000 Au
atom 3.1644033899999999 2.3562173799999999 0.1008194600000000 Au
atom 5.8977030299999997 2.3818612799999999 0.0984404500000000 Au
atom 7.2985974300000001 4.9469156200000004 -0.1320472700000000 Au
atom 10.1847229200000005 4.9011829000000002 -0.0850774000000000 Au
atom 13.0900847400000000 4.9387961499999999 0.0114886400000000 Au
atom 15.8682726899999995 4.8668532999999998 -0.1410170900000000 Au
atom 18.7087607700000014 4.9776322400000002 0.0614043400000000 Au
atom 21.4777197000000015 4.9063286599999998 -0.0782879500000000 Au
atom 24.2400236699999994 4.9011624400000002 0.1975867400000000 Au
atom 27.0451793100000017 4.8018930299999996 -0.0099381000000000 Au
atom 1.7135620100000000 4.9336578800000002 0.0690680500000000 Au
atom 4.4904118999999998 4.8419977000000003 -0.0461676100000000 Au
atom 8.8013789599999992 7.4459725499999996 -0.1598859300000000 Au
atom 11.6047751699999999 7.3670582800000002 -0.1706433800000000 Au
atom 14.3732416500000006 7.5246783500000003 -0.1017655900000000 Au
atom 17.2116547900000008 7.5092091200000004 -0.0338483300000000 Au
atom 20.0301714199999985 7.5505011700000004 -0.1064855100000000 Au
atom 22.7917799400000014 7.3917663899999999 0.1109220100000000 Au
atom 25.6804206899999983 7.3696944400000000 0.2523649500000000 Au
atom 0.2916125300000000 7.3949047400000003 0.0262042600000000 Au
atom 3.1671573600000000 7.4556381900000002 -0.0529830100000000 Au
atom 5.9734385699999999 7.3876187900000003 -0.0362546700000000 Au
atom 7.3430687299999997 9.8097929700000002 -0.1887196800000000 Au
atom 10.1693721099999994 9.8956573100000007 -0.1982730800000000 Au
atom 13.0552534399999995 10.0030567999999995 -0.1585445600000000 Au
atom 15.8447583999999999 10.0118551900000003 0.0608057900000000 Au
atom 18.6394686599999986 9.9628910600000005 -0.1984451900000000 Au
atom 21.4534482500000010 9.8907494200000006 0.0549317100000000 Au
atom 24.2139076499999994 9.8288745800000008 0.2134472900000000 Au
atom 27.0259533500000018 9.9638222499999998 0.1366794400000000 Au
atom 1.7037866300000000 9.9116965100000005 -0.2298523300000000 Au
atom 4.5918239500000002 9.9703636600000003 -0.0052071400000000 Au
atom 8.7022096399999995 12.4579625000000007 -0.0186313200000000 Au
atom 11.5461383099999999 12.4631757000000007 -0.1544711000000000 Au
atom 14.4966010300000008 12.4535954499999999 -0.4496302500000000 Au
atom 17.2244222100000002 12.4958125599999992 0.2954874800000000 Au
atom 19.9988476099999986 12.4073349700000009 0.0411153900000000 Au
atom 22.8022626899999992 12.4065869899999992 -0.0597046500000000 Au
atom 25.6101435100000003 12.4667831699999994 -0.1729370500000000 Au
atom 0.2411481700000000 12.3939672699999992 -0.0807778000000000 Au
atom 3.0788520899999998 12.3551676500000003 -0.1095781400000000 Au
atom 6.0777537300000004 12.3982292300000001 -0.2297724000000000 Au
atom 7.6489102600000001 13.3370417799999998 2.6736795000000000 Au
atom 10.0736693400000004 13.2026623599999997 2.5290942699999999 Au
atom 13.0499796400000001 13.1752016600000008 2.3302077899999998 Au
atom 15.8912126600000008 13.2217175600000001 2.9402263999999998 Au
atom 18.6323106500000009 13.0714943899999998 3.1565940600000002 Au
atom 21.4059938699999996 13.1033094400000003 2.6418499700000000 Au
atom 24.2097863400000008 13.2115019999999994 2.4812381700000001 Au
atom 27.1777174799999983 13.2310783599999997 2.2881270599999999 Au
atom 1.7514390900000001 13.1469412400000003 2.6121551599999999 Au
atom 4.6118400199999998 13.2017902300000003 2.1641424499999999 Au
atom 8.9330241200000007 15.7033039599999995 2.8315431599999998 Au
atom 11.6680993700000002 15.6210621799999991 2.6520732900000001 Au
atom 14.4350871499999993 15.6027046100000000 2.8150576900000002 Au
atom 17.2107538099999999 15.6113809000000003 2.8998666599999998 Au
atom 20.0650757000000013 15.6278766400000002 3.0056171300000001 Au
atom 22.8332875100000017 15.5491384499999992 2.9518143900000000 Au
atom 25.6735457400000016 15.5862768700000007 2.8002784900000002 Au
atom 0.3185581200000000 15.6599047700000007 2.6374913300000000 Au
atom 3.2010525900000002 15.6657065200000005 2.6332730700000000 Au
atom 6.0233173500000001 15.7053370300000008 2.6493515200000002 Au
atom 7.2913001800000004 18.2739601200000017 2.7496499499999998 Au
atom 10.1644553999999996 18.1845662899999994 2.7188714799999998 Au
atom 13.0615066700000000 18.0786443299999995 2.7763842099999998 Au
atom 15.8323560200000006 18.1266067000000000 2.7325158699999998 Au
atom 18.6217430300000011 18.2262702599999997 2.6730103000000001 Au
atom 21.5012313299999995 18.0209016400000017 2.8227766700000001 Au
atom 24.4415113300000009 18.1011458400000009 3.0835735700000000 Au
atom 27.1656623199999991 18.0897837599999995 2.9826936200000000 Au
atom 1.7160597700000000 18.0268956299999985 2.8757255200000000 Au
atom 4.6241763999999996 18.1409608800000015 2.6479139400000000 Au
atom 8.8932581600000002 20.5853808899999997 2.8125862700000002 Au
atom 11.7145284800000002 20.5719997399999990 2.8788702499999999 Au
atom 14.5436645999999996 20.6607496499999996 2.8931685100000002 Au
atom 17.4695204199999985 20.4133962800000006 2.6421573999999999 Au
atom 20.1345185899999990 20.4690062899999994 2.8783056999999999 Au
atom 22.9189767899999985 20.4164877900000015 2.9316010299999999 Au
atom 25.7628135100000009 20.5824773500000013 3.0449269700000001 Au
atom 0.3439116400000000 20.6331366299999992 2.8887665000000000 Au
atom 3.2149293600000002 20.6012596399999985 2.9695518900000000 Au
atom 6.1922866000000001 20.4751442300000015 2.9342733600000002 Au
atom 7.5863253100000003 23.0712408000000018 3.1891078300000002 Au
atom 10.4027329900000005 23.0984197199999990 3.1372922600000002 Au
atom 13.1665535899999995 23.0297057800000005 2.9811555500000000 Au
atom 16.0355851300000012 23.0985196399999992 2.7643293899999999 Au
atom 18.8209885300000010 22.9750147499999997 2.9600377700000000 Au
atom 21.5499679399999984 23.0083674500000015 2.7416005900000000 Au
atom 24.3218492700000013 23.0360305600000004 2.7160776499999999 Au
atom 27.1707335100000016 23.1328352399999986 2.7401849800000000 Au
atom 1.8386445199999999 23.1719768299999984 3.1142922099999999 Au
atom 4.6604064500000000 23.0772511499999986 2.9702018099999998 Au
atom 8.9478103499999992 25.5806718999999987 3.0283422400000002 Au
atom 11.8282073200000006 25.4939496900000009 2.9930321900000001 Au
atom 14.5665171900000008 25.5436356599999996 3.0250399699999999 Au
atom 17.4418731999999999 25.5093054099999996 2.8223308399999998 Au
atom 20.1755290999999986 25.5646379300000000 3.0792766600000001 Au
atom 22.9444997199999996 25.4681422200000007 2.8290203100000002 Au
atom 25.7337498300000007 25.5995277700000017 2.7014907400000001 Au
atom 0.3425711600000000 25.7281236900000003 3.0121273400000002 Au
atom 3.2843644300000001 25.5051707800000003 2.7593054000000001 Au
atom 6.0865733600000000 25.6120806499999993 2.9772294800000001 Au
atom 7.5489923299999999 28.0280292200000005 2.8404855900000001 Au
atom 10.3586270599999999 28.0944070400000001 2.7986560900000002 Au
atom 13.1010532400000006 27.9852561699999995 2.6247420699999999 Au
atom 15.9190974300000008 27.9434617500000009 2.5264303899999998 Au
atom 18.8046838500000000 27.9664883400000015 2.5822445900000002 Au
atom 21.6798269899999987 27.9147059499999983 2.9624127200000001 Au
atom 24.4085995599999990 28.0156786099999984 2.5012149099999998 Au
atom 27.2448241600000003 28.0914223499999984 2.6221623500000000 Au
atom 1.8783006200000001 27.9646998199999999 2.6096896900000002 Au
atom 4.7436609399999998 28.0682722300000016 2.8368252699999998 Au
atom 8.8866980499999997 30.4986821500000005 2.9724576500000000 Au
atom 11.8687757600000001 30.6008901100000017 2.7172799400000001 Au
atom 14.6004294300000002 30.4733139999999985 2.7047553700000000 Au
atom 17.4358158799999998 30.5335038499999989 2.3808365299999998 Au
atom 20.1896592400000010 30.4610323100000002 2.8145815500000002 Au
atom 22.9392078200000000 30.5159233299999997 2.7249366699999999 Au
atom 25.9031895500000005 30.6565668100000011 2.5195311399999998 Au
atom 0.4452948300000000 30.4634441199999983 2.5532710100000000 Au
atom 3.2462305100000002 30.3499458699999991 2.8679525799999999 Au
atom 6.0944688999999999 30.4861795499999992 2.8140929899999998 Au
atom 7.5195545499999996 33.0035540399999974 2.7991227200000002 Au
atom 10.2785861999999995 33.1888506399999983 2.6689448599999999 Au
atom 13.1180686299999998 32.9962485599999980 2.3357398900000002 Au
atom 15.9678708300000007 32.9952819399999981 2.3870930700000002 Au
atom 18.7777213200000013 32.9758995999999982 2.5266139800000000 Au
atom 21.6567985900000011 32.9187790399999969 2.8828093300000002 Au
atom 24.4726155500000004 33.0719075700000005 2.1645664999999998 Au
atom 27.1231395299999996 32.6798779499999981 2.6960549700000001 Au
atom 1.7713441800000000 32.8906765099999987 2.6612468100000002 Au
atom 4.5928916800000001 32.8670676500000027 2.5200723100000002 Au
atom 9.0068089699999998 35.1903129900000025 2.1681883300000000 Au
atom 11.7392735899999998 35.4536747000000005 2.3716146000000000 Au
atom 14.5895085299999998 35.4220753399999992 2.4291373100000002 Au
atom 17.4055513700000013 35.4173884000000001 2.4206268299999998 Au
atom 20.1375417399999996 35.3820353500000024 2.4241273900000002 Au
atom 23.0183333400000016 35.3920484499999972 2.5830405900000000 Au
atom 25.7233643900000004 35.2832327699999979 2.4256371600000000 Au
atom 0.2850331700000000 35.2883707100000024 2.6380636700000002 Au
atom 3.1704944300000002 35.2406060300000021 2.5041225900000001 Au
atom 5.9970485099999999 35.3908836499999992 2.3103959600000001 Au
atom 7.5494953100000002 40.2463744699999992 2.5089135900000001 Au
atom 10.2227058999999993 37.8320265199999994 2.3292644800000000 Au
atom 13.2151328400000008 38.0203797599999973 2.0830108599999999 Au
atom 15.9428554800000004 37.9110790000000009 2.2270783199999999 Au
atom 19.0327090299999995 36.4724343999999974 2.4086273199999999 Au
atom 21.4272402100000008 37.7901254599999987 2.5577904000000000 Au
atom 24.3336000400000003 37.8261897300000030 2.5002203600000001 Au
atom 27.0861055300000011 37.7337437300000005 2.6670270399999998 Au
atom 1.7936597999999999 37.9089383399999988 2.4352289400000000 Au
atom 4.5872626700000003 37.6948408800000010 2.8077539699999998 Au
atom 8.8790187300000003 0.8122557400000000 2.4722028300000001 Au
atom 11.7060466499999993 0.8152040500000000 2.4863626399999998 Au
atom 14.5230287400000009 0.9030846100000000 2.0260197000000000 Au
atom 17.3175107699999984 0.9129710700000000 2.1070354400000002 Au
atom 20.0236203599999989 2.3517513399999999 2.3192057600000000 Au
atom 22.8854565399999998 0.8086812799999999 2.5201840999999998 Au
atom 25.8181988999999987 0.7391276100000000 2.5719241899999998 Au
atom 0.3959248600000000 0.8983739700000000 2.6787950000000000 Au
atom 3.1671453600000001 0.8358248100000000 2.6896708399999998 Au
atom 5.9569322199999997 -1.6637155500000000 2.6346411399999998 Au
atom 7.3555084300000004 3.2880237600000002 2.5535377499999998 Au
atom 10.2152059200000007 3.2866569800000001 2.5762678299999999 Au
atom 13.0160613400000003 3.2762691700000000 2.4758010100000001 Au
atom 15.8964155799999993 3.0934309999999998 2.3981101499999999 Au
atom 18.7196465299999986 3.2984718900000001 2.4365537900000001 Au
atom 21.5376240999999986 3.4032330000000002 2.4710466499999999 Au
atom 24.2861301599999990 3.1762982599999998 2.7993816900000001 Au
atom 27.1648003299999985 3.3007644599999999 2.6263395500000000 Au
atom 1.7385509800000001 3.2717192200000000 2.7790241600000001 Au
atom 4.5777527999999998 3.2396391900000001 2.7258489500000000 Au
atom 8.8714108399999994 5.8219889800000004 2.4058275999999998 Au
atom 11.6754620800000009 5.8727426600000001 2.6555532899999998 Au
atom 14.3285786599999998 5.9678277299999998 2.5094412300000002 Au
atom 17.3164995799999986 5.7849740599999997 2.6051138599999999 Au
atom 20.1865794299999983 5.9007288700000000 2.5202235300000000 Au
atom 22.8980824100000007 5.5719228899999997 2.8089238399999998 Au
atom 25.7817208700000009 5.8334946099999998 2.6427360400000000 Au
atom 0.3447586300000000 5.8919708399999999 2.4751962000000001 Au
atom 3.0786863900000001 5.7676266500000004 2.5411648599999999 Au
atom 6.0246700600000000 5.7258295700000001 2.4820386000000001 Au
atom 7.4584741599999997 8.3942078099999993 2.6484657199999999 Au
atom 10.4296038800000002 8.5235304999999997 2.3207719099999999 Au
atom 13.2743712100000000 8.2633026300000001 2.5424918000000001 Au
atom 15.7956176599999996 8.2334257900000001 2.4682816900000000 Au
atom 18.7035545499999998 8.1806464299999995 2.3874730000000000 Au
atom 21.4156098899999989 8.1417466600000008 2.7867615500000000 Au
atom 24.1633099700000002 8.2464782799999998 2.6631259100000002 Au
atom 27.0024551899999992 8.4106731499999992 2.6848774400000002 Au
atom 1.7209212700000001 8.3026080400000009 2.6420155599999999 Au
atom 4.6680672100000002 8.3003759099999996 2.4935979800000001 Au
atom 8.8328091999999998 10.8270122700000009 2.6288029300000000 Au
atom 11.6205371799999995 10.6911056400000000 2.4543121700000001 Au
atom 14.5224536600000000 10.8099498700000005 2.4382050000000000 Au
atom 17.3082998500000009 10.6137394799999996 2.7406562800000001 Au
atom 20.0238542700000011 10.6530632599999997 2.5555150700000002 Au
atom 22.8474940900000014 10.6761667500000001 2.6450012300000001 Au
atom 25.6523531799999986 10.8141678999999993 2.6298817400000001 Au
atom 0.4030618800000000 10.7105736399999998 2.4652378900000000 Au
atom 3.1979286700000000 10.7402412300000005 2.5507335699999998 Au
atom 6.0599657799999997 10.8391763599999997 2.5643972200000000 Au
atom 7.4901809300000002 13.2100688500000008 5.9121501700000003 Cl
atom 7.9246372500000000 15.8827390699999995 8.6084464900000004 Cl
atom 7.7882655600000001 13.1567349000000000 8.1124796900000007 Na
atom 8.2010543299999998 16.0066946399999992 5.8512734899999996 Na
atom 7.9711700299999997 18.8265403499999984 5.8459261600000003 Cl
atom 7.9051177800000003 21.7126418000000001 8.4625997000000002 Cl
atom 7.9788659400000004 18.8484581300000009 8.5267359000000003 Na
atom 8.1870861200000000 21.6408364800000008 6.0929434200000001 Na
atom 7.6805353800000002 24.5424100299999992 5.9026971200000000 Cl
atom 7.9966113999999999 27.2895354800000014 8.7953193400000007 Cl
atom 7.8418020400000001 24.5364971800000014 8.5359637199999998 Na
atom 8.0516808999999991 27.2396775600000005 5.9265725800000002 Na
atom 7.9573536499999999 30.0092622099999993 5.5969789199999997 Cl
atom 7.9876405699999999 33.2255732499999965 8.5896175499999998 Cl
atom 7.9149380899999997 30.1959651399999984 8.7642526299999997 Na
atom 8.0642730300000007 32.9411820899999981 5.8153634500000004 Na
atom 7.6588432400000004 35.8607626499999981 5.6772938399999999 Cl
atom 7.6412446799999998 38.6507546099999999 8.4662424099999996 Cl
atom 7.5873707300000000 35.6261941500000034 8.3849574699999998 Na
atom 7.7566248599999996 38.5329307499999985 5.5957431199999998 Na
atom 7.6908073400000001 2.0409332700000000 5.5176460399999998 Cl
atom 8.4430031299999992 4.7138480300000003 8.4554046199999995 Cl
atom 7.8559749800000001 1.9076956800000000 8.3301882099999993 Na
atom 7.9567788300000002 4.8200658799999996 5.5307368200000004 Na
atom 7.9872117200000003 7.6885434500000001 5.5809990100000002 Cl
atom 7.7264151600000002 10.2851144500000000 8.4754472799999991 Cl
atom 7.9041930799999998 7.4581121300000000 8.6428904299999996 Na
atom 7.8413285100000003 10.5159375799999992 5.6869434200000004 Na
atom 10.8562364700000007 13.1142870899999995 5.6044115600000000 Na
atom 13.6615780600000001 13.1443885799999993 5.9794400500000000 Cl
atom 10.7764654499999999 15.7851776899999994 8.4404038400000001 Na
atom 13.7345004700000004 15.9573607800000001 8.7437262300000000 Cl
atom 13.5699376300000001 13.0678461899999991 8.3746511300000002 Na
atom 10.5339072100000006 12.8603491999999999 8.6365452600000001 Cl
atom 13.6774746000000000 16.0026865600000008 5.8549627900000001 Na
atom 10.5991126399999995 16.0191850000000002 5.7662879000000000 Cl
atom 10.7760679600000007 18.7893479200000009 6.1351215300000002 Na
atom 13.6214183900000005 19.1176446899999988 6.1142651700000004 Cl
atom 10.7814301300000004 21.6395687999999993 8.6957549200000006 Na
atom 13.6761872800000006 21.6304320799999985 8.8953571100000008 Cl
atom 13.5377492799999999 18.8452421100000009 8.3502857499999994 Na
atom 10.7914127700000009 18.8988900499999986 8.5895453699999997 Cl
atom 13.7232748699999991 21.3704485200000001 6.1074737900000002 Na
atom 10.9026112299999998 21.6723650700000015 5.8401638900000004 Cl
atom 11.1192590599999992 24.3801429300000017 6.1358249000000002 Na
atom 13.5504627800000002 24.4339617599999990 6.3077764800000002 Cl
atom 10.7683102999999996 27.2103929899999990 8.7280831600000006 Na
atom 13.6207352099999994 27.1286627500000002 8.7709358200000000 Cl
atom 13.5667098500000005 24.3234757600000009 8.3524700299999992 Na
atom 10.8338429900000008 24.3142650499999995 8.9236016399999993 Cl
atom 13.6199230100000008 26.9408035699999999 6.0722066100000003 Na
atom 10.7430465500000007 27.1429792399999990 6.0041048999999997 Cl
atom 10.6950590600000002 29.9245226899999999 6.0447327399999997 Na
atom 13.5008865000000000 30.0093870500000008 5.8736127800000002 Cl
atom 10.7449223099999998 32.9879650000000026 8.3945637099999999 Na
atom 13.5365476600000001 33.1730144799999991 8.7777440599999998 Cl
atom 13.6520409800000007 30.0115608499999986 8.5122417499999994 Na
atom 10.6528618799999997 30.0884487299999996 8.7677200800000001 Cl
atom 13.5322121299999996 32.7648953300000016 5.8284865600000000 Na
atom 10.8257292700000001 32.7457605000000029 5.6920913600000000 Cl
atom 10.7185349999999993 35.7585055400000016 5.5827645500000003 Na
atom 13.4817715800000002 35.5951864000000029 5.5370449700000002 Cl
atom 10.6858406899999991 38.5311171600000009 8.1384796799999997 Na
atom 13.5094713199999994 38.5578630300000000 8.2682498500000001 Cl
atom 13.5994305799999999 35.7841420399999990 8.0534119999999998 Na
atom 10.6902739199999992 35.8035285099999996 8.3296030000000005 Cl
atom 13.5927378799999996 38.5376487799999978 5.5810421799999999 Na
atom 10.5030003300000008 38.0075127899999998 5.4949026900000000 Cl
atom 10.6496278400000008 2.3392325899999999 5.4946192299999996 Na
atom 13.6135287900000002 1.6290448600000000 5.2373125900000002 Cl
atom 10.3286581999999996 4.6754926599999997 8.2767199599999994 Na
atom 13.4628150499999997 4.0600990699999997 8.2412669899999997 Cl
atom 13.5463968799999996 2.2116917900000002 7.9901250599999996 Na
atom 10.5382291600000002 1.8408476400000000 8.3427792400000005 Cl
atom 13.4829803399999992 4.6768323900000004 5.4255670299999998 Na
atom 10.6292636900000002 4.9125078899999997 5.4984316499999997 Cl
atom 10.7211761600000006 7.7055075200000003 5.7490986299999998 Na
atom 13.5701483100000004 7.6731149500000004 5.7509675400000004 Cl
atom 10.7226423299999993 10.4854394000000006 8.3470861099999993 Na
atom 13.5693971500000004 10.3763561899999992 8.5362431200000000 Cl
atom 13.6746747000000006 7.4058950499999998 8.0704280599999993 Na
atom 10.6725073300000002 7.5633214400000002 8.4817658700000003 Cl
atom 13.5904021900000007 10.4705826099999992 5.9028443700000004 Na
atom 10.8454035799999993 10.4871867000000005 5.6303155699999996 Cl
atom 16.4374815299999995 13.0958265800000007 6.0069327899999996 Na
atom 19.1549733899999985 13.0973607399999992 6.0706881199999998 Cl
atom 16.4102643499999985 15.2730652100000004 8.7090913099999998 Na
atom 19.3229986999999994 15.8988809700000004 8.6781633800000009 Cl
atom 19.2328218299999989 13.0271079899999993 8.3891640299999999 Na
atom 16.4498161799999991 13.5510792299999991 8.8381610899999998 Cl
atom 19.1851122300000014 16.0497036299999998 5.9858311300000002 Na
atom 16.4275583099999984 15.8252395099999994 5.8368748300000002 Cl
atom 16.3786466699999984 18.6918955699999998 6.0649058900000004 Na
atom 19.3147515600000013 18.8085473299999997 5.9295434800000004 Cl
atom 16.3146830499999993 21.8231955800000001 8.5955947599999991 Na
atom 19.2059722499999985 21.8671530999999995 8.8566415400000000 Cl
atom 19.0647435999999999 18.9143520100000018 8.7544009099999993 Na
atom 16.2898319899999997 19.0342237700000005 8.8710318299999997 Cl
atom 19.2153521000000005 21.6114504600000004 5.9072582400000000 Na
atom 16.4453242099999990 21.6331557100000005 5.8526421700000002 Cl
atom 16.4253154700000010 24.3875800200000015 5.7673772500000000 Na
atom 19.3814971100000015 24.2936405099999995 5.7438291799999996 Cl
atom 16.3741963699999999 27.3632681700000013 8.5889221599999992 Na
atom 19.0964086399999999 27.2440537599999999 8.9064944199999996 Cl
atom 19.0595717100000002 24.5433692100000016 8.4826111900000001 Na
atom 16.3836204899999984 24.5259952100000014 8.9467690399999995 Cl
atom 19.1965857399999997 27.1288639200000006 5.9656879299999996 Na
atom 16.4313082399999999 27.1890521400000011 5.8917267300000002 Cl
atom 16.4797537399999996 30.0970092399999984 5.8504797399999999 Na
atom 19.1919700199999994 29.8529272100000007 5.7117113699999997 Cl
atom 16.2396884600000000 32.9033191400000007 8.0355919700000005 Na
atom 19.3180183099999994 32.7451609800000014 8.5158893300000003 Cl
atom 19.2754164699999997 30.1060743700000017 8.4564919500000002 Na
atom 16.3018372900000017 30.0756407199999991 8.7565738999999994 Cl
atom 19.2687987000000014 32.6943150800000026 5.6275351899999997 Na
atom 16.3153633800000009 32.8854290700000007 5.6699906599999998 Cl
atom 16.5054080899999995 35.5825625800000012 5.5703473299999997 Na
atom 19.2571743700000013 35.6505285499999971 5.5121682999999999 Cl
atom 16.4292466200000007 36.8418335100000007 8.2068426399999996 Na
atom 19.1526304799999991 38.4715525900000017 8.2582297899999997 Cl
atom 19.2519680400000013 35.8431946999999980 8.2273065499999998 Na
atom 16.3298084199999991 35.9508876900000018 8.1651444899999994 Cl
atom 19.2452754800000001 36.3767407200000008 5.6560660000000000 Na