#===============================================================================
# Created using the Atomic Simulation Environment (ASE)

# Sat Nov  1 21:48:36 2025

#=======================================================
lattice_vector 28.1999999999999993 0.0000000000000000 0.0000000000000000 
lattice_vector 0.0000000000000000 39.4799999999999969 0.0000000000000000 
lattice_vector 0.0000000000000000 0.0000000000000000 62.3296083400000001 
atom 7.3500504299999996 14.8513001399999993 0.0622391600000000 Au
atom 10.2178214700000005 14.8799468699999995 -0.1348153400000000 Au
atom 13.1311695799999999 14.8812640700000003 -0.0230824700000000 Au
atom 15.9434969800000008 15.0635234899999997 0.0026241500000000 Au
atom 18.7898309599999997 14.8309560999999999 0.1683704900000000 Au
atom 21.6359942200000006 14.7879540100000000 -0.0953270300000000 Au
atom 24.3425108100000003 14.9514833300000003 0.2751383700000000 Au
atom 27.1219198500000012 14.8275657400000007 -0.0533322600000000 Au
atom 1.7771645899999999 14.7535559200000002 0.0437153300000000 Au
atom 4.6963692699999999 14.8845865899999996 -0.0590093800000000 Au
atom 9.0053046800000001 17.2249840799999987 0.0641470500000000 Au
atom 11.8300912399999998 17.3206029800000003 -0.1293676500000000 Au
atom 14.5811770900000006 17.3013058199999996 0.1992479800000000 Au
atom 17.3172403999999993 17.3564368500000015 0.0136573500000000 Au
atom 20.3927323300000012 17.1424492300000004 0.0719226200000000 Au
atom 23.1100458300000007 17.4850828800000002 -0.0231604600000000 Au
atom 25.8920734900000014 17.2012866899999999 -0.0619165200000000 Au
atom 0.5782378100000000 17.3912681900000017 -0.0419592800000000 Au
atom 3.2755735700000002 17.3599304399999994 0.1227312100000000 Au
atom 6.0554890400000003 17.2059384800000004 0.1924596400000000 Au
atom 7.6380371499999997 19.6813699399999997 0.1870958400000000 Au
atom 10.3357005799999992 19.7293775999999994 0.0442093700000000 Au
atom 13.1619723499999992 19.8230445000000017 0.1967839400000000 Au
atom 16.0359008900000006 19.5764206300000012 -0.0259895700000000 Au
atom 18.9970192800000000 19.8661307799999989 0.0745346100000000 Au
atom 21.7077056599999985 19.8124022400000008 0.0726120800000000 Au
atom 24.3517176199999987 19.7616001899999993 -0.0269538500000000 Au
atom 27.3452074600000010 19.6751588400000017 -0.0521719700000000 Au
atom 1.9373046100000000 19.5388836899999987 0.1784684600000000 Au
atom 4.5414926700000002 19.7784160799999995 0.0503018200000000 Au
atom 8.8463477800000003 22.3288597600000003 0.0158606000000000 Au
atom 11.7980066800000003 22.2773125800000003 0.1850806400000000 Au
atom 14.6270394800000005 22.1478966300000017 0.0854983800000000 Au
atom 17.2458806699999982 22.1986758600000016 -0.0000916600000000 Au
atom 20.0380613799999985 22.3567755499999983 -0.0695156600000000 Au
atom 23.0595424999999992 21.9625513800000007 0.1173838500000000 Au
atom 25.8622533799999985 22.3027155899999983 0.1843869700000000 Au
atom 0.4694018100000000 22.2666123899999988 0.1058745800000000 Au
atom 3.2421773599999999 22.3051251800000010 0.2912704100000000 Au
atom 5.9735281000000002 22.2795208900000006 0.1361319400000000 Au
atom 7.4778888099999996 24.8946096600000004 0.1544673800000000 Au
atom 10.2899275699999997 24.6706839500000008 0.2606442900000000 Au
atom 13.1026803500000000 24.5069655900000001 0.2003355900000000 Au
atom 16.0400184500000016 24.6017450900000014 0.1727183500000000 Au
atom 18.5631849500000001 24.6496426100000008 0.0631458500000000 Au
atom 21.5997595599999990 24.7957051100000001 0.1773637500000000 Au
atom 24.3869132200000003 24.7701194399999984 0.1014396700000000 Au
atom 27.2931727100000003 24.6108451499999994 -0.0712221100000000 Au
atom 1.9260888400000000 24.5901348300000002 -0.0230873500000000 Au
atom 4.5670646899999996 24.5786860900000015 0.2049750100000000 Au
atom 8.8640622499999999 27.1484467000000009 0.1308692100000000 Au
atom 11.7278664700000004 27.0493230500000017 -0.0218257700000000 Au
atom 14.5985394799999995 27.2218241799999987 0.0761255600000000 Au
atom 17.4073132500000014 27.1352080700000009 0.0381542600000000 Au
atom 20.2285441100000014 27.1626893500000008 0.0828915800000000 Au
atom 23.0856153400000004 27.1714310599999997 0.0991929700000000 Au
atom 25.7898359500000005 27.1432389500000006 0.2127324400000000 Au
atom 0.4056822200000000 27.0069997599999994 0.1087725300000000 Au
atom 3.1752630800000001 27.2518398600000005 0.0889392600000000 Au
atom 6.0567514700000000 27.2013316699999983 0.0015856000000000 Au
atom 7.4562670799999999 29.7474816900000008 -0.0680137000000000 Au
atom 10.3180611199999994 29.4525831800000013 -0.0535501700000000 Au
atom 13.0918164099999998 29.6988544400000016 0.2062259000000000 Au
atom 15.6639548800000004 29.4653104900000002 0.2010282600000000 Au
atom 18.7425484500000010 29.5052763400000018 0.1715251100000000 Au
atom 21.7407536400000012 29.6050041499999992 0.1251131300000000 Au
atom 24.2803302599999995 29.5126726599999998 -0.0525981400000000 Au
atom 27.1179642600000008 29.6791250799999986 -0.0658611200000000 Au
atom 1.8748688899999999 29.5843559200000001 0.0388666600000000 Au
atom 4.7234407999999997 29.6895492800000014 0.0419739700000000 Au
atom 9.0686097599999993 32.1299644099999995 -0.0725753100000000 Au
atom 11.7243515600000006 32.0290879900000007 -0.0091972900000000 Au
atom 14.2714932399999999 32.0102840699999973 0.0216276400000000 Au
atom 17.2806313600000010 32.1977053399999988 0.1026130800000000 Au
atom 20.1975741900000010 32.1504992200000004 -0.0145999500000000 Au
atom 22.9678613799999987 31.9817470899999989 0.0581312200000000 Au
atom 25.7457611799999988 31.8702032099999997 0.0940675300000000 Au
atom 0.4570867000000000 32.2299592399999995 0.0698641000000000 Au
atom 3.4295338499999999 32.0572810899999965 -0.0199775900000000 Au
atom 6.1442953600000001 32.1759372900000002 0.0590853600000000 Au
atom 7.5425713800000000 34.6443709300000009 0.0676220700000000 Au
atom 10.4265901200000002 34.6038159900000011 0.0410222300000000 Au
atom 12.8810995300000002 34.6835609700000020 -0.1267328800000000 Au
atom 16.0103078200000013 34.6034747699999983 0.0639914000000000 Au
atom 18.6558380899999996 34.3803436700000020 0.0518212600000000 Au
atom 21.5891433799999994 34.5460255300000014 -0.0334499000000000 Au
atom 24.5140625000000014 34.6006866900000034 -0.0110746900000000 Au
atom 27.0284399099999995 34.5483076800000006 -0.0043787800000000 Au
atom 1.7543101500000000 34.6648307700000018 0.1747632000000000 Au
atom 4.6363160399999996 34.7581649500000012 0.0369100700000000 Au
atom 8.9488902499999998 37.2329144600000035 0.0269582500000000 Au
atom 11.8390070099999996 37.0806238699999966 0.0830957300000000 Au
atom 14.5770956500000004 37.2640117999999987 0.1296464100000000 Au
atom 17.4433170100000012 37.0111170200000004 0.1785891700000000 Au
atom 20.1630643899999988 37.0755464499999974 -0.0082790400000000 Au
atom 23.0882207999999984 37.0771412100000006 -0.1037894000000000 Au
atom 25.8433229400000002 37.0557979900000021 0.1735154700000000 Au
atom 0.3727957200000000 37.0879773400000019 0.0434081700000000 Au
atom 3.2563697299999999 36.9382336999999978 -0.0338831000000000 Au
atom 6.2466592600000004 37.0786694700000012 0.1462391700000000 Au
atom 7.5343039699999999 -0.1961829300000000 -0.2066929800000000 Au
atom 10.2716051700000008 -0.0649777000000000 -0.0853358000000000 Au
atom 13.2017236400000009 0.0893859100000000 0.0914050900000000 Au
atom 15.8275901099999992 -0.1032840500000000 0.0642756600000000 Au
atom 18.6584435800000001 0.0643338300000000 0.1173345200000000 Au
atom 21.7413114599999986 -0.0285983100000000 0.0558511300000000 Au
atom 24.4942240600000005 -0.0202835800000000 0.0524030400000000 Au
atom 27.4089794299999987 -0.0515250000000000 0.2948241400000000 Au
atom 1.8107115100000000 -0.0434244500000000 0.1501584500000000 Au
atom 4.9230223000000004 0.1739270300000000 0.0193376300000000 Au
atom 8.9667083400000003 2.3387493600000000 0.1435505800000000 Au
atom 11.5159717100000005 2.4761448399999999 0.0096012300000000 Au
atom 14.6053124899999993 2.6168583600000002 0.0947120800000000 Au
atom 17.4151772899999990 2.2292873400000000 0.2042082900000000 Au
atom 20.0957086800000013 2.4415613500000002 -0.0193236000000000 Au
atom 23.2021072100000012 2.5443930600000000 0.2103565500000000 Au
atom 25.8020574600000003 2.4008461099999998 -0.0198698600000000 Au
atom 0.4614179000000000 2.5406286800000002 -0.0140471300000000 Au
atom 3.2436640600000000 2.4456336699999999 0.0949867300000000 Au
atom 5.9513023199999999 2.5643494200000001 0.0684033500000000 Au
atom 7.5369210300000002 4.7676520499999997 0.1878763800000000 Au
atom 10.1339820399999994 4.9629132499999997 -0.0324259400000000 Au
atom 13.0503379299999995 4.9613698900000003 0.0512388600000000 Au
atom 15.9873013999999998 4.8779626399999998 0.0200106900000000 Au
atom 18.8546870400000017 4.8910555599999999 0.0999529000000000 Au
atom 21.6888241300000004 4.9879350000000002 0.1679729100000000 Au
atom 24.3338198299999995 4.9703109999999997 0.2744170000000000 Au
atom 27.2568233199999987 4.8269109600000002 0.0539905800000000 Au
atom 1.9375628899999999 4.9421329199999997 -0.0567873500000000 Au
atom 4.8685073000000001 5.1121276499999997 0.1339796200000000 Au
atom 8.9772134399999999 7.4314091299999996 0.1168611800000000 Au
atom 11.7183727300000005 7.3742424399999997 -0.0787771200000000 Au
atom 14.4581420499999993 7.3916079600000000 0.1483380000000000 Au
atom 17.2977728699999993 7.3195971399999999 0.1623379500000000 Au
atom 20.2474207700000015 7.4407776099999996 0.2448889800000000 Au
atom 22.8348291199999984 7.3583515999999998 0.1753607900000000 Au
atom 25.7817265099999986 7.3919299000000001 0.2009205600000000 Au
atom 0.6004420200000000 7.5016760600000003 0.0593957100000000 Au
atom 3.3677802400000001 7.2538394700000000 0.0909045900000000 Au
atom 6.1689679599999998 7.3898624799999997 0.0445978800000000 Au
atom 7.5306635100000001 9.8188884600000002 0.1092760900000000 Au
atom 10.1506512499999992 9.7820631200000001 -0.0244397700000000 Au
atom 13.1846618699999993 9.9355908900000003 -0.0621250400000000 Au
atom 15.9454657399999995 9.8102852400000007 -0.1949142500000000 Au
atom 18.8827284700000000 9.8101578200000006 0.1634837000000000 Au
atom 21.5722534900000014 9.9236525800000006 0.0934801500000000 Au
atom 24.4638195399999994 9.8477983600000005 0.0688843200000000 Au
atom 27.3123464899999995 9.8257590100000005 0.0105743900000000 Au
atom 1.7470400399999999 9.7585746800000006 0.0976152500000000 Au
atom 4.7476827799999999 9.9764816500000002 -0.1037859900000000 Au
atom 9.0599980400000000 12.4586092399999995 -0.0026181800000000 Au
atom 11.7133656899999998 12.2043061399999999 -0.0479401300000000 Au
atom 14.5468920300000004 12.2172595499999996 0.1487050400000000 Au
atom 17.3645499200000017 12.3131600700000003 0.0671216300000000 Au
atom 20.3207683599999989 12.3174475900000004 -0.2096390700000000 Au
atom 23.0273808600000010 12.3931420499999998 0.0296662900000000 Au
atom 25.8528394500000012 12.4667426399999997 0.0255653900000000 Au
atom 0.4190146400000000 12.4462536299999993 0.0295112000000000 Au
atom 3.1860217099999999 12.3708714099999995 -0.2197582100000000 Au
atom 6.1407171600000003 12.3646039600000002 -0.1707089200000000 Au
atom 7.5651359800000000 13.3564172600000006 2.6948906799999999 Au
atom 10.3722253999999996 13.1714254700000009 2.5975479099999998 Au
atom 13.0993432399999996 13.2764848700000009 2.6064371799999999 Au
atom 15.8118803999999997 13.1523971900000003 2.3543420799999999 Au
atom 18.6526926700000004 13.1961659299999994 2.5971525600000001 Au
atom 21.7245376199999995 13.2140471099999992 2.5452978100000001 Au
atom 24.3942328999999987 13.2549499599999994 2.4817450100000000 Au
atom 27.3548397799999989 13.2021059100000002 2.5346703000000002 Au
atom 2.0136936200000002 13.1964841899999996 2.6355750400000000 Au
atom 4.6604611499999997 13.3011225399999997 2.7043894399999999 Au
atom 8.8645826700000008 15.6126176599999997 2.5736073699999999 Au
atom 11.7452620000000003 15.5269647699999993 2.6206059700000002 Au
atom 14.5898883300000008 15.9110351399999992 2.5418896000000002 Au
atom 17.4533484899999998 15.8028642700000006 2.6763281299999999 Au
atom 20.1497213600000009 15.6991370400000001 2.7992725100000002 Au
atom 22.9217098099999994 15.6929260599999996 2.6417828299999999 Au
atom 25.8096000799999992 15.6760903799999998 2.6633732499999998 Au
atom 0.4126562400000000 15.6819005199999992 2.6253551599999998 Au
atom 3.4853559100000000 15.7425851199999993 2.6584667400000002 Au
atom 6.0003908199999998 15.5904081800000007 2.5496021500000001 Au
atom 7.5399496099999999 18.0607207000000010 2.7353883300000001 Au
atom 10.4161212200000008 17.9579689500000015 2.4996011999999999 Au
atom 12.9669154500000001 18.2233820999999985 2.6570460900000001 Au
atom 15.9407798100000004 18.0807603899999982 2.6597670899999999 Au
atom 18.7417409600000013 17.9867462600000003 2.7904507700000001 Au
atom 21.7061327999999989 18.1396120900000000 2.6508340600000002 Au
atom 24.2626941400000007 18.1937512599999991 2.8018833800000000 Au
atom 27.2616412399999994 18.0549995000000010 2.5494675800000000 Au
atom 1.9712238300000000 18.0802419699999994 2.7570755800000000 Au
atom 4.7655279999999998 18.1497619899999982 2.5618045600000001 Au
atom 8.9230344499999994 20.6583836599999984 2.6865545399999999 Au
atom 11.6877839199999993 20.3468460200000010 2.8667462700000002 Au
atom 14.5205760399999999 20.4933076700000001 2.7170711700000001 Au
atom 17.4998424499999992 20.6058971399999997 2.5351398299999999 Au
atom 20.2218229600000008 20.5211130900000001 2.6732768099999999 Au
atom 23.2114882300000005 20.5326071399999996 2.6931314799999999 Au
atom 25.8706609599999986 20.5562009199999984 2.6899338199999998 Au
atom 0.4805974000000000 20.7189104899999990 2.5883801200000001 Au
atom 3.1248843300000000 20.4956762099999992 2.6209715700000000 Au
atom 6.0147498900000000 20.6520948799999999 2.6422127000000000 Au
atom 7.5944730900000001 22.9351407899999984 2.7863820399999999 Au
atom 10.3346542199999991 23.1115997899999996 2.6568223000000000 Au
atom 13.0584241300000006 22.8752191899999993 2.7588792199999999 Au
atom 15.9164241000000004 23.1179617700000009 2.6910639399999998 Au
atom 18.6818550200000004 23.1472432099999992 2.6746879699999999 Au
atom 21.8011053799999992 23.2464102699999984 2.7062366299999998 Au
atom 24.5165445300000009 23.0789291600000013 2.6721440699999999 Au
atom 27.3716002299999985 23.1996919400000010 2.6424454900000001 Au
atom 1.9458514400000000 22.9993628399999999 2.6006063799999999 Au
atom 4.6068993499999999 23.0849927299999997 2.7673128700000000 Au
atom 8.9935928100000009 25.5556021999999992 2.4724173999999999 Au
atom 11.8221118399999998 25.5574283999999992 2.8262273000000002 Au
atom 14.7529969699999999 25.5681657499999986 2.5848375899999998 Au
atom 17.3739413899999988 25.5410782999999988 2.8407191699999998 Au
atom 20.0671330999999995 25.5223732599999984 2.8385056600000000 Au
atom 23.0073555499999998 25.5073817600000012 2.6816263600000001 Au
atom 25.6897810799999995 25.5227729799999992 2.7608081499999999 Au
atom 0.3355381800000000 25.5781882799999991 2.8892549000000001 Au
atom 3.3401518900000000 25.6150830499999991 2.8634764499999998 Au
atom 6.0315237000000002 25.4939868800000013 2.7642625100000000 Au
atom 7.5178064999999998 27.8918493000000005 2.6246802400000000 Au
atom 10.4403792200000005 27.9639837299999989 2.6530292800000002 Au
atom 13.1362964200000008 28.1382268099999990 2.5989491600000001 Au
atom 15.9693814799999991 27.9943288300000006 2.6830014700000002 Au
atom 18.8340306899999987 28.0245345300000004 2.6763838000000000 Au
atom 21.5718514799999994 27.9270666500000004 2.8029690100000000 Au
atom 24.3834282800000004 28.0804434900000004 2.5712304399999999 Au
atom 27.1951271500000011 27.7293704400000003 2.7631245600000001 Au
atom 1.8986762900000000 27.9750840499999995 2.6069141199999999 Au
atom 4.7591314499999999 27.9518243999999996 2.5545515499999998 Au
atom 8.9385515499999997 30.4160066899999997 2.6179977499999998 Au
atom 11.8351974799999997 30.4325186599999995 2.6113204099999998 Au
atom 14.6124934799999995 30.4729790999999999 2.5928827200000000 Au
atom 17.3732115000000000 30.4823863000000017 2.5932722899999998 Au
atom 20.2290967899999998 30.5585928799999991 2.5566999400000001 Au
atom 23.1470250499999999 30.5212032600000001 2.7613739800000001 Au
atom 25.7052978299999992 30.4620356900000004 2.7224593200000000 Au
atom 0.4707740500000000 30.4946172500000010 2.5274762800000001 Au
atom 3.2731699700000001 30.5971661899999994 2.4255024999999999 Au
atom 6.0907850500000000 30.4853511099999999 2.6008093400000001 Au
atom 7.4315237300000003 32.8745127400000001 2.5849867700000000 Au
atom 10.3360798500000008 32.8584296699999996 2.4479991900000000 Au
atom 13.1842595800000009 33.0387395300000009 2.6113379800000001 Au
atom 16.2411965999999985 33.0063965499999981 2.7566354500000001 Au
atom 18.8419707800000005 33.1489718500000023 2.5985847000000000 Au
atom 21.7347563500000014 32.8949334300000018 2.7063039999999998 Au
atom 24.5154240399999992 32.9615027400000002 2.6508472799999998 Au
atom 27.3727951099999984 32.8913537000000034 2.8976988700000001 Au
atom 1.7710529300000000 32.9814716400000023 2.6186365000000000 Au
atom 4.7321393199999999 32.9737326099999990 2.5878135800000002 Au
atom 8.8337154499999997 35.2647196799999989 2.5697136000000000 Au
atom 11.8654761600000000 35.3202576899999983 2.6249514700000001 Au
atom 14.5769577300000002 35.3562558899999999 2.8262680800000002 Au
atom 17.4101910800000006 35.3215250100000020 2.5863827599999998 Au
atom 20.1424509600000015 35.3710732300000004 2.8694687999999999 Au
atom 23.0776265599999988 35.3959940100000026 2.8241969500000002 Au
atom 25.6408732000000015 35.1536180599999994 2.7200275700000001 Au
atom 0.5537277700000000 35.4998187599999966 2.5332674100000001 Au
atom 3.3323450000000001 35.5407263999999969 2.5649202700000000 Au
atom 6.1141484400000001 35.3261162900000016 2.4526164000000001 Au
atom 7.5640852799999996 38.0119036999999977 2.6172591299999999 Au
atom 10.2850610600000003 37.8050915700000019 2.7249874799999998 Au
atom 13.1502227999999999 37.8727015999999992 2.6587474900000001 Au
atom 16.1264381899999982 37.8777296900000024 2.6433111000000000 Au
atom 18.6238114500000016 37.7661240199999995 2.5904598499999998 Au
atom 21.6387136799999986 37.9631473099999965 2.7431728700000000 Au
atom 24.4156464799999995 37.9071720700000014 2.6119614499999999 Au
atom 27.2285571500000003 37.8404852299999988 2.7102922999999999 Au
atom 1.6657146400000000 37.9324220299999979 2.4991174200000001 Au
atom 4.7217206100000002 37.9803003899999965 2.6108452400000002 Au
atom 8.8417946100000009 0.7861829200000000 2.6798385499999999 Au
atom 11.8519440800000009 0.7146039500000000 2.9506273500000000 Au
atom 14.7185359099999999 0.9081964200000000 2.8984027800000001 Au
atom 17.3720941300000007 0.7806289500000000 2.8109909700000002 Au
atom 20.2383030700000006 0.8263957199999999 2.8604221999999999 Au
atom 23.0398135800000006 0.6958871700000000 2.7263590999999998 Au
atom 25.8248141599999990 0.7687634600000000 2.6923013999999998 Au
atom 0.3892654500000000 0.8435941200000000 2.8255546100000002 Au
atom 3.4216580300000001 0.7466230900000000 2.7644644700000001 Au
atom 5.9918346099999997 0.9197002399999999 2.7077678399999998 Au
atom 7.5534780100000001 3.2968186700000000 2.7763526399999998 Au
atom 10.2622662200000008 3.0462334599999998 2.6927615299999998 Au
atom 12.9734609299999999 3.3567926099999998 2.7966727599999999 Au
atom 15.8600596300000003 3.1349068999999998 2.6163657900000001 Au
atom 18.8622375700000013 3.3289714600000000 2.7215838699999999 Au
atom 21.5808896099999998 3.4176047199999999 2.7189285600000002 Au
atom 24.5049961399999994 3.1498212699999999 2.7114715100000000 Au
atom 27.1122897800000011 3.2280370999999999 2.6409399100000002 Au
atom 1.9769703000000001 3.2051605200000002 2.8031822700000002 Au
atom 4.7255750900000004 3.2130164600000000 2.6466371600000000 Au
atom 9.0608530300000005 5.8774943500000001 2.6267246599999998 Au
atom 11.7125641999999992 5.7828200799999996 2.7823373500000002 Au
atom 14.5624401399999996 5.6114490899999998 2.6851147900000001 Au
atom 17.2800351600000006 5.7199721500000003 2.8065823000000001 Au
atom 20.2592948600000007 5.8414129299999997 2.7676715399999998 Au
atom 23.2593318599999996 5.7459629300000001 2.7034308000000000 Au
atom 25.7293068600000012 5.7683406699999997 2.7160546399999999 Au
atom 0.5949225500000000 5.8105698400000003 2.7407887400000002 Au
atom 3.1771036100000001 5.8296945899999999 2.5932968299999999 Au
atom 6.0273239900000002 5.8373547300000004 2.6614258600000000 Au
atom 7.1510107400000003 8.2806878800000003 2.5757358199999998 Au
atom 10.5202525300000005 8.0242298900000009 2.5355214400000001 Au
atom 13.1924835799999993 8.1007657099999992 2.7154742299999999 Au
atom 16.1300987900000017 8.3360704600000002 2.5784291000000001 Au
atom 18.8934367600000002 8.4091649000000004 2.7028313499999999 Au
atom 21.6206707300000005 8.1736437300000002 2.6498496899999999 Au
atom 24.4174750600000010 8.3005715900000006 2.7584030099999999 Au
atom 27.2714870699999992 8.1993403300000001 2.5664187699999998 Au
atom 1.9123746699999999 8.2891483000000008 2.8472750699999998 Au
atom 4.6147272399999997 8.2131581800000006 2.4955544399999998 Au
atom 8.7994999299999996 10.7594145999999995 2.6623529499999998 Au
atom 11.7040108200000006 10.7448412399999995 2.7924930400000001 Au
atom 14.3909905899999995 10.7276273000000000 2.7785672799999999 Au
atom 17.3085255099999991 10.7793304800000005 2.6273723400000000 Au
atom 20.1045988199999996 10.8266708699999992 2.4438336299999999 Au
atom 23.1444065300000013 10.7263604099999998 2.5010158499999999 Au
atom 25.9520806200000003 10.6878723200000003 2.4787935600000002 Au
atom 0.4567459600000000 10.7664556900000008 2.6835140100000001 Au
atom 3.1288199699999999 10.6718372600000002 2.4829421400000000 Au
atom 6.1968597200000000 10.8868287099999996 2.5543325399999999 Au
atom 7.7329967999999996 13.1306591299999997 5.7961806600000001 Cl
atom 7.6907688600000004 15.8734421799999996 8.5677278900000005 Cl
atom 7.5970021499999998 13.1416209199999994 8.4089786499999999 Na
atom 7.4988096799999999 15.7844153200000008 5.8917474500000004 Na
atom 7.3756276099999996 18.8738318099999987 5.6203710100000004 Cl
atom 7.5026240000000000 21.5763005899999989 8.6245922200000003 Cl
atom 7.5770212800000003 18.8672178099999996 8.3980287499999999 Na
atom 7.4643457499999997 21.6313128500000005 5.8885232700000003 Na
atom 7.5245641799999996 24.5070244600000002 5.8738966799999996 Cl
atom 7.5325516400000003 27.1104249599999996 8.7193986399999996 Cl
atom 7.5569060300000004 24.6706352100000004 8.3520654099999998 Na
atom 7.4050317600000000 27.2010609599999995 5.7824032299999999 Na
atom 7.4020503199999999 29.8402147900000010 5.6990026800000004 Cl
atom 7.5454382300000002 32.8944642599999995 8.5931950700000002 Cl
atom 7.4754060400000002 30.0085231599999993 8.3820948899999994 Na
atom 7.6251384699999996 32.9672892800000028 5.6946557499999999 Na
atom 7.6036725599999997 35.9104921500000032 5.6622705800000004 Cl
atom 7.4525978400000001 38.7805160699999973 8.5478456999999999 Cl
atom 7.5775864400000001 35.7620921199999984 8.5170406900000000 Na
atom 7.6103559000000001 38.5747140599999980 5.8088350699999998 Na
atom 7.5988043400000000 1.8185877399999999 5.6961312599999996 Cl
atom 7.4485292699999999 4.6699716699999998 8.4495782199999994 Cl
atom 7.4877825199999997 1.7908104400000000 8.2916411399999994 Na
atom 7.6040059800000002 4.8743842300000004 5.7621320100000002 Na
atom 7.6066470800000001 7.5900595300000004 5.9253859100000001 Cl
atom 7.5617002099999997 10.5112180899999998 8.5071610399999997 Cl
atom 7.5455854899999997 7.4074171299999998 8.3232086800000005 Na
atom 7.4284095600000004 10.3827322100000004 5.7991080100000003 Na
atom 10.1564058999999993 13.3688537499999995 5.8727526100000000 Na
atom 13.1055093399999993 13.2594721599999996 5.5588022500000003 Cl
atom 10.2653920299999992 15.9721416000000005 8.2580665000000000 Na
atom 13.1134822399999997 16.0261557199999984 8.4207908499999995 Cl
atom 13.0104917600000007 13.3027574200000007 8.2900409199999991 Na
atom 10.2592528600000001 13.1742871899999994 8.5575600299999994 Cl
atom 13.1186520600000005 16.0838257599999999 5.7740469100000000 Na
atom 10.1865866300000008 15.8979558799999996 5.7425533099999999 Cl
atom 10.0940959299999999 18.8911527899999996 5.8857704300000000 Na
atom 13.0729214000000002 18.8158219299999985 5.7190265399999998 Cl
atom 10.6249653100000003 21.6742009899999992 8.4374334999999991 Na
atom 13.0434105299999992 21.7631890599999984 8.6718776999999996 Cl
atom 13.0692547599999997 18.8483891999999997 8.3146737599999998 Na
atom 10.0254700400000001 19.0154534800000015 8.5630713200000006 Cl
atom 12.8571638799999999 21.4514474899999996 5.8026288800000003 Na
atom 10.5054184300000006 21.5745446200000011 5.8072027400000001 Cl
atom 10.2789362299999993 24.4458672999999997 5.7442802400000001 Na
atom 13.1564472499999994 24.5134903299999998 5.6033871099999999 Cl
atom 10.5275703200000006 27.2463844799999997 8.3671342699999993 Na
atom 12.9346391799999996 27.1847847099999989 8.6250549099999994 Cl
atom 13.1414717900000007 24.4696077199999991 8.3087549599999999 Na
atom 10.3886264500000003 24.5583983699999990 8.3815200300000008 Cl
atom 12.9033876299999992 27.2290546300000003 6.0454799100000001 Na
atom 10.1201987300000003 27.2488246499999995 5.8416743000000002 Cl
atom 10.5306203400000005 30.0408194699999989 5.7612037899999997 Na
atom 13.1525278700000001 30.1962326899999987 5.8731983000000003 Cl
atom 10.3420125699999996 32.7684122799999997 8.3382490300000001 Na
atom 13.0500155099999997 32.9709974100000025 8.6734671900000002 Cl
atom 13.2815717899999992 30.0511658100000005 8.3380133700000005 Na
atom 10.2644343599999992 30.0300633899999987 8.5677379699999996 Cl
atom 13.1182729100000000 32.8707892099999981 5.6733660700000001 Na
atom 10.4429922499999996 33.0928085500000009 5.7408958099999996 Cl
atom 10.7222539399999999 35.7601175300000023 5.9155209299999996 Na
atom 13.1848712300000006 35.7572350200000031 5.5379908400000000 Cl
atom 10.3838868099999999 38.5266362699999974 8.3368337300000004 Na
atom 13.2673453600000002 38.5679290899999998 8.7090733999999994 Cl
atom 13.1450423599999997 35.8384366800000009 8.3626999800000004 Na
atom 10.3207721299999999 35.7789662599999971 8.6186100900000007 Cl
atom 13.1572435999999993 38.5658719099999985 5.8189758400000002 Na
atom 10.3103181199999998 38.5929990400000023 5.7027334700000001 Cl
atom 10.2908034500000003 1.9929393000000000 5.9305058400000004 Na
atom 13.2207563399999994 1.8971190899999999 5.8469328500000000 Cl
atom 10.3705466899999994 4.8070830400000002 8.4884328300000007 Na
atom 13.2926750299999998 4.5825320300000003 8.7496309900000000 Cl
atom 13.2788685399999995 1.8954961100000001 8.3013674900000005 Na
atom 10.3770078600000009 1.8464773999999999 8.5003024699999994 Cl
atom 13.1857790599999998 4.6516976100000003 5.7644542500000000 Na
atom 10.2217530199999995 4.7419756199999998 5.6966285900000004 Cl
atom 10.1970832100000006 7.6887457899999996 5.8145265899999998 Na
atom 13.2389825299999995 7.4565330000000003 5.7943013299999997 Cl
atom 10.3386817999999998 10.3069482299999997 8.2241404399999993 Na
atom 13.0417043699999997 10.3873707000000000 8.4481934499999998 Cl
atom 13.0637128600000008 7.5983100400000003 8.2305565200000004 Na
atom 10.2435066399999997 7.7434460600000001 8.5814894299999995 Cl
atom 13.1640296299999999 10.4463723000000002 5.8088788800000000 Na
atom 10.3818557499999997 10.1952970300000008 5.6916317300000001 Cl
atom 15.7623773000000007 13.3974743400000005 5.6585544900000002 Na
atom 18.6832560399999998 13.3095259200000005 5.8134318000000000 Cl
atom 15.8397734799999999 16.1178205199999987 8.3871277200000005 Na
atom 18.8277339800000014 15.9207627699999996 8.6691955600000004 Cl
atom 18.6590027099999993 13.1232870899999998 8.1989266300000008 Na
atom 15.9271631899999999 13.1113471700000002 8.7114143399999993 Cl
atom 18.7305790700000010 16.0341395400000017 5.7235211799999997 Na
atom 15.8962053300000008 16.0029625499999995 5.6909165100000001 Cl
atom 16.0183993700000009 18.8378689900000005 5.9030076800000000 Na
atom 18.7329121200000017 18.9395118999999994 5.8945885999999996 Cl
atom 15.9228656500000003 21.6751650100000006 8.3820253600000001 Na
atom 18.8049619200000002 21.6792197599999987 8.4325789300000000 Cl
atom 18.7340424900000002 18.8958975799999997 8.4198714799999994 Na
atom 15.8906152400000007 18.7035753900000010 8.6800589299999995 Cl
atom 18.6429034899999984 21.8100343000000017 5.7341854200000002 Na
atom 15.8972472800000002 21.6090290500000002 5.6597233600000001 Cl
atom 15.7956625499999994 24.4550242199999985 5.7311121600000003 Na
atom 18.8388910799999998 24.5116560200000002 5.7463639799999999 Cl
atom 15.8564471999999999 27.2585605899999983 8.4934478799999997 Na
atom 18.7894223700000005 27.4122788799999988 8.5761751000000004 Cl
atom 19.0171526700000015 24.5650236600000014 8.5515037100000004 Na
atom 16.0232777999999989 24.5400796700000008 8.4836630300000007 Cl
atom 18.8268097400000016 27.3099650300000008 5.8673879400000004 Na
atom 16.1753551500000015 27.3266722500000014 5.7234991600000003 Cl
atom 16.0049295299999983 30.1285793099999992 5.7809770699999996 Na
atom 18.8299551500000000 30.0962537999999995 5.7033836700000000 Cl
atom 16.1313416499999995 32.9180198800000028 8.4222538599999996 Na
atom 18.9011836399999993 32.8692743200000024 8.5584175800000004 Cl
atom 18.6050923399999988 30.0241257099999999 8.3046910000000000 Na
atom 15.9083521799999996 30.0286564100000000 8.4996643299999999 Cl
atom 18.8475089300000000 33.0487204599999984 5.9449144100000000 Na
atom 15.8824736899999994 32.9106892699999989 5.6654179700000000 Cl
atom 15.9834977400000007 35.6304442799999990 5.8702153399999997 Na
atom 18.9822455800000007 35.5205069599999987 5.7277460199999997 Cl
atom 15.9204689599999991 38.5357061799999983 8.3976460300000006 Na
atom 18.7574005200000009 38.5085297400000002 8.6518387000000008 Cl
atom 18.7509931200000004 35.5214344999999980 8.5847744299999995 Na
atom 15.7875818399999996 35.8367937599999991 8.5091812099999995 Cl
atom 18.6511187199999995 38.5540009799999979 5.7294825600000001 Na