#===============================================================================
# Created using the Atomic Simulation Environment (ASE)

# Tue Dec 23 21:42:08 2025

#=======================================================
lattice_vector 28.1999999999999993 0.0000000000000000 0.0000000000000000 
lattice_vector 0.0000000000000000 39.4799999999999969 0.0000000000000000 
lattice_vector 0.0000000000000000 0.0000000000000000 62.3296083400000001 
atom 7.4424651500000003 14.8304840200000001 -0.2939083300000000 Au
atom 10.2613189100000000 14.8714369899999994 -0.3363336600000000 Au
atom 13.0960315400000002 14.9529287499999999 -0.3276661900000000 Au
atom 15.8836349999999999 14.8995655399999993 -0.2445259500000000 Au
atom 18.8150114899999998 14.8225194600000005 -0.2335882800000000 Au
atom 21.6518538900000017 14.8239437699999996 -0.0118975800000000 Au
atom 24.3890082399999990 14.8619387399999994 0.0642608400000000 Au
atom 27.1654179599999992 14.7774293100000005 0.0788362000000000 Au
atom 1.8840961700000001 14.7467401900000006 -0.1154243700000000 Au
atom 4.7068530700000002 14.8471256900000004 -0.0338972100000000 Au
atom 8.8908431599999993 17.3091384599999998 -0.2154951700000000 Au
atom 11.7020234900000002 17.3783726300000012 -0.4452548300000000 Au
atom 14.5004452599999993 17.3879841900000010 -0.3282897700000000 Au
atom 17.3775086899999991 17.2510685499999994 -0.0075031800000000 Au
atom 20.2032462200000005 17.2971849199999994 -0.1686187800000000 Au
atom 23.0171138100000015 17.3256682700000013 0.1193418600000000 Au
atom 25.9146034999999983 17.2456166599999996 0.0592593200000000 Au
atom 0.5561515800000000 17.2645798399999997 0.2258394100000000 Au
atom 3.2634935899999999 17.2892529199999991 0.0067817000000000 Au
atom 6.0551869399999996 17.2830879400000015 -0.0533721200000000 Au
atom 7.5063165700000001 19.7941289000000005 -0.2798813800000000 Au
atom 10.3177493899999995 19.6973569200000007 -0.2219064900000000 Au
atom 13.1347957999999991 19.8020310600000009 -0.3097245100000000 Au
atom 16.0320385399999985 19.7654951200000006 -0.4330221900000000 Au
atom 18.8019332900000009 19.7385660399999985 0.0185363800000000 Au
atom 21.6764802799999998 19.6924700299999991 0.1432488300000000 Au
atom 24.4738871300000014 19.7404026399999992 -0.0880569300000000 Au
atom 27.2363961100000012 19.8286683299999993 0.0268335400000000 Au
atom 1.8696904400000001 19.7379466800000003 0.1604771700000000 Au
atom 4.6014085600000003 19.7468182399999996 -0.1114514300000000 Au
atom 8.9579371400000003 22.2172711099999987 0.1094141400000000 Au
atom 11.6061080800000003 22.3159401600000002 -0.1009794900000000 Au
atom 14.4786836500000007 22.3065268500000009 -0.3501227000000000 Au
atom 17.3414003100000009 22.2904963100000018 -0.1239650800000000 Au
atom 20.2187384700000017 22.1575505399999990 0.0470800600000000 Au
atom 23.0396091500000004 22.1729263000000003 0.2763761300000000 Au
atom 25.9474919300000018 22.2851534600000001 0.0007614000000000 Au
atom 0.5223385300000000 22.2407469499999983 0.3951872500000000 Au
atom 3.2919937600000000 22.2351819000000006 0.1865664600000000 Au
atom 6.0779377300000004 22.2167201699999985 -0.0657960400000000 Au
atom 7.5575764000000003 24.6174938800000014 -0.0825359300000000 Au
atom 10.3826004500000000 24.7675882799999982 -0.1611245100000000 Au
atom 13.1826110700000001 24.7267728499999997 -0.1403911300000000 Au
atom 16.0232984400000014 24.8161523399999986 -0.3307233600000000 Au
atom 18.8626560900000015 24.7346772699999988 -0.0889794700000000 Au
atom 21.6996733999999982 24.6420640099999986 -0.0063697900000000 Au
atom 24.4146859700000007 24.6429269399999988 0.1958271600000000 Au
atom 27.2254211800000014 24.7194111300000010 0.2416483800000000 Au
atom 1.8601506600000000 24.7584792299999989 0.2246414900000000 Au
atom 4.6978675499999998 24.7021096799999995 0.2569134400000000 Au
atom 8.9944558299999997 27.0887004800000000 -0.1324197500000000 Au
atom 11.7872361399999992 27.1483448199999984 0.1948838000000000 Au
atom 14.5660278999999999 27.1878673299999996 -0.1858160200000000 Au
atom 17.3125390699999997 27.2153594100000014 -0.0815400000000000 Au
atom 20.2433680199999984 27.1657805400000001 0.0865302100000000 Au
atom 23.0879334900000011 27.0830451699999983 0.1004398500000000 Au
atom 25.8559334099999987 27.1088967499999995 0.0814137200000000 Au
atom 0.4710481900000000 27.1720849499999986 -0.0403478400000000 Au
atom 3.4052099199999999 27.1444338700000003 0.0814558000000000 Au
atom 6.1622767100000004 27.0895381899999990 0.1552831300000000 Au
atom 7.5363008699999998 29.5379970100000016 -0.2696463300000000 Au
atom 10.3819684100000007 29.5347266499999996 0.1157911300000000 Au
atom 13.1743120200000003 29.5692321000000007 -0.1518203400000000 Au
atom 16.0383513999999998 29.6171429500000016 0.0891791200000000 Au
atom 18.7622957499999998 29.7089445900000015 -0.0505364900000000 Au
atom 21.5518052000000004 29.4758699399999990 0.0096985800000000 Au
atom 24.4716593600000003 29.5596725900000017 0.1866283100000000 Au
atom 27.2549426600000011 29.6084603599999987 -0.0106705900000000 Au
atom 1.8392054400000000 29.5791220800000012 0.0706996200000000 Au
atom 4.6513778700000001 29.6261428699999989 -0.1910235200000000 Au
atom 8.9064933300000000 31.9955874400000013 -0.1578728800000000 Au
atom 11.6591923299999998 31.9967882400000008 0.0771815800000000 Au
atom 14.4713542299999993 32.0734747400000018 -0.2378028100000000 Au
atom 17.3712034399999986 32.1934456400000002 -0.0227171700000000 Au
atom 20.1938329199999984 32.1581256300000007 -0.1309710200000000 Au
atom 22.9606215899999988 32.0229445499999983 -0.1242614400000000 Au
atom 25.8360594699999986 32.1010690900000029 0.0961031700000000 Au
atom 0.4555729500000000 32.0573016399999986 0.0388127900000000 Au
atom 3.2478801000000002 32.0487694500000018 -0.2706165800000000 Au
atom 6.0845919999999998 32.0746723900000035 0.0603158900000000 Au
atom 7.4228069500000000 34.5019664100000014 0.0340981300000000 Au
atom 10.2559506599999999 34.5492020800000006 -0.2509997600000000 Au
atom 13.0695269599999992 34.6345953699999995 -0.0560604200000000 Au
atom 15.9442233699999996 34.6184881699999991 0.1034285900000000 Au
atom 18.8052141100000014 34.6378344299999981 -0.1269056400000000 Au
atom 21.5448469100000004 34.5649478300000013 0.0646148700000000 Au
atom 24.3339289500000007 34.4739229600000030 -0.2590855300000000 Au
atom 27.1975914699999990 34.4853801300000029 -0.2777413100000000 Au
atom 1.8408728200000000 34.6758451099999974 -0.0982863900000000 Au
atom 4.6457878900000003 34.5591078300000021 0.0166240700000000 Au
atom 8.7950907100000002 37.0723115699999965 -0.0417612800000000 Au
atom 11.6378880999999996 37.1177872900000025 -0.2228984200000000 Au
atom 14.4688761199999991 37.0190509899999967 -0.2749057000000000 Au
atom 17.3561996000000001 37.0174644599999993 0.0833017100000000 Au
atom 20.1919653799999992 37.0260085299999986 0.1456362600000000 Au
atom 22.9892129199999999 36.9787064599999979 -0.0095942600000000 Au
atom 25.7267963699999989 36.9893702099999970 -0.2547289300000000 Au
atom 0.3753483800000000 36.9814845499999976 -0.0836521500000000 Au
atom 3.2409196599999999 37.1267343800000020 -0.0180852000000000 Au
atom 6.0921558700000000 37.0572846900000030 0.2125389300000000 Au
atom 7.5179903599999998 0.0351410200000000 0.2872094900000000 Au
atom 10.2495238000000004 -0.0357307900000000 0.2755307000000000 Au
atom 13.0697762100000006 0.1852756500000000 -0.1517786900000000 Au
atom 15.7956208500000006 0.0159316100000000 0.3247798300000000 Au
atom 18.6441606700000015 0.0287086300000000 0.3808975000000000 Au
atom 21.5208506200000009 -0.0510759300000000 0.1446206200000000 Au
atom 24.4247160699999988 0.0382608300000000 -0.0096343600000000 Au
atom 27.1686626000000011 -0.0817951100000000 -0.1862968300000000 Au
atom 1.8377174999999999 0.0834873100000000 -0.0082191200000000 Au
atom 4.7128244099999996 0.0293708300000000 0.0270960000000000 Au
atom 8.8724681299999997 2.5013871600000002 0.3865466200000000 Au
atom 11.5977076100000005 2.5842790000000000 0.1606389000000000 Au
atom 14.5021395999999996 2.5873399199999998 0.3365211100000000 Au
atom 17.3066278900000015 2.5316459700000000 0.3422798300000000 Au
atom 20.0315212600000017 2.4313449700000000 0.1847264600000000 Au
atom 22.9729675799999988 2.3389536400000002 0.0223991800000000 Au
atom 25.8407890699999996 2.3991029799999999 -0.0910172600000000 Au
atom 0.3664462600000000 2.4920580299999999 -0.1097999300000000 Au
atom 3.2462581099999999 2.5281062200000002 -0.1097793000000000 Au
atom 6.0425191299999996 2.5436611299999998 0.0500945100000000 Au
atom 7.4332370499999998 4.9927774800000000 0.0804645300000000 Au
atom 10.2558927600000001 5.0393460599999997 0.3336870300000000 Au
atom 13.0887132899999994 5.1372472699999996 0.1655903200000000 Au
atom 15.8976617499999993 5.0545563900000001 0.3322418700000000 Au
atom 18.6752957899999998 5.0059731899999997 0.1459718900000000 Au
atom 21.5957069299999986 4.8686475099999997 0.1567800300000000 Au
atom 24.3713674299999994 4.9106278200000002 -0.0028699800000000 Au
atom 27.1490230900000000 4.9752194599999999 0.0072910700000000 Au
atom 1.8286985000000000 4.9978196700000002 0.0532130000000000 Au
atom 4.6512048600000000 4.9751028100000001 0.4624336700000000 Au
atom 8.8654461300000005 7.5144218599999997 0.2534268000000000 Au
atom 11.6515157299999998 7.5210571100000001 0.1694980900000000 Au
atom 14.6016895000000009 7.5410053200000000 -0.1343521200000000 Au
atom 17.3468042199999992 7.4529769200000002 -0.2474466300000000 Au
atom 20.1835011299999998 7.2733238800000004 -0.1875878000000000 Au
atom 22.9670020900000011 7.2617649599999998 0.0094605900000000 Au
atom 25.7805865400000016 7.4422580700000003 0.1107543300000000 Au
atom 0.4957029500000000 7.4663568700000003 0.2303470300000000 Au
atom 3.2251414899999999 7.4471735399999996 0.2822049300000000 Au
atom 6.0603691299999998 7.4354225400000002 0.3808722800000000 Au
atom 7.4372706099999997 9.9293957200000005 0.3308723500000000 Au
atom 10.2966759999999997 9.9483213599999996 -0.0891955700000000 Au
atom 13.1293825399999999 9.9700135700000008 -0.2416809600000000 Au
atom 15.9359029499999991 10.0062453500000004 -0.1637468500000000 Au
atom 18.7206554199999999 9.9170992400000006 -0.2160050500000000 Au
atom 21.5000029200000000 9.8783764699999992 0.1130285300000000 Au
atom 24.2908010400000016 9.7715826900000007 0.3264714100000000 Au
atom 27.1334487099999997 9.8811941700000006 0.2616929900000000 Au
atom 1.9226265100000000 9.8942663799999995 0.1308386300000000 Au
atom 4.6951865100000001 9.8471066700000005 0.0416971300000000 Au
atom 8.8102085500000005 12.4678193099999994 0.0479234000000000 Au
atom 11.6259269199999995 12.4111898899999993 -0.3301074600000000 Au
atom 14.4462429799999992 12.5586518500000004 -0.2204087800000000 Au
atom 17.3103030500000017 12.4710519899999994 -0.3009239500000000 Au
atom 20.1927125200000006 12.3699334899999993 -0.2577404700000000 Au
atom 22.9889326300000008 12.4029417800000008 0.1020729500000000 Au
atom 25.7540660000000017 12.2787131400000007 0.0108709200000000 Au
atom 0.4767547400000000 12.3214729599999995 -0.0782560100000000 Au
atom 3.3134616800000001 12.3627126700000005 0.0230631800000000 Au
atom 6.0327334400000003 12.3184274400000007 0.0116087800000000 Au
atom 7.4540105800000003 13.2634464300000001 2.6590204800000001 Au
atom 10.3588537200000008 13.3094125499999993 2.3951423799999998 Au
atom 13.1260728699999998 13.3282405399999995 2.3774635000000002 Au
atom 15.9153532400000000 13.2218889399999995 2.3757282200000001 Au
atom 18.7270609700000001 13.2081835099999996 2.4299380899999998 Au
atom 21.4984023099999995 13.2893987800000009 2.5587807900000001 Au
atom 24.2676640399999997 13.1336764899999991 2.6880516499999998 Au
atom 27.1204570400000016 13.1829144100000004 2.6022029999999998 Au
atom 1.7912634000000001 13.2265608900000000 2.4568624899999998 Au
atom 4.6779552500000001 13.2663201599999994 2.5703713700000002 Au
atom 8.8851559000000009 15.6482727799999992 2.3108327100000001 Au
atom 11.7007072300000008 15.7832893100000007 2.2570103399999999 Au
atom 14.5657549999999993 15.7961425799999997 2.2936217200000000 Au
atom 17.2787199899999990 15.7023471600000004 2.4642282199999999 Au
atom 20.0797398899999990 15.6405157399999997 2.3408440399999999 Au
atom 22.9873046700000003 15.6302736600000003 2.6264663900000000 Au
atom 25.8157320599999984 15.5732919899999995 2.7167505500000000 Au
atom 0.4083285500000000 15.6472473000000001 2.5809168800000002 Au
atom 3.2773094100000000 15.7521835100000001 2.5288332699999998 Au
atom 6.1372196800000003 15.6621324000000008 2.3996617599999999 Au
atom 7.4945874999999997 18.2325612700000015 2.5353493800000000 Au
atom 10.3170696799999995 18.2430175100000014 2.2397237900000002 Au
atom 13.0850609700000007 18.2331709699999998 2.3852054400000000 Au
atom 15.9619576999999992 18.2414525199999993 2.2993095200000000 Au
atom 18.7942682400000010 18.1782858699999998 2.5225720699999998 Au
atom 21.5606622600000009 18.0648091999999991 2.7288515100000001 Au
atom 24.4256757399999991 17.9993381700000015 2.6325267999999999 Au
atom 27.1867264300000002 18.1685201999999997 2.6297660800000000 Au
atom 1.8544465299999999 18.1319274399999983 2.7966684800000001 Au
atom 4.6926069799999999 18.2329139399999995 2.5442392800000002 Au
atom 8.9222149000000002 20.5893593199999998 2.6615907399999998 Au
atom 11.7747999700000001 20.6220393500000014 2.3805939299999999 Au
atom 14.5597374599999991 20.6058655600000016 2.0871548799999999 Au
atom 17.2549477700000011 20.6360691600000017 2.4286137499999998 Au
atom 20.1930286300000006 20.6760965699999986 2.7216511200000002 Au
atom 23.0408923600000008 20.4576113100000008 2.7962794000000000 Au
atom 25.7974995000000007 20.5240514400000009 2.6312168100000002 Au
atom 0.4084602900000000 20.5444950499999983 2.7782554300000002 Au
atom 3.2358590000000000 20.6997923200000002 2.7852581800000000 Au
atom 6.0745389799999998 20.6440060800000005 2.4322601599999998 Au
atom 7.5077025800000001 23.1509947899999986 2.5614076200000002 Au
atom 10.3385432799999997 23.0317447199999989 2.5893242299999999 Au
atom 13.2011225099999994 23.0054277800000015 2.4775959599999999 Au
atom 15.9519469699999998 23.1617387800000003 2.3493217899999999 Au
atom 18.7635291899999999 23.0736260299999998 2.4443271400000000 Au
atom 21.6546149399999983 23.0260638799999988 2.7774512300000000 Au
atom 24.5107601200000005 22.9905491899999994 2.6996387899999998 Au
atom 27.2190933199999989 23.0895099899999998 2.7903246600000000 Au
atom 1.9393808400000001 23.0664624700000012 2.9484958200000002 Au
atom 4.7314241099999998 23.1413987500000005 2.7445317199999999 Au
atom 8.9064369600000006 25.5178553000000008 2.4491146600000002 Au
atom 11.8336408199999994 25.4871293899999998 2.6357607199999999 Au
atom 14.5494403999999999 25.5757141499999996 2.4134207499999998 Au
atom 17.3389830399999987 25.5718787799999987 2.5614991599999999 Au
atom 20.1697673900000005 25.5463733399999988 2.6019218099999999 Au
atom 22.9424990199999996 25.4516362399999991 2.8020611099999999 Au
atom 25.8699104300000009 25.5878168300000013 2.8821324100000001 Au
atom 0.4744233800000000 25.4510537700000015 2.6745381099999999 Au
atom 3.3610644700000001 25.5777564899999987 2.5789127000000001 Au
atom 6.1559415299999998 25.5855942899999995 3.1577863300000000 Au
atom 7.6184230800000003 27.9707680500000002 2.5546354800000000 Au
atom 10.3603339999999999 27.9836051999999995 2.8464242999999998 Au
atom 13.1559454099999993 28.1085590600000010 2.5712587099999999 Au
atom 16.0218418800000002 28.0564419399999991 2.6922103599999998 Au
atom 18.7627284100000011 28.0493605099999996 2.6927821600000001 Au
atom 21.5034737999999983 28.0319478199999992 2.5338237200000000 Au
atom 24.3499050299999986 27.9525256599999992 2.7583400199999999 Au
atom 27.1777971200000010 28.0176024599999991 2.5528812200000002 Au
atom 1.8714976699999999 27.9356787699999991 2.6849057400000000 Au
atom 4.7552776400000001 28.0124592800000016 2.6952056799999999 Au
atom 8.9585169600000008 30.4907211300000007 2.5113404600000000 Au
atom 11.7633335799999994 30.4977709700000013 2.6552300799999999 Au
atom 14.5306349400000006 30.5321012500000002 2.3596282199999998 Au
atom 17.4057029599999993 30.5463003099999995 2.5343024100000000 Au
atom 20.1811868600000004 30.4827878299999995 2.4714016900000000 Au
atom 22.9999670800000011 30.4300228500000003 2.5074953299999998 Au
atom 25.7760906399999996 30.5409480199999983 2.6895157300000001 Au
atom 0.4206475700000000 30.4894591699999999 2.6568693900000002 Au
atom 3.2998863200000002 30.3868124299999991 2.4694618600000000 Au
atom 6.0740379000000004 30.3801937200000012 2.4985433200000000 Au
atom 7.5160407600000001 32.9310562300000029 2.5641003300000000 Au
atom 10.3418556600000002 33.0026158200000026 2.6447309799999998 Au
atom 13.1346710299999998 33.0400185000000022 2.5064508000000001 Au
atom 15.8670867599999994 32.9765398600000026 2.5072652899999999 Au
atom 18.7846263700000016 32.9825183600000003 2.5367425899999998 Au
atom 21.6367399700000007 32.8957475099999996 2.5580064000000000 Au
atom 24.4079702500000018 32.9680479100000028 2.5263952299999999 Au
atom 27.2018874100000012 32.9236900000000006 2.4990102300000001 Au
atom 1.9297256500000000 32.9184293599999975 2.4691397199999998 Au
atom 4.6991934300000002 32.9279667400000022 2.4283966299999999 Au
atom 8.9185433300000003 35.4130530799999974 2.5685232400000002 Au
atom 11.6493861600000006 35.5533239299999977 2.4043682199999998 Au
atom 14.5086867500000007 35.5646383899999989 2.5005372600000002 Au
atom 17.4381106300000006 35.3426138900000026 2.6726537299999999 Au
atom 20.2591429000000005 35.2767762000000005 2.6421339599999998 Au
atom 23.0399266400000009 35.3247399899999976 2.5976468499999998 Au
atom 25.8909565099999988 35.4206920800000020 2.2155104300000001 Au
atom 0.4412309400000000 35.3192563400000026 2.4815683399999999 Au
atom 3.2868276800000000 35.4622372899999974 2.5417331299999999 Au
atom 6.1258804500000004 35.3874700399999966 2.7842594699999998 Au
atom 7.5007990199999997 37.9290798099999975 2.7669489000000000 Au
atom 10.2081160099999995 37.9367585999999974 2.7818294099999998 Au
atom 13.0752660600000006 37.9974732100000026 2.3705426100000002 Au
atom 15.9981800500000002 37.8680949700000014 2.8397354400000001 Au
atom 18.7774347000000006 37.8596171699999999 2.7803233000000001 Au
atom 21.6204105300000009 37.7936423599999998 2.8046426699999998 Au
atom 24.4970881799999987 37.8167558900000031 2.5169660899999999 Au
atom 27.2152052200000014 37.8827745500000006 2.3789432300000000 Au
atom 1.7781052399999999 37.8861489700000007 2.5046248499999999 Au
atom 4.6641438400000004 37.9036846600000032 2.7419149599999999 Au
atom 8.8734173100000007 0.8996982900000000 3.0833958799999999 Au
atom 11.6881463199999995 1.0141642399999999 2.6771063100000001 Au
atom 14.4137485400000003 1.0018773900000000 2.8021859700000000 Au
atom 17.2483785199999993 0.9449750700000000 2.9713915599999998 Au
atom 20.2187703200000009 0.9379712400000000 2.8827484700000001 Au
atom 23.0288277999999984 0.7315018900000000 2.6823297199999998 Au
atom 25.7943224600000001 0.7408908300000000 2.7328157499999999 Au
atom 0.4010631900000000 0.9156835800000001 2.6182468600000002 Au
atom 3.2383716699999998 0.8054807600000000 2.5564648299999999 Au
atom 6.0608303599999998 0.8967857900000000 2.7423076100000001 Au
atom 7.4353103500000000 3.3145740400000001 2.7369810700000001 Au
atom 10.2814195999999995 3.4630941000000002 2.9059510999999998 Au
atom 13.1619778099999998 3.5326864800000002 2.7297521100000002 Au
atom 15.8985677800000005 3.4798727999999999 3.0412048600000001 Au
atom 18.7073367899999994 3.4277034600000000 2.7300643000000000 Au
atom 21.6541391200000000 3.3726128200000001 2.6326373599999999 Au
atom 24.4567879400000017 3.1935011200000001 2.5045018899999998 Au
atom 27.2183341100000007 3.2825051400000000 2.5670430000000000 Au
atom 1.8463759000000000 3.2988510199999999 2.4255904300000002 Au
atom 4.5649211200000002 3.3301622499999999 2.9037564800000002 Au
atom 8.8427163899999996 5.9350151999999996 2.7624030700000000 Au
atom 11.6639490000000006 5.9565616700000001 2.8929203499999998 Au
atom 14.5084831399999992 5.9325790500000002 2.8526791899999999 Au
atom 17.3687423699999997 5.9421411099999997 2.8346293100000000 Au
atom 20.1942738199999994 5.7559757300000003 2.6547592999999998 Au
atom 23.0197189999999985 5.7705787700000002 2.7142797000000001 Au
atom 25.8414805600000008 5.7220293599999996 2.6551212300000002 Au
atom 0.4051035800000000 5.7352918300000004 2.8566020600000002 Au
atom 3.1932216800000002 5.7734697099999996 2.7984484699999999 Au
atom 6.0653160000000002 5.8085493100000001 3.0109903099999999 Au
atom 7.4501178399999999 8.3660226699999996 2.9727736899999999 Au
atom 10.3835410400000008 8.5290169799999997 2.7390981700000001 Au
atom 13.1496116599999997 8.4942869699999992 2.5735375800000000 Au
atom 15.8979946499999993 8.3312322600000002 2.4802898600000001 Au
atom 18.7466818199999992 8.2713946000000007 2.2577537200000002 Au
atom 21.5726753199999983 8.1753079999999994 2.5849065699999998 Au
atom 24.3299009800000015 8.2104259099999997 2.8132514999999998 Au
atom 27.1474569499999987 8.2494071400000006 2.6811585999999998 Au
atom 1.8139055900000001 8.3362338600000001 2.7026211500000001 Au
atom 4.5893104400000002 8.2867479100000008 2.8480831200000001 Au
atom 8.9588953199999999 10.8360684500000009 2.7372202899999998 Au
atom 11.7682287900000002 10.9297653100000005 2.3977078700000001 Au
atom 14.5188144200000000 10.8562763499999999 2.4040478400000000 Au
atom 17.3128938699999999 10.6881606700000003 2.3059133300000001 Au
atom 20.0662838500000014 10.8264943700000007 2.4983992200000000 Au
atom 22.8156936399999992 10.7737605100000007 2.8089641400000001 Au
atom 25.5966185300000006 10.7213907299999995 2.7228606399999999 Au
atom 0.3556504500000000 10.8034974500000001 2.7873306699999998 Au
atom 3.1821367899999999 10.7358791900000003 2.6834339400000000 Au
atom 5.9673997099999996 10.8325702499999998 2.7701313900000000 Au
atom 7.7868010400000003 12.9459904699999999 5.6453416299999999 Cl
atom 7.8423113500000001 15.8071945399999993 8.5071016900000007 Cl
atom 7.9774364400000000 13.0920137699999994 8.2366133000000001 Na
atom 7.7972114599999998 15.7944676699999995 5.6959070599999997 Na
atom 7.8372870600000004 18.8051823400000018 5.7175198399999996 Cl
atom 7.8066016600000001 21.3825247000000012 8.7096999799999999 Cl
atom 7.7573760700000003 18.6991984000000002 8.5197658300000008 Na
atom 7.9329786699999998 21.5728401199999986 5.8384790999999998 Na
atom 7.8600459300000001 24.2975478699999989 5.8528459000000002 Cl
atom 7.6639944399999997 27.0479204799999984 8.6847096599999993 Cl
atom 7.6763175400000003 24.2891620199999991 8.4662233899999997 Na
atom 7.7742482199999996 27.1139875100000012 5.7730642500000000 Na
atom 7.8787026899999999 29.8697323799999985 5.7418753499999999 Cl
atom 7.6628896400000004 32.7108271600000009 8.7753791400000001 Cl
atom 7.8760865100000004 29.9061115099999988 8.3148539299999999 Na
atom 7.6905101900000004 32.7830258700000030 5.9391524200000001 Na
atom 7.6730240299999997 35.6948345699999976 5.8558947300000002 Cl
atom 7.4631719299999997 38.2838300000000018 8.9397746199999997 Cl
atom 7.7703981999999998 35.4735543999999976 8.5983987699999993 Na
atom 7.6968656500000003 38.5204805300000004 6.2004219899999997 Na
atom 7.7412084099999996 1.7286020700000000 6.1796582600000001 Cl
atom 7.6445694800000004 4.6316886000000004 8.7891918100000002 Cl
atom 7.6916570100000001 1.9136070400000000 8.7862369900000008 Na
atom 7.6750280699999998 4.4879279099999998 6.0182923800000001 Na
atom 7.8213298499999997 7.3840010200000004 5.9062759399999996 Cl
atom 7.6602657499999998 10.1990838999999998 8.6424012900000005 Cl
atom 7.6868833600000004 7.3580479199999997 8.6052252399999993 Na
atom 7.8098807800000003 10.0723456700000007 5.9383989699999997 Na
atom 10.8066788599999999 13.0418896899999996 5.6485464299999997 Na
atom 13.6962027400000004 12.8588020000000007 5.7207471400000003 Cl
atom 10.6523275700000006 15.7775218499999994 8.3926998299999997 Na
atom 13.5827288100000008 15.7692476199999998 8.4554845299999997 Cl
atom 13.5044334399999997 12.9899055099999998 8.4442265499999998 Na
atom 10.5865643499999997 13.0291603499999997 8.6369449599999992 Cl
atom 13.6033181100000000 15.6180263200000002 5.5556071600000001 Na
atom 10.5789856800000006 15.7853252299999998 5.6101497900000004 Cl
atom 10.6651255999999997 18.6661560100000017 5.7074602600000004 Na
atom 13.6127556999999992 18.6441073199999998 5.5835664500000002 Cl
atom 10.5699146200000005 21.3581251799999983 8.3543070999999998 Na
atom 13.3327793400000001 21.1700806300000011 8.5960777799999999 Cl
atom 13.3521307500000006 18.5407579700000014 8.2684269199999996 Na
atom 10.5870294099999995 18.5374650299999999 8.5631701600000003 Cl
atom 13.3965568200000007 21.4107113799999986 5.8383799500000002 Na
atom 10.6626950300000001 21.4851330099999984 5.7015591499999996 Cl
atom 10.5995336899999995 24.2733715900000000 6.1167102699999996 Na
atom 13.5826954200000003 24.2118626399999997 5.8295172400000004 Cl
atom 10.5804553000000006 27.2010813899999988 8.4906127599999994 Na
atom 13.3739711200000002 27.0053377899999987 8.5690818899999996 Cl
atom 13.3321536500000004 24.0979988399999989 8.7076349000000004 Na
atom 10.5902866899999992 24.1720153499999988 8.7185737000000003 Cl
atom 13.4382759099999998 26.9497070399999998 5.8753972000000001 Na
atom 10.6912406699999991 27.1984685900000009 5.9360597600000000 Cl
atom 10.6400841100000001 29.8622513500000011 5.6885699799999996 Na
atom 13.4500540999999991 29.8503459800000002 5.7489721300000003 Cl
atom 10.4296422000000000 32.7836572399999966 8.5046837699999998 Na
atom 13.3130445999999996 32.7351583800000014 8.6022954699999996 Cl
atom 13.3761939099999996 29.8463907400000004 8.2848288100000005 Na
atom 10.4853110600000008 29.9262129600000009 8.4963253200000004 Cl
atom 13.2258129899999997 32.7590413300000023 6.0475481000000002 Na
atom 10.5318840599999994 32.8252867899999998 5.8476719499999996 Cl
atom 10.4508193100000000 35.5318871799999982 5.9760449400000004 Na
atom 13.2435131300000002 35.5021965999999978 5.9023043599999996 Cl
atom 10.4633571900000000 38.3811688899999979 8.5513421500000000 Na
atom 13.3484432900000005 38.4807208699999990 8.7119426799999999 Cl
atom 13.2795646000000005 35.6829078399999986 8.6823359799999995 Na
atom 10.4984012399999997 35.5585135700000023 8.5768989999999992 Cl
atom 13.3415218200000005 38.3272225700000035 6.0881613600000000 Na
atom 10.5229421900000002 38.3171851899999965 6.0071489400000004 Cl
atom 10.4654182099999993 1.7478455500000001 6.0784270899999999 Na
atom 13.3413718600000006 1.5431354799999999 5.9076321199999997 Cl
atom 10.2606767300000001 4.5483953200000000 8.7126315900000009 Na
atom 13.3857020700000007 4.7222467000000004 8.5448818299999996 Cl
atom 13.2817486099999993 1.8396391299999999 8.5710248100000008 Na
atom 10.4097911300000003 1.7121058300000001 8.7610132099999998 Cl
atom 13.3138147100000008 4.3263929399999999 5.8354828000000003 Na
atom 10.3588127100000005 4.4584396200000000 5.8475754100000001 Cl
atom 10.5824046500000009 7.1689498699999996 5.9359731900000003 Na
atom 13.3529213500000008 7.2305401900000001 5.7699481500000003 Cl
atom 10.4686477999999994 10.2467692800000005 8.3139857300000006 Na
atom 13.3522555700000005 10.0500694199999998 8.5621872799999998 Cl
atom 13.3948609600000008 7.4153769699999996 8.2432067900000003 Na
atom 10.3510620299999996 7.5077247299999996 8.7610031900000003 Cl
atom 13.2174633099999994 10.2281750500000008 5.6436012299999998 Na
atom 10.5499374800000005 10.0681233999999993 5.8289028399999996 Cl
atom 16.2435451999999998 12.8817156500000003 5.9019080800000001 Na
atom 18.9103749299999997 12.9569782300000007 5.5967222000000003 Cl
atom 16.3734869399999994 15.8236245400000008 8.3486611800000006 Na
atom 19.0804113099999988 15.8301499700000008 8.4529998499999994 Cl
atom 19.0864133299999992 13.0400883200000006 8.3015995199999999 Na
atom 16.3523761800000003 12.8377434400000006 8.6145267200000006 Cl
atom 19.0945140900000006 15.7600035900000002 5.6605196099999997 Na
atom 16.3809913499999986 15.8593061100000003 5.6678506200000003 Cl
atom 16.4171358400000003 18.6328567199999995 5.7245879100000003 Na
atom 19.1787725599999987 18.6934080800000011 5.8612578099999997 Cl
atom 16.2464114200000012 21.5375945999999985 8.4265576600000003 Na
atom 19.1201007099999991 21.5120019099999986 8.8385435599999997 Cl
atom 19.0970691300000013 18.7013404299999983 8.4021721100000004 Na
atom 16.3366603899999987 18.6662291499999995 8.5002859900000001 Cl
atom 19.0456036299999987 21.4388432999999985 6.0689403200000003 Na
atom 16.1518832100000012 21.6967856999999995 5.7571677299999999 Cl
atom 16.3084829000000013 24.4208135099999986 6.0284040699999997 Na
atom 19.0744423500000018 24.1458691799999983 5.9041807400000001 Cl
atom 16.0667283800000007 27.1986706699999985 8.5250100399999997 Na
atom 18.9932443000000006 27.2633706099999991 8.5708669299999993 Cl
atom 19.2231314299999987 24.3574714199999995 8.4862981699999995 Na
atom 16.3759322099999984 24.3031062599999998 8.7559009999999997 Cl
atom 19.0752000099999997 27.2130244899999987 5.8149125699999997 Na
atom 16.2121035499999984 27.1357229800000006 5.8400851400000002 Cl
atom 16.2361464700000013 30.0236406600000016 5.9025003800000002 Na
atom 19.0853547299999988 30.1704896799999993 5.7791434900000000 Cl
atom 16.0992087200000000 32.7521465800000016 8.5068058600000001 Na
atom 18.7617354899999995 32.8721533399999970 8.7973222300000007 Cl
atom 19.0944240900000004 30.0364258100000008 8.4698768799999993 Na
atom 16.0821405599999991 29.8971073099999991 8.4683239100000005 Cl
atom 18.8745832200000017 32.8087451399999992 6.0795522499999999 Na
atom 16.1589672899999997 32.7340333400000034 5.8543289999999999 Cl
atom 16.1136146899999986 35.5355269800000002 5.9870299899999999 Na
atom 18.7916116399999993 35.6989766599999996 5.7923287099999996 Cl
atom 16.1152175299999989 38.3522483500000035 8.5021845700000007 Na
atom 19.1665615699999989 38.3471461399999995 8.8130018700000008 Cl
atom 19.0010879999999993 35.6501502699999975 8.5385932800000006 Na
atom 16.2498817299999985 35.7269856400000023 8.7341314600000004 Cl
atom 18.9066076400000007 38.3553536599999987 6.1402093799999999 Na