#===============================================================================
# Created using the Atomic Simulation Environment (ASE)

# Sat Nov  1 21:48:30 2025

#=======================================================
lattice_vector 28.1999999999999993 0.0000000000000000 0.0000000000000000 
lattice_vector 0.0000000000000000 39.4799999999999969 0.0000000000000000 
lattice_vector 0.0000000000000000 0.0000000000000000 62.3296083400000001 
atom 7.6079421600000003 14.7527786200000008 0.0367591800000000 Au
atom 10.3175582200000004 14.9083259300000002 -0.0435106700000000 Au
atom 13.1037954100000000 14.8635756299999997 0.2347081600000000 Au
atom 15.9376747099999996 14.5572640799999995 0.0745288500000000 Au
atom 18.8280453299999984 14.8910347600000001 -0.0530592300000000 Au
atom 21.6012884800000009 14.6526376599999999 -0.1072463400000000 Au
atom 24.3942718300000010 14.7020064599999998 0.0598123000000000 Au
atom 27.2460492300000006 14.8799080999999997 -0.0635794000000000 Au
atom 1.6850330200000001 14.9248180399999999 0.0540704500000000 Au
atom 4.6039386499999999 14.7622452000000006 -0.0384218000000000 Au
atom 8.9392682800000003 17.2880849099999985 -0.0727392300000000 Au
atom 11.7600894700000005 17.2946512400000003 0.0286715400000000 Au
atom 14.6255027299999991 17.3226350499999988 0.0136754400000000 Au
atom 17.3696382900000010 17.2705238500000000 -0.0817159800000000 Au
atom 20.1569683300000015 17.1232505099999983 0.0186014700000000 Au
atom 22.8129820800000012 17.4336216399999984 0.0039353800000000 Au
atom 25.7636428100000003 17.1549040200000000 -0.0664568400000000 Au
atom 0.2494511000000000 17.3617195200000012 0.0459800100000000 Au
atom 3.2089584100000001 17.3313736700000014 0.1067030800000000 Au
atom 6.2818173899999996 17.1216937599999994 -0.0903853300000000 Au
atom 7.6117385300000002 19.8596262699999997 0.0472560200000000 Au
atom 10.3498418200000000 19.7039769500000013 -0.1572274400000000 Au
atom 13.0988945399999999 19.8940043200000005 0.0626888200000000 Au
atom 16.0059831999999993 19.8215817799999989 0.0593752500000000 Au
atom 18.7536194899999984 19.7677402999999998 0.2174160500000000 Au
atom 21.3732102799999986 19.5613617499999997 -0.0149403900000000 Au
atom 24.4694595600000007 19.7200736700000014 0.0119049400000000 Au
atom 27.2961468600000003 19.6583563800000007 0.0667145000000000 Au
atom 1.6472482200000000 19.8063129499999988 0.0889906600000000 Au
atom 4.6088251900000001 19.7586345200000011 -0.1133822700000000 Au
atom 9.0167963499999999 22.1000525900000007 0.0492809100000000 Au
atom 11.7981155399999995 22.2406439499999991 -0.2098557700000000 Au
atom 14.5807571899999999 22.3174695300000003 0.0384300100000000 Au
atom 17.3504757900000008 22.3326691000000004 0.1828914600000000 Au
atom 20.1494362500000008 22.3716699599999984 0.1169873500000000 Au
atom 23.1422231399999987 22.1364835299999996 0.0528494900000000 Au
atom 25.7977990199999994 22.2426221499999990 0.0548927000000000 Au
atom 0.3253844200000000 22.3200105899999990 0.0760210400000000 Au
atom 3.3454526400000000 22.3119630300000011 -0.0087420000000000 Au
atom 5.9534055600000002 22.3052264499999993 0.1676742900000000 Au
atom 7.5245027499999999 24.5612729999999999 0.0396425800000000 Au
atom 10.5721107900000000 24.6391112200000002 0.1694362200000000 Au
atom 13.0304396499999999 24.5892127599999988 0.2649467800000000 Au
atom 15.7972242900000008 24.5844525400000009 0.0904479600000000 Au
atom 18.8454467500000007 24.8393474999999988 0.2751564300000000 Au
atom 21.6154954699999990 24.7236998099999994 0.0427341200000000 Au
atom 24.3872557299999997 24.6847482400000011 0.1637248600000000 Au
atom 27.3402586700000008 24.7003481700000016 0.0924900700000000 Au
atom 1.7002226899999999 24.8015447699999996 0.0273707500000000 Au
atom 4.7440872499999998 24.6095660800000005 -0.0742545300000000 Au
atom 8.8582724899999992 27.2721623000000015 0.1544926400000000 Au
atom 11.7870297900000001 27.2127172299999991 0.1602074400000000 Au
atom 14.4988763400000007 27.0089913000000017 0.0500092100000000 Au
atom 17.3239644000000013 27.2073877800000012 0.1427862900000000 Au
atom 20.1173552300000011 27.2596166500000017 0.1516815200000000 Au
atom 22.8211851299999999 27.3229425900000003 0.0810104600000000 Au
atom 25.7538739800000016 27.1795763800000003 0.1388259500000000 Au
atom 0.4354749200000000 27.2067882200000000 0.1460958900000000 Au
atom 3.2165826000000002 27.3943858200000001 0.1897516400000000 Au
atom 6.1084890900000000 27.2727613600000005 0.2134756600000000 Au
atom 7.4607735000000002 29.4590006799999991 -0.0173895500000000 Au
atom 10.1892253499999992 29.5917167300000017 -0.0209228800000000 Au
atom 12.9795250499999995 29.6894928000000000 -0.0325048300000000 Au
atom 15.7861396500000009 29.7965309100000013 0.1355643700000000 Au
atom 18.7495347999999993 29.5910015800000004 0.0868386600000000 Au
atom 21.5981361099999987 29.6594412299999988 0.1945476300000000 Au
atom 24.3407646900000003 29.6527596500000001 0.0258405200000000 Au
atom 26.9968289699999993 29.8206026699999995 0.1080608100000000 Au
atom 1.7078383699999999 29.6013614999999994 -0.0508932400000000 Au
atom 4.6818495799999997 29.4974390500000005 0.0527158200000000 Au
atom 8.7883107200000001 31.9150034200000015 -0.2258740900000000 Au
atom 11.7229209599999997 32.1524181699999971 0.2476674900000000 Au
atom 14.5178583700000008 32.2582752900000003 -0.1048179300000000 Au
atom 17.4211593799999989 32.1428837400000020 -0.0473796700000000 Au
atom 20.1621042800000012 32.0019944800000005 0.0137888800000000 Au
atom 23.0266070399999982 31.9520848700000002 -0.1508062200000000 Au
atom 25.7722772900000017 32.1594417600000000 0.0495476600000000 Au
atom 0.5270251900000000 32.1757890299999971 -0.0128215000000000 Au
atom 3.2407463500000002 31.8812671099999996 0.2196008700000000 Au
atom 6.2455505100000002 32.1003079799999966 0.0194029800000000 Au
atom 7.4735022700000000 34.5184979699999985 -0.0791851100000000 Au
atom 10.4826996500000007 34.6207331499999995 -0.0131181100000000 Au
atom 13.2664451099999994 34.4250558499999997 0.0491460300000000 Au
atom 15.9555219000000008 34.6128116599999984 0.0900326500000000 Au
atom 18.7168362100000003 34.4746553599999999 0.1575096700000000 Au
atom 21.6436274399999995 34.6253027300000014 0.1067963200000000 Au
atom 24.3578263499999998 34.3750756600000003 0.0398049900000000 Au
atom 27.1413186999999994 34.6608839800000013 0.1779557700000000 Au
atom 1.8628216600000000 34.4973424599999987 -0.0505604200000000 Au
atom 4.6493195199999997 34.4076975400000009 -0.0311838600000000 Au
atom 8.9266048700000002 36.7747328999999965 0.1110271700000000 Au
atom 11.5337171699999992 37.0507828699999990 0.1200217400000000 Au
atom 14.3818748900000006 37.0675213399999990 -0.0287855100000000 Au
atom 17.1448872399999992 37.0349719900000025 0.1816042000000000 Au
atom 20.0908903800000012 37.1319578100000030 -0.1136725700000000 Au
atom 23.0948904400000004 36.9928118099999992 0.0630230000000000 Au
atom 25.7489468899999991 37.1273183899999992 0.0445887300000000 Au
atom 0.4885197900000000 37.0382453900000002 -0.0051700200000000 Au
atom 3.3113874499999998 37.0019655999999983 0.0465946300000000 Au
atom 5.9942565200000004 37.0306460700000031 0.0311946700000000 Au
atom 7.6279119700000004 -0.1195861300000000 0.0338815900000000 Au
atom 10.3486490300000007 0.1040229300000000 0.0870586900000000 Au
atom 13.1192009600000006 0.1396044800000000 0.2022363300000000 Au
atom 15.9031935900000008 0.0970602700000000 0.0353749800000000 Au
atom 18.7850888800000000 -0.0007101200000000 0.0296818400000000 Au
atom 21.5798673699999988 -0.0079212200000000 0.0190631400000000 Au
atom 24.4506256899999990 0.1232618900000000 0.0694306400000000 Au
atom 27.3872440099999999 0.0986249800000000 0.0511612100000000 Au
atom 2.0848619099999999 0.1172277400000000 0.0975774800000000 Au
atom 4.7025413699999996 0.1365066000000000 0.1742719300000000 Au
atom 8.8610027099999993 2.4876579799999998 0.0754795600000000 Au
atom 11.6585705799999992 2.5822863200000001 0.1243741400000000 Au
atom 14.4554525100000006 2.4528560800000001 0.0959985100000000 Au
atom 17.4985732700000014 2.4382044000000000 -0.0007055700000000 Au
atom 20.1834927399999984 2.5168142100000002 0.1420972900000000 Au
atom 22.9430802199999988 2.4103765600000000 0.2449481200000000 Au
atom 25.9944749100000010 2.7141552299999998 0.1381208800000000 Au
atom 0.2867228200000000 2.4997976799999999 0.0618423600000000 Au
atom 3.3757134299999998 2.5376445799999998 0.0795317200000000 Au
atom 6.0857891300000002 2.4851363800000001 0.1615128500000000 Au
atom 7.4289012699999999 4.8463339400000001 -0.0168201600000000 Au
atom 10.1279487100000001 5.0500938199999998 0.2526910100000000 Au
atom 13.0490777199999997 4.9902557400000003 0.1511834200000000 Au
atom 16.0530568199999983 4.8466003700000000 0.2850923300000000 Au
atom 18.8229226199999999 4.9385085100000001 -0.1650935700000000 Au
atom 21.5714792200000005 4.9175665799999999 0.2069641200000000 Au
atom 24.3758431299999998 4.8076061499999998 0.0853886300000000 Au
atom 27.1227361699999996 4.8814224599999996 0.1417278100000000 Au
atom 1.7857032900000001 4.9770202000000001 -0.1145762400000000 Au
atom 4.6159933200000003 4.9630392299999997 0.1317490300000000 Au
atom 9.0565817899999992 7.3141615599999996 -0.0301385300000000 Au
atom 11.6983345799999991 7.2920399199999997 -0.1002024300000000 Au
atom 14.5046383999999993 7.5347296000000004 0.0965157800000000 Au
atom 17.4144039100000008 7.4267545000000004 -0.0883374600000000 Au
atom 20.0757483599999986 7.5406355899999999 -0.0158437300000000 Au
atom 22.9487095699999983 7.4962987300000004 0.0314151900000000 Au
atom 25.8968517799999987 7.4910019099999996 0.0963181900000000 Au
atom 0.3203195800000000 7.3222768199999999 -0.0831367900000000 Au
atom 3.3441486100000000 7.5159269699999998 -0.0162838200000000 Au
atom 6.0861141900000000 7.3869779299999996 -0.0016022800000000 Au
atom 7.4848055300000000 10.0224589300000009 -0.0457193800000000 Au
atom 10.2698240199999997 9.7954639500000003 0.1155907900000000 Au
atom 13.1306821500000002 9.9206236000000008 -0.0246382500000000 Au
atom 16.2202896500000016 9.8099164499999993 0.1008165500000000 Au
atom 18.7450780299999984 9.9096194299999993 0.0022277300000000 Au
atom 21.6911385000000010 9.8891115500000009 -0.0690708200000000 Au
atom 24.4652674200000000 10.0002260900000000 -0.0181568000000000 Au
atom 27.1994642300000002 9.9142412100000001 -0.0566851400000000 Au
atom 1.9082965999999999 9.8475738300000000 0.1476036700000000 Au
atom 4.6467409300000000 9.8642877799999997 -0.0294848300000000 Au
atom 8.7718957599999996 12.3431128900000004 -0.0716419900000000 Au
atom 11.8902622999999998 12.4158851899999991 0.1573412100000000 Au
atom 14.5297765400000003 12.2022608399999992 0.0027065500000000 Au
atom 17.3486883100000000 12.3047618799999992 0.1254166600000000 Au
atom 20.0316021999999982 12.3214433299999992 0.0322671200000000 Au
atom 23.0423380000000009 12.5157796099999992 0.0040431700000000 Au
atom 25.7252031000000017 12.2452747700000000 -0.1465871900000000 Au
atom 0.4385991000000000 12.3801658099999994 0.0828411800000000 Au
atom 3.4386787800000000 12.2667295799999998 -0.2612185700000000 Au
atom 6.0953847999999997 12.3779988500000009 0.0838058400000000 Au
atom 7.4819628800000002 13.1757265700000001 2.5877997000000001 Au
atom 10.3968987800000008 13.2202808899999997 2.5119951600000001 Au
atom 13.2401648299999994 13.3864817699999996 2.8349494599999998 Au
atom 15.6947904299999994 13.2332234300000007 2.6227067000000002 Au
atom 18.7528936199999983 13.1766479400000005 2.7584894800000002 Au
atom 21.5481572600000000 13.1214853199999997 2.6680479500000001 Au
atom 24.3691309400000016 13.3754506000000006 2.6818292200000000 Au
atom 27.3240510900000011 13.0897980300000008 2.5478243500000000 Au
atom 1.9465983800000000 13.3225850099999992 2.7233858999999998 Au
atom 4.6575195999999996 13.3806885500000003 2.5703836600000001 Au
atom 9.0043590099999999 15.6806946099999998 2.6114442699999998 Au
atom 11.7525333100000005 15.8422608999999994 2.7315768800000000 Au
atom 14.6255285199999996 15.7311603800000004 2.5057500400000001 Au
atom 17.1169666199999995 15.5380408299999999 2.6730305900000002 Au
atom 20.1876998800000003 15.6876405400000003 2.6561537199999998 Au
atom 22.8728746100000002 15.6665622399999993 2.5283366900000002 Au
atom 25.7761511100000007 15.7710146299999998 2.5647874399999999 Au
atom 0.5177906600000000 15.8396101900000001 2.5726118100000002 Au
atom 3.2633684199999999 15.6168769300000001 2.6198955599999998 Au
atom 6.2718903800000003 15.6726556499999994 2.6541153799999999 Au
atom 7.5862799900000004 18.2427316899999994 2.7548806799999999 Au
atom 10.0897872199999998 18.1388095400000005 2.5950721699999999 Au
atom 13.0962455400000000 18.1334049099999994 2.6046833999999999 Au
atom 16.0224343100000013 18.0947385700000005 2.4645031799999999 Au
atom 18.9194324999999992 18.0631728699999989 2.8419292199999999 Au
atom 21.6449352499999996 18.0551942499999996 2.8374994000000000 Au
atom 24.2300169600000004 18.1675795099999995 2.9136202500000001 Au
atom 27.3719232099999985 18.1212117200000016 2.7210741299999999 Au
atom 1.9446962500000000 18.0502339200000002 2.7019315499999998 Au
atom 4.6902128599999999 18.0023966599999987 2.5836552699999999 Au
atom 8.8879973400000001 20.6963054799999995 2.8735546500000000 Au
atom 11.6525660900000005 20.6914310899999982 2.8390280799999998 Au
atom 14.6411216599999996 20.4510610399999990 2.7989513000000001 Au
atom 17.2564694000000003 20.6829280699999991 2.6514089699999999 Au
atom 20.0092894100000009 20.5932837199999987 2.8739693200000000 Au
atom 22.9014872400000016 20.6986312300000002 2.8341240600000002 Au
atom 25.8868948199999984 20.5004109700000008 2.7046986999999998 Au
atom 0.3789853200000000 20.4189165099999990 2.6536351800000002 Au
atom 3.2759729599999998 20.6490067099999983 2.6651140299999998 Au
atom 6.0316855299999999 20.4447368599999990 2.8283753100000002 Au
atom 7.3991522200000004 23.0421301999999990 2.6390682800000000 Au
atom 10.2146505300000001 23.0335832700000012 2.7417674299999999 Au
atom 13.2050234399999997 23.0252327900000004 2.5929178500000001 Au
atom 15.9698104399999998 23.1917423900000017 2.6768306700000002 Au
atom 18.6937172499999988 23.1490289599999990 2.5128935900000000 Au
atom 21.5364535900000007 23.1816850599999995 2.9358588100000000 Au
atom 24.3903432299999992 22.8427638900000005 2.7453501500000002 Au
atom 27.0471546499999995 23.1707914600000002 2.6520526699999998 Au
atom 2.0942589200000001 23.1538268699999996 2.6901595899999999 Au
atom 4.7972768300000004 23.1997789700000006 2.7416518499999998 Au
atom 8.8487264400000001 25.4838690700000008 2.7097478000000002 Au
atom 11.8812695900000005 25.4439645500000005 2.5972912300000002 Au
atom 14.4866075700000003 25.4914606500000005 2.6082158999999998 Au
atom 17.2679726400000000 25.4358304299999993 2.7585923399999999 Au
atom 20.4094189499999992 25.4188641799999999 2.6854495699999998 Au
atom 23.0215643300000004 25.7084969699999988 2.6009834000000001 Au
atom 25.7985461899999997 25.5281970700000009 2.5940501399999998 Au
atom 0.5795667500000000 25.4888613299999989 2.7094362699999999 Au
atom 3.3392111899999999 25.5788506600000005 2.5892044200000002 Au
atom 5.7722251599999996 25.3597587599999983 2.6944224900000000 Au
atom 7.5744217400000000 28.0256174599999994 2.6587727800000001 Au
atom 10.4982707699999995 28.1416510500000001 2.5747894900000001 Au
atom 13.2283794199999996 28.0060931099999983 2.6658723700000002 Au
atom 15.8162558400000002 27.8678339400000006 2.8908277800000000 Au
atom 18.9909576800000011 28.0334241099999986 2.5808027899999999 Au
atom 21.4656706100000001 28.0254019200000002 2.6778680100000001 Au
atom 24.3313162200000015 27.9266434699999984 2.6510795100000002 Au
atom 27.2229897899999997 27.9422012200000012 2.4377672399999999 Au
atom 1.7209290500000001 28.0970961000000017 2.6810562600000001 Au
atom 4.7210406400000000 28.0119843499999988 2.5637464099999998 Au
atom 8.8449179099999995 30.3173036499999995 2.5749687500000000 Au
atom 11.5395842000000002 30.4445702099999984 2.5539363900000001 Au
atom 14.6273860500000001 30.5429618000000005 2.6915098600000000 Au
atom 17.5418471899999986 30.4770820700000016 2.7873645900000001 Au
atom 20.3483092100000000 30.3958558299999986 2.7211120700000002 Au
atom 23.1787125899999999 30.6871236299999985 2.4798879100000000 Au
atom 25.8992320999999990 30.4651280299999989 2.5396419699999999 Au
atom 0.2429271500000000 30.5331208499999995 2.7527058900000001 Au
atom 3.3379857400000001 30.5142901500000008 2.5656417500000002 Au
atom 6.2002221000000004 30.4344433800000012 2.6236296800000001 Au
atom 7.5696011199999997 32.8137776800000012 2.6044066099999998 Au
atom 10.3892198499999999 33.0502536899999981 2.7235663099999998 Au
atom 13.1815244400000005 32.6996516399999990 2.6875126300000001 Au
atom 16.0147449699999989 32.7277300699999998 2.6087726899999999 Au
atom 18.8213347000000013 32.9469204600000012 2.6628082900000001 Au
atom 21.7633530800000017 32.8414162199999993 2.5142338799999999 Au
atom 24.5480143800000015 32.7939843300000007 2.4289951799999998 Au
atom 27.3517043300000005 32.8536882800000001 2.6749398499999999 Au
atom 1.8488055999999999 33.0573180900000025 2.6945041500000002 Au
atom 4.7577895600000000 32.9476375099999998 2.8023102700000000 Au
atom 8.9202148300000008 35.2685511899999966 2.7598340900000000 Au
atom 11.7648680300000006 35.2648373800000030 2.6585843800000002 Au
atom 14.4876500299999993 35.5086454099999997 2.6287766700000001 Au
atom 17.4429420300000011 35.4451115000000030 2.4709645600000001 Au
atom 20.3263408699999992 35.4137164999999996 2.5331481700000000 Au
atom 22.9693237299999993 35.2217856999999981 2.6079841699999999 Au
atom 25.7543066699999983 35.5309032299999998 2.8092250900000000 Au
atom 0.6542603100000000 35.3709609699999987 2.6603612000000001 Au
atom 3.0858741300000001 35.2805911700000010 2.6803853300000000 Au
atom 6.3048280800000001 35.2896450000000002 2.6163647100000000 Au
atom 7.3095666499999998 37.8208055300000012 2.4110155099999999 Au
atom 10.2600598800000000 37.9292694999999966 2.7597109600000000 Au
atom 13.1860255700000000 37.8555733000000032 2.3479503899999998 Au
atom 15.8404293700000007 37.7981205999999972 2.9057876299999998 Au
atom 18.9053435800000003 37.9485713999999987 2.6316281899999998 Au
atom 21.4251353999999985 37.8862346200000033 2.6404746100000001 Au
atom 24.4265496199999994 37.9177970300000027 2.6166246000000002 Au
atom 27.0799633499999999 37.8364019500000026 2.6850110300000001 Au
atom 1.9935873500000001 37.8280925899999971 2.5119841900000002 Au
atom 4.6028791399999998 37.9779683800000001 2.6763643600000000 Au
atom 8.8201894500000009 0.8827910400000000 2.5970470699999999 Au
atom 11.9166671500000003 0.8256363799999999 2.7694903900000001 Au
atom 14.5871015300000000 0.9115670100000000 2.7764619399999999 Au
atom 17.3048365299999993 0.8681843600000000 2.7131567099999998 Au
atom 20.1312416100000000 0.8891232800000000 2.6180032600000001 Au
atom 23.1778879099999990 0.8094493900000000 2.8617661100000000 Au
atom 26.0689400800000008 0.8305306800000000 2.8060978300000001 Au
atom 0.4133823900000000 1.0448731800000000 2.5915241500000001 Au
atom 3.2591961500000002 0.8718565200000000 2.7597400500000000 Au
atom 6.0977409199999997 0.7807693600000000 2.8368942000000001 Au
atom 7.5178571999999999 3.3928974200000002 2.6376493000000001 Au
atom 10.3544996699999992 3.1199557800000002 2.5380664199999998 Au
atom 13.2075158699999999 3.3332836900000000 2.7383150600000001 Au
atom 16.0371175100000016 3.2427843900000002 2.7717714600000001 Au
atom 18.9200186600000002 3.2642156500000001 2.7141800300000001 Au
atom 21.5899624400000008 3.4790141999999999 2.7313236299999999 Au
atom 24.4549523899999990 3.2801640299999999 2.5061782699999999 Au
atom 27.2592396299999997 3.3245920400000002 2.7235137699999998 Au
atom 1.8394575799999999 3.2211589400000000 2.6013485300000001 Au
atom 4.7111469100000001 3.3558004800000001 2.8180051800000001 Au
atom 8.7423302100000004 5.7642210499999997 2.5925498800000000 Au
atom 11.8093474599999997 5.8100977800000004 2.6285170800000000 Au
atom 14.4393699299999998 5.7135935800000004 2.7829204700000001 Au
atom 17.5198939699999983 5.6550689600000004 2.5891681599999998 Au
atom 20.2308070600000001 5.6149094399999999 2.7361203900000000 Au
atom 22.9347860200000007 5.7366281299999997 2.8100252999999999 Au
atom 25.7523286300000009 5.8700354299999997 2.6981089599999999 Au
atom 0.4695512100000000 5.6836624499999999 2.5994856400000002 Au
atom 3.2590367699999998 5.9895592600000001 2.7462611600000000 Au
atom 6.0810092899999999 5.9872410399999998 2.6631475700000000 Au
atom 7.4424994699999996 8.2656255200000004 2.5905559199999999 Au
atom 10.4796295799999992 8.4538141200000005 2.5289415200000001 Au
atom 13.2157356400000001 8.1514108600000004 2.6122467000000000 Au
atom 16.0121690699999988 8.2644433199999998 2.5746874100000001 Au
atom 18.8022906700000014 8.4174554300000004 2.7091149500000000 Au
atom 21.6819726099999990 8.1902841300000002 2.4398461600000001 Au
atom 24.5500391799999989 8.3839739200000007 2.8376611999999999 Au
atom 27.1621170399999983 8.4428447299999991 2.7424773199999999 Au
atom 2.0364469199999999 8.1861428699999994 2.5669223300000001 Au
atom 4.7416842900000002 8.3210452999999998 2.5937377599999998 Au
atom 9.1274112299999999 10.6703085499999997 2.6852427400000001 Au
atom 11.7814748300000005 10.7106678899999999 2.5791807499999999 Au
atom 14.5541183699999994 10.6580950500000000 2.5766835600000002 Au
atom 17.5058596800000004 10.7491841699999995 2.6254424900000002 Au
atom 20.0601128799999984 10.6827879400000008 2.8710002600000002 Au
atom 23.0852922999999990 10.4903309599999996 2.5470004500000001 Au
atom 25.8074157699999986 10.7798633899999992 2.5630859699999999 Au
atom 0.3525508800000000 10.6877228100000004 2.6626289900000000 Au
atom 3.2798719300000001 10.8615680099999992 2.7064665200000002 Au
atom 6.0587219200000000 10.6761835200000004 2.5644069200000001 Au
atom 7.5349527299999997 13.1111733200000007 5.6876906900000002 Cl
atom 7.4216064199999998 15.8932598200000008 8.5277607999999994 Cl
atom 7.3967410899999999 13.0007659300000000 8.1618688400000003 Na
atom 7.6372472599999996 16.0298642200000003 5.4788709000000004 Na
atom 7.6902997800000001 18.7962673600000016 5.8015321999999996 Cl
atom 7.4755632700000003 21.6198803999999996 8.5063019700000009 Cl
atom 7.5933675400000000 18.7768054500000012 8.4194844100000008 Na
atom 7.4799886600000001 21.5874925900000001 5.8649969700000000 Na
atom 7.5011204999999999 24.4626132900000002 5.8150809199999998 Cl
atom 7.6987558299999996 27.1137867300000011 8.6133060700000001 Cl
atom 7.4528987600000001 24.4022317700000002 8.5664104099999996 Na
atom 7.5407706200000000 27.3490820200000009 5.9637059099999998 Na
atom 7.2766420500000004 30.0796683000000016 5.6663107000000004 Cl
atom 7.4895000100000004 32.8676293700000031 8.6683379600000006 Cl
atom 7.6502518700000000 30.1739378400000007 8.4106831900000003 Na
atom 7.5079932400000002 32.9839230400000005 5.7553278399999996 Na
atom 7.5691533900000003 36.0718541299999984 5.7777932500000002 Cl
atom 7.3549152500000003 38.7672359199999974 8.6165120200000000 Cl
atom 7.4446229900000001 35.7701360499999979 8.2393542100000001 Na
atom 7.7632518299999997 38.6915497099999968 5.9556711599999996 Na
atom 7.4554751200000000 1.7666124400000001 5.6867971900000001 Cl
atom 7.6288727600000001 4.6556732800000002 8.4574875600000006 Cl
atom 7.5278955099999996 1.8355396900000001 8.5229880500000004 Na
atom 7.5522045400000000 4.7226879799999999 5.8646150099999996 Na
atom 7.4857145500000000 7.3777436600000001 5.7871643400000004 Cl
atom 7.4568481200000001 10.1285357699999992 8.6253135200000006 Cl
atom 7.5367176899999997 7.4780432200000000 8.4775536099999993 Na
atom 7.2772957099999998 10.3606437400000004 5.6503975200000003 Na
atom 10.4725805800000007 13.0556985300000008 6.0528854399999998 Na
atom 12.9595024100000007 13.2969253399999996 5.7003065900000003 Cl
atom 10.3971167199999996 15.9591813200000008 8.4174788100000004 Na
atom 13.1590874000000007 15.9433786600000005 8.4769262500000000 Cl
atom 13.1960646700000002 13.2282934300000008 8.3259756300000003 Na
atom 10.5570561999999999 13.0334634000000005 8.5488181300000008 Cl
atom 13.1638639099999999 16.0028608299999995 5.7606428500000000 Na
atom 10.3197130399999999 15.8041557499999996 5.5544000200000001 Cl
atom 10.1871238700000006 18.8633171600000011 5.7498497799999999 Na
atom 13.2253707600000006 18.9167188999999993 5.6516435999999999 Cl
atom 10.3422973999999996 21.4709832200000008 8.4410549199999991 Na
atom 13.1140299700000007 21.9050770700000008 8.5356351700000008 Cl
atom 13.0694430500000003 18.9990419700000004 8.3107170700000008 Na
atom 10.4109666999999995 18.7118870400000006 8.5139744400000001 Cl
atom 13.2985189300000002 21.6545193699999992 5.8999084899999996 Na
atom 10.4200147500000000 21.6298579800000006 5.6846601500000000 Cl
atom 10.3389552600000005 24.4702349800000007 5.5638150399999997 Na
atom 12.9608172800000006 24.4364350399999992 5.8574485599999999 Cl
atom 10.3448615299999993 27.4130706000000011 8.3517576600000005 Na
atom 13.1470085999999995 27.2345964100000018 8.3507642799999999 Cl
atom 13.2716330599999992 24.3971361100000017 8.3620301300000008 Na
atom 10.4267643400000001 24.4486161200000005 8.5022757700000007 Cl
atom 13.0931992800000003 27.3471523900000015 5.8525882999999999 Na
atom 10.4568321999999991 27.3103087500000008 5.8786034300000001 Cl
atom 10.3223172900000009 29.9845506300000011 5.5923551399999996 Na
atom 12.9958457299999992 30.1951369999999990 5.8359271300000000 Cl
atom 10.2832847500000000 32.7814041199999977 8.4941202400000009 Na
atom 13.0835130199999998 32.8897523699999965 8.6162630599999996 Cl
atom 13.0182099699999991 30.1428508700000002 8.3892985400000004 Na
atom 10.2821640300000006 29.8643709500000014 8.7047985000000008 Cl
atom 13.0118491699999996 32.7970849599999994 5.8628935899999997 Na
atom 10.3526131699999997 32.8786633400000028 5.7449861499999999 Cl
atom 10.4353066400000003 35.9641814200000027 5.7378725700000004 Na
atom 13.0964808799999997 35.6445935400000025 5.7651542200000003 Cl
atom 10.2298554599999996 38.4778612599999974 8.1990579799999992 Na
atom 12.9320394000000007 38.4690598800000032 8.5680689500000007 Cl
atom 13.1539522600000005 35.5944235899999981 8.3604815200000004 Na
atom 10.4913095300000005 35.7493266000000034 8.3427597200000001 Cl
atom 13.1218339799999999 38.5565354100000022 5.8341818999999999 Na
atom 10.2383705000000003 38.6567512299999976 5.6919495400000004 Cl
atom 10.4689978600000000 1.7701182300000000 5.8788143899999996 Na
atom 13.0931402499999994 1.8397900500000000 5.7645823500000004 Cl
atom 10.2012601800000002 4.8598647899999996 8.4685296999999995 Na
atom 13.2669211199999992 4.6148743500000000 8.4268660799999999 Cl
atom 13.2601878400000004 1.7338046100000000 8.4484923700000003 Na
atom 10.3616939699999993 1.8789519200000000 8.7178946699999997 Cl
atom 13.1402545100000001 4.5412309799999999 5.8290150299999999 Na
atom 10.0888192799999992 4.7619837499999997 5.7532702599999999 Cl
atom 10.3504244799999991 7.3886413099999997 5.8165615300000004 Na
atom 13.1855593899999999 7.4737125400000002 5.7686770500000000 Cl
atom 10.1898809400000001 10.5008164500000003 8.4784212799999992 Na
atom 13.1580241299999994 10.3245804499999991 8.4872671999999998 Cl
atom 13.0842040599999994 7.5424528999999998 8.2993740700000007 Na
atom 10.3291504599999993 7.3520910800000001 8.6894874600000005 Cl
atom 12.9633845500000007 10.5072472599999998 5.8288568800000000 Na
atom 10.4122387900000000 10.3272709099999993 5.7971605600000000 Cl
atom 16.0479308299999985 13.2373843999999998 5.6812284599999998 Na
atom 18.6950010900000017 13.0777068500000002 5.5945819099999996 Cl
atom 15.8916251899999992 15.9605271900000005 8.3930504300000006 Na
atom 18.7099121299999993 16.0150720500000006 8.6170179400000002 Cl
atom 18.8624747200000016 13.0399403100000004 8.3977778599999997 Na
atom 15.8423649500000003 13.3357163799999991 8.5826847399999995 Cl
atom 18.8746274099999987 15.9854658999999995 5.7539110000000004 Na
atom 15.8336495799999994 16.0190222499999990 5.6633465300000001 Cl
atom 15.9269196900000001 18.7911533000000013 5.7873886499999996 Na
atom 18.9116679300000001 18.6968678600000011 5.6466425700000000 Cl
atom 15.8505326699999998 21.6273951000000011 8.2816373799999994 Na
atom 18.7784385799999995 21.6156520599999986 8.6699761100000003 Cl
atom 18.8291929300000014 18.8995474299999984 8.4399748199999998 Na
atom 15.9366473200000005 18.7987647799999991 8.6999440000000003 Cl
atom 18.6469093599999987 21.6156962099999994 5.7693325399999997 Na
atom 15.8737879500000005 21.7551206700000002 5.8404434099999998 Cl
atom 15.8507654500000008 24.3860366000000006 5.8510803899999999 Na
atom 18.7918558599999983 24.3968539000000000 5.7102977199999998 Cl
atom 16.0290298699999987 27.0709005400000002 8.3022692700000000 Na
atom 18.5825070500000002 27.2360496699999999 8.7589390399999996 Cl
atom 18.7494451700000013 24.3757323399999990 8.2858236800000000 Na
atom 16.0346654599999994 24.4448963100000007 8.7052406100000006 Cl
atom 18.7556148299999990 27.3357764100000011 5.8953647199999999 Na
atom 15.9799582299999994 27.0228169800000018 5.5506880100000000 Cl
atom 15.9191063400000008 30.0257522399999992 5.8643607400000004 Na
atom 18.8232861400000004 30.1459600600000002 5.8158977800000002 Cl
atom 15.8942704999999993 33.0524016500000002 8.3167871000000009 Na
atom 18.9474771299999993 32.8849232199999975 8.5265552099999997 Cl
atom 18.7652429800000000 30.2014937600000017 8.5058971499999991 Na
atom 15.8868151500000003 30.2567139599999990 8.5305285699999995 Cl
atom 18.5828339000000007 32.9163514899999967 5.9226124200000001 Na
atom 15.7715251300000006 32.7819290199999998 5.6552948900000004 Cl
atom 15.8413588000000001 35.7474540999999988 5.9337871000000000 Na
atom 18.8896980899999996 35.6136013100000000 5.4972571500000003 Cl
atom 16.0435438499999989 38.6207861600000015 8.4570097900000007 Na
atom 18.6256045300000004 38.6587377800000027 8.5984111199999997 Cl
atom 18.6992586299999992 35.7794087899999980 8.5221601200000006 Na
atom 16.1071909600000005 35.8015938699999978 8.5232642900000002 Cl
atom 18.7605161299999992 38.6387356999999980 5.8307117499999999 Na