#===============================================================================
# Created using the Atomic Simulation Environment (ASE)

# Sat Nov  1 21:48:32 2025

#=======================================================
lattice_vector 28.1999999999999993 0.0000000000000000 0.0000000000000000 
lattice_vector 0.0000000000000000 39.4799999999999969 0.0000000000000000 
lattice_vector 0.0000000000000000 0.0000000000000000 62.3296083400000001 
atom 7.4958835400000003 14.8897748100000005 -0.0335275800000000 Au
atom 10.2361898199999999 14.8170361100000001 -0.0366714200000000 Au
atom 13.1085651300000006 14.7611875300000008 -0.0541666200000000 Au
atom 15.8738966200000000 14.9296163300000000 -0.1083816000000000 Au
atom 18.9285435399999997 14.9923268899999993 0.0542753400000000 Au
atom 21.6659970100000017 14.8876949700000001 -0.1408946600000000 Au
atom 24.6153750500000008 14.7418904800000004 0.0895727600000000 Au
atom 27.1454154999999986 14.7619294700000001 0.0666145900000000 Au
atom 1.8367813799999999 14.7080155099999992 0.0856586300000000 Au
atom 4.9418149800000002 14.7209457199999996 0.0751590200000000 Au
atom 8.8205360899999992 17.2351985300000017 -0.0672590700000000 Au
atom 11.9399766399999994 17.3059822499999996 -0.1555571600000000 Au
atom 14.4864125900000005 17.2432636300000013 0.1188990800000000 Au
atom 17.4399701200000017 17.3727889500000003 0.0754329500000000 Au
atom 20.2312527899999992 17.1335174200000004 -0.1179627100000000 Au
atom 23.0800780900000007 17.3160455999999989 0.2096516300000000 Au
atom 25.7139496399999992 17.1259354899999998 0.0337906400000000 Au
atom 0.5162737600000000 17.2320878399999984 -0.0861107400000000 Au
atom 3.5647108799999998 17.0599418699999994 0.0183405600000000 Au
atom 5.9407702999999996 17.1823403600000013 0.1200099100000000 Au
atom 7.4441402700000001 19.7127756000000005 0.3156433100000000 Au
atom 10.3818075299999997 19.9191363599999995 0.1213028900000000 Au
atom 13.1586451199999992 19.8089544300000000 0.0872679900000000 Au
atom 15.7820906900000004 19.7446538899999986 -0.1054179600000000 Au
atom 18.6323017799999988 19.5851483500000008 0.1097495800000000 Au
atom 21.5336882799999998 19.6924984999999992 0.2513598500000000 Au
atom 24.4876777499999996 19.8910265600000002 0.0539438800000000 Au
atom 27.2870717899999988 19.8864245699999991 0.0344436600000000 Au
atom 1.8836693400000000 19.6647186199999986 0.3405377700000000 Au
atom 4.6094465800000002 19.6493862899999989 0.0856953000000000 Au
atom 8.9968635199999998 22.2090184899999983 0.1454803700000000 Au
atom 11.8314664700000005 22.3302082800000008 0.0849233000000000 Au
atom 14.7192659900000002 22.2803618800000010 0.1076127000000000 Au
atom 17.3561925200000005 22.2452856899999993 0.0138602900000000 Au
atom 20.0838165000000011 22.2759763200000016 0.2004438800000000 Au
atom 23.0068004700000017 22.3555076899999996 -0.0399071700000000 Au
atom 25.7497308599999997 22.2035806999999998 -0.2304582900000000 Au
atom 0.7880891900000000 22.1335442299999983 -0.0687938600000000 Au
atom 3.3554471800000001 22.3087541499999986 0.2560899700000000 Au
atom 6.0797914999999998 22.1279302999999992 0.0250960200000000 Au
atom 7.5105200800000000 24.4479259099999986 0.0454185800000000 Au
atom 10.4678436300000008 24.7964705899999984 0.0382952200000000 Au
atom 13.2344763099999998 24.7278944799999998 0.0488974800000000 Au
atom 15.8744868399999994 24.6743060499999984 0.1872687500000000 Au
atom 18.7551675300000014 24.7467171400000012 0.0278053200000000 Au
atom 21.6237407700000013 24.7268471900000009 0.1459007400000000 Au
atom 24.4216855300000013 24.6657555799999990 0.3118664700000000 Au
atom 27.1120271899999992 24.5404989899999997 0.0852378400000000 Au
atom 1.7107888899999999 24.8621334000000012 0.0228429700000000 Au
atom 4.8166170199999998 24.5950683099999985 0.1568444500000000 Au
atom 8.9028565299999993 27.0201988899999996 0.0434433500000000 Au
atom 11.6814106800000008 27.2601714400000006 0.3356128800000000 Au
atom 14.6762085500000001 27.1035182699999986 0.1353345200000000 Au
atom 17.2553601500000013 27.1603167799999987 0.0253216700000000 Au
atom 20.1559405500000004 27.2803315200000007 0.0901329100000000 Au
atom 23.0497418799999991 27.1462978200000009 0.2416111500000000 Au
atom 25.9799836400000004 27.3120088900000013 0.1606314600000000 Au
atom 0.3448304900000000 27.1338490700000001 0.1045720300000000 Au
atom 3.5007020799999999 27.1268522899999986 0.1689988500000000 Au
atom 6.1870470400000004 27.1852688200000010 -0.0239941100000000 Au
atom 7.4798696299999996 29.6776114000000000 0.0085865100000000 Au
atom 10.1808235699999994 29.4679711500000003 -0.0345919000000000 Au
atom 13.2297847799999992 29.5926939699999991 0.0695713500000000 Au
atom 16.1499500599999983 29.7520539900000003 0.2548016500000000 Au
atom 18.8524544399999989 29.5816066699999993 0.0245719600000000 Au
atom 21.7047277799999989 29.4784423699999998 0.1650078500000000 Au
atom 24.3000430799999982 29.6805479900000009 -0.1210500200000000 Au
atom 27.2420149000000009 29.6538851500000007 0.2578111700000000 Au
atom 1.7470554000000000 29.5549727000000004 -0.1015876000000000 Au
atom 4.6310352100000003 29.8264732600000002 -0.0088378700000000 Au
atom 8.7736659299999999 32.1473791599999998 0.0959512400000000 Au
atom 11.5789765899999999 32.0298127100000016 0.2020254400000000 Au
atom 14.6218331900000003 32.3062938899999992 -0.0456922200000000 Au
atom 17.2541862700000017 32.1985897599999973 -0.0941982600000000 Au
atom 20.0856214999999985 32.0186854800000020 0.1227267400000000 Au
atom 22.9211682600000017 32.2262617299999974 0.0014963200000000 Au
atom 25.8208595599999988 32.1060217599999973 0.0877705900000000 Au
atom 0.3675475400000000 32.0733181100000024 0.0026948100000000 Au
atom 3.3284910399999998 31.9907212600000008 -0.0248321400000000 Au
atom 5.9923598699999996 32.0912582599999965 0.1626882200000000 Au
atom 7.5932320600000001 34.6382522800000032 -0.1269553000000000 Au
atom 10.3543259600000006 34.5758313099999981 -0.0372070500000000 Au
atom 13.0775828500000006 34.3813812300000023 -0.1547926200000000 Au
atom 15.8279234199999994 34.4453621099999978 -0.0310657200000000 Au
atom 18.7536109199999999 34.6200191399999966 -0.1805731900000000 Au
atom 21.5067822399999997 34.4647809100000018 0.1456905000000000 Au
atom 24.2998597399999987 34.6556659100000033 -0.1652289500000000 Au
atom 27.3239141900000000 34.5584903800000021 -0.1022102800000000 Au
atom 1.7940239700000000 34.6625498100000016 -0.0579310600000000 Au
atom 4.6525447399999997 34.6704550600000019 -0.0334254100000000 Au
atom 8.8461022400000004 37.1380763900000019 0.1922437700000000 Au
atom 11.6947259199999998 37.0013105399999986 -0.0614446000000000 Au
atom 14.5034915800000004 37.0733869600000006 -0.0261423400000000 Au
atom 17.1634307399999990 36.9422495299999980 0.0537449700000000 Au
atom 20.1025216200000010 37.1294986400000013 -0.0145909200000000 Au
atom 22.9688332399999986 36.8475500799999978 -0.0113457300000000 Au
atom 25.8431087599999998 37.0814006599999999 -0.0738326900000000 Au
atom 0.4349498100000000 37.0612080399999968 0.1195580700000000 Au
atom 3.3383092599999999 37.0043148999999971 0.0518546400000000 Au
atom 6.1907158999999998 37.1393589799999972 0.0557371000000000 Au
atom 7.5221034700000002 -0.0475631400000000 0.0445407300000000 Au
atom 10.3228901200000003 0.0441835400000000 -0.0242818600000000 Au
atom 13.4022912000000005 -0.1147155200000000 -0.0178293100000000 Au
atom 15.9606971400000006 -0.1579994400000000 0.1162546800000000 Au
atom 18.8597520699999990 0.0227673800000000 0.1592049600000000 Au
atom 21.6268235900000008 0.1201700200000000 0.0768025100000000 Au
atom 24.5264744300000004 0.0121290100000000 0.2035670500000000 Au
atom 27.1151699099999988 0.0914973800000000 0.0855951200000000 Au
atom 1.9396030799999999 0.0039557800000000 0.1119686700000000 Au
atom 4.8399252099999996 0.0797157500000000 0.1190584200000000 Au
atom 8.8913375600000002 2.4457464500000001 0.0877415000000000 Au
atom 11.5691450400000004 2.4942582299999998 0.1350120900000000 Au
atom 14.6564668800000000 2.4289865700000002 0.0769019200000000 Au
atom 17.5521378299999995 2.3683153600000000 0.1998536000000000 Au
atom 20.4227523399999988 2.6261999299999998 0.2443036900000000 Au
atom 23.0138255399999991 2.5536128200000001 0.1465091800000000 Au
atom 25.6942588600000015 2.6736447299999999 0.3591999200000000 Au
atom 0.4985403500000000 2.3785967100000001 0.0809503400000000 Au
atom 3.1999578299999998 2.5541901400000002 -0.0332649100000000 Au
atom 5.9525276099999997 2.5090129100000000 0.2718521600000000 Au
atom 7.4855095399999998 5.0164219799999996 0.0983142900000000 Au
atom 10.2612369700000006 5.0737631600000004 0.1481749900000000 Au
atom 13.2546607900000009 4.8646946700000004 -0.0460926100000000 Au
atom 16.1171650799999995 5.0129874200000000 0.0827003900000000 Au
atom 18.7225417299999997 4.8607134700000003 0.0490656500000000 Au
atom 21.6798561899999989 4.9476168999999999 0.1173415400000000 Au
atom 24.5361166299999987 4.8375097199999999 -0.0115090500000000 Au
atom 27.2746354300000000 5.0103062899999999 0.2213921200000000 Au
atom 2.0810058699999998 4.8669843600000000 0.1874011400000000 Au
atom 4.6434160300000000 4.9714157500000002 0.1812140300000000 Au
atom 8.6996196000000001 7.5012029800000004 -0.0880131600000000 Au
atom 11.6938446700000007 7.3279304200000004 0.1373596800000000 Au
atom 14.2956541900000005 7.2898692799999996 0.0632251100000000 Au
atom 17.3758367699999994 7.4136391799999997 0.0136589200000000 Au
atom 20.0534286199999983 7.3608048300000002 0.1712727500000000 Au
atom 22.9588152399999998 7.4713737699999996 0.0840474700000000 Au
atom 25.8539783400000012 7.4163338599999999 -0.1057766300000000 Au
atom 0.3545215800000000 7.3835686000000003 0.0509257100000000 Au
atom 3.3323948200000002 7.4198268000000001 -0.0049399800000000 Au
atom 6.1754657300000000 7.2434174400000000 0.1151330900000000 Au
atom 7.5482661899999997 9.8028394500000005 0.1682333800000000 Au
atom 10.2836005700000008 9.8647226099999994 0.0583684400000000 Au
atom 13.2049551899999997 9.9327013799999992 -0.0789049800000000 Au
atom 15.9919941600000008 9.7739143100000003 -0.0163899600000000 Au
atom 18.9152877900000007 9.7146819299999994 0.0676791800000000 Au
atom 21.5774725899999993 9.7948178600000002 0.0508396500000000 Au
atom 24.2982826000000003 9.9599206700000007 0.0733874400000000 Au
atom 27.1058605700000008 9.7332982700000006 -0.0583518700000000 Au
atom 2.0072827000000002 9.9608739699999997 0.0474838000000000 Au
atom 4.6465524499999997 9.9846904799999994 0.0391891200000000 Au
atom 9.0194962299999997 12.4373393300000004 0.0253870800000000 Au
atom 11.8249299499999996 12.3512905300000000 0.1949831600000000 Au
atom 14.5565373699999991 12.5500626000000004 0.0163491700000000 Au
atom 17.3865014299999991 12.4205083799999993 -0.0236319800000000 Au
atom 20.2206746499999994 12.3903393699999995 -0.0498368300000000 Au
atom 22.9755923300000013 12.4679247600000007 0.0371650700000000 Au
atom 25.8029597399999986 12.2549328499999994 0.1079096300000000 Au
atom 0.4545916800000000 12.1054430699999998 0.0319919000000000 Au
atom 3.1434034799999999 12.3831679300000008 -0.0470639400000000 Au
atom 5.9514650600000003 12.3922277800000007 -0.1056943300000000 Au
atom 7.4578310900000000 13.2442171700000006 2.6886038100000000 Au
atom 10.3619445799999994 13.2402414999999998 2.7009730400000000 Au
atom 13.0150425500000004 13.2403309399999998 2.4784036600000001 Au
atom 16.0215743599999989 13.1527184199999994 2.5783738000000000 Au
atom 18.7765212300000002 13.2451965800000000 2.6634432900000000 Au
atom 21.4996532100000017 13.1319941300000007 2.6554128200000000 Au
atom 24.4251249000000001 13.1012148800000006 2.7761745300000000 Au
atom 27.1463884499999999 13.2586153000000007 2.5524602399999998 Au
atom 1.9157239500000001 13.3067000400000008 2.7260634000000001 Au
atom 4.7715625800000003 13.2312405799999997 2.6219185100000000 Au
atom 8.8488143699999995 15.7261774100000000 2.8670890700000000 Au
atom 11.8006711800000001 15.7626588800000000 2.4307157300000002 Au
atom 14.5214995099999999 15.6597149099999999 2.7637118699999998 Au
atom 17.4226576299999998 15.9113530000000001 2.5659351300000002 Au
atom 20.1561993699999995 15.6912965300000007 2.8310133799999999 Au
atom 22.9737159099999992 15.6372522600000003 2.4989059100000000 Au
atom 25.8931287999999995 15.7210052000000005 2.6843506100000001 Au
atom 0.4982552600000000 15.4271478000000002 2.6081204100000002 Au
atom 3.4722336299999998 15.6896599000000005 2.6608932599999999 Au
atom 6.2323909200000003 15.5963536299999994 2.6894715300000001 Au
atom 7.6310504300000002 18.1560147200000017 2.7061465800000000 Au
atom 10.1911888400000006 18.0918469399999999 2.5809534300000001 Au
atom 12.9914477300000009 18.0549342300000006 2.6002530699999999 Au
atom 16.0494909399999983 17.8976644000000000 2.6608929300000002 Au
atom 18.8905172700000001 18.1025573000000009 2.6902316499999999 Au
atom 21.5384959699999996 18.1949715800000007 2.7082460400000001 Au
atom 24.5983695199999985 18.0111876200000012 2.7919726900000001 Au
atom 27.1860399900000012 17.9623910400000000 2.6913256200000002 Au
atom 1.9206389100000001 18.0500892300000011 2.5470160200000000 Au
atom 4.9135398500000003 17.9763273499999983 2.6668517000000000 Au
atom 8.9593899300000004 20.5564003200000016 2.9854054400000001 Au
atom 11.8100366799999996 20.4992522000000008 2.7661925500000000 Au
atom 14.5339241000000001 20.6152733499999989 2.9389517600000001 Au
atom 17.3506130499999998 20.6497548399999999 2.7092921400000001 Au
atom 20.2290070200000009 20.5950638599999998 2.8141403000000000 Au
atom 22.9971972600000001 20.5784160400000005 2.8750776500000002 Au
atom 25.7851263099999990 20.5569109200000000 2.8528242200000000 Au
atom 0.4432186600000000 20.4704733200000000 2.7523615499999998 Au
atom 3.1764403099999998 20.4508051000000002 2.5975543000000001 Au
atom 6.0523556699999999 20.5409178099999998 2.7858341000000002 Au
atom 7.4553652200000000 23.0645699700000009 2.7385695600000002 Au
atom 10.4678192499999998 23.0360319000000011 2.7356045700000000 Au
atom 12.9519646500000007 23.2053721899999985 2.8197095000000001 Au
atom 15.8479528700000003 23.2128518799999988 2.7285264100000002 Au
atom 18.7324988899999987 23.1606186100000002 2.6407238400000002 Au
atom 21.7997700099999996 22.9571019599999993 2.7090792700000002 Au
atom 24.4456427299999994 23.0103073400000007 2.6383411799999998 Au
atom 27.2707280899999986 23.0038751099999992 2.6440043100000001 Au
atom 1.7677905599999999 23.0361921900000013 2.6080695199999999 Au
atom 4.6260006799999998 23.0624779099999984 2.6907008700000001 Au
atom 8.8728485399999997 25.5621036699999991 2.6890931400000002 Au
atom 11.7370547900000002 25.4463012500000012 2.6557368200000000 Au
atom 14.5022856800000000 25.6459219699999998 2.6961928899999998 Au
atom 17.5012535900000010 25.5106338999999984 2.7672300900000000 Au
atom 20.0910799699999991 25.7194961100000015 2.5302731800000000 Au
atom 23.0501093300000015 25.5020409599999986 2.7477843599999998 Au
atom 26.0598526700000015 25.7045162000000005 2.7965691499999998 Au
atom 0.2797379400000000 25.4672973800000015 2.8353237400000002 Au
atom 3.2527698300000001 25.5323990800000011 2.7312115600000002 Au
atom 6.1411845899999999 25.5292390800000000 2.6690775900000001 Au
atom 7.5164599399999998 27.9545857799999986 2.7766549199999999 Au
atom 10.1910435199999991 27.8793201500000016 2.6967385799999999 Au
atom 13.2244926899999999 27.8403146899999996 2.6489852800000002 Au
atom 15.9472906800000001 27.8082090999999991 2.6974054600000001 Au
atom 18.8146885200000007 27.8093333300000012 2.5925134600000002 Au
atom 21.6538353100000016 27.8240615799999986 2.7422219999999999 Au
atom 24.3800381699999988 28.0417107200000011 2.7283948599999999 Au
atom 27.3729180200000002 28.1370996300000016 2.7730687199999999 Au
atom 1.8994863900000001 28.1274573299999986 2.5630816200000002 Au
atom 4.6094916699999997 28.1854265599999998 2.6173401599999999 Au
atom 8.6623498199999993 30.5820728799999983 2.5952233200000001 Au
atom 11.8238029200000003 30.4438552400000013 2.6150062799999998 Au
atom 14.4063110499999993 30.4178072300000011 2.8066270200000001 Au
atom 17.3738769399999988 30.4062593999999997 2.7855368100000000 Au
atom 20.2575275999999995 30.5269370699999989 2.5590809100000000 Au
atom 23.1070580600000000 30.4985271299999994 2.6994932100000000 Au
atom 25.8857956400000013 30.4063080499999998 2.6465650300000001 Au
atom 0.3226959400000000 30.3446981999999998 2.5404874000000000 Au
atom 3.2877274700000001 30.2731936700000013 2.6465900599999999 Au
atom 6.1189835099999996 30.3415089000000009 2.7063288600000002 Au
atom 7.6621776900000000 32.9252769599999979 2.5700978999999999 Au
atom 10.4689229200000007 32.8518172300000018 2.5016623099999999 Au
atom 13.0907713200000000 32.8290858000000014 2.5187408200000001 Au
atom 15.8114232700000006 32.8322619300000014 2.5531239600000002 Au
atom 18.7325233100000013 33.0049388999999991 2.6212898099999999 Au
atom 21.6351620900000015 32.9196329500000004 2.8242296699999998 Au
atom 24.4216877900000000 32.9296590499999979 2.6050118400000000 Au
atom 27.2701333300000002 33.1046222200000031 2.6830970100000000 Au
atom 1.8656606000000000 32.9889517499999982 2.6855743200000002 Au
atom 4.7052774800000003 32.8977676000000017 2.7123960399999998 Au
atom 8.7768449499999992 35.3806592800000033 2.4720168800000000 Au
atom 11.6832780300000003 35.4758215100000029 2.6376141400000002 Au
atom 14.4880768999999994 35.4498692100000028 2.5698403800000000 Au
atom 17.2083184100000004 35.4514166000000017 2.5832570700000002 Au
atom 20.3647210200000011 35.4756481900000011 2.6402732599999998 Au
atom 23.0194312900000000 35.4321020300000029 2.7053925799999998 Au
atom 25.9411266800000000 35.4633528700000014 2.5379767300000000 Au
atom 0.4651022400000000 35.2221475699999971 2.7491324000000001 Au
atom 3.3646553699999999 35.4270776700000027 2.5741786800000002 Au
atom 6.1379991299999999 35.5760763800000035 2.7350164700000001 Au
atom 7.5044500000000003 38.0237313900000018 2.7916867500000002 Au
atom 10.3440967799999992 37.6485403000000005 2.4938194700000000 Au
atom 13.2126311899999997 37.8815315100000021 2.5919646699999999 Au
atom 15.8745386199999992 37.6676757400000000 2.5170193500000000 Au
atom 18.8609678800000005 37.7807559700000013 2.5123292899999998 Au
atom 21.6161578500000005 37.7475181000000006 2.7767581799999999 Au
atom 24.4124906400000015 37.9626428400000009 2.7187138200000001 Au
atom 27.1013762500000013 37.8778353300000035 2.6136216600000002 Au
atom 2.0462924600000001 37.8202390100000017 2.6364284800000002 Au
atom 4.7554778799999999 37.9539337799999998 2.6431789800000001 Au
atom 8.8716270099999992 0.9727311400000000 2.7858908800000002 Au
atom 11.5603989600000006 0.7499085800000000 2.8365511699999999 Au
atom 14.4801178700000008 0.8415581200000000 2.6211178799999999 Au
atom 17.3228079000000008 0.8137549600000000 2.6668345100000002 Au
atom 20.2708143199999995 1.0046259799999999 2.7074916000000000 Au
atom 22.9903086499999993 0.8971001100000000 2.6239901300000001 Au
atom 25.7908813700000010 0.7785239400000000 2.5523107899999999 Au
atom 0.4864354000000000 0.7254471900000000 2.6978961600000000 Au
atom 3.2640187300000001 0.7085573900000000 2.6927805299999998 Au
atom 5.9484745200000004 0.7830359900000000 2.8612794500000001 Au
atom 7.4796140400000004 3.4502068100000001 2.7654894300000001 Au
atom 10.1956204199999991 3.4220467600000002 2.6863050400000001 Au
atom 13.2291120499999995 3.3419921900000000 2.7166858600000001 Au
atom 15.8571330600000007 3.3913591200000002 2.7067517400000001 Au
atom 18.8099375600000016 3.2991525099999999 2.5772870600000002 Au
atom 21.5354365500000000 3.3783957899999999 2.6092827700000001 Au
atom 24.5747526500000006 3.2051578799999998 2.4403849200000001 Au
atom 27.2107425200000002 3.4197338899999998 2.7320737799999999 Au
atom 1.9559602700000001 3.1700402200000002 2.7027066899999999 Au
atom 4.6659300600000000 3.3593543399999999 2.3435244000000002 Au
atom 8.7602513000000002 5.8003990999999999 2.5889948500000002 Au
atom 11.5905259500000000 5.6418268400000002 2.8712148800000001 Au
atom 14.6382888100000006 5.6485505700000003 2.6137349099999998 Au
atom 17.5369818500000001 5.7209358400000001 2.7696957599999998 Au
atom 20.0688169000000016 5.8011461400000002 2.7228254299999999 Au
atom 22.9252899899999996 5.8092301099999997 2.6642817600000002 Au
atom 25.9037019999999991 5.8163877399999997 2.7012654999999999 Au
atom 0.4133161700000000 5.8664034400000000 2.6233854900000000 Au
atom 3.4919112100000000 5.5325202899999999 2.5947564500000002 Au
atom 5.9934707600000001 5.7070846800000004 2.6880349200000002 Au
atom 7.4104930199999997 8.2015933800000003 2.7645866699999999 Au
atom 10.2195039100000002 8.1984287200000008 2.6365705799999999 Au
atom 13.2086662900000000 8.3615622700000003 2.6113013500000002 Au
atom 15.9612480399999992 8.2699958099999993 2.6135953299999999 Au
atom 18.7218897700000007 8.2098532899999999 2.6092374899999999 Au
atom 21.5818491600000009 8.1855009200000008 2.7732097200000001 Au
atom 24.3930629199999984 8.3248438399999998 2.6259988399999998 Au
atom 27.1870889499999997 8.1612583599999997 2.5262446800000000 Au
atom 1.8878119000000000 8.1911298099999996 2.5749591600000001 Au
atom 4.7191930500000003 8.2180197199999991 2.7016725500000001 Au
atom 8.6112836799999997 10.7239948799999993 2.6332068700000000 Au
atom 11.8225551299999996 10.6496610399999998 2.6479823499999999 Au
atom 14.6487844799999998 10.9135844800000008 2.8288066199999999 Au
atom 17.3876746299999994 10.7931338700000001 2.6143240799999998 Au
atom 20.0801397100000010 10.8157060800000000 2.6236862799999998 Au
atom 23.1273388299999993 10.6840685400000002 2.7255397700000001 Au
atom 25.7465075900000002 10.6157004599999993 2.5699082199999999 Au
atom 0.2189932600000000 10.8796232199999992 2.6983003700000001 Au
atom 3.2175338700000000 10.7090417900000006 2.8075063700000000 Au
atom 6.0369323499999998 10.6559050499999994 2.7029099200000002 Au
atom 7.4411772699999998 13.0362637499999998 5.6178485900000004 Cl
atom 7.5609521300000004 16.1611209600000016 8.5261963600000001 Cl
atom 7.4612383900000001 13.1882211300000005 8.1481040799999995 Na
atom 7.5215992299999996 15.7450489999999999 5.7461424299999999 Na
atom 7.5660717699999998 18.8314394199999988 5.6955331200000003 Cl
atom 7.4149687899999996 21.6725529200000011 8.7047390100000008 Cl
atom 7.4903100800000004 18.6107588700000015 8.3412285300000004 Na
atom 7.4623346300000000 21.6412821400000013 5.9644270099999996 Na
atom 7.3740219800000002 24.5203910799999996 5.7249702400000002 Cl
atom 7.6562637400000000 27.2329113700000001 8.5766478100000008 Cl
atom 7.4825779399999996 24.3343372500000008 8.4525637299999996 Na
atom 7.4630405499999997 27.4286143500000001 5.9109420600000000 Na
atom 7.5471164399999999 30.1630250999999987 5.7122458199999997 Cl
atom 7.4820442099999998 32.8750894000000002 8.6440155399999998 Cl
atom 7.6494624399999998 29.9445116499999990 8.5093990500000007 Na
atom 7.6109950499999997 32.9032928000000027 5.8259777000000001 Na
atom 7.4662530499999997 35.6962475699999970 5.6608316700000003 Cl
atom 7.3490545999999997 38.6462956800000015 8.5515874200000006 Cl
atom 7.5366871199999999 35.6718741299999991 8.3976469900000001 Na
atom 7.6164808700000002 38.5073665399999996 5.8968462600000002 Na
atom 7.3492430999999998 1.9951153699999999 5.7570153900000003 Cl
atom 7.5508544400000002 4.7330958599999997 8.6749805299999991 Cl
atom 7.3898085599999996 1.9753569300000000 8.4129073600000002 Na
atom 7.4583919800000000 4.7482700400000004 5.7183058300000003 Na
atom 7.5235314999999998 7.4960991200000002 5.8114363400000002 Cl
atom 7.5993778900000004 10.3587177900000000 8.5814368000000005 Cl
atom 7.3831093100000000 7.4343689399999997 8.2673651800000005 Na
atom 7.4289666900000002 10.3111939600000007 5.7740931800000004 Na
atom 10.2981973399999998 13.1296788200000005 5.5279442999999997 Na
atom 13.2587744700000005 13.3636153899999996 5.8397148300000001 Cl
atom 10.2872009099999993 15.9931328100000005 8.3971248200000002 Na
atom 13.0602430900000002 15.9488670599999995 8.6400728699999991 Cl
atom 13.3264715099999993 13.1347684800000000 8.2558936799999998 Na
atom 10.3567398799999992 13.1514159500000005 8.4678658099999993 Cl
atom 13.1146066700000006 15.8540536599999999 5.7070538400000004 Na
atom 10.2792263599999991 15.9830885800000004 5.7441391499999996 Cl
atom 10.1362153399999997 18.7454308699999999 5.8604904600000003 Na
atom 13.1075058599999998 18.7665847799999987 5.7157397200000002 Cl
atom 10.4183712899999996 21.7569141500000001 8.4073136500000007 Na
atom 13.2935508900000006 21.5580294600000002 8.7293652500000007 Cl
atom 13.2187538199999999 18.8008116299999983 8.1573124400000001 Na
atom 10.4305444499999993 18.9470093000000013 8.7902055600000004 Cl
atom 12.9751139999999996 21.6250012900000002 5.9747457400000004 Na
atom 10.1914924599999992 21.6050256000000012 5.7272107800000001 Cl
atom 10.3604977700000003 24.4685697500000003 5.9126071500000004 Na
atom 13.1298291000000003 24.4293990299999990 5.7691718700000001 Cl
atom 10.6056210899999996 27.3684100100000016 8.3804841099999994 Na
atom 13.0120829199999992 27.4348815500000001 8.6837508999999997 Cl
atom 13.0930780000000002 24.4307181299999989 8.2411007900000008 Na
atom 10.2717046100000005 24.4665518000000013 8.6323186599999993 Cl
atom 13.3443312499999998 27.1580521700000013 6.0141690499999996 Na
atom 10.2277417699999997 27.3073784800000006 5.8833574600000000 Cl
atom 10.3490393600000008 29.9925539100000016 5.7669511000000000 Na
atom 12.9898347300000001 30.0891051699999998 5.6596141600000003 Cl
atom 10.2618802599999999 32.9759824499999965 8.3796564199999999 Na
atom 13.2468669899999991 33.0116269999999972 8.6869675599999994 Cl
atom 13.1452022900000003 30.2184379099999987 8.4203676699999992 Na
atom 10.3682605199999998 30.0383785500000009 8.6793606699999994 Cl
atom 13.1156609700000004 32.8305325099999976 5.7266411699999997 Na
atom 10.3884447000000009 32.9876460600000030 5.6893257799999999 Cl
atom 10.2980089199999991 35.5525523700000008 5.9202176599999996 Na
atom 13.1487048899999994 35.9286220999999983 5.8064143300000000 Cl
atom 10.2914554799999998 38.5764168700000027 8.2383601599999992 Na
atom 13.1762429099999991 38.5628828899999974 8.5276075500000008 Cl
atom 13.0745701099999998 35.8161377899999991 8.4038507800000009 Na
atom 10.3968097299999993 35.7532563299999993 8.5949093899999998 Cl
atom 13.1992949199999998 38.5519287700000035 5.7634464300000001 Na
atom 10.1472345700000002 38.3946041499999993 5.7083428300000003 Cl
atom 10.2915202000000008 1.9087550799999999 5.7011972000000002 Na
atom 13.1102700700000003 1.8088229400000000 5.6658111699999996 Cl
atom 10.3145135299999993 4.9149478499999999 8.3382016199999995 Na
atom 13.3506028600000004 4.8334808000000002 8.4738011499999999 Cl
atom 13.0767129900000008 1.7566505500000000 8.3226816400000008 Na
atom 10.3080800299999993 1.8118931400000000 8.5965530999999995 Cl
atom 13.1207033000000006 4.7400998500000000 5.7687968900000000 Na
atom 10.2895809899999993 4.5929779300000000 5.9023925200000003 Cl
atom 10.2903437600000007 7.5395401599999996 5.7755162200000001 Na
atom 13.2401668699999995 7.5268917799999997 5.8117335499999996 Cl
atom 10.3521981699999994 10.2035729499999999 8.4658806099999993 Na
atom 13.1446774200000007 10.4465938000000005 8.5154658899999998 Cl
atom 12.9200543000000003 7.6113669799999997 8.3572600200000000 Na
atom 10.3476962900000000 7.4829141799999999 8.5329843499999996 Cl
atom 13.1892987200000000 10.4096732999999997 5.7833939399999998 Na
atom 10.2733463599999997 10.3836816299999999 5.7463819300000001 Cl
atom 15.8502356599999992 13.3642479000000005 5.9065975100000001 Na
atom 18.7461214299999988 13.1067442100000005 5.6916733900000001 Cl
atom 15.9046839299999991 15.8949210200000000 8.5709551299999998 Na
atom 18.7109412800000001 16.0535992500000013 8.5470775900000007 Cl
atom 18.6298762199999999 13.1228342500000004 8.3441773099999992 Na
atom 15.8397552200000007 13.1552462999999999 8.5380729899999999 Cl
atom 18.6892740000000011 16.1401266399999983 5.7317988099999999 Na
atom 15.8800717200000001 15.8288209200000001 5.7633013100000001 Cl
atom 15.8414123500000006 18.9098896500000002 5.8947529400000001 Na
atom 18.8667828399999991 18.8047254499999994 5.7286883099999999 Cl
atom 16.1666318999999987 21.6497746599999985 8.3407325199999995 Na
atom 18.7875185900000012 21.6880695199999991 8.6133672899999993 Cl
atom 18.7937820799999997 18.8922206499999987 8.2593121600000003 Na
atom 16.1027610599999988 18.7583124099999985 8.6907408999999998 Cl
atom 18.7201481200000011 21.7227509300000001 5.9440901700000000 Na
atom 15.8992591000000001 21.5766639699999985 5.7751943900000002 Cl
atom 15.9863065300000002 24.5070802699999994 5.9150529399999998 Na
atom 18.6789617300000010 24.4758993199999999 5.5756835899999997 Cl
atom 15.9706635899999991 27.2356350999999997 8.3411077400000000 Na
atom 18.7479546500000005 27.1323006999999983 8.5814763599999999 Cl
atom 18.6871257200000009 24.5349359199999988 8.2964315200000005 Na
atom 15.9754409699999993 24.3911831600000006 8.4309022900000006 Cl
atom 18.8873499299999992 27.1377680999999988 5.7359114800000004 Na
atom 15.9658742999999994 27.2920379400000002 5.8541067199999999 Cl
atom 15.9301108399999993 29.9959480999999997 5.7243510000000004 Na
atom 18.7119546200000002 29.9338840899999994 5.6388642000000004 Cl
atom 15.8569836800000008 32.8030386399999969 8.6237145900000005 Na
atom 18.6058242800000002 33.0463852900000035 8.4749611199999997 Cl
atom 18.6162173899999992 30.1057130000000015 8.2312273000000005 Na
atom 15.9758962100000002 30.1266543700000007 8.5530615700000006 Cl
atom 18.7743607799999985 32.7015122000000034 5.8225349199999998 Na
atom 15.9968397600000003 32.6955738199999999 5.6376303900000000 Cl
atom 15.8526879100000002 35.7097907799999987 5.8137424400000004 Na
atom 18.7333563699999992 35.7722413199999991 5.7900827699999997 Cl
atom 15.6911731400000001 38.6403689300000011 8.4175687900000007 Na
atom 18.6637531500000016 38.6635818900000032 8.4944145199999994 Cl
atom 18.8028915800000007 35.6691323399999973 8.3802177300000000 Na
atom 15.8540941699999998 35.7640223900000009 8.6208114100000000 Cl
atom 18.7194749499999986 38.4879387800000003 5.9071241800000003 Na
atom 15.8612192400000005 38.5158484199999975 5.8567655199999997 Cl