#===============================================================================
# Created using the Atomic Simulation Environment (ASE)

# Sat Nov  1 21:48:33 2025

#=======================================================
lattice_vector 28.1999999999999993 0.0000000000000000 0.0000000000000000 
lattice_vector 0.0000000000000000 39.4799999999999969 0.0000000000000000 
lattice_vector 0.0000000000000000 0.0000000000000000 62.3296083400000001 
atom 7.6434306799999998 14.9235204299999999 -0.0194732500000000 Au
atom 10.5448459999999997 14.8731120400000005 -0.0084157000000000 Au
atom 13.1529873399999993 14.7696379400000009 -0.1814311300000000 Au
atom 16.0830128399999985 14.6951241899999996 0.1020753300000000 Au
atom 18.7976926999999989 14.9684638600000000 -0.0511594600000000 Au
atom 21.5446649999999984 14.9003919600000003 -0.0301507700000000 Au
atom 24.2942761699999998 14.8214967800000004 0.0615988700000000 Au
atom 27.3343488699999995 14.9010750900000009 -0.1134085700000000 Au
atom 1.8123849900000000 14.6746145099999996 -0.0217983300000000 Au
atom 4.3653750699999998 14.7906631199999996 0.0199322200000000 Au
atom 8.9776960599999995 17.4400403699999984 0.1640203300000000 Au
atom 11.7042780400000002 17.1022949299999993 0.0022039200000000 Au
atom 14.6538023400000004 17.2376806900000012 -0.0625500300000000 Au
atom 17.3517854500000013 17.1916854999999984 0.0451518100000000 Au
atom 20.2521259700000016 17.3364121799999999 -0.1629994300000000 Au
atom 23.0093011599999997 17.4099827299999994 0.1331894700000000 Au
atom 25.9012870200000016 17.2164770099999984 0.1692761600000000 Au
atom 0.4718497000000000 17.4052552200000008 0.0515009700000000 Au
atom 3.2888392199999998 17.4571659500000003 0.1748154000000000 Au
atom 6.0422828400000004 16.9870685799999990 0.1463900500000000 Au
atom 7.2885765700000000 19.7553079099999991 0.1059066600000000 Au
atom 10.2647962600000007 19.8049831800000007 -0.1085944700000000 Au
atom 13.1528369600000001 19.7469010000000011 0.1452405800000000 Au
atom 15.9505919400000007 19.8010871399999999 0.0654568800000000 Au
atom 18.8535867500000016 19.7217600699999984 0.1730315700000000 Au
atom 21.6951330599999999 19.6173627900000014 0.0601687700000000 Au
atom 24.4876434699999983 19.6489085999999986 0.1184547800000000 Au
atom 27.3063970800000000 19.7016666399999991 0.0297634400000000 Au
atom 1.9254666700000000 19.8146072400000008 0.0913396900000000 Au
atom 4.6468855099999997 19.6693718199999985 -0.0571973100000000 Au
atom 8.9995254599999992 22.1514695699999997 -0.0083755000000000 Au
atom 11.7851376900000009 22.3427118699999987 0.0262189000000000 Au
atom 14.4380409000000007 22.2603096200000010 0.1252334100000000 Au
atom 17.6187319799999997 22.1146157199999998 0.2402247200000000 Au
atom 20.2223338499999983 22.1281792300000006 0.1543786000000000 Au
atom 22.8972644199999991 22.1323143699999996 -0.0546836100000000 Au
atom 25.9782382399999996 22.1450684899999999 0.1031411700000000 Au
atom 0.5613545400000000 22.2589663900000012 0.1432423800000000 Au
atom 3.0922855100000000 22.3091988599999986 0.0430299400000000 Au
atom 5.9362822599999996 22.2288464300000008 -0.0443740600000000 Au
atom 7.5626167600000000 24.6418440399999987 0.1305768700000000 Au
atom 10.4144674399999992 24.8600414799999996 0.0227825100000000 Au
atom 13.1220425200000008 24.8089873099999991 0.1398921500000000 Au
atom 15.7048614799999999 24.6353248299999983 -0.0354788600000000 Au
atom 18.8204210200000013 24.9680207299999992 0.0216025800000000 Au
atom 21.5261394800000012 24.6957338799999988 0.2330249200000000 Au
atom 24.3288469899999988 24.4988588800000002 0.0304862700000000 Au
atom 27.1042026999999983 24.7804605799999997 -0.0480614200000000 Au
atom 1.9793885800000000 24.8012506799999990 0.2084893400000000 Au
atom 4.8380334100000004 24.8588468399999982 0.1450836700000000 Au
atom 8.9664668899999995 27.2159746600000005 -0.0108295400000000 Au
atom 11.8268612399999995 27.1649980699999993 0.0112970800000000 Au
atom 14.4952914199999991 27.3443126200000002 0.0613207800000000 Au
atom 17.3816931500000003 27.0919275000000006 0.1031914000000000 Au
atom 20.2600051500000014 27.0373879200000005 0.2137890000000000 Au
atom 22.6046599599999993 26.9518379800000005 0.1310559000000000 Au
atom 25.9382748399999983 27.2050379000000007 0.1375377600000000 Au
atom 0.4190584900000000 27.2391753299999984 0.0701099800000000 Au
atom 3.2703688000000000 27.1964506600000000 0.1151693300000000 Au
atom 6.1140268600000001 27.0375629999999987 0.0392723400000000 Au
atom 7.5554738300000004 29.5092407100000003 0.2462890200000000 Au
atom 10.3537883799999992 29.6734095300000007 0.0609410800000000 Au
atom 13.2229495999999997 29.6565143999999989 -0.1014558100000000 Au
atom 15.9441637200000006 29.7138975700000003 0.2028204400000000 Au
atom 18.8900509599999999 29.6101279899999987 0.0546667200000000 Au
atom 21.5404520700000006 29.5757879000000017 0.1730011300000000 Au
atom 24.2589695100000000 29.6327796499999998 -0.1438602300000000 Au
atom 27.4091283600000004 29.6681330199999991 0.2347447300000000 Au
atom 1.8198739799999999 29.7162119999999987 -0.0332344800000000 Au
atom 4.8413650600000002 29.6475652600000004 -0.0540193100000000 Au
atom 8.9004035500000001 31.9795181699999986 0.0274108900000000 Au
atom 11.7135164799999991 32.1274478999999999 -0.0071446800000000 Au
atom 14.5768950900000007 32.0953416899999979 -0.0814028500000000 Au
atom 17.2764520899999994 32.0554764999999975 0.0142623100000000 Au
atom 20.2577269700000002 32.0519721499999974 0.0155938000000000 Au
atom 22.9317103300000014 31.9796345700000018 0.1363241400000000 Au
atom 25.7175358699999990 32.1198900099999989 0.1368662000000000 Au
atom 0.3604753500000000 32.1043728699999988 -0.1720229200000000 Au
atom 3.2567758599999999 32.0592345900000026 -0.1272406000000000 Au
atom 6.1085681000000003 32.0857589000000019 -0.0025033000000000 Au
atom 7.6257449599999996 34.6686767200000006 0.2156293200000000 Au
atom 10.3435326900000000 34.5419534500000012 -0.0370418900000000 Au
atom 13.0567093100000005 34.6259244900000027 -0.0507255500000000 Au
atom 15.9039956700000005 34.6537051600000012 0.0630080400000000 Au
atom 18.7015981899999986 34.6036948499999966 -0.0813010200000000 Au
atom 21.5615148599999991 34.6184947400000027 -0.0215006800000000 Au
atom 24.3280731099999983 34.6846255499999998 0.2896092600000000 Au
atom 27.2492514200000002 34.4848604499999993 0.0199577200000000 Au
atom 1.8584742999999999 34.7146670099999994 -0.1021520800000000 Au
atom 4.7728246499999996 34.4520872699999998 0.1135822000000000 Au
atom 8.8868531300000004 37.0309142699999967 -0.0304284500000000 Au
atom 11.9053538000000003 37.1345182499999993 -0.0621477600000000 Au
atom 14.5210083599999997 37.3358274699999981 0.1134299400000000 Au
atom 17.4059523899999995 37.1511689900000022 0.0586389500000000 Au
atom 20.2099157500000004 37.1238837499999974 -0.1474115100000000 Au
atom 23.0140693799999987 36.8543336500000009 0.0092945500000000 Au
atom 25.7617633099999992 37.0645669000000026 -0.0158255200000000 Au
atom 0.4886152700000000 37.1396828600000006 -0.0650506400000000 Au
atom 3.2719558900000001 37.0192925099999997 0.1209211300000000 Au
atom 6.1279320300000002 37.0127616799999970 0.0676183700000000 Au
atom 7.5348780499999997 0.0506760500000000 -0.1530178300000000 Au
atom 10.4279142900000004 0.0899290100000000 0.0711548400000000 Au
atom 13.2804988000000002 0.0617941700000000 0.0808779200000000 Au
atom 15.8951830800000007 0.0381920900000000 -0.0032438600000000 Au
atom 18.7361346699999984 -0.0795587500000000 -0.2636915700000000 Au
atom 21.6406860600000002 0.1310445200000000 0.0153885500000000 Au
atom 24.3932452200000007 0.1084309900000000 0.0563703100000000 Au
atom 27.2843121599999989 0.1948632400000000 0.0088884800000000 Au
atom 1.9038794999999999 0.2602383500000000 0.2469177800000000 Au
atom 4.4963536199999998 0.1042865300000000 0.3417132900000000 Au
atom 8.7902631499999995 2.6686384200000002 0.0852357800000000 Au
atom 11.7565080999999996 2.5248159200000000 0.1735241500000000 Au
atom 14.6775154899999993 2.4438767000000001 0.0571270000000000 Au
atom 17.5281336000000003 2.5627263500000002 -0.0518250100000000 Au
atom 20.1161415300000002 2.5327717000000001 0.0742844900000000 Au
atom 22.9783307500000014 2.4838017699999999 -0.1413395600000000 Au
atom 25.6633170399999990 2.3260619100000000 -0.0383504500000000 Au
atom 0.3783362300000000 2.4424053300000002 0.2141070800000000 Au
atom 3.3545010400000002 2.5700710999999998 0.0812995000000000 Au
atom 6.0070719099999996 2.4791479000000001 0.0925617900000000 Au
atom 7.5060100600000004 4.9757279700000003 0.3034332800000000 Au
atom 10.3769815300000001 4.8939424400000000 0.0556178300000000 Au
atom 12.9790246299999996 4.9408105600000001 0.0762002600000000 Au
atom 15.8604468500000007 5.0152599499999999 0.1058691700000000 Au
atom 18.9645830000000011 5.0517918399999999 0.0801740200000000 Au
atom 21.7127255000000012 4.8459870299999999 -0.1683271900000000 Au
atom 24.5091582300000006 4.8458697300000004 0.0647983200000000 Au
atom 27.3402714700000011 5.1497588700000003 0.1569055300000000 Au
atom 2.0985663600000000 4.8258169500000001 0.1270015800000000 Au
atom 4.5848305600000003 5.0261909899999999 0.0733026700000000 Au
atom 9.0888031300000005 7.4321596999999997 0.0722557200000000 Au
atom 11.8152833899999994 7.1858680000000001 0.1904676700000000 Au
atom 14.4539696800000002 7.4548855600000001 0.1722258900000000 Au
atom 17.3144917700000001 7.5076460500000000 0.1295055400000000 Au
atom 20.2831462800000004 7.4806974899999998 0.1231975400000000 Au
atom 23.0135567200000004 7.3283373000000003 -0.1678577700000000 Au
atom 26.0506437200000001 7.5361834200000004 -0.0365845800000000 Au
atom 0.4008723100000000 7.4236709999999997 0.0918836200000000 Au
atom 3.4468366600000002 7.3224801299999998 0.0147416900000000 Au
atom 6.2382026200000000 7.4445378199999999 0.0370457500000000 Au
atom 7.4945354100000001 9.9156238699999992 -0.0839914600000000 Au
atom 10.3139895900000003 9.8761565900000008 -0.2587940900000000 Au
atom 13.2263326499999998 9.8725483500000006 -0.0636353900000000 Au
atom 16.0854502900000007 9.9981313699999994 -0.1103439400000000 Au
atom 18.6243955800000016 9.8681275199999998 0.1338660400000000 Au
atom 21.6734092499999988 9.8836340499999995 0.0255682000000000 Au
atom 24.5296568199999996 9.9544374300000005 0.0391660200000000 Au
atom 27.1433031800000002 9.9444750600000003 -0.1638753500000000 Au
atom 1.7791969299999999 9.8792229799999998 0.1730794300000000 Au
atom 4.6662244900000003 9.9531232500000009 0.0436680400000000 Au
atom 8.9492596399999993 12.1214095099999994 0.0892947100000000 Au
atom 11.8196033099999998 12.2913882599999997 0.0497890800000000 Au
atom 14.6478515799999993 12.5646781300000008 -0.0982519100000000 Au
atom 17.6068118499999997 12.3397943100000003 0.0809366200000000 Au
atom 20.2570975299999994 12.4778929699999992 0.0821531800000000 Au
atom 23.0765457100000013 12.2933970200000005 -0.0596866100000000 Au
atom 25.9128182400000000 12.4326583599999996 0.0229963200000000 Au
atom 0.5045561100000000 12.4856684900000001 0.1264074400000000 Au
atom 3.1529999599999998 12.1901220099999996 -0.0099163700000000 Au
atom 5.9967809000000001 12.3985983500000003 0.0072686000000000 Au
atom 7.4659727699999996 13.2419800500000004 2.7113467700000000 Au
atom 10.4423974699999995 13.1747758499999996 2.4765277399999999 Au
atom 13.2592797099999995 13.1770596399999995 2.6252484800000002 Au
atom 16.0471536800000010 13.0739101499999997 2.4875145299999999 Au
atom 18.9048043999999997 13.1129467500000008 2.8004436899999998 Au
atom 21.6396308200000007 13.0875511299999996 2.7861539700000000 Au
atom 24.2224636900000014 13.2325026799999996 2.5867442399999998 Au
atom 27.1825716600000007 13.1175276699999994 2.6841435800000002 Au
atom 1.8658072000000001 13.1967011000000003 2.5825386799999999 Au
atom 4.4429414800000000 13.1436283399999994 2.4505868700000000 Au
atom 8.9046211599999996 15.7818260099999996 2.6504109300000001 Au
atom 11.7482667999999997 15.6444086200000001 2.8695080800000001 Au
atom 14.5556546400000002 15.7034862099999994 2.7299262199999998 Au
atom 17.4045473299999998 15.4940886800000008 2.6139161999999998 Au
atom 20.3293311699999997 15.6129654099999993 2.6480253299999998 Au
atom 23.0258134699999992 15.6846238400000004 2.5785378500000000 Au
atom 25.8545799199999990 15.6769027399999992 2.4713540500000000 Au
atom 0.5658205600000000 15.5736267099999992 2.6475358600000001 Au
atom 3.3641095900000000 15.5889284299999993 2.6192261399999999 Au
atom 5.9678036600000004 15.6800898100000001 2.4969430600000000 Au
atom 7.4800539800000001 18.0052828799999993 2.6274746200000001 Au
atom 10.3106043199999995 18.3145264499999989 2.5285045199999998 Au
atom 13.2438630699999997 18.0991408000000007 2.7511445100000000 Au
atom 16.1932538100000016 18.1481177299999992 2.6403546599999999 Au
atom 18.7758050400000016 18.3664715500000000 2.8001118800000002 Au
atom 21.5528427100000002 18.0310124400000014 2.8007617100000002 Au
atom 24.3198544699999992 17.9100812500000011 2.8552940599999999 Au
atom 27.2868931600000018 18.4104705300000013 2.6294912500000001 Au
atom 1.8871836300000000 18.0710613400000000 2.7177415300000001 Au
atom 4.7353558700000002 18.0203691900000003 2.7477289699999998 Au
atom 9.0164199800000002 20.7665918500000011 2.4922188699999999 Au
atom 11.7298919999999995 20.4960380200000003 2.5604034000000002 Au
atom 14.6364494700000005 20.5081700500000004 2.5574905600000002 Au
atom 17.3536411999999984 20.5918106999999999 2.7532595500000001 Au
atom 20.2990451400000005 20.6042621399999994 2.7155545700000001 Au
atom 22.9871488100000008 20.6596158800000005 2.8885137300000001 Au
atom 25.9221357599999997 20.6572320299999994 2.7583307399999999 Au
atom 0.3675843900000000 20.5697017700000018 2.7240529599999999 Au
atom 3.3509910500000002 20.6511164200000010 2.5720835100000001 Au
atom 6.2126344199999997 20.5535453299999986 2.8864925399999999 Au
atom 7.6263766000000004 23.0932842899999997 2.6558579299999998 Au
atom 10.4984688599999991 22.9546036499999992 2.4918524400000002 Au
atom 13.1331432600000007 23.1510508500000007 2.9174831600000002 Au
atom 15.9803666199999999 23.2025839100000013 2.6277701100000002 Au
atom 18.8462458999999996 22.9575372599999987 2.7127274199999998 Au
atom 21.5090555499999994 22.9662349399999997 2.4530304799999998 Au
atom 24.4622243600000004 23.1091349999999984 2.8301922700000000 Au
atom 27.2858499899999991 23.1471558600000016 2.6357108299999998 Au
atom 1.8707311300000000 22.9645657900000018 2.8240949299999998 Au
atom 4.8199035099999996 22.9448084500000000 2.7434556600000000 Au
atom 8.8726040000000008 25.6195359799999984 2.7623964999999999 Au
atom 11.7904210900000006 25.4633091299999990 2.7049143600000001 Au
atom 14.6102182099999993 25.5869571200000010 2.8824627700000001 Au
atom 17.4332919299999993 25.5578502900000011 2.9072619400000002 Au
atom 20.3005441600000012 25.4803424099999987 2.7509194099999998 Au
atom 23.1338700800000012 25.5473022999999984 2.7287996899999998 Au
atom 25.8446993399999982 25.4127142200000016 2.7295433899999999 Au
atom 0.4284951600000000 25.5180999499999999 2.6988873600000001 Au
atom 3.1592791000000000 25.3771724100000000 2.6017683900000002 Au
atom 6.0664134100000000 25.5352426500000007 2.7824082500000000 Au
atom 7.4187284599999996 28.0591160299999984 2.6404133700000001 Au
atom 10.3570594200000006 27.7703223399999999 2.7987486600000002 Au
atom 13.2279640100000009 28.0176109000000011 2.6642227500000000 Au
atom 15.7754087100000007 28.0661486999999994 2.6804120899999999 Au
atom 18.8495920800000007 28.0976260800000013 2.6108093200000000 Au
atom 21.6931950499999999 27.9522234300000001 2.6155833799999999 Au
atom 24.5221662800000004 27.8188130099999995 2.5532199200000001 Au
atom 27.3151458600000012 28.0071367100000010 2.6569360000000000 Au
atom 1.8832988700000000 28.0089583100000006 2.4101559500000000 Au
atom 4.7878692100000002 28.0942618800000012 2.9153227199999998 Au
atom 8.9457679100000007 30.4589762600000000 2.6698151700000001 Au
atom 11.8923593499999996 30.4288045899999986 2.7082803300000000 Au
atom 14.7676017500000007 30.4933848699999999 2.8437945299999998 Au
atom 17.2340262200000005 30.5046015100000005 2.7018471100000001 Au
atom 20.3660990499999990 30.5916964200000017 2.5866805899999998 Au
atom 23.0112875099999989 30.5666208899999994 2.5935418600000002 Au
atom 25.7868855600000018 30.5354781300000013 2.6573396300000001 Au
atom 0.3191030500000000 30.4867801199999988 2.5605788299999999 Au
atom 3.2103036000000000 30.5706858200000013 2.6944445300000002 Au
atom 6.0896633400000004 30.4016736600000002 2.6258583700000000 Au
atom 7.5001402400000003 32.8952003599999969 2.5814823400000000 Au
atom 10.4124812500000008 32.9092432500000029 2.8412586200000001 Au
atom 12.9939288600000005 33.0265357099999974 2.6149670100000000 Au
atom 16.0029921600000016 32.7874700400000023 2.6864525600000002 Au
atom 18.7577140799999995 33.0552769000000026 2.4866488100000002 Au
atom 21.7563654699999987 32.9744558200000029 2.6588089699999999 Au
atom 24.3887762499999994 32.9174742699999996 2.5315385500000001 Au
atom 27.4026376800000016 32.8433007300000028 2.7210188600000000 Au
atom 1.9167277700000001 32.9497151799999983 2.4969464200000000 Au
atom 4.6086954400000000 32.8747182800000033 2.7563203100000000 Au
atom 8.9842741799999999 35.3047540600000005 2.5871919999999999 Au
atom 11.5743491499999998 35.5314299099999999 2.6191197900000001 Au
atom 14.6290528200000001 35.4405438200000020 2.6691693800000000 Au
atom 17.2919731299999988 35.3713661199999976 2.6036185600000001 Au
atom 20.2506811800000008 35.2482196099999996 2.4709669700000001 Au
atom 22.9920200100000010 35.1948629199999985 2.5283614700000001 Au
atom 25.7137203099999994 35.4520465599999994 2.5902484000000001 Au
atom 0.2848903900000000 35.4182234800000018 2.5439516599999998 Au
atom 3.1492398000000001 35.3546487500000026 2.5716516600000001 Au
atom 6.2278351299999999 35.3151180799999977 2.7011254899999999 Au
atom 7.3436525000000001 37.9998367099999967 2.4189795599999999 Au
atom 10.2554472000000008 37.6229878299999996 2.7156870299999998 Au
atom 13.1903516799999991 37.8974594800000020 2.6008772400000000 Au
atom 16.0223566999999996 37.7349834099999981 2.8687248200000002 Au
atom 18.7886299000000001 37.8739475900000002 2.5374503000000002 Au
atom 21.5994699700000012 37.8978363700000003 2.8372860200000001 Au
atom 24.5567025600000015 37.7480240100000017 2.6409601800000000 Au
atom 27.2407134599999985 38.0987449100000006 2.6231955500000002 Au
atom 1.9186029400000000 37.8264430300000001 2.4801511399999998 Au
atom 4.5829232600000003 37.7963655699999990 2.7159703099999999 Au
atom 8.9746567099999996 0.9292748000000000 2.8034663399999999 Au
atom 11.6090456799999995 0.8807241600000000 2.6101504499999999 Au
atom 14.5122736799999998 0.9051994600000000 2.7348632199999998 Au
atom 17.3004125799999997 0.8296856700000000 2.6539403400000001 Au
atom 20.2579331200000006 0.6253769900000000 2.8069819900000001 Au
atom 23.0201190699999998 0.8452033200000000 2.7320004099999999 Au
atom 25.7076972400000017 0.8853609500000000 2.4878496200000000 Au
atom 0.6113007200000000 0.7582106400000000 2.6601565100000002 Au
atom 3.1941821600000000 0.8870901800000000 2.7890034199999998 Au
atom 6.0385125100000003 0.7820639100000000 2.7453995899999999 Au
atom 7.2893024899999999 3.2103550500000000 2.6200823299999998 Au
atom 10.3438596599999997 3.2099246300000002 2.7623624800000002 Au
atom 13.1054441500000003 3.5149213000000001 2.6068577799999999 Au
atom 15.8661365100000005 3.2397546400000001 2.6508474400000002 Au
atom 18.8664159500000004 3.2106308200000000 2.6317985799999999 Au
atom 21.5769268899999993 3.1161357100000000 2.4122383300000001 Au
atom 24.5011951199999984 3.3793811300000001 2.6109342899999999 Au
atom 27.2059808799999985 3.3961325100000002 2.5249543000000001 Au
atom 2.1248867300000001 3.2090907500000001 2.7579673100000002 Au
atom 4.5248112000000003 3.4121768399999999 2.6946634600000001 Au
atom 8.6406931999999994 5.8173648199999999 2.7767118300000000 Au
atom 11.7825792800000002 6.0013164200000002 2.8116956499999999 Au
atom 14.4886051299999998 5.7865518600000003 2.7785768900000001 Au
atom 17.3312918600000003 5.8728535700000002 2.7279445600000001 Au
atom 20.2891836499999982 5.8788515900000000 2.6840222100000002 Au
atom 22.9315653799999986 5.7361457099999997 2.6511886200000001 Au
atom 25.8693477399999985 5.9259405999999997 2.9067308700000001 Au
atom 0.4827717800000000 5.8563312900000000 2.7647487100000001 Au
atom 3.2457727300000001 5.8895021800000000 2.7974351000000000 Au
atom 6.1887243300000003 5.8127693999999996 2.8255852400000001 Au
atom 7.4902370300000003 8.2908327699999997 2.5456722300000001 Au
atom 10.0896660600000008 8.4690492000000006 2.7201935399999999 Au
atom 13.1113443600000004 8.2468511099999997 2.8236195999999998 Au
atom 15.8840413700000003 8.4114836200000003 2.5386013900000002 Au
atom 18.7355817299999998 8.3850926599999998 2.8780640700000002 Au
atom 21.5764758299999997 8.3243420300000004 2.7673173499999999 Au
atom 24.3869049000000011 8.2737727099999994 2.7561932900000001 Au
atom 27.3100930599999998 8.4099826300000000 2.6158316799999999 Au
atom 2.1019404300000000 8.1548750200000004 2.5423449699999998 Au
atom 4.6211981199999999 8.3609631300000000 2.6588179300000001 Au
atom 9.1006420699999993 10.6638849100000002 2.5414269500000000 Au
atom 11.6959681700000004 10.5865925099999991 2.5918189100000002 Au
atom 14.5005940399999993 10.8362011799999998 2.5529907800000000 Au
atom 17.5425717299999988 10.7383648300000001 2.5758218400000001 Au
atom 20.1558007100000012 10.8023759100000003 2.7651522300000000 Au
atom 22.8978749499999985 10.6563995299999998 2.7153833700000001 Au
atom 25.8648346999999994 10.5852824299999995 2.6442594599999998 Au
atom 0.4201521000000000 10.7511285099999991 2.7483856599999998 Au
atom 3.4536606299999999 10.6019834300000007 2.6914862300000002 Au
atom 6.2992723499999999 10.5900702700000000 2.5477889800000000 Au
atom 7.4230332399999996 13.1494298300000008 5.5899519199999999 Cl
atom 7.5040573799999999 15.9711332600000002 8.5090492900000001 Cl
atom 7.6105327799999998 13.0034945799999999 8.4390398100000006 Na
atom 7.4612700199999997 16.1256638300000006 5.7794071599999999 Na
atom 7.3324382899999998 18.6986472600000013 5.7228410399999996 Cl
atom 7.4167464100000000 21.7147615499999986 8.5426840500000001 Cl
atom 7.4641625200000004 18.8086827999999997 8.4876762499999998 Na
atom 7.4387941700000004 21.7031872800000016 5.7694060299999999 Na
atom 7.4429046699999999 24.5671479700000006 5.7012662599999997 Cl
atom 7.7096800900000000 27.3442453900000011 8.5061906300000008 Cl
atom 7.5454730699999999 24.4802807199999997 8.3582695800000000 Na
atom 7.4085020899999998 27.4391330499999988 5.6405446899999996 Na
atom 7.5571056900000002 30.1034620299999993 5.7343974600000003 Cl
atom 7.5599892700000000 32.7747456600000007 8.6699060600000006 Cl
atom 7.6915978200000001 30.1659286699999996 8.2416353200000003 Na
atom 7.2936919400000004 33.0442141199999995 5.8200543299999996 Na
atom 7.5727509099999999 35.9630087000000032 5.9089693399999996 Cl
atom 7.4910021000000002 38.7622583699999979 8.6964867899999998 Cl
atom 7.4786066599999996 35.6349221899999975 8.3535834399999995 Na
atom 7.4475605600000003 38.5060284600000031 5.7872987900000004 Na
atom 7.5447114400000004 1.9268079800000000 5.7423934399999998 Cl
atom 7.4798134200000002 4.6466735699999999 8.7888539699999999 Cl
atom 7.5794734100000003 2.0698802999999999 8.5480564399999999 Na
atom 7.5977321900000003 4.8704429400000002 5.8599862299999996 Na
atom 7.5725333800000003 7.4529489800000004 5.7037661799999997 Cl
atom 7.5508103000000002 10.1350051600000004 8.6106856799999996 Cl
atom 7.3488796499999998 7.6269510100000000 8.3026556300000003 Na
atom 7.3801250400000002 10.4511023400000003 5.6822688899999996 Na
atom 10.4736569799999995 13.2758746599999995 5.8285603799999999 Na
atom 13.1708044999999991 13.2026970000000006 5.5642569499999999 Cl
atom 10.2518574099999995 15.8578320000000001 8.4232812799999994 Na
atom 13.2702534300000003 15.9831597599999995 8.3175079600000004 Cl
atom 13.3135311400000003 13.2266136999999997 8.3354267499999999 Na
atom 10.3446844099999993 13.1591731099999993 8.4516463099999992 Cl
atom 13.0679226100000001 16.1381344700000007 5.7479797699999997 Na
atom 10.2514847600000003 16.1787076899999995 5.7803412800000000 Cl
atom 10.1525605999999993 18.8225465000000014 5.7993383400000003 Na
atom 13.1228943699999991 19.0073951500000007 5.5830698999999999 Cl
atom 10.3558526799999999 21.4728833100000003 8.5600171399999994 Na
atom 13.1624168299999997 21.5670740599999995 8.6563438500000007 Cl
atom 12.8874799000000007 18.8632542299999990 8.4163625500000006 Na
atom 10.2644148899999994 18.9092892299999988 8.6197940099999997 Cl
atom 13.1765495300000008 21.7481968099999996 5.9682635900000003 Na
atom 10.4798557900000002 21.6400351899999990 5.7165642800000001 Cl
atom 10.2588372700000008 24.4843155000000010 5.9199938300000001 Na
atom 13.0853318000000005 24.4633970299999994 5.6882178100000003 Cl
atom 10.2203408400000004 27.3189573800000005 8.5414515000000009 Na
atom 12.9829349100000009 27.3160998900000003 8.7479023599999994 Cl
atom 13.0934169699999998 24.3006154599999995 8.3385593799999995 Na
atom 10.3036420000000000 24.3406422400000011 8.6238247500000007 Cl
atom 13.2329456699999994 27.2762776900000006 5.9175253000000003 Na
atom 10.3108249599999997 27.2350475799999998 5.9315424999999999 Cl
atom 10.3364436000000008 30.1837477599999993 5.6684586899999996 Na
atom 13.2443290699999991 30.0640198199999986 5.6591097000000001 Cl
atom 10.1430377400000005 32.7474183599999975 8.2750106900000002 Na
atom 13.0853520700000008 32.9136312600000025 8.6845941700000004 Cl
atom 13.0963119500000005 30.1497830700000016 8.4733400900000007 Na
atom 10.4388457799999994 30.2447688899999996 8.4829452799999991 Cl
atom 13.1983755299999999 32.9308449099999976 5.9417710000000001 Na
atom 10.3385955900000006 33.0162018899999978 5.8525121799999997 Cl
atom 10.1150981699999996 35.7163988100000012 5.8455259200000000 Na
atom 13.1335738400000004 35.7506858100000002 5.8007964300000001 Cl
atom 10.3785363900000007 38.5604413800000003 8.5676283899999994 Na
atom 13.1289629899999998 38.6221268899999970 8.6057574999999993 Cl
atom 13.1671334899999994 35.7515303300000014 8.3879176500000003 Na
atom 10.2804605999999996 35.7766259200000007 8.3753568600000001 Cl
atom 13.1698598400000009 38.6921113000000005 5.8485077600000004 Na
atom 10.3075045700000008 38.7363242699999972 5.9373936100000000 Cl
atom 10.2395091199999992 1.7518915100000001 5.9839974700000003 Na
atom 13.0954345799999992 1.8375849700000000 5.8232375899999997 Cl
atom 10.2221143600000008 4.8144985199999999 8.5296090899999992 Na
atom 12.9699541099999998 4.5915756900000000 8.5027595599999994 Cl
atom 13.1293886000000004 1.9272165299999999 8.3269876800000002 Na
atom 10.2154148100000004 1.9499898300000000 8.6740369699999995 Cl
atom 13.2243875200000005 4.5934839199999997 5.7496918700000004 Na
atom 10.1984446399999999 4.6595651000000000 5.7859417799999999 Cl
atom 10.2140703700000000 7.5375589099999996 5.6846349099999998 Na
atom 13.1886908199999997 7.3549582500000001 5.7380593199999996 Cl
atom 10.1062335999999995 10.0969077499999997 8.3602999499999999 Na
atom 13.0707312400000006 10.2998424300000000 8.5673794000000001 Cl
atom 13.0858054599999996 7.5488947299999998 8.4664559799999992 Na
atom 10.2960972399999999 7.5328788199999996 8.4668363499999995 Cl
atom 13.0721098700000002 10.2144803399999997 5.8483956900000003 Na
atom 10.3473273799999994 10.4706343200000003 5.8145429300000000 Cl
atom 16.0347231000000008 13.1095774100000000 5.6499179499999999 Na
atom 18.6852080799999989 13.1401406999999999 5.7020670300000003 Cl
atom 15.9793200399999993 15.9218711099999997 8.1359749800000003 Na
atom 18.7877258699999992 16.0252905800000001 8.5975065399999995 Cl
atom 18.9445436100000002 13.1880740700000008 8.3087820000000008 Na
atom 15.9086900300000007 13.2145057599999998 8.5927651600000008 Cl
atom 18.6926051599999994 16.2750122499999996 5.5913229800000002 Na
atom 15.8300977500000002 16.1875159199999992 5.6424889800000004 Cl
atom 15.9342339200000005 18.7122068000000006 5.8468038199999999 Na
atom 18.9586640300000013 18.7403253700000008 5.6888785600000000 Cl
atom 16.0113908199999990 21.6054959900000014 8.4615764700000007 Na
atom 18.9732361699999998 21.4461737600000006 8.6297803700000006 Cl
atom 18.7522412900000006 18.7648517400000010 8.4831473800000001 Na
atom 16.1032507299999992 18.8288031199999999 8.5297910899999998 Cl
atom 18.9724316699999989 21.7795297999999988 5.6848621000000001 Na
atom 15.9667961199999997 21.7009797999999989 5.7117314199999996 Cl
atom 15.8759075400000000 24.4548356099999999 5.5988286799999996 Na
atom 18.7130263200000009 24.3453063299999997 5.7315351000000003 Cl
atom 16.0909364600000018 27.2657987499999983 8.4277034700000009 Na
atom 18.8410660900000018 27.2726731600000001 8.5421000599999992 Cl
atom 18.6432037000000008 24.3925492800000008 8.3625144500000008 Na
atom 16.1889418399999983 24.5041640700000016 8.5537994299999998 Cl
atom 18.7625902800000013 27.2398322600000000 5.8070932900000001 Na
atom 15.9490632199999993 27.0783982700000010 5.7805574899999996 Cl
atom 15.9372345400000004 30.0699391799999987 5.7272850499999999 Na
atom 18.9514847800000013 30.0376179900000011 5.6311531700000002 Cl
atom 15.8865079999999992 33.0054501400000007 8.3684004900000009 Na
atom 18.7843864700000012 32.7782040100000032 8.6705263400000003 Cl
atom 18.7355714300000002 30.2247674000000011 8.2889256099999997 Na
atom 15.8976464400000008 30.0740445500000000 8.5781357600000003 Cl
atom 18.7563546099999989 32.9038957799999991 5.8269299600000002 Na
atom 16.0164905200000014 32.8726119700000012 5.6817428699999999 Cl
atom 16.0328204800000016 35.8082833599999972 6.0078550799999997 Na
atom 18.8093010800000009 35.8391475600000007 5.7841616900000004 Cl
atom 15.8514609199999992 38.3516340999999983 8.2911329899999995 Na
atom 18.7768280200000000 38.5392663599999992 8.6607484400000008 Cl
atom 18.7569101899999993 35.6218387699999965 8.4331598900000007 Na
atom 15.9880089000000005 35.8024098599999974 8.5584177300000004 Cl
atom 18.7776462500000001 38.5201670699999994 5.6263120799999999 Na
atom 15.9053630100000003 38.5462678700000012 5.7780417599999998 Cl