#===============================================================================
# Created using the Atomic Simulation Environment (ASE)

# Sat Nov  1 21:48:33 2025

#=======================================================
lattice_vector 28.1999999999999993 0.0000000000000000 0.0000000000000000 
lattice_vector 0.0000000000000000 39.4799999999999969 0.0000000000000000 
lattice_vector 0.0000000000000000 0.0000000000000000 62.3296083400000001 
atom 7.5038409599999998 14.8275349799999994 0.0454689500000000 Au
atom 10.2720889000000000 14.8289115700000007 -0.0177924300000000 Au
atom 13.1527994800000005 14.8175052699999998 0.0212754400000000 Au
atom 15.9414912999999991 14.8351443599999993 -0.0014883400000000 Au
atom 18.7865534600000004 14.8381620099999996 0.0747627800000000 Au
atom 21.6033645300000003 14.8206490700000000 -0.0231144000000000 Au
atom 24.4094608199999996 14.8379806900000002 0.0539286200000000 Au
atom 27.2360455399999992 14.8286805299999997 -0.1340105900000000 Au
atom 1.8400304800000000 14.8004698799999996 0.0687484200000000 Au
atom 4.7014025899999998 14.8484574299999998 0.0070140400000000 Au
atom 8.9227293200000002 17.2627180699999982 -0.0039919500000000 Au
atom 11.7340550300000004 17.2887708300000007 0.0555569200000000 Au
atom 14.5870469899999993 17.2768601599999982 0.0107952000000000 Au
atom 17.3986667600000011 17.2823268500000005 0.0119626200000000 Au
atom 20.1744566399999989 17.2965169900000006 0.0418384300000000 Au
atom 23.0479034499999997 17.2773227600000006 0.0407746300000000 Au
atom 25.8444595399999990 17.3104020600000013 -0.0325088900000000 Au
atom 0.4525042200000000 17.2176304500000015 0.0908131900000000 Au
atom 3.2644708400000000 17.2728148499999996 0.0134890300000000 Au
atom 6.1070968099999998 17.3087913899999997 0.0383214100000000 Au
atom 7.5048665100000003 19.7474915300000013 0.0958537000000000 Au
atom 10.3632234600000004 19.7614194900000015 0.0563163400000000 Au
atom 13.1791663600000000 19.7537333799999999 0.1102720200000000 Au
atom 15.9605000500000003 19.7733207200000010 0.0397553000000000 Au
atom 18.7829918199999994 19.7673707900000011 0.1284522000000000 Au
atom 21.6175842799999991 19.7801997999999983 0.0743530000000000 Au
atom 24.4396067399999986 19.7730659700000011 0.1267138400000000 Au
atom 27.2376965300000009 19.7885419400000018 0.1305937100000000 Au
atom 1.8605677100000000 19.7633075799999993 0.0874907600000000 Au
atom 4.6857887700000003 19.7691080600000006 0.0704837800000000 Au
atom 8.9486319900000009 22.2618080399999982 0.1174739400000000 Au
atom 11.7477679199999994 22.2298940000000016 0.0997060500000000 Au
atom 14.5678906900000005 22.2336457500000009 0.0652162000000000 Au
atom 17.3610034599999992 22.2325537000000004 0.1025708800000000 Au
atom 20.1733633200000000 22.2404054600000016 0.0737486800000000 Au
atom 23.0252585600000010 22.2357429700000004 0.0615709000000000 Au
atom 25.8585028000000001 22.2199943699999984 0.0682619000000000 Au
atom 0.4575328800000000 22.3004919500000014 0.0463429100000000 Au
atom 3.2763308800000002 22.2121221599999998 0.1141804900000000 Au
atom 6.0803726300000003 22.2389137800000007 0.0769038500000000 Au
atom 7.4729539999999997 24.6907573700000000 0.0926691500000000 Au
atom 10.3006116500000005 24.6865116899999997 0.0817069500000000 Au
atom 13.1417841099999997 24.7436244400000014 0.0880503200000000 Au
atom 15.9900953500000007 24.7057860200000015 0.1059964000000000 Au
atom 18.8153317199999996 24.6865053500000009 0.0868991800000000 Au
atom 21.5974644900000001 24.7065081900000010 0.0936658000000000 Au
atom 24.4268335100000016 24.6655090399999999 0.0989365800000000 Au
atom 27.2298187399999989 24.9307363500000001 0.0864238700000000 Au
atom 1.8927993500000000 24.6907626799999989 0.0511843600000000 Au
atom 4.6968864000000004 24.7052038699999983 0.0941190500000000 Au
atom 8.9338710599999995 27.1543600599999984 0.0478925300000000 Au
atom 11.7429107199999994 27.1660613300000016 0.0438325900000000 Au
atom 14.5471754900000008 27.2116058800000005 0.0790906500000000 Au
atom 17.4043199100000017 27.1243155099999989 0.0462434800000000 Au
atom 20.1702859500000002 27.1220296300000001 0.0805927100000000 Au
atom 22.9874480400000003 27.1422119600000009 0.0539548200000000 Au
atom 25.8346609500000000 27.1356647100000004 0.1156509500000000 Au
atom 0.4502906200000000 27.1578849499999997 0.0366882000000000 Au
atom 3.2573325700000000 27.1484280300000016 0.0803593000000000 Au
atom 6.1061717299999998 27.1432967900000008 0.0751761300000000 Au
atom 7.5084308699999998 29.6161309999999993 0.0417791100000000 Au
atom 10.3215763500000008 29.5933826400000015 0.0517347700000000 Au
atom 13.1384494000000007 29.6290463700000011 0.0149598500000000 Au
atom 15.9303046899999998 29.6042732400000013 0.0721301900000000 Au
atom 18.7828612700000015 29.6122882599999997 0.0586556800000000 Au
atom 21.6006732499999998 29.6514414600000009 0.0781712400000000 Au
atom 24.4200505899999989 29.6160713000000015 0.0151340900000000 Au
atom 27.2650321300000016 29.7904685700000016 0.2183659800000000 Au
atom 1.8512236200000001 29.7561611399999997 -0.0696843300000000 Au
atom 4.6841273299999999 29.6273926799999998 0.0552934500000000 Au
atom 8.8816077700000005 32.1057187999999982 0.0353743200000000 Au
atom 11.7108972399999995 32.0898706899999979 0.0408118900000000 Au
atom 14.5373718200000006 32.0646426699999978 0.0182427300000000 Au
atom 17.3718146299999994 32.0905056699999989 0.0219052700000000 Au
atom 20.1925062900000007 32.0795164800000023 0.0191925400000000 Au
atom 22.9958934299999989 32.1087650799999977 0.0259833300000000 Au
atom 25.8288379100000007 32.0938537299999993 -0.0315027300000000 Au
atom 0.4373169500000000 32.1317972499999982 0.0461773700000000 Au
atom 3.2587514700000000 32.1100913300000030 0.0131044200000000 Au
atom 6.0986838199999998 32.0862117499999968 0.0146738000000000 Au
atom 7.5115606000000001 34.5337481899999972 -0.0310296100000000 Au
atom 10.3247229199999992 34.5407715199999998 0.0830541000000000 Au
atom 13.1371788100000000 34.5573961799999978 0.0228331400000000 Au
atom 15.9761064299999997 34.5422591800000021 0.0752095700000000 Au
atom 18.8199290599999998 34.6078936899999974 -0.0050923600000000 Au
atom 21.6139867700000003 34.5800326700000014 0.0682890700000000 Au
atom 24.4201560600000001 34.5205767400000028 -0.0147384300000000 Au
atom 27.2521036199999998 34.7228650300000012 0.1636716300000000 Au
atom 1.8516679300000001 34.6535930000000008 -0.0030495300000000 Au
atom 4.6859339100000001 34.5512648699999971 0.0458480700000000 Au
atom 8.8579433499999993 37.0152597900000018 0.1641409600000000 Au
atom 11.6949249399999999 37.0466810599999974 0.0588848400000000 Au
atom 14.5873156099999992 37.0570289099999997 0.0730234200000000 Au
atom 17.4538164400000007 37.0281280000000024 -0.0686042600000000 Au
atom 20.1819978199999994 37.0160941199999982 -0.0467828600000000 Au
atom 22.9828999799999991 37.0292393300000029 0.1295219000000000 Au
atom 26.0649744000000005 37.1290122999999994 -0.1409449800000000 Au
atom 0.4507915900000000 37.0559206900000007 0.2177758700000000 Au
atom 3.1208322200000000 37.0142809999999969 -0.0190898300000000 Au
atom 6.0623430400000000 37.0404595899999975 -0.0546663900000000 Au
atom 7.3171106600000000 0.0224321700000000 0.1094006900000000 Au
atom 10.2799546100000008 0.0251321800000000 0.0449906900000000 Au
atom 12.9570958800000007 -0.0011194900000000 0.1669046100000000 Au
atom 16.1179866099999991 0.0160142300000000 -0.0927252100000000 Au
atom 18.7233906999999995 0.0099554400000000 0.4143295700000000 Au
atom 21.5459271399999999 0.0227767800000000 0.1165373400000000 Au
atom 24.4043493600000012 -0.0001282400000000 0.2659300100000000 Au
atom 27.1337598399999997 0.0430020200000000 0.0368246400000000 Au
atom 2.0289128399999998 0.0753981200000000 0.0771907800000000 Au
atom 4.6738299500000000 0.0149608000000000 0.0233827600000000 Au
atom 8.9047401799999992 2.4825270599999998 0.0785736700000000 Au
atom 11.7593111399999994 2.4853561200000001 0.0758471500000000 Au
atom 14.5473820299999996 2.4831699399999998 0.0710716600000000 Au
atom 17.3639025899999986 2.4863320600000001 0.0817088000000000 Au
atom 20.2151974400000007 2.4868325200000001 0.0933891700000000 Au
atom 23.0278474399999986 2.4949590499999998 0.1054670600000000 Au
atom 25.8614329900000008 2.4043684500000002 0.1024828200000000 Au
atom 0.4547012800000000 2.6971629500000001 0.1147256600000000 Au
atom 3.2562260500000000 2.4875704700000001 0.0765960900000000 Au
atom 6.0884297199999997 2.4953422600000001 0.0705051100000000 Au
atom 7.5068717800000000 4.9699495899999997 0.1114991400000000 Au
atom 10.3151019500000007 4.9206877599999999 0.0768488400000000 Au
atom 13.1263234000000004 4.9578095299999996 0.1351091900000000 Au
atom 15.9747098199999993 4.9745593000000001 0.1059880300000000 Au
atom 18.7653865700000004 4.9397964400000003 0.0939857900000000 Au
atom 21.6028608800000015 4.9422120700000001 0.0963761900000000 Au
atom 24.4262289000000017 4.9425952600000000 0.0982579500000000 Au
atom 27.2283959499999995 4.8873881700000004 0.0657702400000000 Au
atom 1.8463684899999999 4.9429437099999998 0.1523534100000000 Au
atom 4.6864103600000000 4.9719962799999999 0.1061270900000000 Au
atom 8.9267736499999994 7.4110254800000002 0.0803092300000000 Au
atom 11.7278289099999995 7.4189872299999999 0.0758462200000000 Au
atom 14.5692934199999993 7.4134008400000004 0.0885755200000000 Au
atom 17.3681114200000017 7.3986151299999996 0.0555107100000000 Au
atom 20.2148087399999987 7.4117080800000004 0.0722214400000000 Au
atom 23.0308480099999997 7.4226085700000004 0.0820532900000000 Au
atom 25.8470626099999983 7.4768671500000004 0.0703421700000000 Au
atom 0.4793811500000000 7.3553569300000001 -0.0855942600000000 Au
atom 3.2779860400000000 7.4149891200000004 0.0982303100000000 Au
atom 6.0814962499999998 7.4175135499999998 0.0669633200000000 Au
atom 7.5193891400000004 9.8679514600000005 0.0386739400000000 Au
atom 10.3756779899999998 9.8771815400000005 0.0032307900000000 Au
atom 13.1585361899999995 9.8586315100000004 0.0718621700000000 Au
atom 15.9655320599999992 9.8782969900000008 0.0006792400000000 Au
atom 18.8049729300000017 9.8733331900000003 0.0618564600000000 Au
atom 21.6083664999999989 9.8857100599999992 0.0132665600000000 Au
atom 24.4421931100000016 9.8855758799999993 0.0913961800000000 Au
atom 27.2662598900000006 9.8304849900000004 0.0699423400000000 Au
atom 1.8509565400000001 9.8943299299999996 0.1149447300000000 Au
atom 4.6971067000000000 9.8756585500000007 0.0079846800000000 Au
atom 8.8844901499999995 12.3218415799999992 -0.0033140400000000 Au
atom 11.7393867200000006 12.3398473699999993 -0.0006394500000000 Au
atom 14.5195494499999995 12.3619833499999991 0.0188317000000000 Au
atom 17.3787896900000014 12.3566303699999995 0.0061652700000000 Au
atom 20.1820656199999995 12.3337556199999998 0.0055354000000000 Au
atom 23.0194800800000010 12.3684396200000002 0.0155674500000000 Au
atom 25.8467166199999987 12.3505137000000005 -0.0253761400000000 Au
atom 0.4740986800000000 12.3012941900000001 0.0144701900000000 Au
atom 3.2944124399999999 12.3648524900000005 -0.0351564500000000 Au
atom 6.0889648100000002 12.3454077600000005 -0.0106350700000000 Au
atom 7.5020965300000002 13.1549988700000000 2.6700344899999999 Au
atom 10.3434393700000005 13.1976890000000004 2.5228880899999999 Au
atom 13.1633700499999993 13.1999311299999995 2.7055430600000001 Au
atom 15.9668902599999996 13.2118936300000005 2.5708347200000001 Au
atom 18.7982752600000005 13.1506403200000008 2.6500972300000001 Au
atom 21.6271027099999991 13.1678621200000006 2.5636490300000001 Au
atom 24.4368770399999988 13.1836383900000005 2.6772528900000001 Au
atom 27.2536044900000007 13.3960854600000001 2.6762953100000000 Au
atom 1.8591024400000000 13.1549042400000005 2.6521922299999998 Au
atom 4.6818704400000000 13.1818556099999995 2.5378266900000002 Au
atom 8.8769544499999995 15.6842015099999994 2.6129009200000000 Au
atom 11.7337230899999998 15.6625974800000005 2.6231825099999999 Au
atom 14.5748739799999996 15.6673637600000006 2.6226533100000000 Au
atom 17.3722399100000011 15.6330184600000006 2.6367076200000001 Au
atom 20.2091800399999997 15.6419627299999995 2.6643469199999998 Au
atom 23.0295659899999983 15.6447391499999995 2.6156471200000002 Au
atom 25.8179034600000001 15.6403082399999995 2.6117482700000001 Au
atom 0.4448376400000000 15.4774130499999991 2.7602717600000002 Au
atom 3.2838094400000002 15.6481344900000003 2.6430383700000002 Au
atom 6.1018825400000001 15.6107821100000006 2.6501378199999999 Au
atom 7.5186742000000004 18.0901900200000014 2.6682488200000001 Au
atom 10.2994695800000002 18.1177531499999986 2.5856797399999998 Au
atom 13.1388968700000000 18.0927338800000008 2.7000204200000000 Au
atom 15.9498301500000004 18.1322835600000012 2.5997879199999998 Au
atom 18.7819530300000004 18.1038894600000013 2.6781958800000001 Au
atom 21.6180047399999999 18.0694774100000011 2.6220889900000000 Au
atom 24.4173767200000000 18.1016130400000002 2.7040374500000000 Au
atom 27.2152310200000009 18.1252074900000011 2.6061622899999999 Au
atom 1.8771633700000001 18.0471188100000006 2.7146055300000000 Au
atom 4.6753080000000002 18.1314287299999997 2.6243519399999999 Au
atom 8.9113165999999993 20.5833329899999988 2.7379311899999998 Au
atom 11.7545149299999991 20.5640369499999984 2.6922549500000001 Au
atom 14.5741540100000009 20.5878485600000012 2.7043460499999998 Au
atom 17.3952336400000007 20.5584235100000008 2.6661301399999999 Au
atom 20.2143475200000005 20.5574288199999984 2.7091593000000000 Au
atom 23.0375123200000012 20.5884532000000000 2.7610170500000000 Au
atom 25.8558972300000001 20.5169204000000001 2.6979332999999999 Au
atom 0.4707542100000000 20.4813914699999984 2.8483633600000000 Au
atom 3.2929117899999998 20.6080514900000011 2.7284460500000001 Au
atom 6.1000344200000001 20.6051172600000001 2.7161683800000000 Au
atom 7.5298936999999997 23.0328575899999990 2.7039392599999998 Au
atom 10.3100729999999992 23.0401061100000000 2.7034436400000001 Au
atom 13.1316002500000000 23.0319059599999996 2.6678034500000001 Au
atom 15.9639097999999997 23.0221703799999986 2.6819641399999998 Au
atom 18.7958170699999982 23.0194902600000013 2.6833722799999999 Au
atom 21.6375499900000001 23.0262221099999991 2.6822865700000000 Au
atom 24.4197424299999994 23.0275811200000007 2.6742638200000002 Au
atom 27.2499070199999984 22.9974153900000005 2.8665434599999999 Au
atom 1.8797968700000001 23.0506622800000009 2.6539956600000001 Au
atom 4.6958180000000000 23.0836811100000006 2.7251488199999998 Au
atom 8.8803677000000008 25.5443911700000008 2.7325049300000002 Au
atom 11.7097198599999999 25.5265556999999994 2.7111947700000001 Au
atom 14.5440098199999994 25.5212216500000011 2.7368710200000002 Au
atom 17.3942577999999983 25.5196589200000012 2.7367922000000000 Au
atom 20.2190634600000010 25.5301724300000004 2.7392053800000000 Au
atom 22.9918866199999989 25.5434708099999987 2.7029361000000001 Au
atom 25.8445966799999987 25.5438420700000002 2.6632207700000001 Au
atom 0.4389478000000000 25.4128910999999995 2.7487035999999998 Au
atom 3.2735944899999998 25.5048291800000015 2.7328800700000002 Au
atom 6.1115049199999998 25.5222110899999990 2.6989923899999999 Au
atom 7.5481843099999999 27.9900538400000016 2.6192806900000001 Au
atom 10.3513440299999999 27.9736591899999993 2.6838341799999998 Au
atom 13.1232588499999991 27.9760696399999986 2.6143887299999999 Au
atom 15.9648819500000005 27.9918846499999994 2.6445882599999999 Au
atom 18.7767415799999995 28.0004330900000014 2.6078016200000000 Au
atom 21.5754688200000011 27.9876163899999995 2.6981302399999998 Au
atom 24.4060952799999988 27.9981645099999987 2.6247524900000001 Au
atom 27.2501302900000013 28.1027780000000007 2.5799792600000000 Au
atom 1.8350003200000000 27.9266656299999987 2.6159349600000001 Au
atom 4.6319175100000001 28.0068696199999998 2.6788797400000002 Au
atom 8.9093332099999998 30.4582120799999991 2.6331714200000000 Au
atom 11.7360290099999993 30.4830209600000011 2.6693798900000001 Au
atom 14.5609291899999995 30.4789584399999995 2.6574671699999999 Au
atom 17.3578630099999991 30.4130747499999998 2.6210730700000000 Au
atom 20.2120376200000003 30.4625557299999983 2.6572049000000000 Au
atom 22.9948664299999983 30.4695212600000005 2.6393642700000002 Au
atom 25.8326755100000014 30.4773741499999993 2.6845143899999999 Au
atom 0.4518189900000000 30.5878315000000001 2.6978462400000001 Au
atom 3.2753910099999999 30.4766180800000015 2.6685547800000000 Au
atom 6.1256670000000000 30.4659629099999982 2.6573471299999998 Au
atom 7.5107423300000002 32.9176149999999978 2.5730520600000002 Au
atom 10.3231234500000006 32.9078962299999986 2.6450435899999998 Au
atom 13.1125668100000006 32.9344875000000030 2.5295254300000001 Au
atom 15.9513242300000009 32.9413223800000026 2.6908823200000000 Au
atom 18.7418611499999983 32.9556235100000023 2.5587284499999998 Au
atom 21.5944743400000014 32.9422295999999974 2.6801654300000002 Au
atom 24.4014541200000004 32.8966039399999985 2.5437426400000001 Au
atom 27.2423014499999994 32.9621630099999976 2.6759201600000000 Au
atom 1.8694413400000001 32.9745487599999976 2.5571168300000000 Au
atom 4.6827733100000000 32.9114588999999995 2.6473229300000001 Au
atom 8.9021062000000004 35.3851181699999984 2.6423943200000002 Au
atom 11.7305572399999996 35.4165157799999974 2.6357375200000002 Au
atom 14.5591253700000003 35.3920985900000034 2.6477756399999999 Au
atom 17.3969225399999985 35.3965300999999997 2.6701022299999999 Au
atom 20.1889632900000002 35.3589091899999985 2.6394998599999999 Au
atom 22.9840011599999983 35.4014445899999970 2.6219281900000002 Au
atom 25.8324559200000010 35.3816565799999978 2.6422584200000001 Au
atom 0.4511466400000000 35.6688761799999980 2.6445323799999998 Au
atom 3.2573801200000001 35.3873268299999992 2.6302897299999999 Au
atom 6.0762276799999997 35.3585875799999982 2.6740868600000001 Au
atom 7.2750747999999996 37.8441849499999989 2.6429066799999998 Au
atom 10.1079152000000008 37.8386903399999994 2.6736477500000002 Au
atom 13.1445300100000004 37.8672437399999993 2.6594085800000000 Au
atom 16.0433103400000014 37.8331402399999988 2.9281555199999998 Au
atom 18.6752988699999989 37.8721275999999989 2.8614358499999999 Au
atom 21.6171524700000006 37.8028157800000031 2.6851946000000000 Au
atom 24.5663345000000000 37.8344524999999976 2.7667361700000002 Au
atom 27.2684422700000013 37.8871126800000013 2.7257303799999999 Au
atom 1.9668471500000000 37.7901083200000016 2.6309659600000002 Au
atom 4.5442004200000001 37.8351826000000031 2.9295040299999999 Au
atom 8.8543246799999995 0.8152746400000001 2.7462954900000001 Au
atom 11.8314452200000009 0.8175565100000000 2.7161400800000002 Au
atom 14.5828417500000000 0.8201644500000000 2.7297665699999998 Au
atom 17.4169219099999992 0.8188212499999999 2.7522215399999999 Au
atom 20.1007009200000013 0.8590670100000000 2.7282171800000001 Au
atom 22.9849769700000017 0.8666282300000000 2.6698176800000000 Au
atom 25.7878621700000004 0.8531456700000000 2.5729253700000001 Au
atom 0.2852303800000000 0.8898247300000000 2.7105083799999998 Au
atom 3.3035705599999998 0.8325401800000000 2.6260213800000001 Au
atom 6.2037451099999998 0.8275178800000000 2.7544033099999998 Au
atom 7.5239501200000003 3.3189314300000001 2.6598923100000000 Au
atom 10.3388417300000004 3.3195087900000000 2.6956336099999998 Au
atom 13.0917831000000007 3.3092335899999998 2.6646390300000000 Au
atom 15.9879673899999997 3.3214133800000001 2.6796437900000001 Au
atom 18.7856134399999988 3.3274603500000000 2.6660366299999998 Au
atom 21.5984471499999984 3.2891035300000002 2.6613176900000002 Au
atom 24.4071683399999984 3.2978360800000002 2.6917909999999998 Au
atom 27.2610820099999991 3.4299738500000001 2.7199278400000000 Au
atom 1.8901940200000000 3.3670931199999998 2.6859418300000000 Au
atom 4.7143796000000000 3.2970324700000000 2.6809890900000002 Au
atom 8.9166545799999994 5.8199552499999996 2.6983240400000001 Au
atom 11.7006973999999992 5.7975125399999996 2.7442698100000000 Au
atom 14.5353037100000009 5.8207411899999997 2.7505687299999999 Au
atom 17.3804650900000013 5.7732663300000002 2.7191146100000001 Au
atom 20.1732343400000005 5.7884521800000002 2.7235676700000000 Au
atom 22.9960829000000011 5.7941097499999996 2.6999482100000001 Au
atom 25.8494765199999996 5.7492798799999996 2.7272946500000002 Au
atom 0.4599593500000000 5.8950305500000004 2.7765487100000001 Au
atom 3.2927133500000001 5.7506799500000003 2.7171511000000002 Au
atom 6.0919730000000003 5.7862205600000003 2.7018621899999999 Au
atom 7.5108939699999997 8.2772764199999997 2.6822898799999999 Au
atom 10.3114058300000000 8.2637341600000003 2.6259052899999999 Au
atom 13.1407685999999995 8.2896125000000005 2.6818236999999998 Au
atom 15.9668556299999995 8.2629371700000007 2.6371316700000000 Au
atom 18.7809726700000006 8.2493328600000009 2.7105431200000001 Au
atom 21.6106365800000013 8.2828178200000000 2.6064771200000001 Au
atom 24.4161557900000012 8.2806268099999993 2.6855680799999999 Au
atom 27.2515208099999988 8.3749512500000005 2.6750539400000002 Au
atom 1.8637305099999999 8.3022833600000006 2.6034945700000001 Au
atom 4.6710687399999999 8.2524721700000008 2.5969075699999999 Au
atom 8.9011638000000008 10.7116662500000004 2.6552919500000001 Au
atom 11.7179968300000006 10.7108136399999996 2.6400488300000000 Au
atom 14.5693601400000006 10.7222077700000007 2.6379000300000000 Au
atom 17.3960687400000005 10.7247458800000004 2.6666291100000001 Au
atom 20.1988887400000010 10.7205676000000008 2.6472887500000000 Au
atom 23.0328371300000008 10.7566822099999992 2.6174271800000000 Au
atom 25.8423279800000003 10.6993493199999996 2.6976118499999999 Au
atom 0.4402928600000000 10.7225042500000001 2.6956629400000001 Au
atom 3.2738692999999999 10.7152419999999999 2.6310525199999999 Au
atom 6.1120168799999997 10.7318750800000000 2.6253600900000000 Au
atom 7.4796385499999998 13.1800584199999999 5.7006911999999996 Cl
atom 7.5245339600000003 15.9906176999999996 8.5430905500000005 Cl
atom 7.4942846599999999 13.1642339899999996 8.3609896900000003 Na
atom 7.4895170100000001 16.0080047199999989 5.7753769200000002 Na
atom 7.4979008199999999 18.8065881899999994 5.7300115900000002 Cl
atom 7.4834878900000001 21.6136961599999999 8.5478289200000006 Cl
atom 7.5052629599999996 18.8286324600000015 8.3749573900000005 Na
atom 7.5070798099999996 21.6337056399999987 5.8131709400000000 Na
atom 7.5141415299999998 24.4553686600000013 5.7506187500000001 Cl
atom 7.5015616300000003 27.2797027300000003 8.5900506700000001 Cl
atom 7.5288953200000002 24.4658036599999988 8.4099143900000009 Na
atom 7.4953316200000000 27.2671461499999985 5.8531348799999998 Na
atom 7.4862371899999998 30.0651541599999987 5.7303521799999997 Cl
atom 7.5034904400000002 32.9027316199999973 8.5606123000000007 Cl
atom 7.5319828800000002 30.0330245200000014 8.3578859699999999 Na
atom 7.4763801699999997 32.9201514900000021 5.8411892300000003 Na
atom 7.4930383999999997 35.7364211299999965 5.7164460500000001 Cl
atom 7.4909922000000000 38.5544739099999987 8.6309375399999997 Cl
atom 7.4940848100000004 35.7462833700000004 8.3500695199999999 Na
atom 7.5467495700000002 38.5691656799999976 5.9387803500000000 Na
atom 7.3617151200000004 1.9045503200000000 5.8097701300000004 Cl
atom 7.5168884299999998 4.7425873100000002 8.5675772000000006 Cl
atom 7.5888095299999998 1.9123197700000001 8.3212680300000006 Na
atom 7.4949070100000004 4.7374874900000004 5.8251738499999997 Na
atom 7.5017805800000001 7.5231692800000003 5.7342691200000004 Cl
atom 7.5336194200000000 10.3655071000000003 8.5677536199999995 Cl
atom 7.4985003399999997 7.5301630599999996 8.3931003000000004 Na
atom 7.4964242900000002 10.3651011000000004 5.7777837700000001 Na
atom 10.3593671000000001 13.1377718500000000 5.8591831799999996 Na
atom 13.1178314100000009 13.1736996400000006 5.6587476700000003 Cl
atom 10.3299085599999998 16.0326859599999985 8.3423939199999992 Na
atom 13.1284355999999995 15.9690666700000001 8.5331489900000008 Cl
atom 13.1368164400000005 13.1664249000000009 8.3723770999999996 Na
atom 10.3274158099999998 13.1710564500000000 8.5551369000000008 Cl
atom 13.1703335500000005 16.0111433599999984 5.7992782800000002 Na
atom 10.3239666799999998 16.0009766599999992 5.7210189800000002 Cl
atom 10.3271248599999996 18.8562358799999998 5.8310688900000001 Na
atom 13.1298027800000003 18.8266376999999991 5.7033775200000001 Cl
atom 10.3584958500000006 21.6308150499999989 8.3598212800000002 Na
atom 13.1370832699999998 21.6140350599999991 8.5553315899999998 Cl
atom 13.1390556099999998 18.7832654000000012 8.3981761699999993 Na
atom 10.3212028900000004 18.8165291199999984 8.5628685499999992 Cl
atom 13.1284191700000008 21.6201417199999995 5.8307847300000004 Na
atom 10.3110498800000006 21.6329053400000006 5.7340323000000000 Cl
atom 10.2860422299999996 24.4473308799999991 5.8368842399999998 Na
atom 13.1515454100000007 24.4435326800000006 5.7598122500000004 Cl
atom 10.3254715899999994 27.2896826399999988 8.4038260600000001 Na
atom 13.1525456199999997 27.2716804699999997 8.6107946099999992 Cl
atom 13.1448755800000008 24.4561703299999991 8.3896167699999999 Na
atom 10.3240359999999995 24.4508179699999992 8.5820556700000008 Cl
atom 13.1412571699999994 27.2345630900000018 5.8501707100000004 Na
atom 10.3302829500000009 27.2464312399999997 5.7340281900000001 Cl
atom 10.3306459900000007 30.0581831500000014 5.8048825700000002 Na
atom 13.1361498200000000 30.0845092899999997 5.7373194700000001 Cl
atom 10.2809586599999996 32.9124643399999997 8.3604992599999992 Na
atom 13.1104820800000006 32.9065459300000001 8.5414980000000007 Cl
atom 13.1473744600000000 30.0769744599999989 8.3864593400000000 Na
atom 10.3002273700000000 30.0814697100000004 8.5621172100000003 Cl
atom 13.1142294800000005 32.8852227799999994 5.8381549799999997 Na
atom 10.3026511099999993 32.9053323400000011 5.7218464100000004 Cl
atom 10.3176833999999999 35.7270819900000021 5.8032567600000000 Na
atom 13.1255711799999997 35.7258602200000013 5.6841661099999996 Cl
atom 10.2900497699999995 38.5391493899999986 8.5873005399999993 Na
atom 13.0262750100000009 38.5413703400000003 8.5507502500000001 Cl
atom 13.1171497400000003 35.7216695999999985 8.3855604800000005 Na
atom 10.3161882899999995 35.7232813399999998 8.5454809699999998 Cl
atom 13.2013359000000001 38.6064319299999994 5.8865544999999999 Na
atom 10.3368222500000009 38.5531108400000022 5.6541088500000001 Cl
atom 10.4099371699999992 1.9022534900000001 5.7807279899999999 Na
atom 13.2003935099999996 1.8949377400000000 5.8228899399999996 Cl
atom 10.3181722800000006 4.7261929599999997 8.4201248399999997 Na
atom 13.1358089200000006 4.7307627600000002 8.6020138199999998 Cl
atom 13.1103139800000008 1.8867455799999999 8.4884340300000005 Na
atom 10.3500317200000005 1.8833039899999999 8.6177790900000009 Cl
atom 13.1591590800000002 4.7034825800000002 5.8139027399999996 Na
atom 10.2940436799999997 4.6997207599999999 5.7671476100000003 Cl
atom 10.2881638899999999 7.5370538600000003 5.8073161799999999 Na
atom 13.1494065500000001 7.5220915300000000 5.7233899600000004 Cl
atom 10.2997825499999998 10.3045249499999994 8.3232948499999999 Na
atom 13.1157642699999997 10.3513514799999999 8.5290550399999994 Cl
atom 13.1443269899999997 7.4823591800000004 8.3293070199999999 Na
atom 10.3180409399999995 7.5254556700000004 8.5785004399999991 Cl
atom 13.1343853399999997 10.3040536899999999 5.8024808900000000 Na
atom 10.3308856299999992 10.3446350099999993 5.7316757200000001 Cl
atom 15.9517995799999994 13.1489612400000002 5.8842854700000000 Na
atom 18.7697938600000001 13.1725362900000000 5.7313846399999999 Cl
atom 15.9302576499999997 16.0259110699999994 8.3500391799999996 Na
atom 18.7992552500000016 15.9877844499999995 8.5413896099999995 Cl
atom 18.7920007300000016 13.1682974999999995 8.4018552599999996 Na
atom 15.9466086699999998 13.1606693200000002 8.5794113400000001 Cl
atom 18.7830284200000008 15.9886798100000007 5.7820591400000003 Na
atom 15.9781935599999994 16.0061482300000009 5.7325852700000004 Cl
atom 15.9316773400000002 18.8276870900000013 5.8273618799999998 Na
atom 18.7774567499999989 18.8203111800000009 5.7143511499999997 Cl
atom 15.9920130199999999 21.6542596600000010 8.4332540399999996 Na
atom 18.7891483699999995 21.6240674900000016 8.5410167000000001 Cl
atom 18.7789360199999997 18.8064744799999986 8.3855793399999996 Na
atom 15.9745969799999994 18.8131072000000010 8.5779260199999996 Cl
atom 18.7821266199999997 21.6210959600000017 5.8366873699999999 Na
atom 15.9499944100000004 21.6338742599999989 5.7564458299999997 Cl
atom 15.9617982699999992 24.4521533899999994 5.8055550000000000 Na
atom 18.7815473500000003 24.4443604000000008 5.7590093400000004 Cl
atom 15.9171900399999995 27.2671385800000010 8.3513380300000009 Na
atom 18.7615250600000003 27.2400747400000007 8.5914816100000007 Cl
atom 18.7525099799999992 24.4308857999999987 8.3788256200000006 Na
atom 15.9644211299999998 24.4475282900000010 8.5662368099999995 Cl
atom 18.7732056800000002 27.2256689799999982 5.8604181000000004 Na
atom 15.9623257600000006 27.2489689400000010 5.7099418699999998 Cl
atom 15.9685344800000006 30.0452429400000014 5.8182757199999999 Na
atom 18.7830276000000005 30.0716244500000016 5.7294870099999997 Cl
atom 15.9292891399999998 32.9076684599999965 8.3412916700000004 Na
atom 18.7587288600000015 32.9112859199999974 8.5160891000000003 Cl
atom 18.8092050099999994 30.0523687700000011 8.4202998200000003 Na
atom 15.9642446299999996 30.0842789699999997 8.5684190200000003 Cl
atom 18.7470956899999983 32.9015129000000002 5.8218010500000004 Na
atom 15.9531354899999993 32.9019716900000034 5.6882143100000002 Cl
atom 15.9759600299999995 35.7562724900000006 5.8007617199999997 Na
atom 18.7813458799999999 35.7424765399999984 5.7195429100000004 Cl
atom 15.9223033600000008 38.5458497799999975 8.2930036999999999 Na
atom 18.8045392400000004 38.5489094100000003 8.5610356000000003 Cl
atom 18.7693409500000001 35.7303177499999975 8.3961375100000009 Na
atom 15.9468715200000002 35.7304993699999969 8.5456945500000003 Cl
atom 18.8499568500000017 38.5585352399999977 5.8103527100000001 Na
atom 15.9651384800000002 38.5523628700000032 5.6457707900000003 Cl