#===============================================================================
# Created using the Atomic Simulation Environment (ASE)

# Tue Dec 23 21:42:18 2025

#=======================================================
lattice_vector 28.1999999999999993 0.0000000000000000 0.0000000000000000 
lattice_vector 0.0000000000000000 39.4799999999999969 0.0000000000000000 
lattice_vector 0.0000000000000000 0.0000000000000000 62.3296083400000001 
atom 7.4987982700000000 14.8037986700000008 -0.0280707300000000 Au
atom 10.2887277600000004 14.8594031700000002 0.0363561100000000 Au
atom 13.2381189599999995 14.7556457699999992 0.1540474600000000 Au
atom 15.9095279299999994 14.9346472699999993 -0.4430847100000000 Au
atom 18.7271373700000012 14.7948739400000004 -0.2500738400000000 Au
atom 21.5987250800000012 14.6705287299999991 0.0906776400000000 Au
atom 24.3786020400000005 14.6681955300000002 -0.6780844200000000 Au
atom 27.2010598899999998 14.7227389599999992 -0.5811707100000000 Au
atom 1.9035314600000000 14.8102909500000006 -0.5596854800000000 Au
atom 4.6826879000000003 14.8091524700000008 -0.1126532100000000 Au
atom 8.9020984799999994 17.3320972200000014 0.2255939700000000 Au
atom 11.6991568000000008 17.2204949200000001 0.0612039600000000 Au
atom 14.4051081199999995 17.3322462299999991 -0.2783487100000000 Au
atom 17.4236311000000015 17.2466756399999994 -0.4177539900000000 Au
atom 20.1775139199999991 17.0887555000000013 0.1600995400000000 Au
atom 23.3598548500000014 17.2289125299999988 0.1076938400000000 Au
atom 25.9239313299999985 17.2715580499999994 -0.9528446600000000 Au
atom 0.4754250000000000 17.2408447900000006 -0.5041167500000000 Au
atom 3.2931000799999999 17.2198534199999997 -0.2577106500000000 Au
atom 6.0789236000000004 17.2430142800000006 -0.0904118000000000 Au
atom 7.5313073700000004 19.7145966199999982 0.1205453400000000 Au
atom 10.3932742099999995 19.7235118699999994 0.1030413000000000 Au
atom 13.1057795400000003 19.7256941300000008 -0.0164566000000000 Au
atom 16.0226063600000010 19.8134722900000000 -0.4694528000000000 Au
atom 18.8115136999999990 19.8079559699999983 0.0004421600000000 Au
atom 21.6977766099999982 19.5658643499999982 -0.0351597600000000 Au
atom 24.5236702899999983 19.6811590999999986 0.2577492900000000 Au
atom 27.3631568499999993 19.8250751899999997 -0.6293060900000000 Au
atom 1.9120170299999999 19.7739381799999983 -0.1420849300000000 Au
atom 4.7014740100000001 19.7238503999999999 0.0006450700000000 Au
atom 8.8479960000000002 22.2381454100000013 -0.0684528600000000 Au
atom 11.7795947299999995 22.1914375100000001 0.1186340600000000 Au
atom 14.5735496900000001 22.2747245400000011 -0.1301668100000000 Au
atom 17.4307987100000013 22.2882844099999993 -0.0145952300000000 Au
atom 20.1921534800000018 22.1768397600000000 0.0045264500000000 Au
atom 22.9692980499999990 22.0524387100000006 0.2672652400000000 Au
atom 25.8670538199999989 22.0661057999999990 0.2927248700000000 Au
atom 0.4153730300000000 22.3049529900000003 -0.1256778100000000 Au
atom 3.2778799200000002 22.3052316700000013 0.0057260700000000 Au
atom 6.0479946699999996 22.1858677100000001 0.2188313600000000 Au
atom 7.5336688699999996 24.7675839899999986 0.2675877500000000 Au
atom 10.3167117699999995 24.6785195100000010 0.3022034900000000 Au
atom 13.0817570199999995 24.6671449199999984 0.2677009600000000 Au
atom 15.9663926099999998 24.6949347099999983 0.1780921500000000 Au
atom 18.7822513200000003 24.7377527999999991 0.2224235400000000 Au
atom 21.6850478600000010 24.6027793300000006 0.3251133400000000 Au
atom 24.4321672599999999 24.5457155399999998 0.2262960600000000 Au
atom 27.2260923499999983 24.6715397199999984 0.2394163600000000 Au
atom 1.8913495000000000 24.6550268400000014 0.0094308000000000 Au
atom 4.7595552400000001 24.7853854899999995 0.0655128600000000 Au
atom 8.9249522500000005 27.1412836099999986 0.3176979400000000 Au
atom 11.6893471499999997 27.1232391399999990 0.1995433800000000 Au
atom 14.5115756400000002 27.1185818699999999 -0.0313249700000000 Au
atom 17.3794380799999999 27.2029720700000013 0.0004810600000000 Au
atom 20.3327870100000005 27.0553294700000002 0.0511778500000000 Au
atom 23.0981792500000012 27.1424052099999997 0.1041084400000000 Au
atom 25.8940646500000007 27.1282831299999998 0.1546181000000000 Au
atom 0.3841919600000000 27.0646282599999992 -0.0185992200000000 Au
atom 3.2815733599999999 27.1533983300000017 -0.0126594500000000 Au
atom 6.1917262099999997 27.2885276999999995 0.1933545700000000 Au
atom 7.5522563900000002 29.5868494300000009 -0.3412168200000000 Au
atom 10.3215060199999993 29.5173791200000011 -0.1643700600000000 Au
atom 13.1457997800000008 29.5849682099999995 -0.0561259700000000 Au
atom 15.9378178399999992 29.6377873299999983 -0.0559431100000000 Au
atom 18.8215342399999983 29.6191176700000014 -0.1235988700000000 Au
atom 21.7064996999999984 29.6036013300000000 0.2870676000000000 Au
atom 24.4792943100000002 29.6886722899999995 0.1938363700000000 Au
atom 27.2922431299999992 29.5682695100000004 0.1306385100000000 Au
atom 1.8231220699999999 29.5611359100000008 0.0050310200000000 Au
atom 4.6623431999999996 29.5906146700000008 -0.2861130100000000 Au
atom 8.9520358499999997 32.0090576300000009 -0.2845928900000000 Au
atom 11.7392316300000008 32.0439768199999975 -0.1104100000000000 Au
atom 14.6307517300000001 32.0274590699999990 0.1444817100000000 Au
atom 17.3948679599999991 32.1721246299999990 0.0130794600000000 Au
atom 20.2058929300000010 32.1043895399999997 0.0812826100000000 Au
atom 23.0886046100000009 32.1255317600000012 -0.1134654400000000 Au
atom 25.8877751600000003 32.1311922800000005 -0.0016398200000000 Au
atom 0.5021999500000000 32.0340644600000033 -0.1615480900000000 Au
atom 3.3192516300000001 32.0114036200000029 -0.1665050100000000 Au
atom 6.0657767800000002 32.0918238300000027 -0.4014356900000000 Au
atom 7.5033339400000001 34.5571862999999979 -0.2910466700000000 Au
atom 10.4211131500000000 34.6378176699999969 -0.1515809800000000 Au
atom 13.1626800700000004 34.5189183099999966 0.1018008400000000 Au
atom 15.9543687799999994 34.5284654800000013 0.2277202900000000 Au
atom 18.8202597800000007 34.5131652199999976 -0.1022262500000000 Au
atom 21.6420475600000017 34.5638058799999968 0.0985022800000000 Au
atom 24.4463832900000000 34.6529337699999971 -0.1162613500000000 Au
atom 27.2538337900000016 34.4942425999999998 -0.0854115800000000 Au
atom 1.9623693900000001 34.6213709399999985 -0.2479148400000000 Au
atom 4.6734594300000003 34.5481186700000009 -0.1417145400000000 Au
atom 8.9406279400000006 37.1109516100000008 -0.0895107800000000 Au
atom 11.7751299399999994 37.0801064999999994 -0.0151205300000000 Au
atom 14.5633578799999999 36.9467831999999987 0.0858848300000000 Au
atom 17.4404718099999982 36.9438833800000026 0.0344989400000000 Au
atom 20.2591309399999986 36.9869333800000035 -0.1076726400000000 Au
atom 23.0674136499999989 36.9898571100000026 0.1337103300000000 Au
atom 25.8815118999999996 37.0066397699999996 -0.0033872600000000 Au
atom 0.4036012900000000 37.0269694300000012 0.0207972200000000 Au
atom 3.2485861300000001 37.0354683199999997 0.2478101300000000 Au
atom 6.0145256199999997 37.0731288599999971 -0.0141384600000000 Au
atom 7.5506966499999999 0.0768013000000000 -0.0814188800000000 Au
atom 10.4108401799999992 0.0554996500000000 -0.1534881900000000 Au
atom 13.2491038799999998 0.0699482700000000 0.0345265700000000 Au
atom 16.0112568700000004 0.0107860900000000 0.1981824200000000 Au
atom 18.8209474099999987 -0.0061743800000000 0.1114394400000000 Au
atom 21.6532333199999982 -0.0814712900000000 0.1027815000000000 Au
atom 24.4108851800000011 -0.0825216900000000 0.2247398800000000 Au
atom 27.1961470500000004 -0.0262363500000000 0.3677892200000000 Au
atom 1.8932339700000000 0.0031782400000000 0.0557255300000000 Au
atom 4.7226687399999996 0.0807464600000000 0.2076698400000000 Au
atom 8.9534962599999997 2.4320526099999999 0.0452532900000000 Au
atom 11.8328462099999996 2.4459908000000001 -0.0312406800000000 Au
atom 14.6262776500000005 2.5139209400000002 -0.0281371600000000 Au
atom 17.4454170200000007 2.5061992700000002 0.0613994000000000 Au
atom 20.2086082000000005 2.4618477400000001 0.0959204600000000 Au
atom 22.9753697700000004 2.4079339499999999 0.2860749200000000 Au
atom 25.7548516399999983 2.4867015499999998 0.4631079400000000 Au
atom 0.3443403400000000 2.4545568499999999 0.3190884900000000 Au
atom 3.2195151100000001 2.4613893500000001 0.2589093200000000 Au
atom 6.0801784999999997 2.4770811300000002 0.1131739700000000 Au
atom 7.5737649500000002 4.9670967800000003 0.3069703400000000 Au
atom 10.3628311199999992 4.9153259800000004 -0.0290577100000000 Au
atom 13.1630060199999992 5.0029102600000002 0.0383995800000000 Au
atom 15.9979145000000003 4.9184121999999997 0.2634083200000000 Au
atom 18.8605222499999989 5.0282397699999999 0.2358279200000000 Au
atom 21.6472691200000007 4.9620751099999998 0.3433349300000000 Au
atom 24.4077994800000013 4.9549171799999998 0.3156525200000000 Au
atom 27.3409904700000013 4.9419896500000000 0.3495799200000000 Au
atom 1.9267199600000000 4.9433024699999999 0.2085531400000000 Au
atom 4.6939734900000003 4.9524835800000000 0.0808478700000000 Au
atom 8.9071995699999995 7.3681350800000001 -0.0021305300000000 Au
atom 11.6713075199999992 7.4018895400000000 -0.1134320700000000 Au
atom 14.5956281600000004 7.4857792600000002 -0.0621931100000000 Au
atom 17.4509144599999999 7.3718037199999999 0.1630858500000000 Au
atom 20.2310886200000013 7.4456107100000004 0.3388284400000000 Au
atom 23.1169754500000018 7.3422127100000001 0.3546937600000000 Au
atom 25.8906996300000003 7.3507803300000001 0.2544669700000000 Au
atom 0.5336794400000000 7.3230660399999996 0.1527975800000000 Au
atom 3.3350292499999998 7.4355019400000000 0.0987926700000000 Au
atom 6.1169720600000002 7.4168469999999997 -0.0532897400000000 Au
atom 7.6229169299999997 9.8490081499999995 -0.0106589000000000 Au
atom 10.3820549999999994 9.8686887500000005 -0.0963652000000000 Au
atom 13.1619543900000000 9.9225168499999992 -0.2403054500000000 Au
atom 15.9151113500000001 9.9098732399999996 -0.1144174400000000 Au
atom 18.7970381400000015 9.9425974099999994 0.2094290000000000 Au
atom 21.6277448200000002 9.8572433200000003 0.1719892900000000 Au
atom 24.4628098200000004 10.0266500999999995 0.2454671600000000 Au
atom 27.2567884900000017 9.9142698399999993 0.0558405300000000 Au
atom 1.9614793500000001 9.8270521399999993 0.0078425400000000 Au
atom 4.8088803999999996 9.9157843999999997 -0.1543026700000000 Au
atom 8.9590676600000005 12.4371614299999997 0.0995919300000000 Au
atom 11.7429919300000005 12.3831944699999994 -0.0183805700000000 Au
atom 14.5699627899999999 12.3821141200000007 -0.2659269000000000 Au
atom 17.3101430600000015 12.3413491099999995 -0.4203579900000000 Au
atom 20.1175618999999983 12.2696495399999996 -0.3616629900000000 Au
atom 22.8868921299999997 12.1960120199999995 -0.7575578500000000 Au
atom 25.8464425099999993 12.1898584999999997 -0.8073288800000000 Au
atom 0.5901114900000000 12.3089899599999999 -0.3897123000000000 Au
atom 3.4164404600000000 12.3145445000000002 -0.2178215000000000 Au
atom 6.2071466600000003 12.2790613799999999 0.1574721500000000 Au
atom 7.3961937000000004 13.1351522000000003 2.6804717899999999 Au
atom 10.3864211599999994 13.2987447000000003 2.6595856000000002 Au
atom 13.1598965099999994 13.2606366300000005 2.7125242500000000 Au
atom 15.9775025700000004 13.2684380399999995 2.2312522000000001 Au
atom 18.7951640100000006 13.1710038699999998 2.1501345900000000 Au
atom 21.6518257399999996 13.0067956099999993 2.4995645000000000 Au
atom 24.4859031999999992 13.1136629399999993 1.7377794799999999 Au
atom 27.3256325400000009 13.1714541700000005 1.9851869799999999 Au
atom 2.0287931700000001 13.1204072200000006 2.1725861000000002 Au
atom 4.7040038800000001 13.1516425100000003 2.5163620999999998 Au
atom 8.8171042400000008 15.6002848200000006 2.6850966700000001 Au
atom 11.7292627300000003 15.7295697899999993 2.6888949400000000 Au
atom 14.6135955099999997 15.7723274000000000 2.3868121300000000 Au
atom 17.4542930600000012 15.7176089399999999 2.3653860700000000 Au
atom 20.2927881600000006 15.5129308600000009 2.5558138300000000 Au
atom 23.1606651499999998 15.5419949200000005 2.5087820100000000 Au
atom 25.8881336500000003 15.6444499100000005 1.8780947900000000 Au
atom 0.4911413800000000 15.6381504099999997 2.0827859900000001 Au
atom 3.1799082400000001 15.6509491399999998 2.3286647899999999 Au
atom 6.0338263899999998 15.5903296099999995 2.5467553399999998 Au
atom 7.5164720000000003 18.0025564100000004 2.7720875800000000 Au
atom 10.3516844900000002 18.0859141299999990 2.6400423300000000 Au
atom 13.2042792299999991 18.1476259999999989 2.7526278899999999 Au
atom 16.0588023600000014 18.2143723299999998 2.1277494699999999 Au
atom 18.8233946400000001 18.0732469500000015 2.6660991100000002 Au
atom 21.5996594299999991 17.9688489800000006 2.6888771800000000 Au
atom 24.4529182399999989 17.9668454799999999 2.9427693200000000 Au
atom 27.0561417099999986 18.1217185799999996 1.8481115200000000 Au
atom 1.7731556399999999 18.1200435700000000 2.3830058400000000 Au
atom 4.6592878400000002 18.0364195000000009 2.4299761700000002 Au
atom 8.9145154299999998 20.4062253200000008 2.5352777099999999 Au
atom 11.7307142399999993 20.5446571599999999 2.7496825600000001 Au
atom 14.6050091200000001 20.5888494999999985 2.2769239500000000 Au
atom 17.3721861699999991 20.6044908299999996 2.4982082700000001 Au
atom 20.1969263300000001 20.5394317700000002 2.6454997200000001 Au
atom 23.0505813400000008 20.4718095200000008 2.8185721899999998 Au
atom 25.9030732199999996 20.4156656800000000 2.9017568599999999 Au
atom 0.4114810000000000 20.5177365400000014 2.3155107899999998 Au
atom 3.2224292000000001 20.5408183700000002 2.5814482999999999 Au
atom 6.1932295999999996 20.5216514600000011 2.7336244000000001 Au
atom 7.5364507100000004 23.0037402499999999 2.6656607999999999 Au
atom 10.2071834199999998 22.9697496399999999 2.6570334099999999 Au
atom 13.1266715499999993 23.0048629099999999 2.6535379400000001 Au
atom 15.9402132299999995 23.1138666700000002 2.6990751700000000 Au
atom 18.7576786200000001 23.0077938800000013 2.6797340100000002 Au
atom 21.5748011599999998 23.0311280200000006 2.8397531699999998 Au
atom 24.5165168999999992 22.9107099699999992 2.7883417700000002 Au
atom 27.3371532700000017 22.9096784999999983 2.7927079500000001 Au
atom 1.8409535400000001 23.0326824499999994 2.3955313399999998 Au
atom 4.6591605999999999 22.9995422800000000 2.7095213600000001 Au
atom 8.9490224099999995 25.4376962099999986 2.9658083799999999 Au
atom 11.7033349500000003 25.4718136699999995 2.9802792600000001 Au
atom 14.5148397399999993 25.6219069499999996 2.7738988800000000 Au
atom 17.3328308900000003 25.6181962100000007 2.7258889399999999 Au
atom 20.1927915599999999 25.5442939600000010 2.9249044799999999 Au
atom 22.9994995300000014 25.5292643999999989 2.8062341000000002 Au
atom 25.8325568600000004 25.4073032300000001 2.9119399900000000 Au
atom 0.3864622000000000 25.4431254699999982 2.7151608199999999 Au
atom 3.1971334599999999 25.4986872499999997 2.6360151400000000 Au
atom 6.1163977200000001 25.5084994599999995 2.7529601800000001 Au
atom 7.4209439899999996 27.9658344499999991 2.8464992100000002 Au
atom 10.2391035699999993 27.9375134100000011 2.7809498399999999 Au
atom 13.0903770700000006 27.9660417999999993 2.6387738000000001 Au
atom 15.9141848600000007 28.0130795200000016 2.6231536200000001 Au
atom 18.7518738899999988 28.0255381899999989 2.5308166800000000 Au
atom 21.6288644400000010 27.9780854000000012 2.8428670399999998 Au
atom 24.4268020999999997 27.9440186500000003 2.6594098200000000 Au
atom 27.2179399699999998 27.9660705400000005 2.7531560399999999 Au
atom 1.8360286900000000 27.9364755000000002 2.6067513500000001 Au
atom 4.5710892699999999 27.9739696199999983 2.6285482999999998 Au
atom 8.8550630300000002 30.3915970400000006 2.3167464500000001 Au
atom 11.6391020500000000 30.3717038700000010 2.4235445699999998 Au
atom 14.4192692099999995 30.4073013900000007 2.6244622700000000 Au
atom 17.3157650099999998 30.3776625399999993 2.5602855199999999 Au
atom 20.1587277100000009 30.4551878199999990 2.7439133600000001 Au
atom 23.0121835099999998 30.4859101700000004 2.7268334599999999 Au
atom 25.8828197099999997 30.4806410600000000 2.6823957799999998 Au
atom 0.4813272400000000 30.3459699799999996 2.6848266700000001 Au
atom 3.2943887799999998 30.4414145100000013 2.4420999399999999 Au
atom 6.1054731000000002 30.4308733899999986 2.3733860899999999 Au
atom 7.4718982599999997 32.9385958700000003 2.2296405099999999 Au
atom 10.2075373599999999 32.9212184000000008 2.4554328100000000 Au
atom 13.0588990700000007 32.8910482499999972 2.3771803600000001 Au
atom 15.8619117099999993 32.7893887899999967 2.7552186299999999 Au
atom 18.7473883199999989 32.9114626200000018 2.5703991300000002 Au
atom 21.5195215100000006 32.8993599300000028 2.6563371999999998 Au
atom 24.3222670600000015 32.8786974799999996 2.4431371400000002 Au
atom 27.3093733400000005 32.8860900600000008 2.6162618200000001 Au
atom 1.8264586100000000 32.9097840399999981 2.2916791999999999 Au
atom 4.6638496800000002 32.9273385899999980 2.4922660699999999 Au
atom 8.8630746400000007 35.4507652100000001 2.4292632900000002 Au
atom 11.7228771100000007 35.4629047800000023 2.5749076500000001 Au
atom 14.4680154299999995 35.2632489200000023 2.8652713500000000 Au
atom 17.4434677899999997 35.3766556799999989 2.5776665500000000 Au
atom 20.1829733599999983 35.4241966700000006 2.3650374699999999 Au
atom 22.9689014699999987 35.3517960400000035 2.7144668900000002 Au
atom 25.7833836599999984 35.3226605899999981 2.5847219300000002 Au
atom 0.4903384500000000 35.4302675500000035 2.3976289199999998 Au
atom 3.1856153300000001 35.3553333400000014 2.7435488399999999 Au
atom 6.0000703599999996 35.4448982600000022 2.2848367900000000 Au
atom 7.4107365500000002 37.8652309699999989 2.4575283799999998 Au
atom 10.2890896200000004 37.9146093399999984 2.4852266099999998 Au
atom 13.1252921300000001 37.9283727199999987 2.5377128700000000 Au
atom 15.9600706599999995 37.8724118399999981 2.6554261800000001 Au
atom 18.7942598600000004 37.9706314100000029 2.5365007500000001 Au
atom 21.6634159500000010 37.9499531299999973 2.6349247500000001 Au
atom 24.4369634699999985 37.8437127300000000 2.7538697399999998 Au
atom 27.2184185300000010 37.7975350299999988 2.8057753800000000 Au
atom 1.7905181699999999 37.8911454400000025 2.6213427600000001 Au
atom 4.5627348699999999 37.8195804200000012 2.7921664100000001 Au
atom 8.9109812200000000 0.8292842000000000 2.5017697100000000 Au
atom 11.6674525399999993 0.8900485900000000 2.5182512300000002 Au
atom 14.5990186600000005 0.9029703500000000 2.8154436600000001 Au
atom 17.4832033899999999 0.9264658600000000 2.7258872699999999 Au
atom 20.2844400000000000 0.9428354000000000 2.7312130600000000 Au
atom 23.0187977100000012 0.8433285600000000 2.9309889000000000 Au
atom 25.8075643399999990 0.7558982700000000 3.0456156900000000 Au
atom 0.4549175000000000 0.8405966900000000 2.8464894200000002 Au
atom 3.2718824600000000 0.9309362500000000 2.8585408900000000 Au
atom 6.1334735699999996 0.8305940000000001 2.8872410099999999 Au
atom 7.5277158300000000 3.2655630699999998 2.7001695600000000 Au
atom 10.3818287700000003 3.3928645199999998 2.5491128299999999 Au
atom 13.1821484699999996 3.3001553499999998 2.5851763000000001 Au
atom 15.9891295099999997 3.3461414199999999 2.7657905999999999 Au
atom 18.8167235400000017 3.3257943700000001 2.7098089900000000 Au
atom 21.6082550600000012 3.3830255700000000 2.8302755400000001 Au
atom 24.4429036099999983 3.2057658999999998 2.9143142100000001 Au
atom 27.3180231499999984 3.2375163599999999 3.0089101399999998 Au
atom 1.8077128200000001 3.3125120699999999 2.9247296100000000 Au
atom 4.6726895500000003 3.4080636900000001 2.7924121799999999 Au
atom 8.9077177499999998 5.7999266000000000 2.7748049199999998 Au
atom 11.7483127500000002 5.8173918100000002 2.6609443499999998 Au
atom 14.5657496299999991 5.8913120000000001 2.6058272900000001 Au
atom 17.4114963799999991 5.8221328400000001 2.9107683500000001 Au
atom 20.2085863600000017 5.7728876500000004 2.9038058300000000 Au
atom 23.0846374700000005 5.7329777899999996 2.9424072300000002 Au
atom 25.8309175199999999 5.6576095700000000 2.7453281399999998 Au
atom 0.4402803200000000 5.7750933800000004 2.8912308900000001 Au
atom 3.2375753000000000 5.8139195399999997 2.7276554399999999 Au
atom 6.0499926200000003 5.8510863100000003 2.7483806099999999 Au
atom 7.5760721000000002 8.2529459200000002 2.5627900200000000 Au
atom 10.2801316000000007 8.2907541499999997 2.5242594700000001 Au
atom 13.0726440000000004 8.3368395500000005 2.4903332200000001 Au
atom 15.9762008899999994 8.3498368799999998 2.5446278900000001 Au
atom 18.7390154200000012 8.2847201100000003 2.8955055600000001 Au
atom 21.5701200300000018 8.3539615200000004 2.8405976800000001 Au
atom 24.3739743799999999 8.3155033800000009 2.8340264799999999 Au
atom 27.2281998899999991 8.2205938500000002 2.6166921400000001 Au
atom 1.9139355899999999 8.2742206899999999 2.8013632799999999 Au
atom 4.7059227200000002 8.1959645900000009 2.5239117200000001 Au
atom 8.8535622800000002 10.7659060699999998 2.5717157700000000 Au
atom 11.7130719800000005 10.7839991000000008 2.6213167999999998 Au
atom 14.4334752300000009 10.7816605600000006 2.6028980900000001 Au
atom 17.2717645299999987 10.7657857700000008 2.6269319400000000 Au
atom 20.1548323300000014 10.7231661299999992 2.6959893899999998 Au
atom 23.0775396599999993 10.7675943499999995 2.7935225699999999 Au
atom 25.8706071599999987 10.8065040700000008 2.7447190199999998 Au
atom 0.4651015000000000 10.6470085900000004 2.5747473200000002 Au
atom 3.2644859199999998 10.6768545800000005 2.5705594500000002 Au
atom 6.0426347500000004 10.6565739700000002 2.6719374000000000 Au
atom 7.7284903900000002 12.5947768199999999 5.7108416000000002 Cl
atom 7.5947730299999998 15.6809428000000004 8.5058331599999999 Cl
atom 7.5521235400000002 12.7874894500000007 8.4252222700000008 Na
atom 7.4375167600000003 15.7568835000000007 5.6985554199999999 Na
atom 8.1043402899999997 18.4924868400000015 5.6202762999999996 Cl
atom 7.7238695599999998 21.2476205500000006 8.6381954800000003 Cl
atom 7.6621744200000004 18.4338024300000001 8.4532679000000002 Na
atom 7.6639733400000001 21.2470426500000009 6.0159079200000001 Na
atom 7.5987080200000001 24.0692303400000007 6.0136291399999999 Cl
atom 7.7360228199999996 27.1928393399999990 8.6360497800000005 Cl
atom 7.4464431600000003 24.2853302299999996 8.4586736699999996 Na
atom 7.6633806499999997 26.9485121599999999 5.9375805200000000 Na
atom 7.6611412100000003 30.1221516999999999 5.5661855200000003 Cl
atom 7.6775984700000004 32.9535806900000026 8.5281603700000002 Cl
atom 7.7302915900000002 30.1192767299999993 8.2001432800000007 Na
atom 7.6037080499999998 32.9304726299999970 5.7349916399999996 Na
atom 7.5918789000000002 35.5787999400000032 5.4872844699999996 Cl
atom 7.3997734700000004 38.2946298499999997 8.7406960900000001 Cl
atom 7.5360696599999999 35.5594134199999985 8.3006134899999999 Na
atom 7.7105355700000002 38.3730310700000032 5.7474795800000003 Na
atom 7.6434621299999996 1.6309679399999999 5.5266995100000003 Cl
atom 7.9149497400000000 4.1802588500000004 8.6973666400000003 Cl
atom 7.5718324499999996 1.5463134199999999 8.3735208100000005 Na
atom 7.5506069599999996 4.3940551399999999 5.7356933899999998 Na
atom 7.5323409999999997 7.2899618500000001 6.0400144700000000 Cl
atom 7.6237976200000004 10.0816124400000007 8.8194976199999999 Cl
atom 7.9114478500000001 7.1270080699999996 8.6296035599999996 Na
atom 7.7486344999999996 9.8582137400000001 6.1067985800000004 Na
atom 10.4063229300000000 12.6737791200000007 5.9688194200000000 Na
atom 12.8871732899999998 12.8473721600000008 5.7295331200000001 Cl
atom 10.3498087499999993 15.9166193699999994 8.5369185000000005 Na
atom 13.0040976599999993 15.9296254699999995 8.6722620100000007 Cl
atom 13.0098676500000003 12.8759857100000001 8.4428203100000001 Na
atom 10.5669032099999995 12.7353660400000006 8.8355878299999997 Cl
atom 13.0984035999999993 15.6692577800000006 5.9907830899999999 Na
atom 10.3698367499999993 15.7171768400000005 5.8135042800000001 Cl
atom 10.5663241200000009 18.6523704700000010 5.8991449200000003 Na
atom 13.5185548099999995 18.8290827800000002 5.9385741599999999 Cl
atom 10.4070526300000008 21.5771409900000002 8.5789167200000005 Na
atom 13.1453091900000008 21.7851902600000003 8.6938309300000007 Cl
atom 13.1355205500000007 18.7497881500000005 8.5300332599999997 Na
atom 10.3825441099999995 18.5371582600000018 8.5855275300000002 Cl
atom 13.1690397400000005 21.4747555599999984 5.9234532900000003 Na
atom 10.2884482599999991 21.4568706300000009 5.7735572299999998 Cl
atom 10.5322603699999995 24.1909737000000007 5.7725716499999997 Na
atom 13.3809161400000001 24.4106634900000010 5.6510331999999996 Cl
atom 10.6056573299999997 27.4979193700000017 8.2569297099999996 Na
atom 13.3859836399999992 27.4362517799999992 8.6062574800000000 Cl
atom 13.1973869399999995 24.4617783399999986 8.2949224600000004 Na
atom 10.6204939300000003 24.3948131500000009 8.6485371400000002 Cl
atom 13.3491570300000006 27.1266306399999984 5.7163288699999999 Na
atom 10.4167853499999996 27.0082110100000001 5.7499292100000003 Cl
atom 10.4382417099999998 30.2798639899999991 5.5180456900000001 Na
atom 13.2652867299999997 29.9805447700000016 5.5636510799999996 Cl
atom 10.4645950899999995 33.0590292400000010 8.3141747400000003 Na
atom 13.2723588400000008 33.0203654499999999 8.4235276300000006 Cl
atom 13.4800594799999995 30.2164956499999988 8.1768431199999991 Na
atom 10.4697004699999994 30.2473583999999995 8.3806061100000004 Cl
atom 13.4286952700000004 32.9031700900000033 5.5507255200000003 Na
atom 10.6617926399999998 33.0665566300000009 5.6218980299999997 Cl
atom 10.4318350399999993 35.7060662600000001 5.6756864499999997 Na
atom 13.3637680000000003 35.7967791900000023 5.6634099899999999 Cl
atom 10.3359561000000006 38.3308884500000033 8.2658635500000006 Na
atom 13.4736463600000000 38.4587258099999971 8.2397326500000005 Cl
atom 13.3598913100000001 35.9527044200000034 8.2738043200000000 Na
atom 10.3049341999999999 35.7931547600000002 8.5786075000000004 Cl
atom 13.3745118400000003 38.5477507700000004 5.6548431099999998 Na
atom 10.5166255199999998 38.4450156099999987 5.6083190700000003 Cl
atom 10.5774181200000008 1.6181470600000001 5.7837213299999997 Na
atom 13.3945669400000007 1.7175111999999999 5.7318488800000003 Cl
atom 10.6516023700000009 4.1220899500000003 8.3751308099999999 Na
atom 13.3870613100000000 4.2692501099999998 8.5669840500000003 Cl
atom 13.4568944100000003 1.6922808300000001 8.3745127600000000 Na
atom 10.4249496799999992 1.4306943599999999 8.5470807900000008 Cl
atom 13.4559434099999997 4.4939217500000002 5.6641273500000002 Na
atom 10.4537074699999994 4.3903819799999999 5.6998702799999998 Cl
atom 10.3631849400000000 7.0874315799999996 5.8356279700000000 Na
atom 13.3371735099999995 7.0448048300000004 5.8106377100000000 Cl
atom 10.6116235999999997 9.9768660100000002 8.5859488899999992 Na
atom 13.2646515699999998 10.1052679300000001 8.5060837100000004 Cl
atom 13.3930575600000008 6.9554392700000003 8.4052106799999997 Na
atom 10.5806286200000006 7.1021855599999997 8.8390788400000009 Cl
atom 13.1268568900000009 9.7799678399999994 5.6884024200000001 Na
atom 10.4635139499999994 9.9362200200000004 5.9069030199999997 Cl
atom 15.8985253899999996 12.6567606999999995 5.9771230600000003 Na
atom 18.5984552399999998 12.9598084199999999 5.9355984099999999 Cl
atom 16.1341127299999982 17.9150323600000014 6.8397855700000001 Na
atom 18.2215855399999995 16.2426829099999992 8.6399783899999996 Cl
atom 18.6949029399999986 12.9139031600000003 8.5259878300000000 Na
atom 15.8963420299999996 12.7997003899999999 8.6700835499999993 Cl
atom 18.6623491600000015 15.6729995599999992 5.8740002300000000 Na
atom 15.5893521499999999 15.6266128200000001 6.0288503699999998 Cl
atom 16.0612356100000007 19.5483222300000001 4.5110726799999998 Na
atom 18.2804459600000015 18.6874628300000012 5.8846936100000002 Cl
atom 15.9241839600000006 21.7825942099999992 8.5308584500000002 Na
atom 18.7604114600000003 21.5641145499999993 8.8662165999999996 Cl
atom 18.3500703499999993 19.0987225000000009 8.7309032299999991 Na
atom 15.6300190000000008 19.0051911300000000 9.2165544300000004 Cl
atom 18.9184406299999992 21.7031844199999995 5.9724543399999996 Na
atom 15.9708072800000007 21.7766858499999998 5.6655667799999998 Cl
atom 16.1701344800000015 24.4449549700000013 5.6377339299999996 Na
atom 18.9923599199999984 24.5543925600000001 5.9716360399999999 Cl
atom 16.0285053899999994 27.2258020599999995 8.4050643800000007 Na
atom 18.6300671300000005 27.4003200100000015 8.6150733200000005 Cl
atom 18.8667047600000011 24.2769302600000003 8.3970406499999992 Na
atom 15.9797865899999998 24.4096608500000016 8.6519273900000009 Cl
atom 18.7932172299999998 27.2728524000000014 5.8568848400000002 Na
atom 16.1520038200000009 27.1412152999999989 5.6626610499999996 Cl
atom 16.0126676100000012 29.8740761600000013 5.6216578500000001 Na
atom 18.8750444500000008 30.0678820599999987 5.5364385599999997 Cl
atom 16.1584967400000004 32.9443692999999982 8.3368792799999998 Na
atom 18.9245343900000016 32.8640160400000028 8.4078854399999994 Cl
atom 18.7950982999999994 30.0752414399999992 8.2401885299999993 Na
atom 16.0857336400000008 30.1961669700000002 8.5180765699999998 Cl
atom 18.9883043299999983 32.9138495999999989 5.6295292600000000 Na
atom 16.2034827800000016 32.8277055000000004 5.5856979600000001 Cl
atom 16.1095482300000015 35.6360557100000008 5.7382952800000000 Na
atom 19.1134070700000009 35.7479731800000025 5.7591792999999996 Cl
atom 16.2439162000000010 38.6310627800000006 8.3370243500000001 Na
atom 19.1915622399999997 38.4156586499999975 8.7233047399999997 Cl
atom 18.9063025700000011 35.6864525299999968 8.3959531700000003 Na
atom 16.2120080699999995 35.7980110800000020 8.5378874899999992 Cl
atom 19.0680865399999995 38.5589682399999987 5.7480944699999998 Na