#===============================================================================
# Created using the Atomic Simulation Environment (ASE)

# Tue Dec 23 21:42:21 2025

#=======================================================
lattice_vector 28.1999999999999993 0.0000000000000000 0.0000000000000000 
lattice_vector 0.0000000000000000 39.4799999999999969 0.0000000000000000 
lattice_vector 0.0000000000000000 0.0000000000000000 62.3296083400000001 
atom 7.5207982299999996 14.9455824499999999 -0.3115796800000000 Au
atom 10.3584743699999997 14.9875097600000000 -0.1983063700000000 Au
atom 13.1565230399999997 14.9916990499999994 -0.3940239400000000 Au
atom 15.9230122099999996 14.8235090399999994 0.1029737600000000 Au
atom 18.6647716800000012 14.7778613700000001 0.0108254800000000 Au
atom 21.5340371799999986 14.8807417300000004 -0.0368057000000000 Au
atom 24.3387900799999990 14.8799148799999994 -0.1200123000000000 Au
atom 27.2847468199999987 14.8396329599999994 -0.3529159900000000 Au
atom 1.9017448500000000 14.9252425599999992 -0.2231758900000000 Au
atom 4.7378476999999997 14.7825047900000008 -0.4361629600000000 Au
atom 8.9954626599999994 17.3856265699999994 -0.0440637900000000 Au
atom 11.8237564299999995 17.5156541399999988 -0.0390580400000000 Au
atom 14.5251239200000004 17.3703408199999991 0.0646223400000000 Au
atom 17.3823827000000009 17.3215300200000009 -0.0505477600000000 Au
atom 20.1938475699999991 17.3356610499999988 -0.0921594000000000 Au
atom 23.0450682799999989 17.4373833900000008 -0.2857665500000000 Au
atom 25.8310446099999993 17.1993506300000014 -0.1947446700000000 Au
atom 0.4531314000000000 17.3411181100000000 -0.0058302600000000 Au
atom 3.2027395699999999 17.3713707200000016 -0.1664257200000000 Au
atom 6.1090809400000001 17.3093755000000016 -0.2485040500000000 Au
atom 7.5098120699999997 19.7598281500000006 -0.0888963700000000 Au
atom 10.3901316500000007 19.9189290399999983 0.0804029300000000 Au
atom 13.2795417400000009 19.9554590599999990 0.3642507800000000 Au
atom 16.0018782100000010 19.8027637299999988 0.1407395100000000 Au
atom 18.8873665899999992 19.7450151200000015 0.3950236300000000 Au
atom 21.5989606599999995 19.7667561999999997 0.1507208800000000 Au
atom 24.5170106600000004 19.8736184199999997 -0.2044642300000000 Au
atom 27.3162940899999995 19.8818196799999996 -0.1189158700000000 Au
atom 1.9096193500000000 19.8827649499999985 -0.1006618900000000 Au
atom 4.7154447099999999 19.8009421799999998 -0.1099214500000000 Au
atom 8.9681720800000004 22.1687732500000010 -0.0126709900000000 Au
atom 11.8757741699999997 22.2993485500000013 0.0489562400000000 Au
atom 14.6437724599999992 22.3550231500000010 0.3934003500000000 Au
atom 17.5041505000000015 22.1877496799999996 0.1920584800000000 Au
atom 20.2865953700000006 22.2101239300000017 0.1455117900000000 Au
atom 23.0275772100000005 22.1648464499999989 0.1570561800000000 Au
atom 25.8896562699999997 22.2632415100000003 -0.1709011500000000 Au
atom 0.4926993900000000 22.3294012200000012 0.1900806400000000 Au
atom 3.3028845900000001 22.2263154999999983 0.0441767700000000 Au
atom 6.1839381700000002 22.3196295999999990 -0.2206078500000000 Au
atom 7.5464343800000000 24.7472906299999984 0.0657668000000000 Au
atom 10.3468967799999998 24.6939555300000002 0.0091456300000000 Au
atom 13.1088506999999996 24.7142134400000018 0.0568531400000000 Au
atom 16.0554981499999982 24.6676004000000013 -0.1451298800000000 Au
atom 18.8013515200000008 24.5873801699999994 0.5708640000000000 Au
atom 21.6838619500000007 24.7705291000000010 0.2340708500000000 Au
atom 24.4877236700000012 24.6969777999999991 0.3874948400000000 Au
atom 27.4064733099999991 24.7157647599999990 0.1559691900000000 Au
atom 1.9951505599999999 24.6516800600000003 0.1771901700000000 Au
atom 4.7342753899999996 24.7098481200000002 -0.0082745600000000 Au
atom 8.9091114000000005 27.1225859500000013 0.1578830000000000 Au
atom 11.7982515699999997 27.1733263299999983 0.0257227200000000 Au
atom 14.6416835800000005 27.2346534499999997 0.0068595800000000 Au
atom 17.3661041900000015 27.1374433599999989 0.1269137800000000 Au
atom 20.1931641699999993 27.1636199199999986 0.3656613100000000 Au
atom 23.0366168800000004 27.2031802300000010 0.2991871900000000 Au
atom 25.8112081800000013 27.1734949599999993 0.1160965200000000 Au
atom 0.4500845600000000 27.1551743499999994 0.0078717900000000 Au
atom 3.3332907500000002 27.1752994200000018 -0.0726522200000000 Au
atom 6.1450707299999996 27.0750666500000001 -0.1750939900000000 Au
atom 7.5071421200000001 29.5726800499999989 -0.1717693200000000 Au
atom 10.2776219599999994 29.6377646900000009 0.0619373500000000 Au
atom 13.1163731299999995 29.6085898699999994 0.1498249600000000 Au
atom 15.9826822199999992 29.7359561700000015 0.3726426000000000 Au
atom 18.7464075100000009 29.7017284500000009 0.4442901100000000 Au
atom 21.4794850500000010 29.7089042399999990 0.1660846300000000 Au
atom 24.3648527699999988 29.6754350199999983 0.2007159900000000 Au
atom 27.1132869300000010 29.6017404999999982 -0.1979851600000000 Au
atom 1.8341565200000001 29.6057803600000007 -0.2584523900000000 Au
atom 4.6922211400000000 29.5956814900000005 -0.0140961200000000 Au
atom 8.8365061399999991 32.1638955299999978 -0.2382550500000000 Au
atom 11.8082831400000003 32.1437682999999979 0.2185742700000000 Au
atom 14.5104495100000008 32.1145121200000006 0.2990866400000000 Au
atom 17.2997750299999993 32.1887086600000032 0.1234245000000000 Au
atom 20.1101659300000009 32.1274978499999975 0.0583986600000000 Au
atom 22.9333477099999996 32.1169556299999996 0.0185088200000000 Au
atom 25.6740978999999996 32.2021094099999985 -0.1767448000000000 Au
atom 0.3744423600000000 32.0895007600000000 -0.3734885000000000 Au
atom 3.1985932199999998 32.0495904200000012 -0.0752985800000000 Au
atom 6.1104562099999997 32.0656779799999967 -0.3408004700000000 Au
atom 7.4038857499999997 34.6041141299999992 0.0216003900000000 Au
atom 10.2440070399999996 34.5520060500000028 -0.1422004500000000 Au
atom 12.9803482999999993 34.5789335899999983 0.0385798800000000 Au
atom 15.8615464799999994 34.4948988700000001 0.3178903000000000 Au
atom 18.6615551400000008 34.6611077399999985 -0.0708533800000000 Au
atom 21.4889583299999991 34.5986242700000020 0.2735853800000000 Au
atom 24.3516254100000005 34.6616585900000018 0.1504431800000000 Au
atom 27.2045663100000006 34.6583642399999974 -0.2379015300000000 Au
atom 1.8092808499999999 34.5711374699999965 -0.0861108600000000 Au
atom 4.6292056400000003 34.5122638899999998 -0.3576950800000000 Au
atom 8.7752093599999998 37.0759455500000001 -0.1315409900000000 Au
atom 11.5331815300000002 37.0945990499999994 0.0575070400000000 Au
atom 14.4192175599999999 36.9026566699999989 0.2904764100000000 Au
atom 17.2960730299999987 37.0410413800000029 0.2335317500000000 Au
atom 20.1724848799999990 37.0152918900000003 0.0806424400000000 Au
atom 22.9688777699999989 37.0908150699999979 0.1464123300000000 Au
atom 25.7837152600000010 37.0880708799999965 0.0386256500000000 Au
atom 0.4333915700000000 37.0510072900000011 0.0807346500000000 Au
atom 3.2674759199999999 37.0438959600000004 -0.1119963100000000 Au
atom 6.0399274299999997 37.1736445800000013 -0.0374083400000000 Au
atom 7.4514597900000004 0.1883622700000000 -0.1695484300000000 Au
atom 10.1382996999999992 0.2040690400000000 -0.0016481000000000 Au
atom 12.9755464699999994 -0.0518604100000000 -0.0241569300000000 Au
atom 15.8403246600000003 -0.0298341500000000 0.1482519000000000 Au
atom 18.7043292900000004 0.0429447000000000 -0.0543668500000000 Au
atom 21.4931021999999992 0.0353509800000000 0.0200035400000000 Au
atom 24.3003453299999990 0.0285202300000000 -0.0686973200000000 Au
atom 27.2475935000000007 -0.0454159800000000 -0.0601207200000000 Au
atom 1.8345780899999999 0.0507601100000000 -0.2588054300000000 Au
atom 4.6353792299999999 0.1480995400000000 -0.0163554400000000 Au
atom 8.7710945200000001 2.6383682799999999 0.2169479000000000 Au
atom 11.5745352300000004 2.4646017499999999 0.1085433900000000 Au
atom 14.5022663299999994 2.5394990599999998 0.0813248300000000 Au
atom 17.3617492899999988 2.4508374000000002 0.1002370700000000 Au
atom 20.2245701699999998 2.6055845299999998 -0.0721879900000000 Au
atom 23.0854796799999988 2.4732374500000001 0.2383547200000000 Au
atom 25.8033194200000011 2.3667466099999999 0.2923137400000000 Au
atom 0.4297025800000000 2.4465406999999999 -0.0197726600000000 Au
atom 3.1794252500000000 2.5594106000000001 -0.1653160300000000 Au
atom 6.0079513400000000 2.6610270300000001 0.1507430300000000 Au
atom 7.4250183400000003 5.1378276100000004 0.3869565200000000 Au
atom 10.2258167100000001 4.9775766099999998 0.2719401500000000 Au
atom 12.9444260599999996 4.9574953700000002 0.0185044900000000 Au
atom 15.8547632200000006 4.9448340899999996 -0.2389475700000000 Au
atom 18.6942090999999984 4.9800138900000004 0.0672155000000000 Au
atom 21.6625381600000004 5.0590964800000000 0.1239272500000000 Au
atom 24.4318374300000016 4.9283957699999998 0.1008249900000000 Au
atom 27.1831521000000009 5.0250776699999999 0.0335192200000000 Au
atom 1.7560632500000000 5.0526774200000002 0.1108865500000000 Au
atom 4.5248035700000004 5.1283862700000000 0.1046716000000000 Au
atom 8.9049713700000002 7.3964072600000002 -0.1560050100000000 Au
atom 11.7317732699999997 7.5227652899999997 0.2649784800000000 Au
atom 14.5896691199999999 7.4696521100000002 -0.2041098500000000 Au
atom 17.3436016200000012 7.4666354200000002 0.0946988300000000 Au
atom 20.1282271900000005 7.4607837999999997 0.1562634200000000 Au
atom 23.0236424900000003 7.4846954900000000 0.3924333400000000 Au
atom 25.8143075300000007 7.4598200500000003 0.0580424700000000 Au
atom 0.3675112700000000 7.4814007900000004 0.0189785800000000 Au
atom 3.1785392600000000 7.5311133100000003 0.1380918900000000 Au
atom 6.0981650399999996 7.4723271799999997 -0.0958325500000000 Au
atom 7.4706151700000003 9.9510715199999993 -0.2172771400000000 Au
atom 10.2419432300000004 9.9879954800000004 -0.2574362400000000 Au
atom 13.1321617699999997 9.9221253199999992 -0.1649118600000000 Au
atom 16.0283874600000011 9.9154636000000007 -0.2338488400000000 Au
atom 18.7991879799999992 9.7715041899999999 0.3522875300000000 Au
atom 21.5768728500000009 9.9026286300000006 0.0499829400000000 Au
atom 24.4388065300000008 9.8695541500000008 0.2873145500000000 Au
atom 27.2019941199999984 10.0609553399999996 0.2092466100000000 Au
atom 1.8763001200000000 10.0660451500000008 0.1389145800000000 Au
atom 4.7395798100000004 9.9849150499999997 0.0272847600000000 Au
atom 9.0490218900000006 12.5224676800000001 -0.3570363100000000 Au
atom 11.8073912500000002 12.5226072599999991 -0.0899894000000000 Au
atom 14.4930495100000005 12.3197068400000003 -0.1568306500000000 Au
atom 17.3504562299999989 12.3497129599999997 0.0245552300000000 Au
atom 20.0619730800000013 12.3732742200000008 -0.1030821700000000 Au
atom 23.0537721299999987 12.3809574599999994 0.1819999700000000 Au
atom 25.7853709500000008 12.4706383299999999 -0.0233140000000000 Au
atom 0.5047481900000000 12.4207770699999998 -0.1897040100000000 Au
atom 3.3774018799999999 12.4233914799999994 -0.1334960400000000 Au
atom 6.3726208099999999 12.4535095099999999 -0.1033478300000000 Au
atom 7.5732400100000001 13.3490238100000003 2.5453777199999998 Au
atom 10.3415873499999993 13.2143495600000005 2.3599581700000001 Au
atom 13.1610943700000007 13.2503612099999994 2.3756753700000002 Au
atom 15.8408888599999997 13.2105812300000007 2.4743380699999999 Au
atom 18.7744743900000017 13.2059021500000000 2.6186295500000001 Au
atom 21.6294781200000017 13.2679689500000002 2.5891685199999999 Au
atom 24.3528465899999986 13.3564691900000003 2.6673046399999998 Au
atom 27.2733090800000006 13.2567273199999995 2.4576156700000000 Au
atom 1.9188883900000000 13.1833046300000003 2.2598479000000000 Au
atom 4.7246524699999997 13.2431477900000001 2.2737496199999998 Au
atom 9.0353931500000009 15.5894971299999998 2.5709490800000001 Au
atom 11.8770127199999997 15.6857322400000001 2.1986818299999999 Au
atom 14.6212099299999991 15.6889495599999993 2.6751057600000001 Au
atom 17.3545830899999984 15.6551070899999996 2.5904366099999998 Au
atom 20.1467849500000007 15.7119396200000008 2.5957457000000002 Au
atom 23.0027101899999984 15.7943415300000005 2.4288430499999998 Au
atom 25.8137280900000015 15.7005123100000006 2.4759504500000000 Au
atom 0.4177493500000000 15.6302154200000007 2.3768012999999999 Au
atom 3.2698234300000002 15.6585545100000001 2.3837063600000001 Au
atom 6.0811383100000000 15.7285731599999998 2.1850393399999999 Au
atom 7.6174262300000004 17.9905115100000010 2.5159773400000001 Au
atom 10.3441556899999991 18.1231303399999994 2.4563190600000002 Au
atom 13.0866676900000005 18.1047001099999996 2.7515919900000001 Au
atom 15.9938147900000001 18.1364228199999999 2.5101127299999999 Au
atom 18.8063321799999983 18.0783545500000002 2.9346798700000001 Au
atom 21.5893725399999994 18.0835984100000005 2.6123728499999999 Au
atom 24.5223815300000005 18.1813839399999999 2.3973533699999998 Au
atom 27.3315094800000011 18.1199795399999992 2.4965233200000001 Au
atom 1.9904017000000001 18.1382015500000016 2.4764182500000000 Au
atom 4.7338444900000001 18.1116058299999985 2.4719475800000001 Au
atom 8.9463340000000002 20.5123914599999999 2.8990038400000002 Au
atom 11.7470081400000002 20.6041861799999992 2.7677601799999998 Au
atom 14.5064494899999996 20.5013367299999985 2.8784277399999998 Au
atom 17.3164748400000015 20.6035112900000001 2.7716511700000002 Au
atom 20.2076760600000007 20.5976455200000004 2.8389027300000000 Au
atom 23.1284784899999991 20.5450385900000008 2.6958177900000000 Au
atom 25.9157867499999988 20.6277360099999996 2.4786527999999999 Au
atom 0.5619356200000000 20.5954921599999992 2.6956712299999999 Au
atom 3.3444152599999999 20.6832466799999999 2.4802638799999999 Au
atom 6.1452263900000004 20.5483574900000008 2.4942880800000000 Au
atom 7.5261688299999996 23.0213716099999992 2.5699291199999998 Au
atom 10.3897696800000006 23.0905360500000008 2.6502866200000001 Au
atom 13.2326961599999997 23.0603989100000000 2.8123411500000000 Au
atom 16.0217411900000002 23.1448436300000004 2.8198360600000001 Au
atom 18.8568800699999990 23.0258344699999995 3.0016676000000002 Au
atom 21.7692945999999985 22.9757743400000010 2.8157147400000002 Au
atom 24.5726931399999984 23.1433165599999988 2.7054160600000001 Au
atom 27.3139827599999983 23.1238526100000001 2.7526468999999998 Au
atom 2.0437529600000000 23.0398695199999999 2.9157157200000001 Au
atom 4.7416648300000004 23.0542406299999989 2.4788113699999998 Au
atom 8.9426759100000002 25.5934622999999988 2.8721373200000002 Au
atom 11.8089633400000000 25.4981536499999990 2.6879138800000000 Au
atom 14.5398230099999992 25.5148444800000007 2.6250141199999999 Au
atom 17.4415537100000009 25.5458031199999986 2.8643359199999998 Au
atom 20.2891146099999986 25.4400294799999998 3.0696600100000002 Au
atom 23.0966937200000011 25.6116870699999986 2.8930251800000000 Au
atom 25.9448989499999989 25.6292832399999995 2.7986793599999999 Au
atom 0.6293909500000000 25.5646569799999988 2.7210450300000000 Au
atom 3.3542827300000000 25.5759851599999983 2.7543902800000000 Au
atom 6.1446488099999996 25.5239556900000011 2.5852971999999999 Au
atom 7.6174916599999998 27.9430824400000013 2.5085244499999999 Au
atom 10.4863962599999994 28.0081156900000003 2.7664357300000000 Au
atom 13.2517600400000006 28.0540752200000014 2.6248173800000001 Au
atom 15.9568969700000007 28.0409407799999997 2.9526825400000001 Au
atom 18.7560389100000009 27.9520191000000011 2.7113582799999998 Au
atom 21.5255385299999986 28.0427387000000010 2.7932236700000002 Au
atom 24.4901942099999985 28.1280859599999999 2.7494502600000001 Au
atom 27.2378280500000010 28.0941168499999989 2.5057668500000001 Au
atom 1.9269229299999999 27.9804477399999989 2.5623470400000001 Au
atom 4.7992220799999998 28.0117368300000003 2.5223956099999998 Au
atom 8.9672890100000000 30.3791688899999990 2.5238284100000001 Au
atom 11.6084026599999994 30.6645918000000002 2.7329390500000001 Au
atom 14.5393994200000005 30.6605705499999992 2.9486476300000000 Au
atom 17.3166898600000003 30.6124747699999986 2.8676488800000000 Au
atom 20.1867605899999987 30.5243310200000018 2.8262361700000000 Au
atom 23.0424406399999988 30.5686044199999998 2.6459623799999998 Au
atom 25.8810353500000012 30.6123838299999989 2.5688975400000000 Au
atom 0.5712562100000000 30.3763030699999987 2.2524166999999999 Au
atom 3.3629443600000002 30.3806410000000007 2.6030869900000000 Au
atom 6.1919101799999998 30.4394621500000007 2.6125068599999999 Au
atom 7.5844653700000002 32.9369531999999978 2.4647468300000002 Au
atom 10.2431296599999992 33.1594872200000026 2.5002092100000000 Au
atom 12.9754570699999991 33.0269948500000012 2.8207617100000002 Au
atom 15.8733801000000003 33.0541950499999970 2.9382365400000001 Au
atom 18.6957516599999991 33.0029018800000031 2.6594069500000002 Au
atom 21.5486813099999992 32.9313762900000029 2.8023391300000000 Au
atom 24.4046611999999996 33.0555266200000020 2.4487170200000001 Au
atom 27.2643191599999994 32.9584765399999995 2.2655658999999999 Au
atom 1.8819056000000001 32.8307552699999974 2.4859824100000001 Au
atom 4.7860915999999998 32.8645865599999993 2.2907535999999999 Au
atom 8.7985776700000002 35.5708004999999972 2.4867006400000000 Au
atom 11.6457561599999995 35.5047378800000004 2.5199644000000001 Au
atom 14.4179529700000000 35.4638087200000029 2.8759333400000000 Au
atom 17.3909737399999997 35.4716797600000007 2.9166991800000002 Au
atom 20.0784086299999984 35.5064691800000034 2.6760072099999999 Au
atom 22.9243409800000002 35.4905322099999978 2.7221435600000001 Au
atom 25.7361214899999986 35.4601625999999968 2.6970285999999999 Au
atom 0.4216656100000000 35.3330739700000009 2.5987175800000002 Au
atom 3.2325207699999998 35.3885086399999977 2.4512637700000002 Au
atom 6.0277000799999998 35.3808490099999986 2.5787513199999998 Au
atom 7.3766031999999999 37.9058034800000030 2.3813321599999999 Au
atom 10.1748457000000005 37.9765310299999967 2.6210539000000002 Au
atom 13.0897020200000007 38.0056744299999991 2.7101741900000000 Au
atom 15.9332525599999997 37.9557356099999978 2.7808156700000000 Au
atom 18.7159761600000003 37.8913083500000027 2.7226075199999999 Au
atom 21.4736905100000008 37.9920773400000016 2.6977995099999998 Au
atom 24.3864764700000016 37.9072477300000017 2.6158406500000000 Au
atom 27.2126457100000003 37.7664890300000025 2.7729284900000000 Au
atom 1.8651667100000000 37.9347348200000027 2.5275194499999998 Au
atom 4.5438777200000002 37.9637744500000025 2.7301363099999998 Au
atom 8.7646263999999992 0.7996235700000000 2.4738737500000001 Au
atom 11.5711245999999992 0.9174815900000000 2.8114760200000002 Au
atom 14.4959248600000006 0.9475006900000000 2.6771163699999998 Au
atom 17.3380954699999990 0.9298979900000000 2.7084248400000002 Au
atom 20.0598838000000015 0.9377824800000000 2.5468479199999998 Au
atom 22.9927997899999994 0.8101492900000000 2.7786528599999998 Au
atom 25.9067684900000010 0.7781164699999999 2.7502856300000000 Au
atom 0.3821514300000000 0.8988167100000000 2.4283234999999999 Au
atom 3.1282516100000000 0.9583419399999999 2.3657776300000002 Au
atom 5.8878301799999999 0.8235204500000000 2.7014822500000002 Au
atom 7.4032003099999999 3.3714303100000000 2.8147045700000000 Au
atom 10.2451863599999999 3.3791308899999999 2.8946389699999999 Au
atom 13.0882612799999993 3.3954375699999999 2.6067933600000002 Au
atom 15.8222198699999996 3.4703065400000002 2.5845146799999998 Au
atom 18.7963868400000003 3.3737922600000001 2.6336159900000000 Au
atom 21.5864454200000004 3.2921745300000000 2.6864781500000001 Au
atom 24.4149892699999995 3.3220328399999999 2.8066282299999998 Au
atom 27.1929893599999986 3.3685915000000000 2.6608479599999999 Au
atom 1.7909729900000000 3.4547291499999999 2.5676566400000000 Au
atom 4.5956984700000003 3.3866172400000001 2.6230466300000002 Au
atom 8.8015668500000004 5.9003452000000003 2.8444801200000001 Au
atom 11.7649374200000008 5.8825050900000004 2.9470890500000002 Au
atom 14.4584770400000000 5.8796419000000002 2.4307082699999998 Au
atom 17.3965861000000004 5.7757416900000003 2.5097179999999999 Au
atom 20.2670774999999992 5.7651519999999996 2.6755440400000001 Au
atom 23.0440184799999983 5.7990484899999997 2.9408161499999999 Au
atom 25.8544352099999983 5.8243567399999998 2.7045721399999998 Au
atom 0.3670706600000000 5.9336140400000001 2.8199063799999999 Au
atom 3.2182745599999998 5.8086330400000001 2.7003614100000002 Au
atom 6.0417396500000002 5.8098452399999996 2.8858617899999999 Au
atom 7.4007441399999996 8.3076822799999999 2.6033409600000001 Au
atom 10.1712320100000007 8.3596737099999991 2.4187662699999999 Au
atom 13.1638914200000006 8.3530987499999991 2.6483945599999998 Au
atom 15.9789804300000000 8.3485244800000000 2.5430090999999999 Au
atom 18.7823016900000006 8.2622628799999998 2.8727908100000001 Au
atom 21.5564541200000015 8.2444222600000003 2.7745003499999998 Au
atom 24.4484916100000014 8.2413409600000005 2.9172971500000000 Au
atom 27.2978953599999983 8.3799183599999996 2.6126017300000002 Au
atom 1.8790157800000000 8.3982138600000003 2.7413229800000001 Au
atom 4.5825626599999998 8.2922508799999992 2.4185218499999999 Au
atom 8.8309420799999998 10.8886943299999999 2.1972343099999998 Au
atom 11.6802796699999991 10.7269719800000001 2.2850764699999999 Au
atom 14.4440940999999992 10.7494932199999997 2.4151416299999999 Au
atom 17.3257645599999996 10.7816881200000001 2.7015923399999999 Au
atom 20.1889725999999996 10.7608163500000007 2.6240564700000002 Au
atom 22.9445288500000011 10.7985059600000000 2.7066146799999999 Au
atom 25.8471105299999984 10.8819260399999997 2.6753815699999999 Au
atom 0.4983664900000000 10.8216855100000000 2.8141249600000000 Au
atom 3.3818367500000002 10.9152367100000003 2.5911681099999999 Au
atom 6.1006502800000000 10.8874672799999992 2.5455334399999998 Au
atom 7.2519981199999997 12.7724632000000007 5.5380996800000002 Cl
atom 7.2844825999999996 15.5340642500000001 8.4659809599999996 Cl
atom 7.3395176099999997 12.8159662599999997 8.0945919400000008 Na
atom 7.3199509100000002 15.7775129599999993 5.6821062700000002 Na
atom 7.3367836000000004 18.5257927400000000 5.7473272099999999 Cl
atom 7.1788301299999997 21.2667666599999983 8.6975220300000000 Cl
atom 7.2708208900000004 18.6008489300000015 8.5159834300000004 Na
atom 7.3942009200000003 21.3844378699999993 5.9504574200000002 Na
atom 7.4233786899999998 24.2559094699999989 6.0436909700000001 Cl
atom 7.1550525800000004 27.1088843100000005 8.4367273800000007 Cl
atom 7.2458907400000001 24.1896327999999983 8.5132806700000003 Na
atom 7.6098113700000001 26.9816098599999989 5.6679528799999996 Na
atom 7.3732973900000003 29.8427166799999988 5.7708355999999998 Cl
atom 7.1786834099999997 32.5214387199999990 8.4560177400000001 Cl
atom 7.2545271700000002 29.8422633499999996 8.3103363199999993 Na
atom 7.2733102199999999 32.5744686800000025 5.7730675299999996 Na
atom 7.2904404100000004 35.3164991599999993 5.8497982700000000 Cl
atom 7.3013468799999997 38.2649042500000007 8.5416859200000008 Cl
atom 7.2922181699999999 35.2660847799999999 8.4322878100000001 Na
atom 7.1949482099999997 38.4031568300000004 5.7300265300000000 Na
atom 7.1669736999999998 1.6566999800000000 5.7539033599999998 Cl
atom 7.3013341900000004 4.4737079000000000 8.6737403000000004 Cl
atom 7.3825188900000001 1.6305453100000000 8.4075266800000001 Na
atom 7.3622215300000002 4.4637417700000004 5.9194222400000003 Na
atom 7.3000416299999999 7.1919200099999996 5.8504423599999997 Cl
atom 7.3825851599999996 9.9819426199999999 8.4181873300000003 Cl
atom 7.3710728899999998 7.1969789899999999 8.4076566499999998 Na
atom 7.4383671500000004 10.0461004999999997 5.7660453299999999 Na
atom 10.1089400699999992 12.7999465600000004 5.5595047600000003 Na
atom 12.8357069700000004 12.8105980200000005 5.3221158300000004 Cl
atom 10.1662814800000003 15.6805278399999999 8.2591522000000008 Na
atom 13.0820908500000002 15.7313306199999996 8.3419519500000003 Cl
atom 12.9680167300000004 12.8005214699999996 8.2721394499999992 Na
atom 10.0523695800000006 12.8782835700000007 8.3563698399999993 Cl
atom 12.9662874600000002 15.6489846099999994 5.6669729100000001 Na
atom 10.1884615400000005 15.6406436299999996 5.6013000399999999 Cl
atom 10.0583999500000001 18.5523542399999997 5.7366641100000004 Na
atom 13.0228581899999991 18.5338807900000013 5.5942510800000003 Cl
atom 9.8522256000000006 21.2614318699999991 8.5968077699999998 Na
atom 12.9112964399999992 21.3569373400000018 8.7131321699999997 Cl
atom 12.9210331000000007 18.4879976100000007 8.3111920599999998 Na
atom 9.9730838199999994 18.4635780099999991 8.4180028199999999 Cl
atom 12.9706516199999999 21.1825845299999997 5.9740234599999997 Na
atom 9.9925408999999998 21.3496430000000004 5.9518497799999999 Cl
atom 10.1441764899999995 24.1073504400000012 5.9661551399999997 Na
atom 12.9529289799999994 24.1376564599999988 5.8609213200000001 Cl
atom 9.9170673699999998 27.0878910799999986 8.6086367999999993 Na
atom 12.9321288899999995 26.8695987000000009 8.9002183800000001 Cl
atom 12.9748735199999992 24.2305266999999986 8.7415734399999998 Na
atom 9.9937586399999994 23.9836457600000017 8.6816881899999991 Cl
atom 12.8679479000000008 26.8602815700000015 6.1012796700000003 Na
atom 10.3242061399999994 26.9655729499999985 5.8442177199999996 Cl
atom 10.1687721399999997 29.7772626299999992 5.7372556100000001 Na
atom 13.1017982499999999 29.5628966999999996 6.0077145700000001 Cl
atom 9.9987174499999991 32.5649253300000012 8.4068565399999997 Na
atom 12.8710094000000002 32.5853156299999966 8.6289792500000004 Cl
atom 13.0405600600000007 29.7202237599999997 8.5671412599999996 Na
atom 10.0273873899999995 29.8207719400000002 8.6360773999999996 Cl
atom 12.9367160200000004 32.5415688399999965 5.9971124700000003 Na
atom 10.1688294700000004 32.7276845800000018 5.8370452799999999 Cl
atom 10.1048821600000007 35.5799869499999986 5.6789890600000001 Na
atom 13.0085960499999995 35.5166649199999966 5.8707635800000002 Cl
atom 10.0317211299999993 38.2147262699999999 8.3146968999999995 Na
atom 12.9899776700000000 38.1569807899999986 8.6132257899999995 Cl
atom 12.8585088600000006 35.4344029599999999 8.5693544300000006 Na
atom 10.1077054499999992 35.5626907899999978 8.6595154200000000 Cl
atom 12.9922555299999996 38.3660368600000012 5.9386841600000002 Na
atom 9.9886195699999991 38.3850907400000025 5.7357682099999998 Cl
atom 10.1326580100000001 1.6142847100000000 5.8191835500000000 Na
atom 12.7961424699999995 1.6319869000000000 5.7100498599999998 Cl
atom 10.1273379200000004 4.5558576100000003 8.5501790500000006 Na
atom 12.9384695000000001 4.4609700200000004 8.4474144199999994 Cl
atom 12.8163911499999994 1.6096798000000001 8.3941897000000001 Na
atom 10.0729727899999997 1.5387784300000000 8.7080951300000002 Cl
atom 12.8376166900000008 4.3206357000000004 5.7420184000000001 Na
atom 10.0691015900000007 4.3922122200000002 5.9782238999999997 Cl
atom 10.1068868599999995 7.2689806900000002 5.8434323199999998 Na
atom 13.0247071299999995 7.1703078800000002 5.4416250899999996 Cl
atom 10.0274269399999998 10.2108790700000007 8.3251858799999994 Na
atom 12.9453127899999991 9.9563235500000005 8.3151967300000003 Cl
atom 12.9975667000000001 7.2060704099999997 8.2857583899999998 Na
atom 10.1697143499999996 7.2082596900000002 8.6455846500000000 Cl
atom 13.0169494199999995 9.9395173600000000 5.6590556799999998 Na
atom 10.2717523699999997 10.0429843600000002 5.4609965799999998 Cl
atom 15.6610543199999999 12.9056909500000003 5.7023061600000000 Na
atom 18.7568126699999986 12.8449670299999994 5.8667315100000001 Cl
atom 15.8769480099999996 15.6241243200000000 8.1794745100000004 Na
atom 18.7059393699999994 15.6883518500000001 8.5436364499999993 Cl
atom 18.6533418799999993 12.9246893099999998 8.3259015800000000 Na
atom 15.6139268999999992 12.6637978699999998 8.3518967199999992 Cl
atom 18.7051829699999992 15.5537875900000007 5.6413181600000000 Na
atom 15.8682341200000003 15.6438595100000004 5.5708677099999999 Cl
atom 16.0233427500000012 18.6187936799999996 5.7156570699999998 Na
atom 18.7606795400000017 18.6590393699999986 5.6669286999999997 Cl
atom 15.8313647000000000 21.3617491999999984 8.5443840200000007 Na
atom 18.7662706800000016 21.4364512400000002 8.8350895600000001 Cl
atom 18.7300238000000014 18.5812841900000016 8.2778815800000007 Na
atom 15.9004949799999995 18.6631085799999994 8.4877187299999992 Cl
atom 18.4387144700000007 21.5461852200000017 5.9367268199999996 Na
atom 15.7209468000000001 21.4091398700000006 5.9046615899999999 Cl
atom 15.6546750400000008 24.1542424000000011 6.0211167000000003 Na
atom 18.5736204799999989 24.1543110299999988 6.1802641100000004 Cl
atom 15.6886975799999995 27.0762557299999997 8.7210866300000003 Na
atom 18.5785498699999998 27.0596783599999995 8.7186039300000004 Cl
atom 18.6482352999999996 24.1142127799999990 8.9452334899999997 Na
atom 15.6891086600000005 24.0864423400000014 8.9541197799999992 Cl
atom 18.6044645799999984 26.8110136300000015 5.8753488599999999 Na
atom 15.5230000399999994 26.7815192800000013 5.9949248400000004 Cl
atom 15.7452904700000005 29.8062262500000017 5.9626517300000001 Na
atom 18.5528629000000009 29.7312885499999986 5.8829463200000003 Cl
atom 15.6253883499999997 32.6559301899999994 8.6816979100000005 Na
atom 18.5559816499999997 32.6867380899999986 9.0580331399999992 Cl
atom 18.4603187599999998 29.8451866300000006 8.5376353500000004 Na
atom 15.7642543499999999 29.8064015699999985 8.6481494399999992 Cl
atom 18.5006087500000014 32.5710497199999978 6.1120820100000000 Na
atom 15.8372356300000003 32.5226309800000024 6.0478124199999996 Cl
atom 15.7639383700000000 35.4217179299999998 6.2135908300000002 Na
atom 18.4384690300000003 35.5014313000000001 5.8234332699999998 Cl
atom 15.6634505100000005 38.2548531199999999 8.6935756099999999 Na
atom 18.4730434000000017 38.1781390499999986 8.8264767099999997 Cl
atom 18.6267277500000006 35.2901658199999986 8.7800008700000003 Na
atom 15.8624048500000008 35.3733157899999995 9.0222002200000002 Cl
atom 18.4250840099999991 38.2041927200000018 5.9549576799999997 Na