#===============================================================================
# Created using the Atomic Simulation Environment (ASE)

# Tue Dec 23 22:26:33 2025

#=======================================================
lattice_vector 28.1999999999999993 0.0000000000000000 0.0000000000000000 
lattice_vector 0.0000000000000000 39.4799999999999969 0.0000000000000000 
lattice_vector 0.0000000000000000 0.0000000000000000 62.3296083400000001 
atom 7.4524697000000000 14.8166973399999993 -0.0794249800000000 Au
atom 10.2495319400000007 14.8660533000000008 -0.0998559000000000 Au
atom 13.1124324600000008 14.8516707700000001 -0.3182078200000000 Au
atom 15.9994380399999994 14.7533191600000002 -0.2729398800000000 Au
atom 18.7250310400000011 14.7302938200000000 0.0101160300000000 Au
atom 21.5796379999999992 14.7357502500000006 -0.2388364000000000 Au
atom 24.3680482800000000 14.7757623599999999 -0.1086064300000000 Au
atom 27.1897123500000006 14.6576484800000006 -0.1700086900000000 Au
atom 1.7549839000000000 14.8253933500000006 0.0090847600000000 Au
atom 4.6418352900000004 14.7516968599999991 -0.1550118600000000 Au
atom 8.8833150100000005 17.3481087900000013 -0.1584379000000000 Au
atom 11.7021335799999999 17.3593133299999991 -0.2422523200000000 Au
atom 14.6451030299999996 17.2706705300000003 -0.3184201600000000 Au
atom 17.3794565399999996 17.2218881800000005 -0.0287037900000000 Au
atom 20.1463050499999987 17.2547890200000005 -0.0233267800000000 Au
atom 22.9651204299999989 17.2691880600000012 -0.0396637100000000 Au
atom 25.7883152399999993 17.1787854099999997 -0.0223347300000000 Au
atom 0.3998995500000000 17.2825878700000004 0.0034597100000000 Au
atom 3.2383828399999999 17.2901044100000014 -0.0022207200000000 Au
atom 6.0346377999999996 17.3483123600000013 -0.0056479000000000 Au
atom 7.5268297600000000 19.8141438799999996 -0.0334542800000000 Au
atom 10.3527102400000004 19.8216062099999988 -0.1637473500000000 Au
atom 13.1754469099999998 19.7454133100000000 -0.1868767900000000 Au
atom 16.0119700099999989 19.7204412799999993 -0.2689127600000000 Au
atom 18.7577228900000001 19.7232517999999999 0.1890240200000000 Au
atom 21.5404341300000013 19.7782220299999985 -0.0367802100000000 Au
atom 24.4121588600000017 19.6935734999999994 0.0510431800000000 Au
atom 27.2370747800000004 19.6472155499999985 0.0336970400000000 Au
atom 1.7958615499999999 19.6126317800000010 0.2337076400000000 Au
atom 4.6466846400000001 19.7825855500000003 0.1143852800000000 Au
atom 8.9131202799999993 22.3218615100000015 -0.0967308600000000 Au
atom 11.7678360499999997 22.2775530199999992 -0.3221342900000000 Au
atom 14.6400134699999995 22.2065177600000005 -0.1904525700000000 Au
atom 17.4140807500000001 22.1923061799999992 -0.1707570100000000 Au
atom 20.1648280500000006 22.2403470399999996 0.0836514800000000 Au
atom 23.0221390499999998 22.1303916600000008 0.0419092600000000 Au
atom 25.8584802700000012 22.1270942099999992 0.1466935100000000 Au
atom 0.4839472100000000 22.1649566600000014 -0.2022534800000000 Au
atom 3.2445198300000002 22.1809917699999986 0.1662190600000000 Au
atom 6.1178943200000004 22.1625167999999988 -0.0306101200000000 Au
atom 7.5292551400000001 24.7142121599999989 -0.2460230100000000 Au
atom 10.4573744699999995 24.7107581799999991 0.0380016000000000 Au
atom 13.2694932399999992 24.6627450999999986 -0.0561707800000000 Au
atom 16.0829085499999991 24.6708757900000002 -0.0312180900000000 Au
atom 18.9002123299999987 24.7302205700000002 -0.1851952500000000 Au
atom 21.6947626800000002 24.7090939200000008 0.0616899800000000 Au
atom 24.4868697699999984 24.6625704600000013 0.2653741800000000 Au
atom 27.2821375500000016 24.5821438299999997 0.1725978100000000 Au
atom 1.8486359699999999 24.6858101000000012 0.1191011600000000 Au
atom 4.7281577300000004 24.6314658699999995 -0.0236910700000000 Au
atom 8.9303861900000001 27.1920760900000005 -0.1382413900000000 Au
atom 11.7977842800000001 27.1519362499999986 0.0490441500000000 Au
atom 14.6473811099999995 27.1556825699999997 0.0868643500000000 Au
atom 17.5262363800000003 27.1960769800000008 -0.0976616300000000 Au
atom 20.3475510100000001 27.2078871000000007 -0.0142660400000000 Au
atom 23.0632726400000010 27.1638870200000007 0.1836330800000000 Au
atom 25.8539014700000003 27.1310680700000013 -0.0289780300000000 Au
atom 0.4867588800000000 27.2441303300000008 0.1917166100000000 Au
atom 3.3612744499999998 27.1449389399999994 -0.0206351900000000 Au
atom 6.1607010799999999 27.1502020799999997 0.0188342600000000 Au
atom 7.5540940100000000 29.6445128699999998 -0.0093527800000000 Au
atom 10.3306299999999993 29.5522246700000011 0.0320629800000000 Au
atom 13.1804443700000000 29.6300506599999984 0.0458673900000000 Au
atom 16.0393093399999991 29.6160815500000005 0.0562236700000000 Au
atom 18.8928116400000015 29.6331236300000000 -0.0032098200000000 Au
atom 21.7207846499999988 29.7012180000000008 0.1721763400000000 Au
atom 24.5222105600000013 29.5730183400000008 0.0127286800000000 Au
atom 27.2976175699999999 29.6537244999999992 -0.0726412100000000 Au
atom 1.9135946900000000 29.6410318400000001 0.0413873200000000 Au
atom 4.6942695800000003 29.6234445899999983 -0.0441330000000000 Au
atom 8.9268768400000003 32.0640170799999993 0.0114305200000000 Au
atom 11.7287980600000008 32.0002259600000016 -0.0383941900000000 Au
atom 14.6198577200000006 32.0379720000000034 -0.0796528000000000 Au
atom 17.4205980199999999 32.0526451200000011 -0.1112710800000000 Au
atom 20.1794846499999991 32.0733805500000031 0.1074723100000000 Au
atom 23.0751884499999989 32.1218121100000005 0.1346652400000000 Au
atom 25.8234634700000001 32.0891500099999973 -0.0198883000000000 Au
atom 0.4806026900000000 32.1763602799999973 -0.0127931200000000 Au
atom 3.2950117500000000 32.0440838999999968 -0.1589435900000000 Au
atom 6.0771178600000004 32.1655516699999993 -0.1325017400000000 Au
atom 7.5127803100000001 34.6619768099999987 0.0548357000000000 Au
atom 10.3216857199999996 34.5916918400000029 0.1026341000000000 Au
atom 13.1053516600000002 34.4860049099999983 -0.1170272900000000 Au
atom 16.0158776600000010 34.5636045999999979 -0.1279769300000000 Au
atom 18.7347119000000006 34.5740398499999984 -0.0627539300000000 Au
atom 21.6050982299999994 34.5184825500000017 -0.0038706600000000 Au
atom 24.5327601299999998 34.5852168199999994 0.0027001500000000 Au
atom 27.3249611899999998 34.4937193499999992 0.2053881300000000 Au
atom 1.8430982700000000 34.5964386300000015 0.0950295600000000 Au
atom 4.6943888999999999 34.5918431200000001 0.0368234700000000 Au
atom 8.8853188400000001 37.0245763699999983 0.1456525600000000 Au
atom 11.6447788499999998 37.0104534600000008 -0.0893086900000000 Au
atom 14.6290875200000006 36.9920787300000029 0.0925570700000000 Au
atom 17.3939269199999984 37.0123283599999979 0.1428341200000000 Au
atom 20.1745941600000016 36.9816172100000031 0.0353508300000000 Au
atom 22.9376188399999990 36.9541467800000021 0.1676044000000000 Au
atom 25.6480620399999992 37.0928094100000010 0.1207105400000000 Au
atom 0.4519288500000000 36.9987193799999972 0.0697533100000000 Au
atom 3.2017681599999999 37.0881126000000023 0.1490254000000000 Au
atom 5.9247889200000001 37.0651082600000024 0.2662999100000000 Au
atom 7.5794713099999997 0.0596425800000000 0.2460831500000000 Au
atom 10.1343798599999992 -0.0056918700000000 0.3432945400000000 Au
atom 13.4009509900000001 -0.0289107900000000 0.2799687100000000 Au
atom 15.9487328700000006 -0.0403901600000000 0.3693518600000000 Au
atom 19.0211468500000009 0.0297711800000000 -0.1248610100000000 Au
atom 21.3217915200000014 0.0289739700000000 0.3588259300000000 Au
atom 24.4860584900000013 -0.0005642000000000 0.1698402400000000 Au
atom 27.1190403099999990 0.0261122900000000 0.1340227700000000 Au
atom 1.6847694600000001 -0.0095436200000000 0.2260003500000000 Au
atom 4.8822157900000001 0.0359381000000000 0.3882175700000000 Au
atom 8.8911664899999998 2.5143664700000001 0.1055107800000000 Au
atom 11.7553261199999994 2.4189924000000000 0.1903336400000000 Au
atom 14.5563426699999994 2.4243014399999998 -0.0535017000000000 Au
atom 17.4097905799999992 2.4959731700000001 0.1091207100000000 Au
atom 20.1201022499999986 2.4589609299999999 0.0946433600000000 Au
atom 23.0297797499999994 2.4546193100000000 0.0416520400000000 Au
atom 25.7988078899999991 2.4205827499999999 0.1045556900000000 Au
atom 0.4035191900000000 2.6663968300000001 -0.0451020300000000 Au
atom 3.1915641799999999 2.4763514199999999 0.0470417000000000 Au
atom 5.9615225900000004 2.4798819999999999 0.1406374400000000 Au
atom 7.4492748999999998 4.9351303000000000 0.0604785300000000 Au
atom 10.3783241200000003 4.9461956300000001 0.1302108900000000 Au
atom 13.2491670500000005 4.9315214999999997 0.2070866700000000 Au
atom 15.9743127699999992 4.9227380900000002 0.1489216100000000 Au
atom 18.7094633500000000 4.9354762299999999 0.1981143600000000 Au
atom 21.5652834200000001 4.8876956199999997 0.0826744600000000 Au
atom 24.3870188299999988 4.9010763700000002 0.1438597900000000 Au
atom 27.2185461699999998 4.9018669099999999 0.2598713100000000 Au
atom 1.7895288100000000 4.9093514000000003 0.2113219800000000 Au
atom 4.6373832899999998 4.9340014999999999 0.3425437200000000 Au
atom 8.8867925700000008 7.3800398999999999 0.0099562100000000 Au
atom 11.6907719100000005 7.3692833300000000 0.0414206500000000 Au
atom 14.5392611200000008 7.4044828899999997 0.0915218100000000 Au
atom 17.3739809899999997 7.3492289900000003 0.0517604600000000 Au
atom 20.1560522199999994 7.4296989399999998 -0.0290597700000000 Au
atom 23.0211378800000013 7.3705663299999999 0.1131744200000000 Au
atom 25.8540408299999989 7.3253569799999996 0.0135075800000000 Au
atom 0.4535898700000000 7.4869183300000000 0.1300865600000000 Au
atom 3.2789676700000001 7.3554054000000004 0.0225248400000000 Au
atom 6.1014708400000002 7.3260234899999999 0.1846820300000000 Au
atom 7.4514434500000002 9.8756309299999998 0.1095523200000000 Au
atom 10.2842072400000006 9.8379777199999996 0.1388061700000000 Au
atom 13.0470085499999993 9.9009827099999992 -0.1038676600000000 Au
atom 15.9289158999999998 9.8127828600000004 0.1166882300000000 Au
atom 18.7907091299999998 9.8651692000000004 0.0144068000000000 Au
atom 21.6782948699999984 9.7671081900000001 -0.0507524500000000 Au
atom 24.3687918900000007 9.8075668700000005 -0.0163175700000000 Au
atom 27.1709306200000000 9.9157487399999997 0.0351177600000000 Au
atom 1.7844371800000001 9.8402803799999994 -0.1262564200000000 Au
atom 4.6364801699999996 9.7876389499999998 -0.0386560700000000 Au
atom 8.8959607300000005 12.3271808899999993 0.0323266700000000 Au
atom 11.6858795200000003 12.3664707600000003 -0.0090095900000000 Au
atom 14.5502882000000007 12.3472423700000000 -0.2392453700000000 Au
atom 17.3877854999999997 12.1828664700000004 -0.1833286900000000 Au
atom 20.1680063599999997 12.2727309600000005 -0.0180025000000000 Au
atom 23.0165635500000008 12.2541018699999995 -0.1372256800000000 Au
atom 25.7941834300000004 12.3031422399999997 -0.1725410400000000 Au
atom 0.4596479200000000 12.4301476599999994 -0.1252739000000000 Au
atom 3.2456550599999998 12.3188959100000002 -0.0871181100000000 Au
atom 6.1147264999999997 12.3061032499999996 0.0845955300000000 Au
atom 7.5087941599999999 13.2184210899999997 2.6449743699999999 Au
atom 10.2992556000000004 13.2821437800000002 2.5428627800000001 Au
atom 13.1913293599999992 13.3162014299999996 2.3378879800000001 Au
atom 16.0474169499999988 13.2599391900000008 2.3874605799999999 Au
atom 18.7375308800000013 13.1686207900000003 2.7083391500000000 Au
atom 21.5306290099999984 13.1612331699999991 2.4015603599999999 Au
atom 24.3918623699999984 13.2229260499999999 2.5406317299999999 Au
atom 27.2210847399999984 13.2330086500000004 2.5497123400000001 Au
atom 1.7961563700000001 13.2333803499999991 2.6332851700000002 Au
atom 4.6510420899999998 13.2153078199999996 2.4877658399999998 Au
atom 8.8465924600000001 15.7815818500000002 2.5076443300000002 Au
atom 11.7393794699999994 15.7114851600000005 2.3857410500000000 Au
atom 14.5809736099999991 15.6914207700000006 2.2414169400000001 Au
atom 17.3235190000000010 15.7270264100000006 2.5137645000000002 Au
atom 20.1316217799999997 15.6604243200000006 2.5453195100000001 Au
atom 22.9628647000000008 15.6787136700000005 2.3859385500000001 Au
atom 25.8214858599999992 15.7055993899999997 2.5454047399999999 Au
atom 0.4099657700000000 15.5551513900000007 2.6243463899999999 Au
atom 3.2939248200000000 15.6444733100000004 2.5809708800000002 Au
atom 6.0157862700000004 15.7792960099999995 2.4866283899999999 Au
atom 7.4480916300000004 18.1475505699999999 2.6436108800000002 Au
atom 10.4365991800000000 18.1995356999999984 2.3920708300000002 Au
atom 13.2367370900000001 18.1625633200000003 2.4576712399999998 Au
atom 15.9514109800000004 18.1951350699999992 2.4584254300000001 Au
atom 18.7752305899999996 18.1861992900000011 2.8915673499999999 Au
atom 21.5489489499999998 18.1661556500000003 2.4034851800000001 Au
atom 24.3407646699999987 18.1410375600000009 2.6055018900000002 Au
atom 27.2027566100000016 18.0916737800000007 2.6242498900000002 Au
atom 1.8106224500000001 18.0255440500000006 2.7708871099999999 Au
atom 4.6641992500000002 18.1375094300000015 2.6022419900000000 Au
atom 8.9647307800000000 20.6232279799999993 2.5496569199999999 Au
atom 11.7426578500000005 20.6133239500000016 2.3535041400000001 Au
atom 14.5885083099999999 20.5861072199999988 2.3242326200000001 Au
atom 17.3038444399999989 20.6556237500000002 2.6404672599999999 Au
atom 20.1184415799999989 20.6475913200000001 2.7848465899999999 Au
atom 23.0189651399999988 20.6396377899999983 2.5528697899999999 Au
atom 25.8175226199999983 20.5708501999999989 2.5034694100000001 Au
atom 0.4248793900000000 20.6287484200000009 2.7651212400000000 Au
atom 3.2523597199999998 20.5905252800000014 2.7879464999999999 Au
atom 6.1606465400000001 20.6051377299999992 2.7443609400000000 Au
atom 7.5310346099999999 23.1158967100000012 2.4340313899999999 Au
atom 10.2650621900000001 23.0093381199999989 2.6648944000000001 Au
atom 13.1150993000000007 23.0445549700000001 2.3856917100000001 Au
atom 15.9371551500000006 23.0842406300000000 2.4672929699999999 Au
atom 18.7225363400000013 23.0890033199999998 2.5281825800000002 Au
atom 21.5474991200000012 23.1216565600000017 2.5823078800000001 Au
atom 24.4080122499999987 23.0552495600000000 2.7150552299999999 Au
atom 27.2548609299999995 23.0470274800000006 2.5772381599999998 Au
atom 1.8835402900000000 23.0964865699999997 2.7020458600000001 Au
atom 4.7414396200000004 23.1157050400000017 2.5878273500000000 Au
atom 8.9710618699999998 25.4956307399999993 2.4661893899999998 Au
atom 11.7043616700000008 25.5249643199999987 2.7915468500000000 Au
atom 14.5231974400000006 25.5792955500000012 2.7502422599999998 Au
atom 17.3261436800000013 25.4940255600000008 2.5680499900000000 Au
atom 20.2096296299999985 25.5424474000000004 2.6298360000000001 Au
atom 22.9990054700000002 25.5181818199999988 2.9840992300000000 Au
atom 25.8579117499999995 25.5748471600000009 2.8679119100000001 Au
atom 0.4200871900000000 25.4815559699999987 2.8909910499999998 Au
atom 3.3343204900000001 25.5327328800000011 2.6949819900000000 Au
atom 6.1988357100000000 25.5148256999999994 2.5629705299999999 Au
atom 7.5801654200000002 28.0261075499999990 2.4782561900000002 Au
atom 10.3848211799999994 27.8703392500000007 2.5868622299999999 Au
atom 13.1274155700000001 27.9827461600000014 2.7258847500000001 Au
atom 15.9834852400000003 27.9644520300000003 2.6961819999999999 Au
atom 18.7089307200000015 27.9556983099999989 2.6072807700000000 Au
atom 21.5998288400000007 27.9239207699999987 2.7234811900000002 Au
atom 24.4337240300000005 27.9866552499999983 2.6983704999999998 Au
atom 27.2669245700000005 28.0900518199999993 2.6229740200000000 Au
atom 1.8877216200000000 28.0329913200000007 2.6173965099999998 Au
atom 4.7007697400000001 28.0559390999999998 2.5348232400000001 Au
atom 8.9612801100000006 30.4056558099999990 2.5816612700000001 Au
atom 11.7574494900000008 30.4747731199999983 2.7246757900000000 Au
atom 14.5617684799999996 30.4714557600000013 2.6363576700000002 Au
atom 17.4502717599999997 30.3589866700000002 2.6307551500000002 Au
atom 20.2207342099999998 30.4746328200000001 2.6854342700000000 Au
atom 23.0680869199999989 30.3917564800000015 2.6893277499999999 Au
atom 25.9352173499999985 30.4485347100000006 2.5652362200000001 Au
atom 0.4453818700000000 30.5567267800000018 2.5753707200000000 Au
atom 3.3651938000000001 30.5430412199999992 2.5772055400000000 Au
atom 6.1037941399999998 30.5669792300000012 2.4560838299999999 Au
atom 7.6043084299999997 32.9207965599999994 2.5221847099999999 Au
atom 10.3538930499999999 32.9180365100000003 2.7203616899999998 Au
atom 13.1404746400000008 32.8487472199999999 2.4613264600000000 Au
atom 15.9892715600000006 32.8989814899999971 2.4110326999999998 Au
atom 18.7722302700000014 32.9008563599999988 2.5490964800000002 Au
atom 21.6824555299999986 32.9319966099999988 2.7445256699999998 Au
atom 24.4663804599999999 32.9067064799999969 2.6409294000000001 Au
atom 27.2674210899999991 32.8963818200000020 2.8119247199999999 Au
atom 1.8967007700000000 32.9373306299999982 2.5777264799999999 Au
atom 4.6661631400000001 32.9260574199999994 2.5461795299999999 Au
atom 8.8956144300000002 35.3638094000000009 2.6756895599999999 Au
atom 11.7426173899999995 35.3155100199999978 2.7174920500000002 Au
atom 14.4738246999999998 35.3967975199999998 2.4679543300000000 Au
atom 17.3089213599999994 35.3572549300000034 2.5852327499999999 Au
atom 20.1928238100000002 35.2971652599999999 2.5114245700000000 Au
atom 23.0357850000000006 35.3650355799999971 2.5594941200000001 Au
atom 25.8397163799999987 35.3975254799999988 2.7445784600000001 Au
atom 0.5133941900000000 35.5089472900000018 2.9179069499999999 Au
atom 3.3489225700000000 35.4045094399999982 2.6067494800000000 Au
atom 6.0345154900000004 35.3722769900000031 2.7439360900000000 Au
atom 7.5841398699999996 37.8161764199999979 2.6078420300000000 Au
atom 10.3987569200000003 37.7846914599999977 2.9307142599999998 Au
atom 12.9223408299999996 37.8457581899999980 3.1841429300000001 Au
atom 16.0686552099999993 37.8554897799999992 3.0131378400000002 Au
atom 18.8607511800000012 37.8238520900000026 2.2848803200000001 Au
atom 21.5122085500000004 37.7603557099999989 2.7077400699999998 Au
atom 24.4354270199999988 37.9282819800000013 2.6730045900000001 Au
atom 26.9043497299999999 37.9136287899999971 2.4567014700000001 Au
atom 1.8915083699999999 37.9012404200000006 2.6465065000000001 Au
atom 4.6912949399999997 37.8905605400000027 2.9524040999999999 Au
atom 8.9043158299999998 0.8413830500000000 2.8834389300000001 Au
atom 11.5734697700000009 0.8624228400000000 2.9701381699999998 Au
atom 14.6401443899999997 0.8718659200000000 2.8030822000000000 Au
atom 17.4686779200000011 0.9009352600000000 2.8429543499999999 Au
atom 20.1978152599999987 0.7955632000000000 2.9188466000000002 Au
atom 22.9411934899999999 0.8693130999999999 2.7370469300000000 Au
atom 25.7101688000000017 0.9295932500000000 2.7686610800000002 Au
atom 0.4570382900000000 0.8952978100000000 2.8612371099999998 Au
atom 3.2802306500000000 0.8742707300000000 2.8869638900000001 Au
atom 5.9726661900000000 0.8076554900000000 2.8094165000000002 Au
atom 7.5278663100000003 3.3164748700000000 2.6864507000000000 Au
atom 10.3123961499999997 3.3762340399999999 2.7914054899999998 Au
atom 13.2321130000000000 3.2891767199999999 2.5787637600000002 Au
atom 15.9575131900000002 3.3244210500000002 2.8165051499999998 Au
atom 18.7062635600000000 3.3056865400000000 2.6835703199999998 Au
atom 21.5161029399999997 3.2628192299999998 2.7005187899999998 Au
atom 24.2944835300000008 3.3435008399999999 2.6106528099999999 Au
atom 27.1803417399999994 3.3906465099999998 2.8101944799999998 Au
atom 1.8887329300000000 3.2828589500000001 2.6831050200000002 Au
atom 4.7055619699999998 3.2510811700000000 2.8100531399999999 Au
atom 8.8900913700000004 5.7731137800000001 2.8115210700000000 Au
atom 11.7355210299999992 5.8042660599999998 2.8331301999999998 Au
atom 14.4986252600000007 5.8457155900000002 2.8500259500000000 Au
atom 17.2914549999999991 5.8438296699999999 2.7933432100000002 Au
atom 20.1664992400000003 5.7654540699999997 2.6870437500000000 Au
atom 22.9433171099999988 5.8257280099999997 2.8059199300000000 Au
atom 25.8105823799999996 5.7694633199999998 2.5951925199999999 Au
atom 0.4830459200000000 5.7217023899999999 2.9248579100000001 Au
atom 3.1926221500000000 5.7158727200000001 2.7207523800000000 Au
atom 6.0629328400000002 5.8133781600000001 2.8568636900000000 Au
atom 7.4898442000000003 8.2531336100000008 2.7112551300000001 Au
atom 10.2746904499999996 8.2890916499999996 2.7923532500000001 Au
atom 13.1042799900000002 8.3123841800000005 2.6245073300000001 Au
atom 15.9057177400000000 8.3398791699999997 2.6633433800000001 Au
atom 18.7813561000000000 8.2940235900000001 2.5948357199999998 Au
atom 21.5533679599999992 8.3586426800000009 2.5761184400000001 Au
atom 24.4585274199999994 8.3051142200000001 2.6361999100000002 Au
atom 27.2060642500000007 8.2766047700000005 2.9165296000000001 Au
atom 1.9123482100000000 8.3129560799999993 2.5688061700000002 Au
atom 4.6338651100000003 8.3359856800000003 2.6746409700000000 Au
atom 8.8280451800000002 10.7478222900000002 2.6084364000000000 Au
atom 11.6758881999999993 10.8293450599999996 2.6257627900000000 Au
atom 14.4764113699999992 10.7694534300000004 2.4737010700000002 Au
atom 17.3549570300000013 10.7640587300000004 2.5796581600000001 Au
atom 20.1467528999999992 10.7801913599999999 2.5736891900000001 Au
atom 22.9809903300000009 10.6958629599999995 2.5436977199999999 Au
atom 25.8021091499999997 10.7083760800000007 2.6030053099999999 Au
atom 0.4214864300000000 10.6724438100000008 2.7915961800000000 Au
atom 3.1622672399999998 10.7952034200000000 2.4996695000000000 Au
atom 6.0799030500000004 10.7290785199999998 2.6140984899999999 Au
atom 7.5206985199999998 13.1615395599999996 5.7433010700000002 Cl
atom 7.7135810500000002 16.1289766999999991 8.5348057399999995 Cl
atom 7.5690624399999997 13.0900771400000000 8.4628771799999996 Na
atom 7.8095831100000002 16.0046455499999993 5.7020491499999997 Na
atom 7.6286227000000002 18.9866430599999987 5.7130256299999997 Cl
atom 7.7319845799999998 21.6564715999999997 8.6885686999999994 Cl
atom 7.7351188100000003 18.8580104599999991 8.2705235199999994 Na
atom 7.8253244600000000 21.6143078300000013 6.0004232300000000 Na
atom 7.8025109300000004 24.4224648900000005 5.8597281199999998 Cl
atom 7.7029321299999998 27.3975314499999989 8.5732150600000008 Cl
atom 7.7743177000000001 24.5934465700000011 8.5304266299999991 Na
atom 7.6519152600000000 27.2894621499999985 5.7352642400000002 Na
atom 7.6805370899999996 30.1070494000000011 5.7386664500000002 Cl
atom 7.4340902800000004 32.9635881600000005 8.6649896200000001 Cl
atom 7.5950641399999999 30.0565939200000010 8.3565981199999992 Na
atom 7.4825578100000003 32.9612132099999968 5.7957190799999996 Na
atom 7.4744487299999998 35.8904735099999996 5.7477084100000004 Cl
atom 7.5794902700000000 38.6181611800000013 8.6306942000000006 Cl
atom 7.5172842700000002 35.7210013500000017 8.4536693900000000 Na
atom 7.5167694500000000 38.6931879400000014 5.9513605399999996 Na
atom 7.6545398999999996 2.0376098800000002 5.7911859200000002 Cl
atom 7.6339902600000000 4.8181984299999998 8.8135955599999996 Cl
atom 7.6350924700000000 2.0053050600000000 8.5324245500000000 Na
atom 7.5829022500000001 4.7892295999999996 6.0208141900000003 Na
atom 7.6310023200000003 7.4959765899999997 5.9230245799999999 Cl
atom 7.3959602100000001 10.3935311699999993 8.5878545400000004 Cl
atom 7.6383338399999996 7.4833352900000003 8.5426825399999995 Na
atom 7.4771209000000001 10.3491091999999991 5.9928998499999997 Na
atom 10.4251520499999994 13.1562111799999997 5.7229920500000002 Na
atom 13.1847200800000000 13.1320229299999998 5.7647632399999997 Cl
atom 10.5536463000000005 15.8170003799999996 8.3966777500000003 Na
atom 13.4071025000000006 15.9193049400000000 8.6326711399999994 Cl
atom 13.2941437800000006 12.9687638300000003 8.2298729900000005 Na
atom 10.4530854000000009 13.0865659700000005 8.3897500199999993 Cl
atom 13.2696996400000007 15.8871530700000001 5.7879601699999998 Na
atom 10.6187409600000002 15.9686185399999996 5.6688527799999999 Cl
atom 10.4942083499999992 18.6791734200000015 5.7034495600000001 Na
atom 13.4704641499999997 18.7809439199999986 5.8670304199999999 Cl
atom 10.5749669199999996 21.6889792399999983 8.4664447200000001 Na
atom 13.1565154199999998 21.6090830199999999 8.7079319300000009 Cl
atom 13.2508998899999995 18.7235811400000003 8.3893239299999998 Na
atom 10.4564334799999994 18.8013037700000005 8.4748071100000004 Cl
atom 13.2636368800000000 21.5332934499999986 5.9829418700000003 Na
atom 10.6011341500000000 21.6992418200000010 5.8738978700000004 Cl
atom 10.4420767899999998 24.4590314699999993 5.8371353900000003 Na
atom 13.2132382499999999 24.4384387200000006 5.8751429799999997 Cl
atom 10.4704402000000005 27.3365711299999994 8.3916550900000004 Na
atom 12.9807401099999993 27.3293306600000001 8.6617652300000003 Cl
atom 13.1089008400000004 24.5079166400000013 8.4684207199999992 Na
atom 10.5030570200000000 24.6292558399999990 8.8471887400000000 Cl
atom 13.3141357500000002 27.3035624800000001 5.9184435500000001 Na
atom 10.4263359999999992 27.3294418800000010 5.7730518499999999 Cl
atom 10.4213208799999997 30.1572595499999991 5.7878744900000001 Na
atom 13.2094818400000005 30.1180520899999991 5.6722469899999997 Cl
atom 10.3700940399999997 32.9631062200000002 8.3792148300000004 Na
atom 13.1067575200000004 32.9287766500000032 8.7003818200000005 Cl
atom 13.2102529299999993 30.0798605099999996 8.4175283600000004 Na
atom 10.4178461799999997 30.2066408600000003 8.6450060499999992 Cl
atom 13.0832371500000004 32.9175718999999987 5.8981098899999997 Na
atom 10.3194913100000001 32.9700086100000007 5.7271716799999997 Cl
atom 10.2745794400000001 35.8647689700000001 5.9042759399999998 Na
atom 13.1037981600000002 35.8289807399999987 5.7843970300000001 Cl
atom 10.6108803700000003 38.5703819599999989 8.3137715900000000 Na
atom 13.3237180800000008 38.5422377399999974 8.7972962700000004 Cl
atom 13.1787317999999996 35.7106161499999999 8.3145108099999998 Na
atom 10.3160509699999992 35.8005127099999996 8.6740156099999997 Cl
atom 13.2814970900000002 38.6554109400000030 5.7028328100000003 Na
atom 10.5119897400000006 38.7386723500000016 5.8681950799999996 Cl
atom 10.4344146099999993 2.0645076000000002 6.0149377800000003 Na
atom 13.3698538500000002 1.8064902899999999 5.8666555200000001 Cl
atom 10.5387043499999997 4.6683671200000001 8.5545790099999994 Na
atom 13.3383612300000003 4.6753011999999998 8.6901385799999993 Cl
atom 13.4086697099999999 1.9106689200000000 8.4059846700000005 Na
atom 10.5106451399999994 1.9172543900000001 8.6712854600000000 Cl
atom 13.2960925400000001 4.7696895799999997 5.8925700599999997 Na
atom 10.3761275099999999 4.6944960800000004 6.0241281700000000 Cl
atom 10.3479231800000004 7.4815771399999997 6.0248042699999997 Na
atom 13.3899745600000006 7.4094335300000003 5.7567961299999997 Cl
atom 10.4964030699999995 10.2570367499999993 8.3336302399999997 Na
atom 13.3181639500000006 10.3703117799999998 8.6414431000000000 Cl
atom 13.3030534199999995 7.6247211600000000 8.4627201999999997 Na
atom 10.3687138500000007 7.5803371999999998 8.7737345599999994 Cl
atom 13.2605572499999997 10.1947452599999995 5.7521278000000002 Na
atom 10.5152294400000006 10.1187100700000006 5.7651455599999997 Cl
atom 16.1350795900000001 12.9713737899999995 5.8287116699999997 Na
atom 18.7849794400000007 13.1217619600000006 5.7671294800000004 Cl
atom 15.9092219799999999 15.8596491999999998 8.3830599100000001 Na
atom 18.7818870099999984 15.9252757299999992 8.6314643199999992 Cl
atom 18.9597488500000004 13.2406670799999997 8.3801276799999993 Na
atom 15.9613223000000009 13.0985001400000005 8.5893684900000000 Cl
atom 18.8191857499999990 15.8718578600000004 5.9698121500000001 Na
atom 16.2114493499999988 16.0214417599999983 5.8826693800000003 Cl
atom 16.1861672399999996 18.8298910200000016 6.1824035200000003 Na
atom 18.7887801500000009 18.6799893399999988 5.9327921899999998 Cl
atom 16.0280563799999989 21.7033619400000006 8.6791048199999992 Na
atom 18.9171303500000008 21.5327737299999988 8.7677741800000000 Cl
atom 18.7250545700000011 18.7188970999999995 8.5199287800000008 Na
atom 16.0208609799999984 18.9406259900000009 8.9335541599999999 Cl
atom 18.8545617900000018 21.6182916399999989 6.0008743000000004 Na
atom 15.9905089799999995 21.5634301899999983 5.9954682899999998 Cl
atom 16.1396420800000016 24.5045705200000015 6.1382722000000003 Na
atom 18.8190032699999996 24.4418515700000007 5.8363653700000002 Cl
atom 16.0322342400000011 27.3849522699999994 8.6042359800000003 Na
atom 18.8378106900000013 27.3185584000000006 8.7783440299999995 Cl
atom 18.7629975299999998 24.5004162299999990 8.5238812599999996 Na
atom 16.0188762000000011 24.3181839400000008 8.8978691199999993 Cl
atom 18.8719298199999983 27.2481801200000007 5.9673859800000004 Na
atom 15.9189595500000003 27.1758895000000003 6.0107997299999996 Cl
atom 15.9913174300000005 30.0400841199999995 5.8304678499999998 Na
atom 18.8524229299999995 30.0603482699999986 5.7750276700000001 Cl
atom 15.9271607799999995 32.7357587699999968 8.5075874799999998 Na
atom 18.7267632199999987 32.8954338300000018 8.5682944600000006 Cl
atom 18.8029211799999985 30.2173759400000002 8.4794971599999993 Na
atom 16.0534289699999988 29.9836967100000003 8.7354942900000001 Cl
atom 18.7537608300000009 32.7642432000000028 5.7217549999999999 Na
atom 15.9940235000000008 32.7851558799999978 5.9377870100000001 Cl
atom 15.9614343299999994 35.6831682199999989 5.7403741100000003 Na
atom 18.7316928400000009 35.6486480900000018 5.5916542500000004 Cl
atom 15.9610230600000005 38.4482398900000035 8.1614076600000001 Na
atom 18.6477711299999989 38.4145326599999990 8.5003502399999995 Cl
atom 18.6058210099999997 35.5644711500000028 8.2313089200000000 Na
atom 15.8995655599999992 35.7143635099999983 8.5767985200000005 Cl
atom 18.9075792199999988 38.5152405099999982 5.7553188700000000 Na