#===============================================================================
# Created using the Atomic Simulation Environment (ASE)

# Tue Dec 23 22:26:39 2025

#=======================================================
lattice_vector 28.1999999999999993 0.0000000000000000 0.0000000000000000 
lattice_vector 0.0000000000000000 39.4799999999999969 0.0000000000000000 
lattice_vector 0.0000000000000000 0.0000000000000000 62.3296083400000001 
atom 7.5532113799999996 14.8759552999999993 -0.4520989600000000 Au
atom 10.3861139999999992 14.8724736199999992 -0.3360754100000000 Au
atom 13.3064417499999994 14.8673474900000002 -0.2249673000000000 Au
atom 16.0459188499999996 14.8438686200000003 -0.4217816100000000 Au
atom 18.9180887899999988 14.6949632900000005 -0.3226127000000000 Au
atom 21.7071088500000009 14.8201424399999997 -0.0677920500000000 Au
atom 24.4699562399999984 14.7629956599999996 -0.4839851700000000 Au
atom 27.1912626999999993 14.7023288200000000 -0.4196613600000000 Au
atom 1.7859750000000001 14.8762769200000005 -0.2412190300000000 Au
atom 4.6291890799999997 14.8164969699999993 -0.3102761300000000 Au
atom 9.0943152000000005 17.3377972000000007 -0.2662931900000000 Au
atom 11.7943360199999994 17.3770634100000017 -0.0988047600000000 Au
atom 14.5803817400000000 17.3298322800000015 0.0419174200000000 Au
atom 17.2796555100000013 17.3107655999999999 -0.1328990700000000 Au
atom 20.1589578299999985 17.2053090600000012 0.1085968400000000 Au
atom 22.8668976199999996 17.2700710300000004 0.1807174500000000 Au
atom 25.7210576000000017 17.4358490599999989 -0.1605496700000000 Au
atom 0.4924394100000000 17.5835364500000004 -0.1616015300000000 Au
atom 3.2768649700000001 17.3388246899999992 -0.2265512200000000 Au
atom 6.1796048700000004 17.2827634600000017 -0.1365071400000000 Au
atom 7.6147266900000004 19.6749770700000006 0.1302126100000000 Au
atom 10.4307336599999996 19.8393846700000012 0.2271594100000000 Au
atom 13.2916634800000004 19.8887570700000005 0.1615033600000000 Au
atom 15.9771833099999991 19.9003224900000006 0.3336378200000000 Au
atom 18.7209792700000008 19.7705647499999984 0.4668996000000000 Au
atom 21.6446655600000000 19.7295570799999993 0.3503950900000000 Au
atom 24.3541226600000016 19.7821427000000014 0.3253299600000000 Au
atom 27.2682463199999994 19.8593000800000006 -0.0378920000000000 Au
atom 1.9061577000000001 19.8020382700000006 -0.0863685200000000 Au
atom 4.6930031500000000 19.8225199299999986 0.1363373900000000 Au
atom 8.9234090800000008 22.2434634600000010 0.1452397900000000 Au
atom 11.7351036999999998 22.2328445700000010 0.3015254100000000 Au
atom 14.5614807299999995 22.3009586199999994 0.2891052300000000 Au
atom 17.3698636700000009 22.2808457900000008 0.5257598500000000 Au
atom 20.1814585700000002 22.2483595899999997 0.4533088400000000 Au
atom 22.9464649099999995 22.2890395400000010 0.3305792600000000 Au
atom 25.7620700099999986 22.1975890199999988 0.1823662500000000 Au
atom 0.4059974700000000 22.2559748599999985 0.1024257900000000 Au
atom 3.2973174500000000 22.2875370900000007 0.1952237400000000 Au
atom 6.1468941499999996 22.2135616499999990 0.1831481800000000 Au
atom 7.5197991899999996 24.6815275599999993 0.2811672300000000 Au
atom 10.3898448000000005 24.6618146500000002 0.2265725800000000 Au
atom 13.1730681500000006 24.6560564699999993 0.4051316000000000 Au
atom 15.9942451200000004 24.6756102599999991 0.5988818600000000 Au
atom 18.7777957600000001 24.7470004599999989 0.3514893900000000 Au
atom 21.6628277900000015 24.8169312099999999 0.4687541800000000 Au
atom 24.4984517599999982 24.7133520599999983 0.3835014100000000 Au
atom 27.1916933699999994 24.7361305300000005 -0.0328389900000000 Au
atom 1.8416168300000000 24.7737915000000015 0.3497229000000000 Au
atom 4.6958907500000002 24.6449952000000003 0.3590460800000000 Au
atom 8.9728227700000005 27.1931713500000001 0.1878977800000000 Au
atom 11.7207923699999998 27.1284719099999982 0.3745097300000000 Au
atom 14.4986400799999995 27.0648757000000018 0.3556953700000000 Au
atom 17.2915260900000014 27.1046064499999986 0.5555224200000000 Au
atom 20.1807387300000016 27.2012770599999989 0.3828961300000000 Au
atom 23.0449922899999997 27.2578811200000004 0.6663704100000000 Au
atom 25.8156200200000008 27.1888445899999986 0.3289999200000000 Au
atom 0.4444211300000000 27.2457998799999999 0.2216825200000000 Au
atom 3.2595956300000002 27.1679241599999983 -0.0094969500000000 Au
atom 6.1422526199999998 27.2020129699999984 0.0312515000000000 Au
atom 7.5828634600000004 29.5700903400000001 -0.2807243800000000 Au
atom 10.4743089999999999 29.5411216500000009 0.4803308200000000 Au
atom 13.1946066299999991 29.5762318999999998 0.4524570700000000 Au
atom 15.8681739200000003 29.5949195399999994 -0.0065878900000000 Au
atom 18.7683164500000004 29.5298320300000015 -0.0459559300000000 Au
atom 21.5242109100000008 29.6812047600000000 0.0230583700000000 Au
atom 24.4584659500000008 29.6891738799999985 0.0116958000000000 Au
atom 27.2263537000000007 29.5840762800000014 0.3343114100000000 Au
atom 1.9100280700000001 29.6734076299999998 0.2159524500000000 Au
atom 4.7084328500000003 29.5643565200000005 -0.2206523100000000 Au
atom 9.0008860899999998 31.9787336700000004 0.2482220100000000 Au
atom 11.7336359199999993 31.9676301699999996 0.6083832900000000 Au
atom 14.5511613700000009 32.0397939300000019 0.2076470500000000 Au
atom 17.2890829100000012 31.9927406499999982 0.0596963100000000 Au
atom 20.1632044000000015 32.0678826099999981 0.1750578300000000 Au
atom 23.0024888899999986 32.1656241100000031 0.0029721200000000 Au
atom 25.8043448600000005 32.1532628599999981 0.0152983000000000 Au
atom 0.4039707000000000 32.0691501100000025 -0.1424087200000000 Au
atom 3.4014155399999999 32.1171710300000015 -0.0710274700000000 Au
atom 6.1221864899999998 32.0423278600000003 -0.1785235700000000 Au
atom 7.5953044800000002 34.5630955600000007 -0.1691588600000000 Au
atom 10.3952702299999995 34.4033838599999982 0.2831763100000000 Au
atom 13.1701713599999994 34.4395963300000005 0.1287705300000000 Au
atom 15.9962340100000002 34.5271489100000011 0.1584638600000000 Au
atom 18.7245195100000004 34.5892990199999986 0.0324740000000000 Au
atom 21.5037169199999987 34.5086801699999981 -0.0712470600000000 Au
atom 24.3833719199999983 34.6317346800000010 -0.1045956200000000 Au
atom 27.2293238799999990 34.4745390100000009 -0.0708659700000000 Au
atom 1.8814747400000000 34.5506001800000035 -0.1565738900000000 Au
atom 4.8538389999999998 34.5027588700000010 -0.2007996800000000 Au
atom 8.8974992299999993 37.0577883500000027 -0.1271761100000000 Au
atom 11.9738771300000000 36.8126969599999967 -0.3100885800000000 Au
atom 14.5994487199999998 36.9014053699999991 0.1815563100000000 Au
atom 17.4435611699999988 37.0556665300000034 0.3003835100000000 Au
atom 20.1405877500000017 36.9827198099999990 0.0094719900000000 Au
atom 22.9229115499999985 37.0037651999999966 0.2436588100000000 Au
atom 25.9625478600000008 37.0053340199999994 0.1104525900000000 Au
atom 0.4847920300000000 37.1445973599999988 -0.2116720200000000 Au
atom 3.4132812399999999 36.9848915800000029 -0.1064123100000000 Au
atom 5.9966792399999997 36.9796691299999978 0.0837747700000000 Au
atom 7.7188799799999996 0.0323384400000000 0.0325540400000000 Au
atom 10.3512521900000003 0.1370667300000000 0.0703151200000000 Au
atom 13.2506976299999994 -0.1092809300000000 0.1479161900000000 Au
atom 16.0271748900000013 -0.1128036100000000 0.1729548000000000 Au
atom 18.8903444699999987 0.0181307500000000 0.2914379200000000 Au
atom 21.4559664599999991 0.0063176900000000 0.2414064700000000 Au
atom 24.5029092599999991 -0.0341996700000000 0.1329973700000000 Au
atom 27.3776894499999983 -0.0249798000000000 0.0974115200000000 Au
atom 1.9985809800000001 0.0774110000000000 -0.2113956600000000 Au
atom 4.6067249700000001 0.0120949500000000 0.2183002900000000 Au
atom 8.9053102699999993 2.5685898500000000 -0.0889957000000000 Au
atom 11.6889287599999996 2.4630401499999999 0.0616163300000000 Au
atom 14.6371141700000003 2.3869974699999998 -0.0271802100000000 Au
atom 17.4138606100000004 2.3324206099999998 0.0269607700000000 Au
atom 20.2386765299999993 2.4763356500000002 -0.0861866100000000 Au
atom 22.9717336000000003 2.4582822400000000 0.1427672200000000 Au
atom 25.7538897800000015 2.4668205900000002 0.4436969400000000 Au
atom 0.4153520600000000 2.4537388700000000 -0.2040792700000000 Au
atom 3.3434874200000002 2.4928027199999998 -0.1082241800000000 Au
atom 6.0985928800000000 2.5469973100000001 0.0942779400000000 Au
atom 7.5457635800000000 4.9944692999999996 -0.0017655100000000 Au
atom 10.3073737300000001 5.0907190699999996 -0.1528753200000000 Au
atom 13.1200929199999994 4.9871477200000003 -0.1196259100000000 Au
atom 15.9345015599999993 4.8365512400000004 0.0494794500000000 Au
atom 18.7524521600000007 4.8360183100000000 0.2042413400000000 Au
atom 21.6659809199999991 4.9214640799999998 0.0553929800000000 Au
atom 24.4186411899999989 4.8132036600000001 0.1007799500000000 Au
atom 27.2929661999999986 4.8372865400000000 0.0628480400000000 Au
atom 1.8590305199999999 4.8868919599999998 0.0028112000000000 Au
atom 4.7370255999999999 5.0329326800000000 0.1393301700000000 Au
atom 8.8632210100000002 7.5424249500000000 -0.1429722900000000 Au
atom 11.6954288099999992 7.4737601400000004 -0.2770347600000000 Au
atom 14.6273806900000007 7.4016177100000000 -0.1143503100000000 Au
atom 17.3560171300000015 7.2713174000000000 0.2545948000000000 Au
atom 20.1115430800000006 7.3776092699999998 -0.0229799000000000 Au
atom 22.9959400500000015 7.3220602299999999 0.1374098600000000 Au
atom 25.7714657500000008 7.1573341099999999 -0.1636727000000000 Au
atom 0.4175908900000000 7.2006000600000002 0.1308046700000000 Au
atom 3.2646928900000001 7.3377537999999998 0.1116803000000000 Au
atom 6.1046525300000001 7.4759274800000002 0.1583298300000000 Au
atom 7.4354770500000003 9.9611569499999995 -0.4160690500000000 Au
atom 10.3219032300000002 9.8930427600000002 -0.4146977200000000 Au
atom 13.1762850599999997 9.8020268000000002 -0.3007641900000000 Au
atom 15.9688297699999993 9.7029665999999999 -0.1602386200000000 Au
atom 18.8296672299999983 9.8154504399999993 -0.0423364000000000 Au
atom 21.6180387600000010 9.7443061400000008 -0.1632530500000000 Au
atom 24.4009143699999989 9.7122136999999995 -0.3281985300000000 Au
atom 27.1965640899999990 9.7699277500000008 -0.3082274300000000 Au
atom 1.8908190700000000 9.7797155599999996 -0.3047236900000000 Au
atom 4.6485679900000001 9.8342455999999991 -0.2289148500000000 Au
atom 8.9241330300000001 12.5407999900000000 -0.4553417000000000 Au
atom 11.7509930699999998 12.3827594899999998 -0.4538931300000000 Au
atom 14.5905792699999992 12.3561063999999998 -0.2567319600000000 Au
atom 17.4015075599999989 12.3654374100000002 -0.1432967800000000 Au
atom 20.2425833100000006 12.1776715800000002 -0.0820639900000000 Au
atom 23.0750057700000006 12.2377515399999997 -0.3625772400000000 Au
atom 25.8595881299999988 12.3961572899999997 -0.3480688500000000 Au
atom 0.4614833700000000 12.2103214500000004 -0.2096156900000000 Au
atom 3.1774200399999999 12.2489600099999993 -0.3659945300000000 Au
atom 6.0589192900000004 12.4073425000000004 -0.3948319600000000 Au
atom 7.4891259000000003 13.1536332599999994 2.0373470899999999 Au
atom 10.3668050300000001 13.1900213700000002 2.2224230500000002 Au
atom 13.1809364900000006 13.2082520300000006 2.4012611100000001 Au
atom 15.9892996699999994 13.2865500599999997 2.2930803900000001 Au
atom 18.7789700400000008 13.1418460100000001 2.3607645900000001 Au
atom 21.6310688300000002 13.1344923700000002 2.4802510600000001 Au
atom 24.3973420599999997 13.1634817000000002 2.1017460300000002 Au
atom 27.2762120099999983 13.1292880499999995 2.3857453899999999 Au
atom 1.7315503200000000 13.0560849799999996 2.3267048500000000 Au
atom 4.6285467599999999 13.0694578200000002 2.2115392599999999 Au
atom 8.9052239199999992 15.6227584400000001 2.3246084900000001 Au
atom 11.7435399599999997 15.6228709499999994 2.4164647600000002 Au
atom 14.5087350599999994 15.6743374499999994 2.3978461200000001 Au
atom 17.4081164299999998 15.6480815000000000 2.3307275299999999 Au
atom 20.2419747299999990 15.5146348799999991 2.5487309599999999 Au
atom 23.1642897999999988 15.5941360099999997 2.6350629600000000 Au
atom 25.9754933100000009 15.5926500600000004 2.2762522500000002 Au
atom 0.5111296600000000 15.5659682099999994 2.4600340699999999 Au
atom 3.3234355000000000 15.4715059600000000 2.3950080900000001 Au
atom 6.1426313600000002 15.5911137699999998 2.3075197699999999 Au
atom 7.5201987299999997 18.0251574800000007 2.4972613799999999 Au
atom 10.4011978000000003 18.1108884199999984 2.5943659000000001 Au
atom 13.2097634900000003 18.0565683800000016 2.6985397999999998 Au
atom 16.0453878400000001 18.0331051000000002 2.5657249200000001 Au
atom 18.8438475399999987 17.9821658599999985 2.8111617299999998 Au
atom 21.6121514700000006 18.1035225599999983 2.7844725800000001 Au
atom 24.3855974199999999 18.1315548900000003 2.7534079400000002 Au
atom 27.2152521199999988 18.3114043200000012 2.6099599000000002 Au
atom 1.9025210900000000 17.9873299399999986 2.5321630599999998 Au
atom 4.7257801099999996 17.9786414599999986 2.5155273800000000 Au
atom 8.9438324300000005 20.5450103999999989 2.7560541900000000 Au
atom 11.7378825199999994 20.6041754200000007 2.7898562400000002 Au
atom 14.5333280400000007 20.5350417100000016 2.8184158099999999 Au
atom 17.3661107900000005 20.5915860100000003 3.1090258000000000 Au
atom 20.1550875500000011 20.5521930399999988 3.0229279600000001 Au
atom 23.0065226799999998 20.6172070900000008 2.8707136800000002 Au
atom 25.8455874299999984 20.5467753799999997 2.8930173899999998 Au
atom 0.4973177500000000 20.6610152700000000 2.6615672699999999 Au
atom 3.4014798200000000 20.4382522100000017 2.7391785099999999 Au
atom 6.1747242099999999 20.5158571199999997 2.8223339900000002 Au
atom 7.5307676499999996 22.9562964399999991 2.7618794400000000 Au
atom 10.4405202599999996 23.0136134699999992 3.0213724499999999 Au
atom 13.1954151799999995 23.0853434700000015 2.8463053500000002 Au
atom 15.9908724400000004 23.0293445299999995 3.1946334599999999 Au
atom 18.7037143599999993 23.0981350899999995 3.0298535900000001 Au
atom 21.6573938400000010 23.0933999000000014 3.0645797199999998 Au
atom 24.4301625599999994 23.0703911099999992 3.0141123699999999 Au
atom 27.3965955600000015 23.2396816900000012 2.7042517400000001 Au
atom 1.9354705500000000 23.0371365600000004 2.8013470699999998 Au
atom 4.7637330699999998 23.0567184300000001 2.8878239899999998 Au
atom 8.8686074300000008 25.5062284699999999 2.9337293999999998 Au
atom 11.7924490399999993 25.5437798700000016 2.9725272299999999 Au
atom 14.5489066000000005 25.5890356200000006 2.9489289200000002 Au
atom 17.3230663599999986 25.5932942099999998 3.2799230499999998 Au
atom 20.2230430699999992 25.5937878800000007 2.9745107599999998 Au
atom 23.1192577399999983 25.5421619699999987 3.0532635300000002 Au
atom 25.9173854800000001 25.5422417700000004 3.0400492699999999 Au
atom 0.4366383400000000 25.6868507400000006 2.7792173400000002 Au
atom 3.2815256399999999 25.5530483900000007 2.9696827600000000 Au
atom 6.0835020300000000 25.5756833199999996 2.8151041100000000 Au
atom 7.5357590600000002 28.0421720500000013 2.5775836900000000 Au
atom 10.2641710800000006 28.0362834700000008 3.1065569900000001 Au
atom 13.0804707199999992 28.0372098899999997 2.9775650499999999 Au
atom 15.8792408900000002 27.9776408200000013 3.0062929899999999 Au
atom 18.7793195299999987 28.0262023000000013 2.9456152800000002 Au
atom 21.6607584499999994 28.1699295800000016 2.9261696499999998 Au
atom 24.4470415199999991 28.1103868500000011 2.9072637100000001 Au
atom 27.2222054799999995 27.9348896999999994 2.9793356000000002 Au
atom 1.9301025599999999 28.0163123300000017 2.7060390399999998 Au
atom 4.7485189800000001 28.0904279899999985 2.6645109699999998 Au
atom 9.0112495199999998 30.4431927400000006 2.6590684599999999 Au
atom 11.7771514899999996 30.5620172799999992 3.2374763000000000 Au
atom 14.5199170700000000 30.5296804199999983 2.9404598900000001 Au
atom 17.3406769499999989 30.4316310799999989 2.5632203400000000 Au
atom 20.1580295300000003 30.4809886299999988 2.9484043600000001 Au
atom 23.0346530899999991 30.5121332400000007 2.4872804500000001 Au
atom 25.8288070599999990 30.5138902600000002 2.6338628100000001 Au
atom 0.5658214200000000 30.6307692699999983 2.8095855699999999 Au
atom 3.4486300000000001 30.4928900200000008 2.5863121300000000 Au
atom 6.2035158600000004 30.5290970299999991 2.2388707200000000 Au
atom 7.5464157900000002 32.9271041699999998 2.5198998300000000 Au
atom 10.3346295799999996 33.0011774199999977 2.9859587300000001 Au
atom 13.1552003800000001 32.9957654500000004 2.9646949700000000 Au
atom 16.0198633800000003 32.8310966299999976 2.6795208900000000 Au
atom 18.7111179599999993 32.9631590899999978 2.7169543500000000 Au
atom 21.6103727499999998 32.9390523799999997 2.6300702399999998 Au
atom 24.5297181000000002 32.9938408399999972 2.7295351800000001 Au
atom 27.3500867499999991 32.8917330199999967 2.7910760799999998 Au
atom 1.9427480800000001 32.8804854500000019 2.4133367300000002 Au
atom 4.7254437300000003 32.9275716100000011 2.6501276200000001 Au
atom 8.8884275299999995 35.3579703899999984 2.6094208399999999 Au
atom 11.7209582700000006 35.4466332699999995 2.7974787399999999 Au
atom 14.5575040700000002 35.3167259499999986 2.6746048099999999 Au
atom 17.4329569900000010 35.4520214699999983 2.7485594600000001 Au
atom 20.1076273199999989 35.3391298800000015 2.6417874399999999 Au
atom 22.9778014400000004 35.3686945399999999 2.4543971400000002 Au
atom 25.8621810900000000 35.3765787700000018 2.5795167100000000 Au
atom 0.5772709700000000 35.2210108499999990 2.7089031100000001 Au
atom 3.4389765099999998 35.3743476400000034 2.4104286799999999 Au
atom 6.1160601899999998 35.3615605999999971 2.6690859800000002 Au
atom 7.8037565700000000 37.8739093399999973 2.6567226800000001 Au
atom 10.4431174599999999 37.8560448200000010 2.2127503800000001 Au
atom 13.3557787799999996 37.8916376199999974 2.5369025299999999 Au
atom 16.1466843799999999 37.8865988000000016 2.6493563000000000 Au
atom 18.9700330100000016 37.8635830799999979 3.0449179300000000 Au
atom 21.5613559799999983 37.8256748800000011 2.9569496499999999 Au
atom 24.5207101999999999 37.7408343099999968 2.6574998800000000 Au
atom 27.2430205600000015 37.7989552700000004 2.8231611000000001 Au
atom 1.5641927900000001 37.7791805499999995 2.3607850400000001 Au
atom 4.6070176199999997 37.8391484799999986 2.6218638599999999 Au
atom 8.8638885999999992 0.9451118100000000 2.4132381800000000 Au
atom 11.8351925199999997 0.8642607100000000 2.7226878200000000 Au
atom 14.4979513099999995 0.8340579100000000 2.8483266000000000 Au
atom 17.4220628300000016 0.8130816000000000 2.8320383200000001 Au
atom 20.1847130600000000 0.7588881200000001 2.8969056800000001 Au
atom 23.0238926799999994 0.8258268700000000 2.8206085200000000 Au
atom 26.0061158600000013 0.6460333600000000 2.8868223099999999 Au
atom 0.4977094100000000 0.8756347000000000 2.7434195600000000 Au
atom 3.2507043000000002 0.8165413000000000 2.5725015099999999 Au
atom 6.0283215999999999 0.9162732800000000 2.6318032699999998 Au
atom 7.5449543200000004 3.4797973199999999 2.6417319600000000 Au
atom 10.3297418899999993 3.4204602899999998 2.5557458500000001 Au
atom 13.1969669900000000 3.3819746199999998 2.4966455100000000 Au
atom 16.0024417499999991 3.3049416500000000 2.7195036199999998 Au
atom 18.9296745500000014 3.2882603300000000 2.6049891100000000 Au
atom 21.5638660000000009 3.2646947700000002 2.6722425900000002 Au
atom 24.4453843800000001 3.3013354200000000 2.7971964499999999 Au
atom 27.1573571300000012 3.1070585600000000 2.8881177000000000 Au
atom 1.8265081999999999 3.4239060399999999 2.3618531500000000 Au
atom 4.6653878100000004 3.3235737400000001 2.6509333000000002 Au
atom 8.9837337399999999 6.0241216599999996 2.4973814100000000 Au
atom 11.7797606800000008 5.8923172900000003 2.4813678900000000 Au
atom 14.4935085499999996 5.8537399099999998 2.6389808299999999 Au
atom 17.2907662600000016 5.7800107000000001 2.7717324799999998 Au
atom 20.2880421499999990 5.8177110799999996 2.7839525500000000 Au
atom 23.0740279500000014 5.7012756299999996 2.8491968299999999 Au
atom 25.8893261099999989 5.7094777399999996 2.8535682200000001 Au
atom 0.4495559200000000 5.8335426699999999 2.5913691600000002 Au
atom 3.2300266500000001 5.7853987800000004 2.5898269200000001 Au
atom 6.0943959899999998 5.8614075999999997 2.6866971500000001 Au
atom 7.5170636999999996 8.3015422399999999 2.5919795200000002 Au
atom 10.3203287800000005 8.3748317500000002 2.3549655700000001 Au
atom 13.1478646999999995 8.4352496099999996 2.4441533899999999 Au
atom 15.9431866499999995 8.3912640500000002 2.6263589100000000 Au
atom 18.8411285699999986 8.2572409400000009 2.6213361200000000 Au
atom 21.6070800699999985 8.2112337300000000 2.5113884600000000 Au
atom 24.4450141000000016 8.2108814399999996 2.5288319900000000 Au
atom 27.2552858399999991 8.2468786099999996 2.4632156500000000 Au
atom 1.8469741000000000 8.2124519899999999 2.7436724699999999 Au
atom 4.6940513499999996 8.2465595999999994 2.6116063700000001 Au
atom 8.8800245300000000 10.8218902600000000 2.2018496900000000 Au
atom 11.7429611600000001 10.8642083100000004 2.3729682400000001 Au
atom 14.5887574600000001 10.8222756600000007 2.2894660800000000 Au
atom 17.3531989899999992 10.8016791199999993 2.5213145500000000 Au
atom 20.1060461299999993 10.6879612599999998 2.6185418299999998 Au
atom 22.9834646400000011 10.6833477600000002 2.3146371900000000 Au
atom 25.8331188599999990 10.8059521200000006 2.2134499800000000 Au
atom 0.4318536600000000 10.6680770200000001 2.1851215900000001 Au
atom 3.2362921700000000 10.6298575399999997 2.3445332300000001 Au
atom 6.1154539500000000 10.7314400299999999 2.2867950000000001 Au
atom 7.3335942200000002 13.2650686199999992 5.3688770799999999 Cl
atom 7.3529320499999997 16.0533666500000010 8.4916111500000007 Cl
atom 7.2923400100000002 13.2303712600000001 8.0520425800000002 Na
atom 7.3206182799999997 16.1579270199999989 5.5959642199999999 Na
atom 7.4466724800000001 19.1152067800000012 5.6824414399999998 Cl
atom 7.4539367900000002 21.7136839299999984 8.5877783500000007 Cl
atom 7.1842450400000004 18.7639433999999987 8.2995545899999996 Na
atom 7.1915687200000002 21.7682520500000010 5.8575653799999996 Na
atom 7.2479371600000002 24.5851894699999995 5.8429970400000002 Cl
atom 7.2622060099999999 27.3614278199999994 8.7014625100000007 Cl
atom 7.4647212600000001 24.5846146999999995 8.5201682000000005 Na
atom 7.3134748399999996 27.3646868099999985 5.9565049900000000 Na
atom 7.2567003000000003 30.2965887999999985 5.6598588899999998 Cl
atom 7.2482894000000000 32.9917456399999978 8.5554539199999997 Cl
atom 7.2713501999999997 30.4120544399999986 8.4430531099999993 Na
atom 7.3490723700000000 33.0749457399999969 5.7409724000000004 Na
atom 7.3971016599999997 35.8529025099999998 5.6816173399999998 Cl
atom 7.4169226600000000 38.5012426500000018 8.5403498300000003 Cl
atom 7.4115506699999996 35.8662506599999986 8.3416662800000001 Na
atom 7.6518689799999997 38.6305678000000015 6.0020883500000002 Na
atom 7.5036148899999997 1.9847528800000001 5.7697301200000002 Cl
atom 7.3409470099999998 4.7804402799999997 8.5597577499999993 Cl
atom 7.5445530500000002 2.0922447000000002 8.3041578499999993 Na
atom 7.2960154299999997 4.7808988799999996 5.7147326200000004 Na
atom 7.2820321100000003 7.5836220499999998 5.4837487700000001 Cl
atom 7.3861109699999998 10.4002467299999992 8.0917203400000002 Cl
atom 7.2618776699999996 7.5839602900000003 8.1798686499999995 Na
atom 7.3190742799999997 10.5964627199999999 5.3226089500000002 Na
atom 10.3657916199999995 13.3011969299999997 5.7206844400000003 Na
atom 13.0900057699999994 13.2996994500000003 5.5399775399999998 Cl
atom 10.1319785299999996 15.9842180000000003 8.0645770900000002 Na
atom 13.0958248299999997 16.0726987399999999 8.4666523100000006 Cl
atom 12.8975741900000003 13.2328905799999994 8.2410744000000005 Na
atom 10.0276463400000004 13.3293384300000000 8.3058157999999995 Cl
atom 12.9783907400000000 16.1276925599999998 5.7952361400000001 Na
atom 10.2184618399999998 16.1851293200000015 5.6410854199999996 Cl
atom 10.3025104100000000 18.9490155599999994 5.7089161800000001 Na
atom 13.0213883599999996 19.1059038399999999 5.6831160000000001 Cl
atom 10.1303449600000004 21.6760260000000002 8.4713586000000003 Na
atom 12.9490437800000002 21.6525170399999993 8.8010324400000002 Cl
atom 12.9700723799999995 18.9756350199999986 8.3670272899999993 Na
atom 10.1348459999999996 18.8848386599999998 8.3632647200000001 Cl
atom 12.9871019499999996 21.8713299499999998 5.8652675900000002 Na
atom 10.3498804300000007 21.7519174399999997 5.7278456699999998 Cl
atom 10.2465395600000004 24.5382122600000017 5.9843892299999997 Na
atom 13.0939729000000007 24.5293505200000013 6.0740108599999996 Cl
atom 10.1174137099999992 27.3955636300000016 8.6287939100000006 Na
atom 12.9301101900000006 27.3164760099999988 8.8920768300000006 Cl
atom 12.8404550600000000 24.3131780000000006 8.6767273100000004 Na
atom 10.1306367799999997 24.5663383000000017 8.7966273200000007 Cl
atom 12.8713993599999998 27.3521959599999995 6.1538592599999999 Na
atom 10.1864325200000003 27.3626775100000010 5.9727878099999998 Cl
atom 10.1262818899999996 30.0930648900000008 5.9343733800000003 Na
atom 12.9343121700000001 30.2228575799999994 5.9021315599999999 Cl
atom 10.1617769100000004 32.9837591300000028 8.3323683400000004 Na
atom 12.8286927800000008 33.0385314099999974 8.5957387799999996 Cl
atom 12.7348537700000008 30.1289407599999990 8.5607774200000009 Na
atom 10.0290900900000004 30.1974945699999999 8.6349072200000005 Cl
atom 12.8826532700000005 32.9693345399999984 5.9381760600000000 Na
atom 10.1611369600000003 32.8602186900000035 5.8684170299999998 Cl
atom 10.1720865099999997 35.7917574800000011 5.6754349499999996 Na
atom 12.9682632400000006 35.8796626099999969 5.8206845899999999 Cl
atom 10.3279153299999997 38.5863453300000003 8.3176804099999995 Na
atom 12.7202624300000000 38.6843126300000009 8.5640120599999996 Cl
atom 12.9552534000000001 35.8789654099999993 8.4608030500000009 Na
atom 10.2577063899999992 35.6597328100000013 8.4573247499999997 Cl
atom 13.1529203300000006 38.7126144200000013 5.9974582900000000 Na
atom 10.2312570800000007 38.6864637600000023 5.7988718800000001 Cl
atom 10.3440957000000004 2.0680309900000000 6.0307430000000002 Na
atom 13.2089982900000003 1.9823843600000000 5.9099939900000003 Cl
atom 10.0920909600000002 4.8735206399999997 8.3818707000000003 Na
atom 12.9454620699999996 4.7563172800000002 8.5130793699999998 Cl
atom 13.4018644200000008 2.0285457199999999 8.4156947500000001 Na
atom 10.3344281099999993 2.0231029600000001 8.5082446399999991 Cl
atom 12.9723619600000006 4.8413041500000000 5.9020894999999998 Na
atom 10.2413479899999995 4.8915389300000003 5.7003471599999997 Cl
atom 10.1050147500000005 7.8014455299999996 5.8130102399999997 Na
atom 13.0820743200000003 7.5524360300000000 5.6692045400000000 Cl
atom 10.1605774400000008 10.5168970799999997 8.2791490200000002 Na
atom 12.8935562400000006 10.5947105199999996 8.4154010100000001 Cl
atom 12.8760705899999994 7.6297766500000002 8.2867818799999995 Na
atom 10.2245790999999997 7.8256891900000003 8.5471743599999996 Cl
atom 13.1682042399999997 10.4234306799999992 5.6865070900000001 Na
atom 10.2623645200000002 10.4505916200000009 5.4872190400000003 Cl
atom 15.8703632900000002 13.1078661699999994 5.6495278000000004 Na
atom 18.6389587100000007 13.2516852000000007 5.5790851799999999 Cl
atom 15.7377881399999993 15.9052651399999991 8.2526461599999994 Na
atom 18.6886881100000011 15.9647441000000008 8.6062740699999996 Cl
atom 18.5873735700000005 13.1406165999999995 8.1385116600000007 Na
atom 15.9082652000000007 13.2323251800000001 8.4180416299999994 Cl
atom 18.6511330300000004 16.1088752399999997 5.7259035100000002 Na
atom 15.9491118000000007 15.9391625399999999 5.5846367800000003 Cl
atom 15.8618589500000002 18.8262991699999986 5.8898158900000004 Na
atom 18.8232052799999998 18.9275668599999989 5.7184373900000001 Cl
atom 15.8538518499999999 21.7910785300000001 8.6120617100000008 Na
atom 18.5796295799999989 21.5538774000000011 8.7879183899999997 Cl
atom 18.5948306999999993 18.7970828700000006 8.3826662200000008 Na
atom 15.9360042800000006 18.7050252300000004 8.4490480899999998 Cl
atom 18.6033157200000012 21.7696736699999995 5.9864765100000001 Na
atom 15.6892895499999998 21.7086206100000005 6.0047701499999997 Cl
atom 15.8086142800000005 24.7521227099999983 6.2286796999999998 Na
atom 18.4542974199999996 24.4991329299999983 6.0629959199999996 Cl
atom 15.7050166999999998 27.5357565099999988 8.6854960600000002 Na
atom 18.6359641499999995 27.4443713900000006 8.8756222600000001 Cl
atom 18.5984849600000004 24.4908983400000011 8.7042336200000001 Na
atom 15.7427095900000005 24.5492833799999985 8.9112931199999998 Cl
atom 18.5409956700000009 27.2457837100000013 6.1645509299999999 Na
atom 15.8177697100000003 27.5469999700000017 6.0440839300000002 Cl
atom 15.7943874999999991 30.3366766900000009 6.0204920199999998 Na
atom 18.5175554899999995 30.2168196299999998 5.8841713000000002 Cl
atom 15.7496964500000001 33.0782342099999980 8.4721735599999999 Na
atom 18.7032955799999989 32.9498338100000012 8.7838603800000001 Cl
atom 18.6025675300000017 30.3203964600000013 8.6467342100000000 Na
atom 15.7400745600000000 30.2382927600000002 8.7118505800000001 Cl
atom 18.6220076100000007 33.1491544699999992 6.0908086700000004 Na
atom 15.7236340499999994 33.1566991400000006 5.6854996699999996 Cl
atom 15.7862326300000007 35.9990860699999971 5.8669912899999996 Na
atom 18.6854892799999988 35.8157321799999977 5.9121430400000001 Cl
atom 15.6955858700000004 38.6763260800000026 8.4937816300000009 Na
atom 18.4021929299999982 38.6784213999999977 8.7634053299999994 Cl
atom 18.6075164999999991 35.9298924300000024 8.7218856400000000 Na
atom 15.7148870400000007 35.8116083600000010 8.6883569400000003 Cl
atom 18.7416067099999992 38.6255848099999994 5.9268048100000001 Na