#===============================================================================
# Created using the Atomic Simulation Environment (ASE)

# Tue Dec 23 21:43:04 2025

#=======================================================
lattice_vector 28.1999999999999993 0.0000000000000000 0.0000000000000000 
lattice_vector 0.0000000000000000 39.4799999999999969 0.0000000000000000 
lattice_vector 0.0000000000000000 0.0000000000000000 62.3296083400000001 
atom 7.3466688299999996 14.8402262999999994 -0.0027460600000000 Au
atom 10.2798325699999999 14.8081565099999999 -0.0691210100000000 Au
atom 13.0674322299999996 14.7970674100000004 -0.1012737900000000 Au
atom 15.9254901600000007 14.8073001699999995 -0.1129186300000000 Au
atom 18.7545463800000007 14.8546997199999993 -0.0114912300000000 Au
atom 21.5450215299999996 14.8175251699999997 -0.0076260200000000 Au
atom 24.3656082500000011 14.7775182600000008 -0.0840434400000000 Au
atom 27.2112949899999990 14.7580899399999996 -0.0597516700000000 Au
atom 1.7973831000000000 14.7643360599999998 -0.0743894100000000 Au
atom 4.6166094600000003 14.8186833700000005 -0.0779520000000000 Au
atom 8.8890940700000005 17.3145706299999986 0.0173946900000000 Au
atom 11.6986351000000006 17.2840602399999987 0.0670100700000000 Au
atom 14.5073225600000004 17.2882904900000014 0.0419831200000000 Au
atom 17.3404362600000006 17.3536690500000006 -0.1176533300000000 Au
atom 20.0567307899999996 17.3428852999999989 0.1056033700000000 Au
atom 22.9520485100000009 17.2889102100000009 0.0789514600000000 Au
atom 25.7866079299999988 17.2427594500000012 0.0988922500000000 Au
atom 0.3976298000000000 17.2985059099999994 -0.0074168600000000 Au
atom 3.2286847500000002 17.3092387700000003 0.0899774400000000 Au
atom 6.0744645899999998 17.2992043600000009 0.1009048100000000 Au
atom 7.4591765900000002 19.8261169099999996 0.2572777700000000 Au
atom 10.3238483700000003 19.7634452100000004 -0.0096668000000000 Au
atom 13.1509901500000002 19.7396000899999997 0.1576452200000000 Au
atom 15.9668845400000006 19.7893675699999996 0.1557039600000000 Au
atom 18.7574589899999999 19.8526005800000007 0.1638625400000000 Au
atom 21.5476434499999989 19.6801360699999996 0.0095212700000000 Au
atom 24.3796420699999992 19.7123945999999997 0.0033898800000000 Au
atom 27.2406618400000013 19.7681792700000010 0.1529035700000000 Au
atom 1.8316549600000001 19.7141209300000000 -0.0119644900000000 Au
atom 4.6347121500000004 19.7540549399999996 0.0463816800000000 Au
atom 8.9585586599999996 22.2401867399999986 0.1653997900000000 Au
atom 11.7318249600000009 22.2609217000000008 0.1286275200000000 Au
atom 14.4637781699999994 22.2403333299999986 0.1386640500000000 Au
atom 17.3551872899999999 22.3117053500000004 0.2192946100000000 Au
atom 20.1636705800000016 22.2896883099999989 0.1225718000000000 Au
atom 22.9444357500000002 22.1684731200000016 0.0266483500000000 Au
atom 25.7498530300000006 22.1353702800000001 0.0267858300000000 Au
atom 0.4519090900000000 22.2292160599999988 -0.0153747700000000 Au
atom 3.1985681100000001 22.2491090699999994 0.0400245200000000 Au
atom 6.0142852500000004 22.2644975800000005 0.0262469400000000 Au
atom 7.4001430900000003 24.6535343900000008 0.2227889300000000 Au
atom 10.2612512099999993 24.7223453299999996 0.1458201800000000 Au
atom 13.1757395000000006 24.6898497900000002 0.0752416200000000 Au
atom 15.9588439700000002 24.7432606700000015 0.1709270700000000 Au
atom 18.7263329399999989 24.7997221500000009 0.2216869900000000 Au
atom 21.5900420900000007 24.6633837900000010 0.3127612900000000 Au
atom 24.4368835900000008 24.6045390300000015 -0.0293457100000000 Au
atom 27.2948871400000002 24.7201393899999999 -0.1010826700000000 Au
atom 1.8415895300000000 24.7300439599999997 0.0962400400000000 Au
atom 4.6066155599999998 24.7344682400000018 0.0413127100000000 Au
atom 8.8594417700000001 27.1262560599999993 0.0694721700000000 Au
atom 11.6745190900000004 27.1436957399999983 -0.1127439400000000 Au
atom 14.4969655999999993 27.1612982800000005 0.1009802600000000 Au
atom 17.3251308000000002 27.2075683700000006 0.0863922000000000 Au
atom 20.1873142600000008 27.1507698899999994 -0.1018644100000000 Au
atom 23.0421683399999999 27.0807414500000014 0.1458220700000000 Au
atom 25.8423995099999999 27.1072145099999986 0.1333955200000000 Au
atom 0.4531281200000000 27.1873473899999993 0.1946496200000000 Au
atom 3.2309240099999998 27.1700329799999984 0.2121699300000000 Au
atom 6.0598089599999998 27.1772920400000011 0.1051616700000000 Au
atom 7.4709665699999999 29.6365342600000012 -0.0434074600000000 Au
atom 10.3094189699999994 29.5688296199999989 -0.1317111000000000 Au
atom 13.1205868100000007 29.6264308499999984 -0.1530277400000000 Au
atom 15.9925943400000001 29.6558671099999991 -0.0807287200000000 Au
atom 18.8605228800000013 29.5850903500000015 -0.1461537600000000 Au
atom 21.6977553000000007 29.5710961099999992 0.1622084800000000 Au
atom 24.5045058199999986 29.5585427500000009 0.0614868500000000 Au
atom 27.3165982199999995 29.6481891900000001 0.1470617800000000 Au
atom 1.9412053400000000 29.5938498999999986 0.1086590200000000 Au
atom 4.6414422000000002 29.6097895800000011 0.0822810100000000 Au
atom 8.8975377800000004 32.1102409699999995 -0.2886380800000000 Au
atom 11.7613602799999999 32.0798029999999983 -0.1085581500000000 Au
atom 14.5969586299999996 32.1054684899999998 -0.2092415000000000 Au
atom 17.4317483300000013 32.1697518799999997 -0.1360609400000000 Au
atom 20.2442142999999994 31.9755731800000014 -0.0828022800000000 Au
atom 23.0532760000000003 32.0853672300000028 -0.0458999100000000 Au
atom 25.8224057699999996 32.0376973199999995 0.1695031100000000 Au
atom 0.5233945200000000 32.1072244400000031 0.0013890900000000 Au
atom 3.3328070799999998 32.1054666400000031 0.3250907900000000 Au
atom 6.0445642800000003 32.0955773399999984 0.0982249300000000 Au
atom 7.5776002099999999 34.5112735599999993 0.0767860100000000 Au
atom 10.3599952300000009 34.5282971199999977 0.0475847200000000 Au
atom 13.1747439100000001 34.5929860700000020 -0.0413385700000000 Au
atom 16.0462850900000014 34.5695389799999973 -0.1096258000000000 Au
atom 18.8273920200000013 34.6064468300000030 -0.0885216000000000 Au
atom 21.6414917500000001 34.5405898799999989 -0.1796096100000000 Au
atom 24.3863224500000015 34.5099205100000006 0.0890165800000000 Au
atom 27.1909749800000000 34.5098948300000004 -0.0079048100000000 Au
atom 1.8216590699999999 34.5702742100000009 0.2945867700000000 Au
atom 4.7239246399999999 34.5199096799999978 0.2064096300000000 Au
atom 8.9554854600000002 36.9660074499999993 0.0515640400000000 Au
atom 11.7823230300000006 36.9763283899999990 0.1156033400000000 Au
atom 14.6300225899999994 37.0343455699999993 0.0252719100000000 Au
atom 17.4577386700000012 37.0423136100000008 -0.0290059100000000 Au
atom 20.2093518199999984 37.0927050199999968 -0.2484401000000000 Au
atom 22.9617741200000012 37.0778330999999994 0.0614288900000000 Au
atom 25.7951186099999994 37.0519255500000000 0.0617742700000000 Au
atom 0.4334155800000000 37.0641470300000009 0.2275937900000000 Au
atom 3.2861527300000000 36.9947761900000032 0.2162962500000000 Au
atom 6.0830257999999997 36.9351954999999990 0.1586779300000000 Au
atom 7.4921015000000004 -0.0550442100000000 0.0814985700000000 Au
atom 10.3530017999999995 -0.0493386400000000 0.0207557900000000 Au
atom 13.2051525699999992 -0.0295651900000000 -0.0849184500000000 Au
atom 16.0534313100000006 0.0516842800000000 -0.0465738800000000 Au
atom 18.8922650400000016 0.0665921500000000 0.0522824300000000 Au
atom 21.7001795400000006 0.0302963900000000 0.2575524900000000 Au
atom 24.4628817500000011 0.0560333600000000 0.0821335200000000 Au
atom 27.3186633599999986 0.0290790500000000 0.0620317900000000 Au
atom 1.9406743200000001 0.0121170900000000 0.1188913000000000 Au
atom 4.7045854699999996 -0.0310935000000000 0.2473754000000000 Au
atom 8.9030131099999998 2.3650104999999999 0.0768990400000000 Au
atom 11.7907735200000001 2.3619535800000002 -0.0139142600000000 Au
atom 14.5844511099999998 2.4233672300000002 0.0310731400000000 Au
atom 17.4391178700000005 2.4646120100000002 0.0793246600000000 Au
atom 20.1984741200000002 2.5277010600000001 0.0656635200000000 Au
atom 23.0387345799999999 2.5150138599999998 0.0192022500000000 Au
atom 25.8882922800000017 2.5007109800000000 0.0927245100000000 Au
atom 0.4726938800000000 2.5036876299999999 0.1759376500000000 Au
atom 3.3035019299999999 2.4559951199999999 0.0779320400000000 Au
atom 6.1177349599999999 2.4569481400000002 0.1110962300000000 Au
atom 7.5931600799999996 4.8940171299999999 0.1639589600000000 Au
atom 10.4318729099999992 4.9171031899999997 0.1209613000000000 Au
atom 13.1838308200000007 4.9532115799999996 0.1513701300000000 Au
atom 15.9478076899999994 4.8893845599999999 0.2423004700000000 Au
atom 18.7038972399999999 4.9880452699999998 0.0748271500000000 Au
atom 21.6058088700000006 5.0095696800000002 0.1453137900000000 Au
atom 24.4186042599999986 4.9633319399999998 0.1526547900000000 Au
atom 27.2353951700000003 4.9963557400000003 0.2953972800000000 Au
atom 1.8425747500000000 5.0277828299999996 0.1453190200000000 Au
atom 4.6634976899999998 4.9130870599999996 0.1507859300000000 Au
atom 8.8802009200000001 7.4505486799999998 0.0524037100000000 Au
atom 11.6928561500000008 7.4325398700000003 0.1907976600000000 Au
atom 14.5528306099999991 7.4777722200000003 0.2494593400000000 Au
atom 17.3000237599999984 7.3432127300000003 0.2188317400000000 Au
atom 20.1364894700000008 7.4249802000000003 0.1400098900000000 Au
atom 22.9396945499999987 7.4296319400000002 0.0277515000000000 Au
atom 25.7689799899999983 7.4955091100000004 0.1994412000000000 Au
atom 0.3779822700000000 7.4210708399999996 0.1367324500000000 Au
atom 3.2592677399999999 7.4198269600000000 0.0424343300000000 Au
atom 6.0994421000000001 7.4073842000000001 0.0086271400000000 Au
atom 7.4443718900000002 9.8801937399999993 -0.0321849800000000 Au
atom 10.3125692099999995 9.8848039799999992 -0.0756851200000000 Au
atom 13.1617702399999992 9.9168340399999995 0.0435610800000000 Au
atom 15.9640228799999999 9.8584880100000003 0.0793566900000000 Au
atom 18.7606406399999983 9.8578477600000003 0.1246837700000000 Au
atom 21.5804961599999992 9.9046439100000008 0.0021143000000000 Au
atom 24.4187868200000011 9.9457128200000007 -0.0999687400000000 Au
atom 27.1770196400000010 9.8871072499999997 0.1218199300000000 Au
atom 1.8185411100000000 9.8833105900000007 -0.0563445900000000 Au
atom 4.6319908900000000 9.8512061200000005 -0.0995464000000000 Au
atom 8.8545155999999992 12.3070366100000008 -0.0516651300000000 Au
atom 11.7794537500000001 12.2802501999999993 -0.0272960100000000 Au
atom 14.5646393599999993 12.4279842200000008 0.0096949000000000 Au
atom 17.3314478200000011 12.3344764999999992 -0.0339406200000000 Au
atom 20.0785527200000011 12.3750832899999992 0.1110186700000000 Au
atom 22.9516266400000006 12.3390366999999994 -0.1763534800000000 Au
atom 25.7485621800000004 12.3569995600000002 -0.0011583500000000 Au
atom 0.3803894300000000 12.3330476000000004 -0.0640042900000000 Au
atom 3.2073300400000000 12.2856245600000005 -0.0932163000000000 Au
atom 5.9998089700000001 12.3496203500000004 -0.0548791100000000 Au
atom 7.5001265100000003 13.1332598899999997 2.5202655900000002 Au
atom 10.3153127999999992 13.1718739399999993 2.4472802800000002 Au
atom 13.1550460299999994 13.1714673100000006 2.6698975200000001 Au
atom 15.9513647299999999 13.2244685999999998 2.5490831100000002 Au
atom 18.7245980500000009 13.2242071899999996 2.7662722199999998 Au
atom 21.5143715600000007 13.2038926300000004 2.6240901999999999 Au
atom 24.2822371900000000 13.2180932400000000 2.5004321900000002 Au
atom 27.1798552899999990 13.1853622300000008 2.5773945800000000 Au
atom 1.7971831199999999 13.2062518600000001 2.4415127299999999 Au
atom 4.6193264799999998 13.2147527799999995 2.6038192200000001 Au
atom 8.9301370099999993 15.6157906400000002 2.6015720199999999 Au
atom 11.7056105499999994 15.6407482299999998 2.5950405499999998 Au
atom 14.4476123699999999 15.6614826800000007 2.5240494700000000 Au
atom 17.2336750599999995 15.6936141300000003 2.4746654100000001 Au
atom 20.0592537100000001 15.6851338800000004 2.6868278299999999 Au
atom 22.9332750300000008 15.6410498499999999 2.6098184999999998 Au
atom 25.7648181299999983 15.5317445799999998 2.6202003600000001 Au
atom 0.3733330000000000 15.6175898300000000 2.5860010600000001 Au
atom 3.2845017200000002 15.6863091400000005 2.4974815800000001 Au
atom 6.1181254100000002 15.6296742500000008 2.6371740500000000 Au
atom 7.4890489000000002 18.1063928400000016 2.7419289500000001 Au
atom 10.3110198799999999 18.1917528399999995 2.6047119799999998 Au
atom 13.0114628299999993 18.1062576100000001 2.8043914800000000 Au
atom 15.7850080800000008 18.2032375299999991 2.6593806899999999 Au
atom 18.6811661700000009 18.0958146299999996 2.6316212399999999 Au
atom 21.5264976200000007 18.1080275300000011 2.6212805900000000 Au
atom 24.4330734800000009 18.1173403999999998 2.7185079800000000 Au
atom 27.2417302300000017 18.0803763300000000 2.6014459300000001 Au
atom 1.8273580000000000 18.0178583100000012 2.7999705100000001 Au
atom 4.6522728000000004 18.1533636200000004 2.5590890100000001 Au
atom 8.9223869600000008 20.6263143900000010 2.6827914100000001 Au
atom 11.7000650999999998 20.6186410900000006 2.6727367000000002 Au
atom 14.5105591199999999 20.6303247799999987 2.8710270000000002 Au
atom 17.3896492199999990 20.5440059300000009 2.8333748499999998 Au
atom 20.2652805499999999 20.5596558000000016 2.7741186000000000 Au
atom 22.9628596000000016 20.5587077799999989 2.6050657300000002 Au
atom 25.7672632099999994 20.5991202999999992 2.7563330700000002 Au
atom 0.3862503100000000 20.5834637700000016 2.7398458799999998 Au
atom 3.1690237099999998 20.5269936000000008 2.6464898699999999 Au
atom 6.0103230400000003 20.6590218099999987 2.6633394400000001 Au
atom 7.3589677399999998 23.0453209399999999 2.7958929100000001 Au
atom 10.3276084000000008 23.0866642700000000 2.8393996900000000 Au
atom 13.1735244399999996 23.0614388499999983 2.7941968400000001 Au
atom 15.9495788300000001 23.0988331900000006 2.7159068799999999 Au
atom 18.7530302499999983 23.0278219300000018 2.9325021900000001 Au
atom 21.5810026099999988 23.0604815199999997 2.8379921299999999 Au
atom 24.3496743400000000 23.0550125900000005 2.4973661699999998 Au
atom 27.1983141500000016 23.0794306300000009 2.5247634099999998 Au
atom 1.8449893700000000 23.0608367500000000 2.6247693999999999 Au
atom 4.5543679499999996 23.0508064700000013 2.6608509499999999 Au
atom 8.8864889999999992 25.5447181100000016 2.7523548600000001 Au
atom 11.6347314199999996 25.5273563699999997 2.6604391800000000 Au
atom 14.5263826100000006 25.6042824899999992 2.7075369999999999 Au
atom 17.3336013800000011 25.5759204599999990 2.8003053699999998 Au
atom 20.1931426300000005 25.5211319600000017 2.7662468499999999 Au
atom 22.9803836200000013 25.5287111200000005 2.8153505999999999 Au
atom 25.8424684599999992 25.5231211900000012 2.7126287599999999 Au
atom 0.4176210300000000 25.5180543299999982 2.7155778399999999 Au
atom 3.2090904099999999 25.5561866500000008 2.7413659199999998 Au
atom 5.9837205800000000 25.4860482300000015 2.7373832400000002 Au
atom 7.4238383700000004 28.0465570299999989 2.6620770899999999 Au
atom 10.2688648699999998 27.9958093800000007 2.4993036599999998 Au
atom 13.1108288599999998 27.9662259099999986 2.6225299000000000 Au
atom 15.9474577600000007 27.9944084400000008 2.6367689900000002 Au
atom 18.8338650399999992 27.9734404199999993 2.5824807399999998 Au
atom 21.5849633099999991 27.9232852499999993 2.7092855000000000 Au
atom 24.4552255500000015 27.9408529200000011 2.6746271600000000 Au
atom 27.2474076899999993 28.0317699100000013 2.7381186999999998 Au
atom 1.8629347500000000 28.0712147099999996 2.7634353500000000 Au
atom 4.6370836200000003 28.0253495500000014 2.7485005999999998 Au
atom 8.8331960400000007 30.4971982100000005 2.4588102500000000 Au
atom 11.7226706200000006 30.4355829699999987 2.4324206300000002 Au
atom 14.5524478500000001 30.3859475299999993 2.3854781400000000 Au
atom 17.4473765199999988 30.4224841999999995 2.4605172400000002 Au
atom 20.2298205499999995 30.4522637500000002 2.5254607000000000 Au
atom 23.0043173299999992 30.3752777300000005 2.5868056799999999 Au
atom 25.8065364600000002 30.4705167400000008 2.7675631100000002 Au
atom 0.4668025500000000 30.4798435599999991 2.6265329999999998 Au
atom 3.3074772299999999 30.4576013199999984 2.7226648700000000 Au
atom 6.0424830500000004 30.4553121299999994 2.6829987100000001 Au
atom 7.5954312799999997 33.0156767900000006 2.6159947300000002 Au
atom 10.3719617300000007 32.8992426399999971 2.5399526099999998 Au
atom 13.1256376199999991 32.8612406499999992 2.4310788400000001 Au
atom 16.0063021899999995 32.8348041699999982 2.6279727899999998 Au
atom 18.7493076400000014 32.8800736199999974 2.5248249500000002 Au
atom 21.5449147799999992 32.9644468300000000 2.4877965600000000 Au
atom 24.3356556799999986 32.9012153600000019 2.7138718800000001 Au
atom 27.2799636399999983 33.0028703999999991 2.6829753200000002 Au
atom 1.8718801899999999 32.9592622999999989 2.7492465899999998 Au
atom 4.7599022000000000 32.9418971099999993 3.0284386300000001 Au
atom 8.8988157799999996 35.4681723699999978 2.6023094200000001 Au
atom 11.7393115500000000 35.3595822600000034 2.6228995700000000 Au
atom 14.6084983000000008 35.2803590799999967 2.5321354999999999 Au
atom 17.3847265600000007 35.3542901200000017 2.5673419200000001 Au
atom 20.1951430000000016 35.4751196899999997 2.4154917000000000 Au
atom 23.0057073599999988 35.3499910199999974 2.5576668800000002 Au
atom 25.8261902399999990 35.3774015199999994 2.5897516600000001 Au
atom 0.4401892800000000 35.4297755500000022 2.8220516500000001 Au
atom 3.2830674300000000 35.4154923999999980 2.8203898500000002 Au
atom 6.0791294300000001 35.3856065700000002 2.7359672100000001 Au
atom 7.5498273200000003 37.9023221400000025 2.6892553900000000 Au
atom 10.3470136299999993 37.8446279400000023 2.7151489000000000 Au
atom 13.2314425599999996 37.7930027299999978 2.6214872800000002 Au
atom 16.0370342100000016 37.8408106799999970 2.5597373499999998 Au
atom 18.8433838099999988 37.8761196199999972 2.4779443900000002 Au
atom 21.6070018200000007 37.8300076900000022 2.7295103699999999 Au
atom 24.4596086799999988 37.8379205800000022 2.6355551699999999 Au
atom 27.2588559699999990 37.8780375899999981 2.7216434199999999 Au
atom 1.9088710000000000 37.9324611600000026 2.7543527600000002 Au
atom 4.7635171600000001 37.8417884500000028 2.9086016400000001 Au
atom 8.9905231000000008 0.7882630800000000 2.7224305000000002 Au
atom 11.8064705100000005 0.7501304100000000 2.6635342299999998 Au
atom 14.5846494900000003 0.8168791500000000 2.7092591100000001 Au
atom 17.3982614899999994 0.9100916400000000 2.6718516399999999 Au
atom 20.2190543699999985 0.8498085399999999 2.7130760600000001 Au
atom 23.0512626400000009 0.8287578700000000 2.7983261300000000 Au
atom 25.8713151600000018 0.8452027000000000 2.6607396900000002 Au
atom 0.4667267600000000 0.8704634400000000 2.6958074800000000 Au
atom 3.2884861999999999 0.8785167100000000 2.7648521900000000 Au
atom 6.1468290200000002 0.8684385300000000 2.8047724000000001 Au
atom 7.5481713499999996 3.3370621699999998 2.7662539900000001 Au
atom 10.3919905900000007 3.2344494600000000 2.6790642899999999 Au
atom 13.2247893500000000 3.3521342900000000 2.6733960099999998 Au
atom 15.9486782100000006 3.2837531000000002 2.6742404500000001 Au
atom 18.7766499099999997 3.3623621099999998 2.6667044799999999 Au
atom 21.6341327899999989 3.3141072199999999 2.5514100700000002 Au
atom 24.4601292199999989 3.3951105600000000 2.6511935400000000 Au
atom 27.2850389500000006 3.3262016800000000 2.8033310899999999 Au
atom 1.9157325500000000 3.3243806800000000 2.7139354800000000 Au
atom 4.7132032500000003 3.2630469999999998 2.7163847099999998 Au
atom 8.9925772100000003 5.8225927600000000 2.6780819800000000 Au
atom 11.7382350300000002 5.7566044500000002 2.6626195199999998 Au
atom 14.5302098999999991 5.8556232899999996 2.8964281000000001 Au
atom 17.3591629599999990 5.7592977999999997 2.8364808899999998 Au
atom 20.1957969400000010 5.8164394699999997 2.8422701300000002 Au
atom 23.0601278399999998 5.8675731500000001 2.7538625300000001 Au
atom 25.8929038300000016 5.8324510099999998 2.8929357100000002 Au
atom 0.5082752400000000 5.8342654500000002 2.8629256700000001 Au
atom 3.3453929400000000 5.8383308800000000 2.6975186700000000 Au
atom 6.1646288800000004 5.7421863399999999 2.6609063499999999 Au
atom 7.4839044599999998 8.2482273100000008 2.7079318899999998 Au
atom 10.2883624699999991 8.3268567600000001 2.5889242800000001 Au
atom 13.1116821800000007 8.3084879899999997 2.7716164499999998 Au
atom 15.8809964699999995 8.2527860600000000 2.7502065899999999 Au
atom 18.7006384099999998 8.3094911600000003 2.8786559700000001 Au
atom 21.5757681599999991 8.3114868499999996 2.6409615500000001 Au
atom 24.4127330100000002 8.3543886599999997 2.6520200300000001 Au
atom 27.2222498399999999 8.2784002300000008 2.7204123299999998 Au
atom 1.8910699300000000 8.3426298800000005 2.6646988800000000 Au
atom 4.6987922500000003 8.2731697799999999 2.6127449199999999 Au
atom 8.8817630500000000 10.7377245499999994 2.4877399800000002 Au
atom 11.7271988000000000 10.6947046300000004 2.6572257600000002 Au
atom 14.5626306299999992 10.7296058500000004 2.6672553300000001 Au
atom 17.3386953000000013 10.6903378500000006 2.5873101500000000 Au
atom 20.2076802499999992 10.7682413799999992 2.7968985499999999 Au
atom 23.0032204699999987 10.8055881199999995 2.5832884699999998 Au
atom 25.8197181200000010 10.7754871199999993 2.6373301699999998 Au
atom 0.4626279400000000 10.7562108700000003 2.6108511700000001 Au
atom 3.2700676099999999 10.8132718200000006 2.6115910499999999 Au
atom 6.0791225999999998 10.6518280599999997 2.5669789299999999 Au
atom 7.6387202800000003 13.0902305800000001 5.7450217200000004 Cl
atom 7.6015098600000002 16.0590021400000005 8.5720821600000008 Cl
atom 7.5688844000000000 13.1089696100000008 8.3424967199999998 Na
atom 7.4852098099999997 15.9362710300000003 5.8783846899999999 Na
atom 7.4190704800000002 18.8618321000000009 5.7731458800000004 Cl
atom 7.5988663699999996 21.5720710400000009 8.6286918099999994 Cl
atom 7.6046633000000003 18.8169689600000005 8.3469105799999994 Na
atom 7.5034860600000002 21.6545860599999997 5.8430190800000004 Na
atom 7.6034576899999999 24.3420490500000000 5.8393511000000000 Cl
atom 7.6137075200000002 27.3198291500000003 8.7050043600000002 Cl
atom 7.6299973100000003 24.3435716999999983 8.5226749399999999 Na
atom 7.5828497600000002 27.2165205700000001 5.8963553900000001 Na
atom 7.5998084300000004 29.9861233899999995 5.7211780200000000 Cl
atom 7.6175295500000004 32.8688818500000011 8.5826313699999996 Cl
atom 7.5507413899999998 30.1312559399999991 8.4075983399999998 Na
atom 7.5043067700000003 32.9044646600000021 5.8463984699999996 Na
atom 7.5518599399999999 35.7089872199999974 5.7264138700000000 Cl
atom 7.5508086499999996 38.4473115699999965 8.7074093000000001 Cl
atom 7.6078958200000004 35.7192593500000015 8.4039914800000002 Na
atom 7.4710369999999999 38.5537598299999971 5.8573045900000000 Na
atom 7.4964636400000000 1.8398490500000000 5.8647514000000003 Cl
atom 7.5459602300000004 4.8109654500000003 8.6081016500000000 Cl
atom 7.6552638000000002 1.8096990500000001 8.5269300999999995 Na
atom 7.4852624399999996 4.7373771900000001 5.8953255499999999 Na
atom 7.4817223799999999 7.5358376700000003 5.7844354200000003 Cl
atom 7.5241600599999998 10.4149270900000008 8.6668832699999996 Cl
atom 7.5980353500000000 7.6731969099999997 8.3856395700000004 Na
atom 7.5670841800000002 10.3633418400000004 5.9013247299999998 Na
atom 10.4186619199999999 13.1466045900000008 5.7579848299999998 Na
atom 13.1636883999999998 13.1006387100000001 5.7736630299999998 Cl
atom 10.4012538200000009 15.9359538399999998 8.3800701600000007 Na
atom 13.2271182899999999 16.0007622800000000 8.5598011300000003 Cl
atom 13.1620438300000000 13.1582731400000004 8.3841529599999998 Na
atom 10.4233928799999997 13.1303560099999999 8.4923108900000006 Cl
atom 13.1233960300000003 15.8997316499999997 5.6450298200000004 Na
atom 10.4408622999999992 15.9565069299999998 5.7203913699999998 Cl
atom 10.4050477099999998 18.8500291299999994 5.7277311500000003 Na
atom 13.3020129600000008 18.8272742599999994 5.8113533500000001 Cl
atom 10.4343169899999992 21.6569139499999999 8.4270928400000003 Na
atom 13.2879300400000009 21.6541698599999997 8.7345730800000005 Cl
atom 13.3311992700000008 18.7305479900000016 8.3828338999999996 Na
atom 10.3286078400000001 18.7582899900000015 8.5854765099999995 Cl
atom 13.2622525899999992 21.6587755100000017 5.8440079000000003 Na
atom 10.5087021800000002 21.6114165199999988 5.8239139299999998 Cl
atom 10.4324569399999998 24.4544339999999991 5.9225202100000001 Na
atom 13.2816528500000004 24.3808889399999984 5.7079566000000002 Cl
atom 10.3035178100000007 27.3062849400000012 8.4601618900000002 Na
atom 13.2147792699999993 27.3004990399999983 8.3800014699999998 Cl
atom 13.2891624400000001 24.5525524299999987 8.5225237299999996 Na
atom 10.4888162900000008 24.4654599099999999 8.6463670300000004 Cl
atom 13.2678669700000000 27.2445951800000010 5.7361282999999998 Na
atom 10.3552702799999992 27.2257720899999995 5.6697392899999999 Cl
atom 10.3775467500000005 30.0728548999999994 5.8194527899999997 Na
atom 13.2475276999999991 30.1705818299999997 5.5696631600000002 Cl
atom 10.3805430199999993 32.9831893500000035 8.2742855300000002 Na
atom 13.2066117999999992 32.9640305499999968 8.5079130900000006 Cl
atom 13.2721336900000004 30.0862019200000006 8.3067094299999997 Na
atom 10.4445591899999997 30.1428590099999987 8.5476453499999998 Cl
atom 13.2167713599999992 32.8293954099999965 5.7727779699999999 Na
atom 10.2999543399999993 32.9599659399999965 5.7048436499999999 Cl
atom 10.3993032900000006 35.6702685699999975 5.6773940700000001 Na
atom 13.2422043400000007 35.7229370200000034 5.8099541900000000 Cl
atom 10.4469233100000007 38.5747651200000021 8.3385468500000002 Na
atom 13.1773941099999998 38.5612169699999967 8.5634454499999997 Cl
atom 13.3167255200000003 35.7396150900000009 8.3958565800000002 Na
atom 10.4602943899999996 35.8073730799999979 8.4267081400000006 Cl
atom 13.2609049300000006 38.5531998000000016 5.7497210200000000 Na
atom 10.4138112700000001 38.6733392000000009 5.6961265299999999 Cl
atom 10.3782044300000003 1.9746603599999999 5.8501193799999998 Na
atom 13.1952136000000007 1.9514150600000000 5.7498519999999997 Cl
atom 10.3850423500000009 4.7634919599999996 8.4989662199999998 Na
atom 13.1354818000000009 4.8011287899999999 8.6225918400000001 Cl
atom 13.1853369399999991 1.9446494299999999 8.3279435100000008 Na
atom 10.3877458399999991 1.8512539200000000 8.6497778800000003 Cl
atom 13.1171037199999994 4.8365152100000000 5.9027984299999998 Na
atom 10.2763043799999991 4.6768449399999996 5.8135739400000004 Cl
atom 10.4282811100000004 7.4295035900000004 5.8316659599999996 Na
atom 13.1999793499999996 7.5459052900000003 5.7582361999999998 Cl
atom 10.4593335399999994 10.3327242199999993 8.3719089800000006 Na
atom 13.2520607300000002 10.3579939700000008 8.6347723700000003 Cl
atom 13.3010762899999992 7.6105263699999997 8.4641734500000005 Na
atom 10.4386951499999991 7.6774172600000004 8.5331435800000008 Cl
atom 13.1952131599999998 10.2300347100000000 5.7731998400000002 Na
atom 10.3129599200000008 10.1962452900000002 5.7760581699999998 Cl
atom 16.0010766900000014 13.1161401499999997 5.7664930800000000 Na
atom 18.9378513099999992 13.1299001700000009 5.7336196399999997 Cl
atom 16.0724440599999987 15.9699522500000004 8.3893599499999993 Na
atom 18.9182217199999982 15.9731085900000007 8.5104730400000008 Cl
atom 18.8672913499999986 13.1564143199999997 8.3778049200000009 Na
atom 16.0574211399999989 13.2033546699999995 8.5237766700000002 Cl
atom 18.8150694899999991 15.9641661900000003 5.7628366900000003 Na
atom 16.1062746200000007 15.9841657000000001 5.6444352200000001 Cl
atom 16.1695339900000015 18.7264773200000008 5.7976277200000004 Na
atom 18.8204069899999986 18.8440881100000013 5.7493668900000001 Cl
atom 16.0912552200000007 21.7128343299999997 8.4996147299999993 Na
atom 19.0336595899999992 21.5985089399999985 8.7227248399999997 Cl
atom 18.8944558899999997 18.8663689400000010 8.3481974300000008 Na
atom 16.1149067700000010 18.8376028799999986 8.4952776700000001 Cl
atom 18.8551133499999999 21.6730728699999986 5.9624823700000000 Na
atom 16.1516119200000006 21.7553117600000014 5.9134095799999997 Cl
atom 16.0605593700000000 24.4677033799999997 5.8155879400000003 Na
atom 18.9043331499999994 24.4383449199999987 5.8050085200000003 Cl
atom 16.1418071699999999 27.3829406599999992 8.4347750099999992 Na
atom 19.0105389000000002 27.2806114400000013 8.6954553499999996 Cl
atom 19.0614043500000001 24.4489418299999990 8.4885813799999994 Na
atom 16.1488857199999991 24.5755409900000004 8.6682133700000001 Cl
atom 18.9838966999999990 27.2369627500000000 5.8053884299999998 Na
atom 16.0778213500000007 27.1758124800000012 5.6413864599999997 Cl
atom 16.0650999699999986 30.1522080199999998 5.6699086400000001 Na
atom 19.0018511799999992 30.1749269300000016 5.7912045100000000 Cl
atom 16.0328129900000000 32.9694032600000000 8.2477364299999998 Na
atom 18.9601022300000004 32.9226883999999984 8.6268349700000009 Cl
atom 18.9936894299999999 30.1189296099999986 8.4956113400000000 Na
atom 16.1072752799999996 30.1679999999999993 8.4769641500000006 Cl
atom 18.9572065999999992 32.8052956200000025 5.8439723399999997 Na
atom 16.1784780499999989 32.8859837299999995 5.6755367100000003 Cl
atom 15.9520537000000004 35.8200558300000012 5.7019207500000002 Na
atom 18.7893059499999993 35.6670643200000015 5.6933747400000003 Cl
atom 16.0055181699999984 38.5585762700000032 8.4536177899999991 Na
atom 18.8490811399999991 38.4566982400000015 8.6412060099999994 Cl
atom 18.8689489200000011 35.6568418399999985 8.3482668400000009 Na
atom 16.0890247799999990 35.7940667800000014 8.5844442399999998 Cl
atom 18.8960160799999990 38.4954281099999989 5.8720800899999999 Na