#===============================================================================
# Created using the Atomic Simulation Environment (ASE)

# Tue Dec 23 21:42:47 2025

#=======================================================
lattice_vector 28.1999999999999993 0.0000000000000000 0.0000000000000000 
lattice_vector 0.0000000000000000 39.4799999999999969 0.0000000000000000 
lattice_vector 0.0000000000000000 0.0000000000000000 62.3296083400000001 
atom 7.5298900599999996 14.7907408900000004 0.0029676700000000 Au
atom 10.3331929000000002 14.8505524199999996 0.0060971900000000 Au
atom 13.1583709399999993 14.7699174699999993 0.1134851400000000 Au
atom 15.9639568300000008 14.8958791900000005 -0.3934182100000000 Au
atom 18.7668100500000001 14.7910138399999997 -0.2473734000000000 Au
atom 21.6663858800000000 14.6794258099999997 0.0800657200000000 Au
atom 24.3640713099999999 14.6868785099999997 -0.7059635399999999 Au
atom 27.2623644399999989 14.7404481100000009 -0.6069578400000000 Au
atom 1.9460729600000000 14.7922339800000007 -0.4068602500000000 Au
atom 4.7089601500000002 14.7845117699999999 -0.1174218700000000 Au
atom 8.8687835699999997 17.3502547100000015 0.1539917400000000 Au
atom 11.6603460299999995 17.2063085800000017 0.0553338600000000 Au
atom 14.4183622699999994 17.3198540899999998 -0.2398023900000000 Au
atom 17.3988132499999999 17.2809958600000009 -0.3563193600000000 Au
atom 20.2319068999999985 17.1496944900000017 0.1372728500000000 Au
atom 23.3327815200000011 17.2039559100000012 0.2018569600000000 Au
atom 25.9142860900000009 17.2856084400000007 -0.8403250000000000 Au
atom 0.5021371100000001 17.2935833199999998 -0.4809179700000000 Au
atom 3.3013977500000000 17.2972756099999998 -0.2783906300000000 Au
atom 6.1184164100000000 17.2759274400000002 -0.0450386700000000 Au
atom 7.5082535000000004 19.6911519800000008 0.0677391300000000 Au
atom 10.4105052499999999 19.7696893500000002 0.0847176100000000 Au
atom 13.0829419399999995 19.6941603100000009 0.0294853900000000 Au
atom 16.0531480699999989 19.8296875399999983 -0.4370712900000000 Au
atom 18.8165353400000015 19.7725494300000015 0.0239412800000000 Au
atom 21.6605779100000007 19.6074301300000009 -0.0131340400000000 Au
atom 24.5544938100000003 19.6373475000000006 0.3140893900000000 Au
atom 27.3626479399999987 19.8130462799999982 -0.5491256100000000 Au
atom 1.9217750700000000 19.7924693699999992 -0.1211738900000000 Au
atom 4.7488921299999998 19.7770331800000001 -0.0154298800000000 Au
atom 8.8284164000000001 22.2632487899999987 -0.0972058400000000 Au
atom 11.7454082100000008 22.1362396799999992 0.0679691900000000 Au
atom 14.5550646700000001 22.2811862699999992 -0.1123296400000000 Au
atom 17.5384725800000005 22.2424237600000012 -0.0149054400000000 Au
atom 20.2447721999999999 22.2015420799999994 0.0787659400000000 Au
atom 22.9621316200000010 22.0602115400000010 0.2230783500000000 Au
atom 25.8220174000000000 22.0917564400000010 0.3240797200000000 Au
atom 0.4704537100000000 22.2909496199999992 -0.0323332700000000 Au
atom 3.2939655900000000 22.3038385800000007 0.0028435600000000 Au
atom 6.0745721899999996 22.1959602800000013 0.2420211500000000 Au
atom 7.5411187699999997 24.7520985700000011 0.3266248800000000 Au
atom 10.2876042400000003 24.6361644099999992 0.2807970500000000 Au
atom 13.1095326399999994 24.6881694899999999 0.2487186000000000 Au
atom 15.9454315199999996 24.7089341500000010 0.2061561100000000 Au
atom 18.8343744000000015 24.7366464400000012 0.1059768000000000 Au
atom 21.6814041800000012 24.6035556699999987 0.3197634400000000 Au
atom 24.4551487600000002 24.6010612199999983 0.1820552900000000 Au
atom 27.2028639800000001 24.6012159699999984 0.2922715500000000 Au
atom 1.8364611200000001 24.6542168199999985 0.0143908500000000 Au
atom 4.7282506000000000 24.8080707599999997 0.1199741400000000 Au
atom 8.9337323600000005 27.1402605600000015 0.2972922500000000 Au
atom 11.7006888300000007 27.0677115400000012 0.1562311900000000 Au
atom 14.5095841199999995 27.1207958799999993 0.0041550200000000 Au
atom 17.3493694900000008 27.2247822699999986 0.0463222400000000 Au
atom 20.2771903299999998 27.1608126100000007 -0.0195870200000000 Au
atom 23.0355047599999985 27.1150201799999984 0.1257994500000000 Au
atom 25.8314701500000012 27.0574384700000010 0.1962786500000000 Au
atom 0.4088260200000000 27.0955341099999991 -0.0720340500000000 Au
atom 3.3090946400000001 27.1491113000000013 0.0225346900000000 Au
atom 6.1749733899999999 27.2483235499999985 0.1719527000000000 Au
atom 7.5066703099999996 29.5371870899999998 -0.3011773200000000 Au
atom 10.3535008099999999 29.4427672700000009 -0.1344313100000000 Au
atom 13.1231018200000005 29.5809923499999989 -0.0440515500000000 Au
atom 15.9725150300000003 29.6418325500000002 -0.0493709900000000 Au
atom 18.8300695800000000 29.6176031799999997 -0.1243637400000000 Au
atom 21.6650353699999982 29.6044416000000012 0.2375293800000000 Au
atom 24.4752112599999982 29.6955379599999993 0.1588198100000000 Au
atom 27.2593963200000005 29.6106748000000017 0.1123469100000000 Au
atom 1.8196420000000000 29.5613103099999996 0.0314848000000000 Au
atom 4.6596567799999997 29.5891081900000010 -0.2687868700000000 Au
atom 8.9757096999999995 31.9990943799999989 -0.2708222400000000 Au
atom 11.7836362700000006 31.9691977999999999 -0.1093330500000000 Au
atom 14.6794344300000006 32.0312984999999983 0.1175844000000000 Au
atom 17.4257469799999996 32.0942293700000008 -0.0095527600000000 Au
atom 20.2029486100000000 32.0823073600000015 0.0705771400000000 Au
atom 23.0449660399999985 32.1089557900000031 -0.1409267700000000 Au
atom 25.8575769099999988 32.1265387500000017 -0.0279487400000000 Au
atom 0.5138864100000000 31.9836082399999988 -0.1411447200000000 Au
atom 3.2878756800000000 31.9756507300000017 -0.1988833800000000 Au
atom 6.0721614300000004 32.0756088700000035 -0.3446822300000000 Au
atom 7.4879703199999996 34.6157322999999977 -0.2724881100000000 Au
atom 10.3972304599999994 34.6125467700000016 -0.1663589100000000 Au
atom 13.1247675400000006 34.5023368499999989 0.1455182500000000 Au
atom 15.9464775499999991 34.5332087900000033 0.2431951600000000 Au
atom 18.7984560800000011 34.4951342399999987 -0.1210899300000000 Au
atom 21.5877038900000002 34.4978123200000013 0.0524938800000000 Au
atom 24.4733286300000010 34.5555261100000024 -0.1720079900000000 Au
atom 27.2998161400000008 34.4433917599999972 -0.0384001600000000 Au
atom 1.9495519600000000 34.5974750700000016 -0.2205189900000000 Au
atom 4.6705399999999999 34.5320845299999988 -0.1174570200000000 Au
atom 8.8681370099999999 37.1233471399999999 -0.0838410700000000 Au
atom 11.8170842300000007 37.0641312500000026 0.0063531200000000 Au
atom 14.5785811899999995 36.9569602500000016 0.1514220000000000 Au
atom 17.5030129800000012 36.9500311099999976 0.0549452900000000 Au
atom 20.3140433899999984 36.9992385999999982 -0.1192742000000000 Au
atom 23.0506744800000014 36.9530610699999968 0.1523319000000000 Au
atom 25.8753255200000005 37.0380028599999989 -0.0123545800000000 Au
atom 0.4510211500000000 37.0465585700000020 0.0496503500000000 Au
atom 3.2937297299999999 37.0786990699999990 0.2527885000000000 Au
atom 6.0080241299999999 37.1010336699999996 -0.0235890600000000 Au
atom 7.5529783999999998 0.0734195000000000 -0.0080129400000000 Au
atom 10.3777838399999993 0.0377095800000000 -0.1538512600000000 Au
atom 13.2315387900000001 0.0503786100000000 0.0851825000000000 Au
atom 15.9965174599999997 -0.0414898800000000 0.1964878000000000 Au
atom 18.7640750099999991 -0.0101876200000000 0.1041561100000000 Au
atom 21.6032253200000000 -0.0479516900000000 0.1443026700000000 Au
atom 24.4129513799999991 -0.0377375000000000 0.1674842300000000 Au
atom 27.1732939199999990 -0.0477438800000000 0.3388393200000000 Au
atom 1.8900769500000001 0.0060079900000000 0.0786300400000000 Au
atom 4.6755980700000004 0.0888363800000000 0.2265435400000000 Au
atom 8.9854947400000000 2.4812645999999998 0.0608320300000000 Au
atom 11.8121162599999998 2.4660457500000001 -0.0478218600000000 Au
atom 14.6532629100000005 2.4831797000000000 0.0041967800000000 Au
atom 17.4221447800000000 2.5098588799999999 0.1335084200000000 Au
atom 20.2100600499999992 2.4438486199999998 0.0958424300000000 Au
atom 22.9386569800000011 2.3825886800000000 0.2511833300000000 Au
atom 25.7400126100000008 2.4110215799999999 0.3991066500000000 Au
atom 0.3628636700000000 2.4504609999999998 0.2837859200000000 Au
atom 3.2119717799999998 2.4743733200000002 0.2411228800000000 Au
atom 6.1087596399999997 2.4904783600000000 0.0773702500000000 Au
atom 7.6209200099999999 4.9222732000000002 0.3127479600000000 Au
atom 10.3540600099999995 4.9609055399999997 -0.0436571800000000 Au
atom 13.1524756400000005 5.0011537099999996 0.0507022800000000 Au
atom 16.0136053899999986 4.9483450199999996 0.2977723900000000 Au
atom 18.8503012400000003 5.0332971400000002 0.2467342800000000 Au
atom 21.6633563600000016 4.8980520500000004 0.3580080500000000 Au
atom 24.3923517300000015 4.9023546400000004 0.2813184600000000 Au
atom 27.3106139299999988 4.9316848100000001 0.3012252800000000 Au
atom 1.8951209099999999 4.9821624900000003 0.2270402600000000 Au
atom 4.7322378599999997 4.9366962799999996 0.0496352800000000 Au
atom 8.8960404000000004 7.3089542600000001 0.0232995900000000 Au
atom 11.7399993200000008 7.3877141599999998 -0.1085956300000000 Au
atom 14.5503074899999998 7.4367148900000002 -0.0435741800000000 Au
atom 17.3994264200000011 7.4136911300000001 0.1936927400000000 Au
atom 20.2878889099999995 7.4637021600000004 0.2930934600000000 Au
atom 23.1353635299999993 7.4360859699999997 0.2699036500000000 Au
atom 25.8973410900000012 7.4096264100000004 0.1604363200000000 Au
atom 0.5040660000000000 7.3844190100000002 0.1447881800000000 Au
atom 3.3381065900000002 7.4043509900000002 0.0278282300000000 Au
atom 6.0957606599999998 7.3945832500000002 -0.0618080900000000 Au
atom 7.6280749400000003 9.8662001099999994 -0.0313117000000000 Au
atom 10.3500131799999995 9.9223354700000002 -0.0989781000000000 Au
atom 13.1498224500000003 9.9255633799999998 -0.2501165000000000 Au
atom 15.9690034999999995 9.9214763099999992 -0.1010187900000000 Au
atom 18.8036874800000007 9.8740880799999999 0.1958745900000000 Au
atom 21.6911681799999982 9.8941528000000005 0.1888769300000000 Au
atom 24.4455658400000004 10.0019298699999997 0.2731855100000000 Au
atom 27.2852892800000006 9.9110748999999991 0.1022789600000000 Au
atom 1.9506254300000001 9.8144368899999996 0.0187281700000000 Au
atom 4.7891658599999998 9.8829001600000002 -0.1890984700000000 Au
atom 8.9704998099999997 12.4513347400000001 0.1082135000000000 Au
atom 11.7720648200000007 12.3260534800000006 -0.0264890700000000 Au
atom 14.6055906699999998 12.3937181899999995 -0.2008115100000000 Au
atom 17.3578088400000006 12.3331084999999998 -0.4156446200000000 Au
atom 20.1675620699999989 12.2954742600000007 -0.3353542100000000 Au
atom 22.8847640400000003 12.2474198899999998 -0.5752265800000000 Au
atom 25.8237288300000003 12.2698896699999995 -0.7022527000000000 Au
atom 0.5864966600000000 12.2414916199999997 -0.3769631400000000 Au
atom 3.3671518400000000 12.3103560999999999 -0.1781772000000000 Au
atom 6.2033060400000002 12.2289707300000003 0.1025004700000000 Au
atom 7.4645400000000004 13.1380033100000002 2.7383307200000000 Au
atom 10.3389346399999997 13.2498127300000004 2.6241986900000001 Au
atom 13.1703869200000003 13.2856886700000008 2.6939039700000000 Au
atom 15.8989907499999994 13.2869721500000004 2.2155587099999998 Au
atom 18.7564814099999992 13.1131072500000005 2.1287726199999999 Au
atom 21.5991199099999989 13.0271860999999998 2.4163067900000001 Au
atom 24.5472864999999985 13.0924474400000008 1.8138533400000001 Au
atom 27.2922001499999993 13.1752077500000002 1.9870555299999999 Au
atom 1.8656145500000001 13.1113057499999996 2.2157311200000001 Au
atom 4.6762877100000004 13.1599705599999997 2.4897997300000001 Au
atom 8.8145750799999991 15.5918177000000000 2.7038001600000001 Au
atom 11.7021208199999993 15.7469682100000004 2.7441650599999998 Au
atom 14.5843162100000008 15.7895752300000005 2.4504817800000001 Au
atom 17.3906750899999984 15.6998081000000003 2.3173675999999999 Au
atom 20.3231942900000000 15.5439234400000004 2.5673155099999998 Au
atom 23.1288562800000008 15.5268944100000006 2.4316784400000002 Au
atom 25.9025165699999995 15.6797265800000005 1.8440468500000000 Au
atom 0.4756034000000000 15.6684367600000005 2.0758870300000001 Au
atom 3.2257115900000000 15.5855073900000001 2.4064929300000002 Au
atom 6.0113910199999996 15.6050754000000005 2.5906809599999998 Au
atom 7.4994342999999999 18.0137778699999984 2.7794189000000000 Au
atom 10.3403669699999998 18.0988817500000003 2.6662486400000001 Au
atom 13.2336960399999999 18.1376936099999995 2.7389005399999999 Au
atom 16.0098949799999986 18.1904013400000011 2.0632920900000000 Au
atom 18.8477804700000000 18.1575016900000001 2.6327816700000000 Au
atom 21.6490573600000005 18.0028538199999986 2.5141244100000000 Au
atom 24.4155599899999984 18.0055752200000008 2.9271440100000001 Au
atom 27.0698204400000009 18.1369873699999999 1.8911389599999999 Au
atom 1.7418291200000000 18.1200432800000009 2.4159147999999999 Au
atom 4.6124371200000001 18.0428801700000001 2.4690203700000000 Au
atom 8.8798055999999992 20.4603158200000017 2.5215693899999998 Au
atom 11.7152155100000002 20.5867230899999996 2.7922294999999999 Au
atom 14.6118390399999996 20.6159113000000005 2.2914017900000001 Au
atom 17.3370497800000010 20.6289878100000017 2.5616267399999999 Au
atom 20.2730243399999992 20.6029254799999997 2.6812759700000002 Au
atom 23.0486676800000012 20.4621130200000003 2.7612109999999999 Au
atom 25.9036553100000013 20.4434027799999996 2.8933701400000000 Au
atom 0.4452696600000000 20.5710216700000004 2.3725772699999998 Au
atom 3.2617294600000002 20.5053452000000007 2.5910801999999999 Au
atom 6.1269956900000002 20.4905599900000013 2.7614590899999998 Au
atom 7.5731250499999998 22.9881227000000017 2.7060669499999999 Au
atom 10.2578540700000005 22.9291775000000015 2.6633334400000002 Au
atom 13.0998626999999992 23.0278042700000007 2.6912034199999999 Au
atom 15.9263910200000005 23.0775395000000003 2.6778001200000001 Au
atom 18.7564928500000008 23.0581042600000004 2.7419807299999999 Au
atom 21.6003282500000005 23.0752758200000017 2.8778219200000001 Au
atom 24.5006097899999986 22.9167609100000007 2.7841955000000000 Au
atom 27.3073200000000007 22.9717980299999986 2.7878311899999999 Au
atom 1.8652087200000000 23.0507002199999995 2.4432154300000000 Au
atom 4.6133127800000002 22.9959213499999997 2.7185103200000000 Au
atom 8.9827321300000005 25.4242497699999994 2.9693383700000000 Au
atom 11.7406552499999997 25.4983279799999991 2.9439741700000002 Au
atom 14.5397370899999991 25.5583044999999984 2.7195575399999998 Au
atom 17.3274053600000002 25.6181840200000011 2.7338537100000000 Au
atom 20.2153271200000013 25.5789547000000006 2.9156740200000000 Au
atom 23.0481231700000002 25.5184496600000017 2.7546904400000001 Au
atom 25.8674740499999984 25.4345597900000016 2.8634911500000002 Au
atom 0.4324636600000000 25.4767219199999992 2.7763998800000000 Au
atom 3.2282118400000002 25.5215190999999990 2.6176856599999998 Au
atom 6.1034315100000001 25.5041226099999996 2.7491624400000001 Au
atom 7.3872101800000003 28.0266985899999987 2.8413060699999999 Au
atom 10.3223403099999995 27.9335634299999995 2.7728087000000001 Au
atom 13.0628869800000000 27.9537097400000007 2.6793659200000000 Au
atom 15.8733508000000008 28.0193878599999984 2.6082073499999998 Au
atom 18.7554116600000000 28.0411702799999993 2.5313819099999999 Au
atom 21.5993070500000002 27.9295061300000000 2.8339086700000000 Au
atom 24.4012724799999994 27.9508658200000006 2.6704279500000001 Au
atom 27.2147356999999985 28.0098669899999990 2.7478651699999999 Au
atom 1.7917595600000000 27.9601173600000017 2.6289511299999999 Au
atom 4.6099907299999998 28.0057745400000009 2.6059921500000001 Au
atom 8.8605315299999994 30.4029869999999995 2.3722580299999998 Au
atom 11.6113157000000005 30.3602150799999997 2.4345241500000001 Au
atom 14.3764452800000004 30.3776060100000009 2.6280419600000000 Au
atom 17.2672681899999994 30.4485476599999991 2.6022275900000000 Au
atom 20.2004805099999984 30.4263034300000008 2.7217060700000002 Au
atom 23.0096415100000016 30.4887855200000004 2.7273749500000002 Au
atom 25.8912867499999990 30.4982112900000004 2.7549685199999998 Au
atom 0.4524279200000000 30.4212978900000017 2.6333411899999999 Au
atom 3.2926452199999998 30.4403707600000004 2.4849355399999999 Au
atom 6.0517017600000003 30.4499304200000012 2.3076660400000000 Au
atom 7.4621814200000003 32.9589287299999967 2.2271977700000001 Au
atom 10.2634379899999999 32.9213378299999988 2.4731183400000001 Au
atom 13.0681318199999996 32.8874083899999974 2.3988386799999999 Au
atom 15.9419049200000007 32.8294972899999991 2.7618673700000000 Au
atom 18.7091918100000001 32.8945188799999997 2.6039618199999999 Au
atom 21.5545205399999986 32.8982493899999966 2.6580347099999999 Au
atom 24.3535295400000003 32.8881379800000033 2.4945856000000002 Au
atom 27.2761929499999987 32.9373811099999969 2.6226766499999998 Au
atom 1.8751147900000000 32.9429179199999993 2.2859554200000001 Au
atom 4.7129035500000001 32.9665928300000033 2.4892146999999998 Au
atom 8.8948089699999997 35.4452005899999989 2.4267718999999999 Au
atom 11.7200481199999995 35.4233449399999998 2.5565461599999999 Au
atom 14.4934343400000003 35.2868877299999966 2.8229789500000000 Au
atom 17.3899278499999994 35.3542683599999989 2.6405414700000001 Au
atom 20.1742025600000012 35.4126630599999999 2.4227810900000000 Au
atom 22.9718003599999996 35.3286729000000008 2.7263907199999999 Au
atom 25.7600657800000015 35.3276692600000004 2.5932444499999998 Au
atom 0.4913618900000000 35.4204190199999971 2.4391387800000000 Au
atom 3.2784339700000000 35.3453610199999986 2.7018694299999999 Au
atom 6.0446030500000001 35.3939390500000002 2.3295560100000001 Au
atom 7.4479340399999998 37.9174756900000034 2.4952156099999998 Au
atom 10.3038292499999997 37.8769330200000027 2.5304794899999998 Au
atom 13.1188377999999997 37.8932041500000025 2.5613872999999998 Au
atom 15.9827806700000004 37.7999299100000030 2.6221704799999999 Au
atom 18.8112223400000005 37.9637870399999997 2.5668307499999998 Au
atom 21.5997024899999985 37.8962639200000027 2.6210917100000000 Au
atom 24.4223962199999995 37.8013694099999995 2.6866066800000001 Au
atom 27.2398931299999987 37.8110786800000014 2.8658442900000001 Au
atom 1.7615468999999999 37.8531697199999968 2.6370096799999998 Au
atom 4.5835972199999997 37.8040863900000019 2.7807584699999999 Au
atom 8.9263867500000007 0.7853897000000000 2.5173418200000000 Au
atom 11.6854876900000004 0.8799900400000000 2.4854258300000001 Au
atom 14.5942149899999993 0.9059959700000000 2.7871952499999999 Au
atom 17.4859984500000003 0.9417923200000000 2.7341426100000001 Au
atom 20.2934942700000001 0.9354676200000001 2.7884581599999998 Au
atom 22.9953958100000015 0.8798403500000000 2.8952417700000002 Au
atom 25.7800902399999998 0.8095261000000000 3.0586490000000000 Au
atom 0.4397804900000000 0.8601540000000000 2.8514815200000001 Au
atom 3.2710530699999998 0.9704995100000000 2.8165608799999999 Au
atom 6.1201442500000001 0.8713114400000000 2.8643593799999998 Au
atom 7.4721678400000000 3.2835996100000000 2.7646574600000000 Au
atom 10.3264782999999998 3.3360254299999998 2.5051702499999999 Au
atom 13.1727793900000005 3.3367672000000002 2.6099625600000000 Au
atom 15.9715189100000003 3.3883343699999999 2.6996224700000000 Au
atom 18.7859848499999984 3.3444022400000000 2.7550391300000001 Au
atom 21.5995869300000010 3.3450322199999998 2.8507909900000001 Au
atom 24.4338045599999987 3.2559874099999999 2.9321784399999999 Au
atom 27.2513680299999983 3.2009775299999998 3.0348932799999999 Au
atom 1.8200182000000000 3.3481011399999998 2.9206845800000001 Au
atom 4.7031225499999998 3.4107284600000001 2.7985353100000001 Au
atom 8.8913516399999999 5.8190670600000001 2.8201648300000000 Au
atom 11.7825406000000008 5.8066987900000004 2.6271199599999999 Au
atom 14.5911381900000006 5.8915580500000004 2.6281960899999999 Au
atom 17.3366651800000007 5.8154473900000001 2.9137655200000001 Au
atom 20.1917058900000015 5.8487545100000000 2.8687443500000001 Au
atom 23.0714011700000015 5.7384267500000004 2.8834743800000000 Au
atom 25.8797901299999999 5.6835481899999998 2.7482861000000001 Au
atom 0.4096300000000000 5.7424988800000003 2.8758827899999999 Au
atom 3.2324698700000001 5.8298946300000001 2.7020375500000000 Au
atom 6.0251161900000003 5.8652368499999996 2.7736064200000001 Au
atom 7.5343517599999998 8.2718837500000006 2.5276831899999999 Au
atom 10.2877515099999997 8.3025895399999996 2.4718021200000000 Au
atom 13.0814915400000000 8.3224411400000005 2.5242223500000001 Au
atom 15.9937873400000008 8.2934785699999996 2.5075235800000000 Au
atom 18.7526801499999998 8.2360968299999993 2.9293654400000002 Au
atom 21.5374662100000016 8.3465059099999994 2.7519896199999998 Au
atom 24.3851034899999988 8.2460586500000002 2.8716826000000002 Au
atom 27.3040428999999989 8.2284197799999994 2.6218356500000000 Au
atom 1.9039674200000001 8.2305855500000007 2.7284906900000001 Au
atom 4.6512911399999997 8.1843386799999998 2.5096006599999998 Au
atom 8.8392755500000000 10.7616265200000001 2.5673800600000001 Au
atom 11.6736783099999997 10.7845694900000009 2.5243718199999998 Au
atom 14.4903046999999994 10.7158254399999997 2.6280277900000000 Au
atom 17.2809890499999987 10.8595865099999997 2.6398247399999999 Au
atom 20.1959400799999997 10.7495728699999997 2.6973936500000000 Au
atom 23.1282651900000005 10.7780930500000007 2.7412035600000002 Au
atom 25.8945851900000008 10.7758736899999992 2.7871402500000002 Au
atom 0.4964406700000000 10.6945119700000006 2.6322323999999999 Au
atom 3.3031852300000000 10.6068136000000006 2.5277626999999998 Au
atom 6.0226061099999999 10.6750235500000006 2.7344600200000002 Au
atom 7.6358235900000002 12.5014264500000003 5.7747194100000003 Cl
atom 7.6085634999999998 15.7234718200000003 8.5353989800000001 Cl
atom 7.5892611800000003 12.8932876600000004 8.4914178699999994 Na
atom 7.6957771700000004 15.5359107999999999 5.6360706800000004 Na
atom 7.5297295599999998 18.4894943100000013 5.8596211100000000 Cl
atom 7.6156458100000002 21.4347941900000016 8.7786577500000007 Cl
atom 7.4862171000000002 18.6633476700000003 8.4625781100000008 Na
atom 7.5670281399999997 21.4489479900000006 5.9491017499999996 Na
atom 7.4724773100000004 24.0593045600000011 5.8696696399999997 Cl
atom 8.0124593799999992 27.4539677500000003 8.4758672599999993 Cl
atom 7.8501410500000004 24.4963600700000015 8.5143181400000003 Na
atom 7.7341500200000004 27.2466078399999994 5.7652158499999997 Na
atom 7.7354044000000002 30.1820256100000002 5.5193848599999997 Cl
atom 7.6300362300000000 33.0370830499999997 8.4741917200000003 Cl
atom 7.7188707599999997 30.1836981900000012 8.2614968500000003 Na
atom 7.6532891999999997 32.9378452099999990 5.7797042000000003 Na
atom 7.4312553899999996 35.6514790599999998 5.4618880799999996 Cl
atom 7.4814846700000004 38.2570655999999971 8.5280772999999996 Cl
atom 7.5208793099999998 35.7372382799999997 8.2153646800000004 Na
atom 7.4516644000000003 38.2636744500000034 5.5010855000000003 Na
atom 7.5197147199999996 1.4612179400000000 5.6633177899999998 Cl
atom 7.8112724299999998 4.2580159999999996 8.4604313999999992 Cl
atom 7.6372895400000003 1.5746688200000001 8.2014185699999995 Na
atom 7.6280965299999997 4.3586653000000002 5.7605095400000002 Na
atom 7.4828635800000001 7.1838534000000003 6.0131216399999996 Cl
atom 7.4633639799999996 9.7906787299999998 8.9595758900000000 Cl
atom 7.6391204799999999 7.0476093799999999 8.5584526299999997 Na
atom 7.4124898699999999 9.9501139799999994 5.8956751499999998 Na
atom 10.1984836699999999 12.7364449200000003 6.1326109500000001 Na
atom 12.8877803300000000 13.0291974400000008 5.7211713900000003 Cl
atom 10.2229250500000006 15.6654695200000003 8.5676361599999993 Na
atom 13.2033960700000002 15.7511097800000002 8.6642897399999992 Cl
atom 13.0511309200000003 12.8359548500000002 8.4929067200000006 Na
atom 10.1964939900000005 12.9179607799999996 8.7772521300000008 Cl
atom 12.8329578499999997 15.6878046900000001 5.9148650600000003 Na
atom 10.2443351600000003 15.4981587100000002 5.8538370200000003 Cl
atom 10.3725122600000006 18.6596633800000014 5.9980009200000000 Na
atom 13.3595948300000007 18.7073711799999991 5.7464051200000004 Cl
atom 10.2157561799999996 21.5701844600000001 8.3756852700000000 Na
atom 13.1696291399999996 21.7754032299999984 8.5679991500000003 Cl
atom 12.9113301699999994 18.8895526099999991 8.5655422899999998 Na
atom 10.3753249200000006 18.6263217099999991 8.5997731099999992 Cl
atom 13.1037905699999992 21.4931015499999987 5.9392088100000002 Na
atom 10.1989283700000009 21.6142833600000017 5.6481702699999996 Cl
atom 10.4244850400000004 24.2506865900000008 5.7518759299999997 Na
atom 13.2433254300000005 24.4201893000000005 5.6089614100000000 Cl
atom 10.6047382500000005 27.3499862399999998 8.3772484600000006 Na
atom 13.3027645900000007 27.2554273299999998 8.6551404299999994 Cl
atom 13.2672207300000000 24.4421511000000002 8.3774964500000006 Na
atom 10.4529761699999995 24.2612345299999994 8.5177914000000001 Cl
atom 13.0392992200000002 27.2332317099999983 5.9276825899999999 Na
atom 10.4267691300000003 27.1019121100000007 5.6753929100000002 Cl
atom 10.4200044199999997 30.1066647799999991 5.8029139399999998 Na
atom 13.0374039400000008 30.0172820199999997 5.6725195599999996 Cl
atom 10.4840492100000002 33.0043433000000022 8.2552629799999995 Na
atom 13.3982720600000000 33.1771968899999976 8.5134252999999998 Cl
atom 13.3300292999999996 30.2781380099999993 8.2261424999999999 Na
atom 10.7029273099999997 30.3210746899999997 8.4611339999999995 Cl
atom 13.2650025700000000 33.0281497400000035 5.8463202100000000 Na
atom 10.5762197600000007 32.9371618600000033 5.6710969400000000 Cl
atom 10.4313622800000001 35.6349399099999999 5.6389943000000002 Na
atom 13.1981285800000006 35.8044341000000017 5.7015544699999996 Cl
atom 10.4399447700000003 38.3997365500000001 8.3244448099999993 Na
atom 13.3752762500000006 38.5654837800000010 8.3657288399999992 Cl
atom 13.2512398299999994 35.6571389799999992 8.3043512800000006 Na
atom 10.4196245500000000 35.7405672100000018 8.4750850100000008 Cl
atom 13.1975922699999995 38.4911496699999987 5.6255683999999997 Na
atom 10.3491292500000007 38.3140098200000025 5.5405521999999996 Cl
atom 10.2889769100000006 1.6453427199999999 5.6701693300000002 Na
atom 13.2922291900000005 1.7175036100000001 5.6610048300000004 Cl
atom 10.4596339100000009 4.4750200199999997 8.4078603300000001 Na
atom 13.3617672899999995 4.4369199500000001 8.5355309699999999 Cl
atom 13.2852877300000003 1.7043699400000001 8.3244273500000006 Na
atom 10.3839759699999998 1.5615198800000001 8.4822081300000001 Cl
atom 13.2277662399999993 4.3290947800000001 5.6969767899999999 Na
atom 10.4814855599999994 4.4293617300000001 5.6356579800000004 Cl
atom 10.4468206099999996 7.1556913599999996 5.9227303300000003 Na
atom 13.2690291499999997 7.0972306800000000 5.6564237600000000 Cl
atom 10.3738165400000000 9.9666926300000007 8.5608836799999999 Na
atom 13.3583160099999994 10.2391457300000006 8.5000723199999992 Cl
atom 13.1449143399999997 7.3363963999999999 8.3940152300000008 Na
atom 10.6223407099999996 7.3125442200000004 8.6156948599999996 Cl
atom 13.1795501399999999 9.8241384600000004 5.9175645100000001 Na
atom 10.3338465599999996 9.8788388699999992 5.8750408800000002 Cl
atom 15.8634043400000007 12.8419553299999993 5.9379635100000003 Na
atom 18.7346129300000008 12.8068474499999994 5.7251095999999997 Cl
atom 15.6381958200000000 18.0053013899999996 6.9462500000000000 Na
atom 18.0926803400000011 16.2685348099999985 8.5470141099999992 Cl
atom 18.6078273900000006 12.8828095600000001 8.5498053800000005 Na
atom 15.9378584599999993 12.6917181499999998 8.6291109200000005 Cl
atom 18.5527816899999998 15.4954632700000001 6.2559381700000003 Na
atom 15.9877954399999993 15.4919695100000006 6.1046957400000004 Cl
atom 15.8946451000000000 19.3941166500000008 4.8516661000000001 Na
atom 18.3489735200000013 18.7993163000000010 5.9293449300000001 Cl
atom 15.9611718099999997 21.7114362000000014 8.6695838399999996 Na
atom 18.8379620900000013 21.5286099100000001 8.5501287099999992 Cl
atom 18.2437126999999997 18.8396459400000005 8.8226203000000005 Na
atom 15.6058718499999998 19.0557335200000004 9.1129448100000001 Cl
atom 18.7207681199999989 21.5002655300000001 5.9068255799999996 Na
atom 16.0612246100000000 21.8481393399999995 5.8825716200000002 Cl
atom 16.0565401899999998 24.4407593600000013 5.8842022399999996 Na
atom 18.9714324900000015 24.4188999500000001 5.8131738700000000 Cl
atom 15.9345471799999991 27.1926241900000001 8.4285013200000005 Na
atom 18.5688481400000001 27.4483981499999992 8.5931736300000008 Cl
atom 18.7568566700000012 24.3552083300000000 8.5563504699999999 Na
atom 15.9012876999999992 24.4148812000000000 8.6279817500000000 Cl
atom 18.6472580299999997 27.1778434000000004 5.7621239299999996 Na
atom 15.7993386099999995 27.2262462499999991 5.6834526500000004 Cl
atom 16.0374059299999985 30.1148543599999989 5.6825495699999999 Na
atom 18.8610192400000010 30.1645215299999983 5.5680302599999996 Cl
atom 16.0501666800000002 32.9819466599999984 8.2125150500000004 Na
atom 18.8389124999999993 32.9723685299999971 8.3805203499999994 Cl
atom 18.6780310299999996 30.1534036599999986 8.2165239999999997 Na
atom 16.0688495799999984 30.3261879500000013 8.4783808799999996 Cl
atom 18.9763827499999991 32.9909577800000022 5.5783956000000003 Na
atom 16.0911110499999985 32.9625991300000010 5.5852770500000002 Cl
atom 16.0859653099999989 35.8210665000000006 5.7946971200000004 Na
atom 19.0761068400000013 35.7979804300000026 5.7189725800000000 Cl
atom 16.2548323699999990 38.4702061200000003 8.2322522899999999 Na
atom 18.8606840600000005 38.5485401199999984 8.6091698099999991 Cl
atom 18.8631589099999992 35.7482827600000022 8.3488467499999999 Na
atom 16.0531530800000013 35.7222471999999982 8.5181858899999998 Cl
atom 19.0135614199999985 38.5303874399999984 5.7536251900000002 Na