#===============================================================================
# Created using the Atomic Simulation Environment (ASE)

# Tue Dec 23 21:42:20 2025

#=======================================================
lattice_vector 28.1999999999999993 0.0000000000000000 0.0000000000000000 
lattice_vector 0.0000000000000000 39.4799999999999969 0.0000000000000000 
lattice_vector 0.0000000000000000 0.0000000000000000 62.3296083400000001 
atom 7.4624944900000001 14.8433393000000002 -0.0550304000000000 Au
atom 10.2520507999999992 14.8507802400000006 -0.2088747300000000 Au
atom 13.0844830400000003 14.8425651900000002 -0.2711008700000000 Au
atom 15.9542976599999999 14.8443434300000003 -0.3097865600000000 Au
atom 18.7996449699999992 14.8519593499999996 -0.1157062600000000 Au
atom 21.6030717999999986 14.8168658200000003 -0.2040076800000000 Au
atom 24.3997641999999999 14.7980835499999994 -0.1710537500000000 Au
atom 27.2118948799999991 14.7867542200000006 -0.2203614700000000 Au
atom 1.7975942499999999 14.7256665000000009 -0.3360397900000000 Au
atom 4.6129544100000004 14.7980223599999992 -0.2803882600000000 Au
atom 8.8907690800000001 17.3277558599999999 -0.1642955600000000 Au
atom 11.7494452200000001 17.3032003100000011 -0.3461132700000000 Au
atom 14.5596085199999994 17.3195563099999994 -0.3024180800000000 Au
atom 17.3064479099999993 17.3350083700000006 -0.2098381900000000 Au
atom 20.1176731300000000 17.3572926099999982 -0.2004301300000000 Au
atom 22.9478713799999987 17.3328179200000001 -0.1435059700000000 Au
atom 25.7628930700000005 17.2825582400000002 -0.0723192400000000 Au
atom 0.4312670000000000 17.2471167200000011 -0.0849282000000000 Au
atom 3.2238097099999998 17.3595247099999987 -0.1874892200000000 Au
atom 6.0229632899999999 17.2490773500000003 0.0919260000000000 Au
atom 7.4630239500000002 19.6990039500000016 0.1901029200000000 Au
atom 10.2730980100000000 19.7860553400000008 -0.1755585000000000 Au
atom 13.1601824900000004 19.7849106299999988 -0.2380080100000000 Au
atom 15.8914446500000004 19.8217909799999994 -0.2495094400000000 Au
atom 18.6982542400000007 19.8335061400000008 -0.0802880500000000 Au
atom 21.5073428200000016 19.8538251899999985 0.0640583600000000 Au
atom 24.3454837200000007 19.8218635200000008 0.0804899100000000 Au
atom 27.1900773800000017 19.7171307700000007 -0.0456292500000000 Au
atom 1.8509693800000000 19.6978831099999994 0.2324181600000000 Au
atom 4.6215057899999996 19.7737103400000009 0.0912741700000000 Au
atom 8.8315978299999998 22.1816327099999988 0.2162568100000000 Au
atom 11.6145343299999997 22.2837132500000017 -0.2296471900000000 Au
atom 14.4462405000000000 22.2850080400000010 -0.1040992900000000 Au
atom 17.2831019499999989 22.2188318799999998 -0.0954498700000000 Au
atom 20.1625422999999984 22.2135093099999992 -0.1292602000000000 Au
atom 22.9988512000000007 22.2683446600000003 -0.0138720700000000 Au
atom 25.8163996000000004 22.1903227299999983 0.0420501900000000 Au
atom 0.4460129000000000 22.2306850699999998 0.0976454900000000 Au
atom 3.2189505399999998 22.2060646199999994 0.2155180800000000 Au
atom 6.0477498900000004 22.1222768899999984 0.2232588000000000 Au
atom 7.4798869000000003 24.6424993000000008 0.1606336700000000 Au
atom 10.2584688199999992 24.7309092799999988 0.1855106000000000 Au
atom 13.0887708000000007 24.7226117999999992 -0.1188405200000000 Au
atom 15.9021492500000008 24.7101721300000001 -0.1529262000000000 Au
atom 18.7156990100000016 24.6338175399999990 -0.2370924500000000 Au
atom 21.5374638400000009 24.6756615000000004 -0.1559936700000000 Au
atom 24.4139374800000013 24.7332546700000009 0.1228805300000000 Au
atom 27.1829130799999987 24.6869563800000016 0.2225658100000000 Au
atom 1.8633107700000000 24.6562939599999993 0.1865090200000000 Au
atom 4.7345524100000000 24.6945698200000017 0.1454175200000000 Au
atom 8.9030716400000003 27.1908180799999997 -0.0905687700000000 Au
atom 11.6739637599999995 27.2556691300000011 -0.0846910500000000 Au
atom 14.4793836000000002 27.1919780099999997 -0.1560076600000000 Au
atom 17.2949261000000014 27.1954112200000004 -0.1910923200000000 Au
atom 20.0980551299999988 27.1401725899999988 -0.1914904200000000 Au
atom 22.8605571999999988 27.1740971400000006 0.1683407900000000 Au
atom 25.8055868500000010 27.1377898299999991 0.2428499200000000 Au
atom 0.4191939200000000 27.0882730100000018 0.0942849700000000 Au
atom 3.3043890500000002 27.1025557399999997 0.1541372700000000 Au
atom 6.1256578900000003 27.2179052599999984 0.1523921100000000 Au
atom 7.5034413799999999 29.6906088299999986 0.0204584700000000 Au
atom 10.2788965200000000 29.6241605600000000 0.0783720400000000 Au
atom 13.1351791999999996 29.6672251899999999 -0.0226755100000000 Au
atom 15.9891804200000003 29.6708447600000014 -0.1512850900000000 Au
atom 18.7470995900000013 29.6274100099999984 -0.0101157600000000 Au
atom 21.5486612099999988 29.5795202900000014 0.1118156800000000 Au
atom 24.4240929099999988 29.5962394599999996 0.0656950900000000 Au
atom 27.1688318899999999 29.6236020700000005 0.1305419000000000 Au
atom 1.8894995200000000 29.5370021499999993 0.0137760200000000 Au
atom 4.7328535199999999 29.6380851199999995 0.0996319600000000 Au
atom 8.9111658100000000 32.1165646199999983 -0.0008344100000000 Au
atom 11.7097099799999995 32.1406655700000030 -0.0268738900000000 Au
atom 14.5496164500000003 32.1126439700000006 0.0075157600000000 Au
atom 17.3730591399999987 32.0717007200000026 -0.0055009000000000 Au
atom 20.2422239499999996 32.0677355099999986 0.0975706100000000 Au
atom 22.9922611000000003 32.0518381400000010 -0.0356590600000000 Au
atom 25.7576191899999998 32.1050415200000003 -0.0433686200000000 Au
atom 0.4433230600000000 31.9618377400000000 -0.0355338700000000 Au
atom 3.2251413200000001 32.0458059199999994 -0.1371524800000000 Au
atom 6.0583054399999998 32.1473636600000034 -0.0624780900000000 Au
atom 7.5388322299999997 34.5391487500000025 0.0672682200000000 Au
atom 10.3907369400000000 34.5894046700000004 0.2610827300000000 Au
atom 13.1071425599999998 34.5881979500000014 -0.0860379900000000 Au
atom 15.9961918399999998 34.6006595799999985 -0.0449041400000000 Au
atom 18.7924218200000013 34.5475791200000018 0.0129408600000000 Au
atom 21.6929082400000013 34.5681330800000026 -0.0547149500000000 Au
atom 24.5094894399999994 34.5873797900000000 -0.3699329400000000 Au
atom 27.3453539700000015 34.4071758999999986 -0.1321406600000000 Au
atom 1.9018507700000000 34.5333085299999993 -0.0544765400000000 Au
atom 4.6868726699999996 34.5560083299999974 -0.0617853700000000 Au
atom 8.9377157300000007 37.0314137100000025 -0.0459991600000000 Au
atom 11.7489685799999997 37.0675494299999997 -0.0901670600000000 Au
atom 14.6354635300000009 37.0024289199999998 -0.1272613700000000 Au
atom 17.3882154000000000 37.0692557500000035 0.1783389300000000 Au
atom 20.1583838600000007 37.0297676100000004 0.0396752300000000 Au
atom 23.0738530200000014 37.1003362100000018 -0.1389580300000000 Au
atom 25.9553781299999997 36.9927198000000033 -0.0452445500000000 Au
atom 0.4585450000000000 36.9810269500000004 -0.1076007600000000 Au
atom 3.3241383700000000 37.0110585999999984 0.1599235900000000 Au
atom 6.1547579800000003 36.9732989199999977 0.0275289200000000 Au
atom 7.4913486799999998 0.0727446100000000 -0.0139061700000000 Au
atom 10.3337934499999999 0.0110606400000000 -0.0500720200000000 Au
atom 13.2063736200000008 -0.0078485400000000 -0.1320440000000000 Au
atom 16.0064549700000001 0.0184040100000000 0.1746731200000000 Au
atom 18.8090106299999995 0.0558089500000000 0.2139413800000000 Au
atom 21.5583054499999989 0.0459995900000000 -0.0561016400000000 Au
atom 24.3910606899999998 0.0918873000000000 0.0966511400000000 Au
atom 27.1951156099999984 0.0166334900000000 0.1181008900000000 Au
atom 1.8306296500000001 -0.0194957200000000 -0.0060216900000000 Au
atom 4.6299075700000003 0.0089574500000000 0.0745956900000000 Au
atom 8.9688418300000006 2.4593118999999999 -0.0146564500000000 Au
atom 11.8106099199999992 2.4237908699999999 0.1563539000000000 Au
atom 14.5563114099999993 2.4878124900000000 0.0947245500000000 Au
atom 17.3232671399999987 2.4504580200000001 0.0322497100000000 Au
atom 20.1920178899999989 2.5082025799999998 0.0779099600000000 Au
atom 22.9615773499999989 2.4781733600000000 0.0094849700000000 Au
atom 25.7870241600000014 2.5339212500000001 0.1481446800000000 Au
atom 0.4157184100000000 2.4913301099999998 0.1372934400000000 Au
atom 3.1985372600000002 2.4755000100000002 0.1812040200000000 Au
atom 6.0517058199999996 2.4530434799999998 -0.0535403200000000 Au
atom 7.5412787100000003 4.9183768199999998 -0.0078213600000000 Au
atom 10.3573118399999995 4.9664609300000002 0.0593499600000000 Au
atom 13.1252187100000004 4.9999299900000000 0.1866657700000000 Au
atom 16.0247478200000018 4.9879398500000001 0.2140180100000000 Au
atom 18.8208078900000011 4.9853290100000001 0.1401015600000000 Au
atom 21.5638198299999999 4.9795543699999998 0.0973414000000000 Au
atom 24.3891176700000010 5.0243725799999996 0.2867876700000000 Au
atom 27.2171921700000006 4.9738924400000002 0.1719874700000000 Au
atom 1.8017226700000000 4.8950632799999996 0.2660631800000000 Au
atom 4.6650196800000003 4.8837535499999998 0.2820005800000000 Au
atom 8.8667844500000008 7.4049685700000003 0.0421844500000000 Au
atom 11.7234184599999995 7.4661638400000001 0.1169812600000000 Au
atom 14.5729522500000002 7.4503816299999999 0.1597297700000000 Au
atom 17.3942372799999987 7.4043260100000001 0.0479933200000000 Au
atom 20.1523919400000011 7.4099271599999996 0.0887463600000000 Au
atom 22.9837780400000007 7.4365416399999997 0.2068866400000000 Au
atom 25.8433052600000011 7.4641777800000000 0.1376631900000000 Au
atom 0.4584726700000000 7.3353787700000002 0.1795275500000000 Au
atom 3.2473201000000000 7.3697555399999999 0.1138672700000000 Au
atom 6.0868977800000001 7.2983053199999999 -0.0536266300000000 Au
atom 7.4503099300000004 9.8703602099999994 -0.0442245100000000 Au
atom 10.2504609299999991 9.8744863800000005 -0.0337484200000000 Au
atom 13.0932612400000004 9.8503130599999995 -0.2030237200000000 Au
atom 15.9588680899999993 9.8959877100000000 -0.2181321200000000 Au
atom 18.8246477100000007 9.8429099999999998 -0.1521844500000000 Au
atom 21.6123989899999991 9.8960304400000005 0.0480055000000000 Au
atom 24.4245780500000009 9.8574120399999998 0.0698518600000000 Au
atom 27.2830068600000004 9.8275745099999998 0.0850109400000000 Au
atom 1.8486860599999999 9.7949982599999998 0.0603047700000000 Au
atom 4.6539770400000000 9.8778353899999995 0.1414165800000000 Au
atom 8.7987117799999996 12.3673215200000008 -0.0698893800000000 Au
atom 11.6479849600000005 12.3371422400000004 -0.1594156800000000 Au
atom 14.4170537900000006 12.3882910800000001 -0.2544121400000000 Au
atom 17.2514108700000008 12.3736495699999995 -0.3254631200000000 Au
atom 20.1835704299999996 12.3259735799999994 -0.1215575900000000 Au
atom 22.9752855099999991 12.3585053499999997 -0.0304990100000000 Au
atom 25.7861653199999985 12.2443855500000005 -0.1754571700000000 Au
atom 0.3842602900000000 12.2819781999999993 -0.0681582400000000 Au
atom 3.2501264600000002 12.2948065799999995 -0.0893460300000000 Au
atom 6.0468158499999998 12.3722388399999996 -0.0466279500000000 Au
atom 7.4984306099999998 13.1733965400000006 2.6206948200000002 Au
atom 10.3913868500000000 13.1441542200000008 2.3645565799999999 Au
atom 13.1355954300000004 13.2041432499999996 2.3475349099999998 Au
atom 15.9833464999999997 13.1506657199999992 2.2821593199999999 Au
atom 18.7455740700000000 13.2658710699999993 2.4179389400000000 Au
atom 21.5519052100000010 13.2624350799999995 2.3744721000000002 Au
atom 24.3845082200000007 13.2544887800000009 2.4850651400000001 Au
atom 27.2381555900000016 13.3010890499999999 2.4603875199999998 Au
atom 1.8406440500000001 13.2918850699999993 2.5208311999999999 Au
atom 4.6784685899999996 13.2375812400000008 2.4429393699999999 Au
atom 8.9139054299999998 15.6276462899999995 2.4085055099999999 Au
atom 11.7363232600000007 15.6805098300000001 2.2939411399999998 Au
atom 14.5562878100000006 15.6608136099999999 2.3065429100000001 Au
atom 17.2886823000000014 15.7297197200000003 2.4554190899999999 Au
atom 20.1521031700000002 15.7428577300000008 2.5629160899999999 Au
atom 22.9694338400000007 15.7000949300000006 2.4599545900000002 Au
atom 25.7673903700000011 15.7026398799999996 2.4037261800000000 Au
atom 0.4369866800000000 15.6644378199999998 2.3636080800000001 Au
atom 3.1966274499999998 15.6705995100000006 2.2091638800000002 Au
atom 6.1057993599999998 15.6443270000000005 2.5250193599999999 Au
atom 7.4483381099999999 18.0647936599999994 2.5711357700000002 Au
atom 10.2701471899999994 18.0479608700000007 2.3671559300000000 Au
atom 13.0712383600000006 18.1127201800000002 2.2072698200000000 Au
atom 15.8824378399999997 18.1845294700000011 2.3454994700000000 Au
atom 18.6662589700000012 18.1559679199999984 2.5019741000000000 Au
atom 21.4450354200000000 18.2026211700000005 2.4601964500000002 Au
atom 24.3377179300000002 18.1377800600000008 2.5744423400000001 Au
atom 27.1604363800000002 18.1456326399999988 2.4442526099999999 Au
atom 1.8676740800000000 18.0784852299999983 2.7787700000000002 Au
atom 4.6422043100000003 18.1062532500000017 2.5616146400000002 Au
atom 8.9075759899999998 20.4745851499999993 2.7388969599999999 Au
atom 11.6785342799999992 20.6247057500000004 2.2728079000000001 Au
atom 14.4865926199999997 20.6394495000000013 2.3614420500000000 Au
atom 17.2764465099999995 20.6313558999999991 2.4641334499999998 Au
atom 20.0745956300000010 20.6635238000000001 2.6106508499999999 Au
atom 22.8988752300000016 20.6002464900000000 2.6788459400000000 Au
atom 25.7069909000000010 20.6293889800000017 2.6948153800000001 Au
atom 0.4178784900000000 20.5823062700000001 2.6441004800000001 Au
atom 3.3202091600000001 20.5685858199999991 2.8124722900000001 Au
atom 6.1168372299999998 20.5696795100000003 2.9308845600000000 Au
atom 7.5686365699999998 22.9994012499999982 2.8258282499999998 Au
atom 10.4308960099999997 23.0876766099999990 2.6683921599999998 Au
atom 13.1192154300000006 23.1094540299999984 2.4363357899999998 Au
atom 15.9220716899999992 23.0770083600000007 2.4440529899999999 Au
atom 18.7150679699999998 23.0981479900000011 2.4505241500000001 Au
atom 21.5486308099999988 23.0640077400000010 2.4691644699999999 Au
atom 24.4641090900000009 23.1135679200000013 2.6224136800000002 Au
atom 27.2529362400000004 23.0585504499999985 2.5840025299999998 Au
atom 1.9051039599999999 23.0322434300000012 2.7839392799999998 Au
atom 4.7479171100000004 23.0718971000000010 2.6480944900000001 Au
atom 8.9186579600000009 25.5642630699999991 2.6924745300000001 Au
atom 11.7681449499999999 25.6146057800000015 2.5363088500000002 Au
atom 14.5278871100000000 25.5386592300000004 2.3179978900000000 Au
atom 17.3231110900000012 25.4857188199999989 2.3631343600000001 Au
atom 20.1711568399999983 25.5482310900000016 2.3025908600000000 Au
atom 22.9236904000000017 25.4950215799999995 2.8235628899999998 Au
atom 25.7668435400000000 25.6435419300000014 2.7690018500000000 Au
atom 0.3895621200000000 25.5557281699999983 2.8160485300000002 Au
atom 3.2749201200000000 25.4508746799999983 2.8006575300000001 Au
atom 6.1203462399999999 25.5086070800000009 2.7075885899999999 Au
atom 7.5227436499999998 28.0087142500000006 2.6812426399999998 Au
atom 10.3573704400000004 28.0302042799999995 2.5607181200000002 Au
atom 13.1547829499999995 27.9955238299999998 2.5128225700000000 Au
atom 15.8832868900000008 27.9216000599999994 2.4406186200000000 Au
atom 18.7240017399999985 27.9459879300000011 2.6231101600000000 Au
atom 21.4961831299999986 28.0067801299999992 2.7192568499999998 Au
atom 24.3378732900000010 28.1001342899999997 2.6706679300000000 Au
atom 27.2326877299999985 28.0432200899999984 2.8067502400000000 Au
atom 1.8853507899999999 27.9913301200000006 2.7419327899999999 Au
atom 4.6584938100000004 28.0091032300000009 2.7421816699999999 Au
atom 8.9615745899999997 30.5181396999999990 2.6700123200000001 Au
atom 11.7693720099999997 30.5336790100000002 2.6871513600000001 Au
atom 14.5636711699999992 30.4923740400000014 2.6445124000000000 Au
atom 17.3303439200000007 30.4240345800000007 2.6007001000000001 Au
atom 20.0925064599999992 30.5315900300000003 2.6976135200000000 Au
atom 22.9386528399999996 30.5436253399999984 2.6810417599999998 Au
atom 25.7541475899999988 30.5286930800000000 2.7080444699999999 Au
atom 0.4610256300000000 30.4842312100000008 2.5722983799999999 Au
atom 3.2890215399999998 30.4940623200000012 2.6642714299999999 Au
atom 6.1349259900000002 30.4703172799999997 2.6951332500000000 Au
atom 7.5217408399999997 32.9644360300000017 2.6029708500000002 Au
atom 10.3660201700000005 32.9718628500000008 2.8394598000000002 Au
atom 13.1919448199999998 32.9281200699999985 2.5508041399999999 Au
atom 16.0531626900000006 33.0428571799999986 2.5928776099999999 Au
atom 18.8101589400000009 32.9453091499999999 2.5796758000000000 Au
atom 21.5915310500000004 33.0021110799999988 2.5737173699999998 Au
atom 24.3892461400000009 33.0229400400000017 2.5159517600000001 Au
atom 27.2209214599999996 32.9203064900000015 2.5447453699999998 Au
atom 1.8351466200000000 32.9373264800000030 2.5260561099999999 Au
atom 4.7081542799999996 32.8809833500000011 2.5741742900000002 Au
atom 8.8908215899999998 35.4290437499999982 2.7139880100000000 Au
atom 11.7690395500000005 35.4282522900000032 2.6476630700000001 Au
atom 14.5559370300000008 35.4305505499999995 2.5099235700000002 Au
atom 17.4720391600000013 35.4873399900000024 2.6782786199999999 Au
atom 20.2906402999999997 35.4591282299999975 2.5710418599999998 Au
atom 23.0672266599999993 35.4416460799999982 2.3425342800000002 Au
atom 25.9182638300000008 35.4102985099999970 2.4073024799999998 Au
atom 0.5372877900000000 35.4081479099999967 2.5246218599999999 Au
atom 3.2900957000000002 35.3925583700000033 2.6698944600000001 Au
atom 6.0559285500000000 35.3792518799999982 2.6409916000000000 Au
atom 7.5019596499999999 37.8660201000000001 2.5665945899999998 Au
atom 10.2816025100000008 37.9005385399999994 2.6935990400000001 Au
atom 13.1368302700000008 37.8769501000000020 2.4197634099999998 Au
atom 15.9889264000000004 37.8614599300000023 2.8061647399999998 Au
atom 18.8566403300000012 38.0112509599999981 2.7588560100000001 Au
atom 21.6541600599999988 37.8882761200000004 2.5499732800000001 Au
atom 24.4758953199999993 37.8595352800000029 2.5941727399999999 Au
atom 27.2873987299999996 37.8113731999999985 2.6863296499999998 Au
atom 1.8973165900000000 37.8569953800000008 2.5669832000000001 Au
atom 4.7338376499999999 37.8441225899999978 2.7830007000000001 Au
atom 8.9258881100000007 0.8531832400000000 2.5483813600000000 Au
atom 11.8097604100000009 0.7963936800000000 2.6306295099999999 Au
atom 14.5657065200000009 0.7691800300000000 2.7079097800000000 Au
atom 17.3719087099999996 0.9370780399999999 2.7323107200000001 Au
atom 20.2595689400000012 0.9124803900000000 2.7824639000000002 Au
atom 23.0471426599999987 0.9018755400000000 2.7158581499999999 Au
atom 25.8284045300000002 0.8360731100000000 2.6947823000000000 Au
atom 0.4116280900000000 0.7630270300000001 2.7324417300000001 Au
atom 3.3022377399999998 0.8280910500000001 2.6849941400000001 Au
atom 6.0691215300000003 0.7633301300000001 2.6866462499999999 Au
atom 7.5020213499999997 3.2522158299999999 2.5299460300000001 Au
atom 10.3052426199999996 3.3000439899999998 2.5701973900000001 Au
atom 13.1052539400000008 3.3041066400000001 2.7445412800000000 Au
atom 15.9532050699999992 3.3133413300000001 2.6616392699999998 Au
atom 18.8051944999999989 3.4059254100000000 2.6948733100000002 Au
atom 21.6365870800000017 3.3729006799999999 2.6296220799999999 Au
atom 24.4471883500000011 3.3372077500000001 2.7397761599999999 Au
atom 27.2344490599999993 3.3273141200000000 2.7240042299999998 Au
atom 1.8629441499999999 3.2422292800000001 2.8270460399999999 Au
atom 4.6771371899999998 3.2320642799999999 2.8715069199999999 Au
atom 8.9148425499999995 5.7145272000000000 2.6454230500000002 Au
atom 11.6980740500000007 5.8303587200000004 2.7698192499999998 Au
atom 14.5375032900000001 5.7603555200000001 2.8043911000000001 Au
atom 17.3313271799999988 5.8249574199999996 2.8970154199999998 Au
atom 20.2009336200000007 5.8486722499999999 2.7609606000000002 Au
atom 23.0609424700000005 5.8303481499999998 2.8730595900000000 Au
atom 25.8902385600000002 5.8404071499999999 2.8642100400000001 Au
atom 0.4927353500000000 5.8266885300000002 2.8932256299999999 Au
atom 3.3338734300000001 5.7755439600000003 2.7914020399999999 Au
atom 6.1431485400000003 5.7378839199999998 2.7197314700000002 Au
atom 7.5370972800000002 8.2234728100000005 2.5861559500000002 Au
atom 10.2968695599999993 8.2616086899999992 2.7238392800000000 Au
atom 13.1643645199999995 8.2448404899999996 2.7225025399999998 Au
atom 15.9892688500000002 8.2824527799999998 2.6303327699999999 Au
atom 18.7685928900000008 8.3305974200000001 2.6845335399999999 Au
atom 21.6461704799999985 8.3408527299999999 2.7606124699999999 Au
atom 24.4785808399999993 8.2538226100000003 2.7482110099999999 Au
atom 27.2896771800000018 8.2761285699999991 2.6151336999999999 Au
atom 1.9310872200000000 8.3104904699999995 2.7563891300000001 Au
atom 4.7577750999999999 8.2490310400000002 2.5939006400000002 Au
atom 8.9183656700000000 10.7670203099999995 2.5824598999999999 Au
atom 11.7771767300000008 10.6706986399999995 2.5037420899999998 Au
atom 14.5391797000000000 10.7038600899999992 2.3764807499999998 Au
atom 17.4640644000000016 10.7702739699999999 2.3454557100000000 Au
atom 20.2307063300000003 10.7935412500000005 2.4792162200000001 Au
atom 23.0529199300000016 10.7700159200000005 2.6929553600000000 Au
atom 25.8903823899999992 10.7824403699999998 2.6330676700000000 Au
atom 0.5355692200000000 10.8078337900000001 2.6041298600000000 Au
atom 3.3749575900000002 10.8213651399999993 2.6335253299999999 Au
atom 6.0921097099999999 10.7158551800000001 2.6680807999999998 Au
atom 7.5900618099999999 13.0027346900000005 6.0379947700000001 Cl
atom 7.5097706600000000 15.9294007400000002 8.3195178799999994 Cl
atom 7.6813464900000001 13.2831992499999991 8.6338563599999993 Na
atom 7.6078316399999997 16.0886864299999992 5.6447225999999997 Na
atom 7.5308925400000000 18.8627647699999983 5.8373726399999999 Cl
atom 7.6074874200000000 21.6033058900000015 8.7953700300000008 Cl
atom 7.4146923300000003 18.7824655199999988 8.3906019100000009 Na
atom 7.6360165100000001 21.7255858400000008 5.9977167900000001 Na
atom 7.6305542199999996 24.3651565499999982 5.9077223200000004 Cl
atom 7.5821982500000003 27.2087855199999993 8.6641695599999995 Cl
atom 7.6066236299999996 24.3404087800000006 8.5678488700000006 Na
atom 7.5365734700000004 27.1222100200000007 5.9320592300000001 Na
atom 7.6679434700000000 29.8844970699999983 5.8213885100000002 Cl
atom 7.6902784300000002 32.7862547800000002 8.6169469799999998 Cl
atom 7.5900811900000003 29.9527712999999984 8.4400507299999994 Na
atom 7.5686237700000003 32.8292023300000011 5.8854696200000003 Na
atom 7.6149191800000002 35.6424689600000022 5.8130683799999998 Cl
atom 7.5228648199999997 38.4931872399999975 8.6395236799999999 Cl
atom 7.6533346800000004 35.6686728000000031 8.4934595200000000 Na
atom 7.6453772100000004 38.4519577000000012 5.8767986800000003 Na
atom 7.5456115199999996 1.7602384200000001 5.7153048699999998 Cl
atom 7.6933566600000001 4.5092772200000004 8.4871185499999999 Cl
atom 7.6613237900000000 1.8159755300000000 8.3642987200000007 Na
atom 7.6429834300000001 4.5666151700000004 5.7698451200000003 Na
atom 7.5612447200000004 7.1991365199999997 5.7530644500000001 Cl
atom 7.4959123400000003 9.9603214399999995 8.4402036500000008 Cl
atom 7.5435712700000002 7.3595825599999998 8.4561186700000004 Na
atom 7.5495480199999996 10.1346742499999998 5.6898999400000001 Na
atom 10.5121356000000006 13.1731481099999996 5.8458397900000003 Na
atom 13.2301856099999995 13.1088714199999998 5.5433487599999998 Cl
atom 10.6466973800000009 15.8842108900000003 8.2814702199999992 Na
atom 13.3949807500000002 15.9059033799999998 8.5034526300000000 Cl
atom 13.3908092199999995 13.1451393200000002 8.2967560599999999 Na
atom 10.5419012100000007 13.2840330499999997 8.4328229199999996 Cl
atom 13.2237317300000008 16.0547076100000012 5.4809511799999999 Na
atom 10.5405643599999994 16.0653048200000015 5.5960091800000002 Cl
atom 10.5050203999999994 18.7920316900000017 6.1517548900000003 Na
atom 13.3612599400000001 18.8957690700000001 6.0422962399999998 Cl
atom 10.5420321900000005 21.5339770799999997 8.5459227799999997 Na
atom 13.2283913399999999 21.4252661700000004 8.8898941100000002 Cl
atom 13.3214529899999992 18.6257488100000010 8.4693727600000006 Na
atom 10.1992571400000003 18.5829781599999997 8.8059479199999995 Cl
atom 13.3770942399999999 21.5652223399999983 6.1166044099999999 Na
atom 10.5843305300000008 21.5550384900000012 5.9576572299999997 Cl
atom 10.5397994599999993 24.1979938700000012 6.0582220900000001 Na
atom 13.2466706100000007 24.5765675500000000 5.9453988600000001 Cl
atom 10.3236793099999993 27.1560008800000006 8.6274549500000006 Na
atom 13.1377734600000000 27.3109418300000009 8.9564755199999997 Cl
atom 13.2469878600000008 24.3358418800000003 8.6012745299999995 Na
atom 10.4026008999999995 24.3095596500000006 8.7392226900000001 Cl
atom 13.4060801000000005 27.1139117700000014 6.3478310300000000 Na
atom 10.5427675300000008 27.1664795699999999 6.0484803600000001 Cl
atom 10.5581193800000008 29.9493302300000011 6.0282434399999998 Na
atom 13.3992625299999997 29.8578868399999990 6.0474417200000001 Cl
atom 10.4326043399999993 32.9310547600000021 8.4806473800000006 Na
atom 13.1691442300000006 32.9654134099999965 8.6113194499999999 Cl
atom 13.2201115700000003 30.3436690300000009 8.5917424699999998 Na
atom 10.3837267200000003 30.0525509000000000 8.8270644699999998 Cl
atom 13.1701949299999992 32.7498942400000033 5.8045077599999999 Na
atom 10.4807852500000003 32.7811218299999965 5.8544641200000003 Cl
atom 10.3891429899999999 35.4457033699999968 5.7525397900000002 Na
atom 13.1264304900000006 35.7129116799999977 5.6629554700000000 Cl
atom 10.3536257999999997 38.3822067999999987 8.3354259099999997 Na
atom 13.2309696399999996 38.4514974499999980 8.6142283600000003 Cl
atom 13.2734371899999992 35.7050376999999983 8.3448004400000002 Na
atom 10.3970553399999996 35.6628577000000035 8.6226393300000002 Cl
atom 13.2478293699999998 38.4989844500000018 5.7893524400000000 Na
atom 10.4286756399999998 38.4738773199999997 5.8426317200000000 Cl
atom 10.3459251800000001 1.6973409600000000 5.8031552900000003 Na
atom 13.2056519600000009 1.7924933100000000 5.7531359200000001 Cl
atom 10.4252392500000006 4.7094239599999996 8.5081328099999993 Na
atom 13.2300299300000006 4.5852005900000004 8.5884413500000001 Cl
atom 13.1744374299999993 1.7928589200000000 8.3701928100000007 Na
atom 10.3256546599999997 1.8697524900000000 8.5900519800000001 Cl
atom 13.2250514599999995 4.5495014500000002 5.7800639900000004 Na
atom 10.5094638299999996 4.6308086800000003 5.8162224399999998 Cl
atom 10.4674343299999997 7.4285652899999999 6.0263515600000002 Na
atom 13.2346042900000000 7.3641535600000001 5.7908118100000001 Cl
atom 10.2229032699999998 10.5026387099999994 8.7393608900000004 Na
atom 13.2873420899999992 10.3420464699999997 8.5001651200000001 Cl
atom 13.2706592800000003 7.3605443399999997 8.3105997499999997 Na
atom 10.2741260600000004 7.2956945400000004 8.8166465600000006 Cl
atom 13.2700862599999994 10.3462224000000003 5.7735950699999998 Na
atom 10.4360819899999999 10.2644831500000002 5.7277888499999996 Cl
atom 15.9159325400000000 13.2031079499999997 5.7814472300000004 Na
atom 18.7864108899999991 13.3657769399999999 5.7340693399999996 Cl
atom 16.2045630400000000 15.8528958000000006 8.6265759499999994 Na
atom 18.9293639300000009 15.9923022699999997 8.7442356199999995 Cl
atom 18.9355502400000013 13.0733098200000004 8.2723048800000001 Na
atom 16.1259228599999993 13.0417505800000004 8.4586808700000002 Cl
atom 18.8439705500000017 16.0103879900000017 5.9260884899999997 Na
atom 16.0395511400000004 16.1450731400000009 5.9830783299999997 Cl
atom 16.1114749800000006 18.7589243500000009 6.2136440799999999 Na
atom 18.7671478699999987 18.9619375000000012 6.0417380500000002 Cl
atom 16.0808856700000007 21.6181866199999995 8.6353723900000006 Na
atom 18.9006830699999995 21.4718077200000010 8.8912271500000006 Cl
atom 18.9221793600000012 18.7275017400000010 8.6768187799999996 Na
atom 16.2127065200000011 18.7696561399999986 8.9873652199999992 Cl
atom 18.9171105299999986 21.6089151299999997 6.2409795600000004 Na
atom 16.1064737300000012 21.6206530500000014 6.0328065000000004 Cl
atom 16.2104157700000009 24.3725372299999989 6.2127005500000001 Na
atom 19.0505179899999995 24.4645017600000010 6.0269939299999997 Cl
atom 16.0375423300000008 27.2213299800000001 9.2343424600000006 Na
atom 18.7847630599999995 27.1945150600000005 8.9220096000000009 Cl
atom 18.8083936099999995 24.4962774000000003 8.6611828400000004 Na
atom 16.0064550499999996 24.4801642599999987 9.0923274400000000 Cl
atom 18.8495859800000005 27.1538894100000014 6.2340458400000003 Na
atom 16.0458869499999999 27.1587952699999988 5.9014209600000003 Cl
atom 16.1340286299999995 29.8099681200000006 6.1754653700000004 Na
atom 18.8964925599999987 29.9182053500000009 5.9296766200000004 Cl
atom 16.0411191299999984 32.9691671900000003 8.5158848500000008 Na
atom 18.7340980600000009 32.9448058799999970 8.6824825800000003 Cl
atom 18.8958200800000000 30.1663202699999999 8.5270112800000000 Na
atom 16.1440887599999989 30.0601646500000008 8.8118601099999996 Cl
atom 18.7083145699999989 32.8844699400000025 5.9344848800000003 Na
atom 15.9423582400000008 32.8179641799999970 5.9381116299999999 Cl
atom 15.9379296299999993 35.6890960300000017 5.7189746699999997 Na
atom 18.8992648299999999 35.7427289900000034 5.6484231899999999 Cl
atom 16.0774487899999983 38.4103174299999992 8.2816367500000005 Na
atom 18.8891265600000011 38.4733874300000025 8.5182060300000000 Cl
atom 18.8663990199999994 35.7909054300000022 8.3455431499999992 Na
atom 15.9956399600000001 35.7884370599999997 8.5894799800000001 Cl
atom 18.9321120699999987 38.4446696799999970 5.8008277799999997 Na