#===============================================================================
# Created using the Atomic Simulation Environment (ASE)

# Tue Dec 23 22:26:23 2025

#=======================================================
lattice_vector 28.1999999999999993 0.0000000000000000 0.0000000000000000 
lattice_vector 0.0000000000000000 39.4799999999999969 0.0000000000000000 
lattice_vector 0.0000000000000000 0.0000000000000000 62.3296083400000001 
atom 7.4155354300000003 14.7277797300000000 0.2647463700000000 Au
atom 10.2443664200000004 14.7446107699999995 -0.1609850900000000 Au
atom 13.0035780100000000 14.6733421699999997 -0.4114133600000000 Au
atom 15.9579392200000001 14.7410231199999995 -0.0903830800000000 Au
atom 18.7364333999999992 14.6729820800000006 -0.1974586900000000 Au
atom 21.5323765800000011 14.7302681799999995 -0.1340020400000000 Au
atom 24.3294745900000002 14.7786380600000005 -0.1298713800000000 Au
atom 27.1097671099999999 14.8084727399999991 0.0153769900000000 Au
atom 1.8717055100000000 14.8339278199999995 -0.0069742300000000 Au
atom 4.7230726499999998 14.7839700900000004 0.0009004300000000 Au
atom 8.9786415099999992 17.2368439500000008 0.1407402200000000 Au
atom 11.7496442900000009 17.2509729999999983 -0.1599676700000000 Au
atom 14.5282985100000008 17.2183809200000013 -0.0473466400000000 Au
atom 17.2953041799999987 17.2907420400000014 -0.2019867300000000 Au
atom 20.0676548399999994 17.1817405000000001 -0.2580623600000000 Au
atom 22.9279230399999996 17.2987352600000008 -0.1760714700000000 Au
atom 25.6690788699999999 17.2337999400000008 -0.0665621100000000 Au
atom 0.4611484100000000 17.1866261800000011 -0.1221053900000000 Au
atom 3.1905788199999998 17.2744635399999993 0.2243470800000000 Au
atom 6.1401339999999998 17.2113489999999985 0.0692164200000000 Au
atom 7.5434336499999999 19.7169992200000017 0.0206683000000000 Au
atom 10.2347153100000003 19.8736506099999986 -0.0856237600000000 Au
atom 13.1116260899999997 19.6897980100000005 -0.2033454500000000 Au
atom 16.0068014299999994 19.7052714599999987 -0.0865534200000000 Au
atom 18.7349274000000001 19.7730196199999995 -0.3275519300000000 Au
atom 21.4331018899999997 19.7155619999999985 0.1900540800000000 Au
atom 24.2713775600000012 19.6969867699999988 -0.2203102400000000 Au
atom 27.2097479799999995 19.7373708900000011 -0.0844030600000000 Au
atom 1.7776661000000000 19.6606735000000015 0.4430268100000000 Au
atom 4.6903749599999998 19.7271110500000013 0.2180148200000000 Au
atom 8.9816414000000009 22.2046049900000000 -0.1958004500000000 Au
atom 11.8053812800000006 22.2659306800000003 0.0455130600000000 Au
atom 14.4870175299999993 22.2208556100000010 0.0479721400000000 Au
atom 17.2499939399999995 22.2178660599999986 0.1001719900000000 Au
atom 20.1146640199999993 22.1094233799999991 0.0325383200000000 Au
atom 22.9623683300000003 22.1053255499999999 -0.0633492300000000 Au
atom 25.8114397300000000 22.1531197900000016 -0.2122364400000000 Au
atom 0.4519614400000000 21.8542612699999985 0.0478996400000000 Au
atom 3.2444463400000001 22.1353996200000012 0.1750423100000000 Au
atom 6.1951809000000004 22.1662281300000004 0.1179156000000000 Au
atom 7.5701679200000003 24.6990918499999985 0.1999371400000000 Au
atom 10.4045533799999994 24.5974921100000010 0.2470815900000000 Au
atom 13.1575415400000004 24.7324570500000007 0.3436372400000000 Au
atom 16.0052080399999994 24.6531968799999994 0.1072841900000000 Au
atom 18.8496930499999991 24.6799351199999997 0.2427531400000000 Au
atom 21.6580593099999987 24.6251924899999999 -0.0234008000000000 Au
atom 24.4815706499999983 24.6436525300000007 -0.1222051900000000 Au
atom 27.2576006399999997 24.5469048600000015 -0.0554114400000000 Au
atom 1.8963210900000000 24.6211054900000015 0.2541665300000000 Au
atom 4.7328744900000004 24.6374992000000006 0.1258960000000000 Au
atom 8.9850302000000006 27.0284624999999998 0.3122717400000000 Au
atom 11.7394403900000004 27.1005588199999998 0.0341807100000000 Au
atom 14.6233961000000008 27.1490494399999989 0.0039795400000000 Au
atom 17.3750071999999989 27.1092809700000004 -0.0931819300000000 Au
atom 20.2359077899999988 27.0861649799999995 0.1093984400000000 Au
atom 23.1093137099999986 27.1328183000000003 -0.3302476400000000 Au
atom 25.8558033899999984 26.9978407699999998 -0.0712026900000000 Au
atom 0.4853135600000000 26.9275959399999998 -0.0169875300000000 Au
atom 3.3443249499999999 27.1772991300000015 0.3538353200000000 Au
atom 6.0717842700000002 27.0962320100000014 0.0985423700000000 Au
atom 7.6018655400000004 29.4554318799999990 0.1510542200000000 Au
atom 10.4409596199999992 29.5389419500000017 0.0097525800000000 Au
atom 13.1335305299999998 29.5507611899999993 -0.0807105200000000 Au
atom 15.9347560999999995 29.5744823100000005 -0.2078649900000000 Au
atom 18.8552597300000002 29.5757074300000014 -0.1574842800000000 Au
atom 21.6401788500000016 29.4450632299999988 -0.1015874200000000 Au
atom 24.4950885099999986 29.6519194699999993 -0.0704599500000000 Au
atom 27.2733780599999989 29.5412635399999992 0.1902168100000000 Au
atom 1.8608268299999999 29.4632323199999995 0.0196512100000000 Au
atom 4.7605991100000002 29.5484524899999990 -0.1223533400000000 Au
atom 9.0380680699999996 32.0117312900000002 -0.1672578000000000 Au
atom 11.8223485400000001 32.0231426699999986 0.0120836300000000 Au
atom 14.4775174300000007 31.9820154700000003 -0.1232411400000000 Au
atom 17.4118792800000008 31.9919473799999992 -0.3711167700000000 Au
atom 20.2683029999999995 31.9727160200000000 -0.2094507500000000 Au
atom 23.0883003900000006 32.0296158599999998 -0.2442574000000000 Au
atom 25.8650087800000001 32.0187715300000022 -0.1993350200000000 Au
atom 0.5149501900000000 32.2282783799999990 -0.0913191300000000 Au
atom 3.3994714600000000 31.9943199800000002 -0.2371758400000000 Au
atom 6.2223753000000004 31.8839698899999995 0.0084885200000000 Au
atom 7.5586973400000002 34.3946128400000006 -0.0585612700000000 Au
atom 10.4028000499999997 34.5477619600000025 -0.0206686900000000 Au
atom 13.0898259899999996 34.4442540800000003 0.1966167400000000 Au
atom 15.9134144499999994 34.4177360400000012 -0.2040853700000000 Au
atom 18.8591732500000013 34.4868455599999990 -0.2919022000000000 Au
atom 21.6902905900000000 34.5791578700000031 -0.2464086200000000 Au
atom 24.5698195499999983 34.5285544799999968 0.1298226600000000 Au
atom 27.2455058200000018 34.5205288800000005 0.1013921300000000 Au
atom 1.9272026200000001 34.5184979799999994 -0.0555309000000000 Au
atom 4.7880379499999997 34.4835493100000008 -0.2757330700000000 Au
atom 9.0173195300000000 36.9799825699999971 0.0153340300000000 Au
atom 11.9833399699999994 36.9670622200000025 0.0119763900000000 Au
atom 14.6128828599999991 36.9117768200000000 0.2888317400000000 Au
atom 17.1726313099999999 36.8798088799999988 0.0788195700000000 Au
atom 20.4226969400000016 37.0602653300000000 -0.2411589300000000 Au
atom 23.2675166400000002 36.9791187699999995 -0.2759200200000000 Au
atom 26.0083719199999983 37.0942465600000020 0.1740102000000000 Au
atom 0.6522020100000000 36.9557939199999979 0.1049917400000000 Au
atom 3.2853935800000000 36.9282395299999990 0.2838324800000000 Au
atom 6.1151328999999999 36.9759092999999979 0.2848146900000000 Au
atom 7.6428739200000004 -0.0060585600000000 0.3106417200000000 Au
atom 10.4269436399999993 -0.0901559000000000 0.1081101300000000 Au
atom 13.0859724400000008 0.0552174300000000 0.0973961200000000 Au
atom 15.8856584400000003 -0.0511027000000000 0.0464866100000000 Au
atom 18.6228793199999991 -0.0570471800000000 -0.0622032500000000 Au
atom 21.7563555199999996 0.0926141200000000 -0.3707092100000000 Au
atom 24.6286717099999990 -0.0905631500000000 0.0232872600000000 Au
atom 27.5744962999999998 0.0235627900000000 0.4153758600000000 Au
atom 1.7511183900000000 -0.2073343900000000 0.4421073400000000 Au
atom 4.7542329099999998 -0.0582869700000000 0.5088671600000000 Au
atom 8.9750277199999999 2.4720033799999999 0.3564567500000000 Au
atom 11.7406662700000002 2.4449911300000000 0.5669509700000001 Au
atom 14.5645304400000004 2.5173561200000001 0.3207010200000000 Au
atom 17.4753268700000000 2.3191104400000002 0.3587802800000000 Au
atom 20.1873489600000013 2.3551113899999998 -0.0501363700000000 Au
atom 23.0579422299999983 2.3982584600000001 0.1930355800000000 Au
atom 26.0215828599999988 2.3467567900000001 -0.1367630200000000 Au
atom 0.5533962600000000 2.4650558400000002 0.4751772500000000 Au
atom 3.4045832599999999 2.3835179499999999 0.1260199600000000 Au
atom 6.2205050300000000 2.3467862700000000 0.4377219300000000 Au
atom 7.5726140700000002 4.9408069599999997 0.4548996800000000 Au
atom 10.3516075200000000 4.9306260699999997 0.3450701900000000 Au
atom 13.2012531000000006 4.8573830300000003 0.0940395500000000 Au
atom 16.0965261400000017 4.7414736599999996 0.1585644500000000 Au
atom 18.8141191300000017 4.8217486699999998 0.0141701600000000 Au
atom 21.6870376600000014 4.7679779199999999 -0.0663765300000000 Au
atom 24.4816015399999998 4.8939835800000004 0.1122915300000000 Au
atom 27.2866294399999987 4.8083546799999999 0.4190384800000000 Au
atom 1.9370809099999999 4.9672983999999998 0.2455874700000000 Au
atom 4.7617513300000001 4.7560518199999997 0.3657365200000000 Au
atom 9.0369636100000008 7.3129545399999998 0.0329951300000000 Au
atom 11.8500042400000005 7.3287528699999998 0.0632472800000000 Au
atom 14.6268094000000008 7.2219950800000001 0.0908741800000000 Au
atom 17.3552068400000010 7.2062291600000004 -0.0949436400000000 Au
atom 20.2274309499999987 7.2256914700000001 -0.2521891000000000 Au
atom 23.0250293699999986 7.3416901100000000 0.0404755000000000 Au
atom 25.7701091799999986 7.3632824399999999 0.1880535700000000 Au
atom 0.4511881600000000 7.2089682499999999 0.1454441800000000 Au
atom 3.3537308100000001 7.2841006899999998 0.2902762300000000 Au
atom 6.1587439799999997 7.2931052300000001 0.2359450100000000 Au
atom 7.5102738999999996 9.8241513699999992 -0.1215219900000000 Au
atom 10.3294478699999992 9.7538131799999999 0.1776966700000000 Au
atom 13.1634288500000007 9.7672295299999998 0.3101228600000000 Au
atom 15.9006892999999998 9.8091656500000006 -0.2071685700000000 Au
atom 18.7089468399999994 9.7439970099999993 -0.2817033100000000 Au
atom 21.5024282400000004 9.6872545100000007 -0.1882429600000000 Au
atom 24.4030198300000016 9.8328243099999995 -0.1585885900000000 Au
atom 27.3505432599999985 9.9285361000000005 0.1723568500000000 Au
atom 1.9351326099999999 9.8682445899999998 -0.3042621000000000 Au
atom 4.7372871500000002 9.7872257800000000 -0.0049330100000000 Au
atom 8.8887841699999992 12.2902676000000000 -0.0746759300000000 Au
atom 11.7479426100000008 12.1807094800000009 -0.1089623700000000 Au
atom 14.4617523699999992 12.2257645400000001 -0.0603198200000000 Au
atom 17.2512386199999987 12.2119707300000009 -0.2889492300000000 Au
atom 20.0845067399999984 12.2058322700000002 -0.2302172400000000 Au
atom 22.8686004099999991 12.2020903900000004 -0.2148711800000000 Au
atom 25.8983441499999998 12.2104587700000007 -0.1626132400000000 Au
atom 0.4917902700000000 12.4351063600000007 -0.2642512000000000 Au
atom 3.3451457800000002 12.3013503100000001 -0.0271974200000000 Au
atom 6.1282899600000000 12.2615857899999998 -0.1343345300000000 Au
atom 7.5195003099999997 13.1724415199999996 2.6885668300000001 Au
atom 10.3249790099999998 13.2398670599999999 2.4523827499999999 Au
atom 13.4007003800000000 13.3471159499999992 2.4301267000000002 Au
atom 16.0690036399999983 13.2387418700000001 2.5204360499999998 Au
atom 18.7656631500000017 13.1934024999999995 2.3371465800000002 Au
atom 21.6349676100000003 13.1911583399999994 2.4622621699999998 Au
atom 24.4161005399999986 13.2406164000000004 2.3354201400000001 Au
atom 27.3110443899999993 13.4973523600000007 2.2013857400000001 Au
atom 1.8010129600000000 13.2113488700000001 2.6761550999999999 Au
atom 4.7042535900000004 13.1595643599999992 2.3211307699999999 Au
atom 8.9549070999999998 15.6241004799999992 2.8555939900000000 Au
atom 11.6364763799999995 15.7202159100000003 2.1119512899999999 Au
atom 14.5402929600000004 15.8051966700000008 2.4029585099999999 Au
atom 17.3461169499999990 15.7569585599999993 2.4824291000000001 Au
atom 20.1412983499999996 15.7159647400000004 2.4279438400000002 Au
atom 22.9335074500000005 15.6838717800000005 2.4113331599999999 Au
atom 25.7810087800000005 15.5931254799999994 2.7549697900000001 Au
atom 0.5161258500000000 15.7972675700000007 2.5666578900000001 Au
atom 3.2627157800000002 15.5637624599999995 2.7458866700000000 Au
atom 6.0961801400000004 15.5949382799999992 2.8849985100000000 Au
atom 7.5295579500000001 18.1518144399999990 2.7728760700000001 Au
atom 10.2525129199999991 18.1795981399999995 2.5281063300000000 Au
atom 13.2026589199999993 18.2183113799999994 2.5284330800000001 Au
atom 15.9980165799999998 18.1190834900000013 2.5425678899999999 Au
atom 18.8949378800000005 18.1759759900000013 2.2868737000000001 Au
atom 21.6027673100000008 18.0955235300000012 2.5181968700000001 Au
atom 24.4813886700000012 18.1431032999999999 2.4518849000000000 Au
atom 27.2603693100000015 18.1977647100000013 2.5436803299999999 Au
atom 1.9127878000000000 18.0299648499999989 2.9703252099999999 Au
atom 4.7379044500000003 18.1125519500000003 2.5763248100000000 Au
atom 8.9249057199999999 20.6359772700000015 2.5809451600000002 Au
atom 11.7892892600000003 20.6715072199999987 2.4635476999999999 Au
atom 14.5708173199999997 20.5337007900000010 2.4978834700000001 Au
atom 17.4195712900000004 20.5212235099999987 2.6146072899999999 Au
atom 20.1729182499999986 20.6202467399999989 2.7418342400000002 Au
atom 23.0637605299999997 20.6219448300000003 2.4655271900000000 Au
atom 25.9006031800000009 20.7053912599999990 2.4672820700000000 Au
atom 0.4239866800000000 20.5694265300000012 2.7035175100000002 Au
atom 3.1849000500000000 20.5088134400000008 2.8418610300000000 Au
atom 6.0477189999999998 20.6032091900000012 2.8490072500000001 Au
atom 7.4488306499999997 23.0292052600000012 2.7308191599999998 Au
atom 10.2428505600000008 23.1163963400000014 2.7361873100000000 Au
atom 13.1087792099999998 23.1006206899999995 2.7404385599999999 Au
atom 15.9268894000000003 23.0360296499999997 2.6484579099999999 Au
atom 18.8223502399999987 23.0338309199999998 2.8003950400000002 Au
atom 21.5978940399999999 23.0612454999999983 2.5006309600000001 Au
atom 24.4069676800000011 23.0065536500000007 2.3943064500000002 Au
atom 27.1736110800000006 22.9835669600000010 2.5444054000000000 Au
atom 1.8030401400000000 22.9925077500000015 2.7781990500000000 Au
atom 4.6121338099999996 23.0169180699999991 2.6269327599999999 Au
atom 8.8824809100000000 25.5172938000000009 2.9525127100000002 Au
atom 11.7197470100000007 25.5930197399999990 3.0161053199999999 Au
atom 14.6361762899999999 25.5074126399999983 2.7377840899999999 Au
atom 17.3168913800000013 25.5441152500000008 2.8396080200000000 Au
atom 20.1421837299999993 25.4474227800000001 2.7827537499999999 Au
atom 22.9863706299999997 25.5126931200000016 2.3776420500000000 Au
atom 25.7828592699999994 25.5109127499999992 2.6323247799999998 Au
atom 0.3663296200000000 25.5076752499999984 2.7585641200000000 Au
atom 3.1354341799999998 25.5666642899999985 2.7385956899999999 Au
atom 5.9365902899999998 25.5071777900000001 2.8789112200000000 Au
atom 7.4652123699999997 27.9584259700000004 2.6832577099999999 Au
atom 10.2814284600000008 28.0152400600000000 2.8363706700000000 Au
atom 13.1371453599999999 27.9895077500000014 2.5317767600000001 Au
atom 16.0012741900000002 28.0105200699999983 2.5807423599999999 Au
atom 18.7503096199999995 27.8814145899999986 2.4659198400000002 Au
atom 21.5803009400000008 27.9370047600000007 2.6270426400000000 Au
atom 24.4816887200000011 27.8996781600000006 2.3198972400000000 Au
atom 27.2385374400000018 27.8768472400000000 2.6344108600000000 Au
atom 1.7635830600000000 28.0147126899999996 2.7807644900000001 Au
atom 4.6999159300000004 28.0846113099999997 2.8405271299999999 Au
atom 8.9887605300000004 30.4317105900000016 2.4476342000000000 Au
atom 11.8246236499999995 30.3695501400000012 2.7115510999999999 Au
atom 14.6297559600000007 30.3423575599999999 2.4807673499999998 Au
atom 17.3765659399999990 30.3476706999999983 2.4305761200000000 Au
atom 20.2348756399999985 30.3519342499999993 2.3693246700000001 Au
atom 22.9969038300000008 30.3996788900000006 2.4677548900000001 Au
atom 25.8381222000000008 30.4203723699999991 2.5671433499999998 Au
atom 0.5207043900000000 30.3535475199999993 2.7721505199999998 Au
atom 3.3002414000000000 30.4088903600000009 2.4393889799999999 Au
atom 6.1951383299999998 30.4327840999999992 2.7794040899999999 Au
atom 7.4426581199999999 32.8417900800000027 2.4806100600000001 Au
atom 10.3898260100000002 32.9486524599999981 2.4810959900000000 Au
atom 13.1496574000000006 32.8323305199999993 2.7833922400000000 Au
atom 15.9881080200000003 32.8154353099999980 2.3815915799999998 Au
atom 18.8475244199999992 32.7960720600000002 2.3439106199999999 Au
atom 21.6514735000000016 32.9866373300000006 2.3145484199999999 Au
atom 24.4344813099999989 32.9118501399999985 2.3746279200000000 Au
atom 27.2492185199999994 32.8211898099999999 2.4861898299999998 Au
atom 1.8439993800000001 32.7464433900000031 2.3967412800000001 Au
atom 4.6774157900000004 32.7695170200000021 2.3377535900000002 Au
atom 9.0216083600000001 35.2911822299999969 2.7801189000000002 Au
atom 11.7874812900000006 35.3875244800000033 2.6941148799999999 Au
atom 14.6610258400000006 35.2709080400000019 2.8547979300000002 Au
atom 17.3959951799999999 35.1923163900000020 2.3876672100000000 Au
atom 20.1762655299999984 35.3592925499999993 2.3317760100000000 Au
atom 22.9778982300000010 35.4144050299999975 2.6007367200000000 Au
atom 25.7786971700000009 35.2412285999999995 2.7825531200000002 Au
atom 0.5017129600000000 35.2067869299999998 2.6737982499999999 Au
atom 3.2594669999999999 35.1821457699999982 2.6693702199999998 Au
atom 6.1291032500000000 35.3659363200000030 2.5961417400000002 Au
atom 7.5103632300000003 37.8623414799999978 2.6513494500000001 Au
atom 10.3955467299999995 37.7811651499999996 2.3710521400000002 Au
atom 13.1093343200000003 37.7457391299999969 2.6496970499999999 Au
atom 15.8840828900000002 37.7253938300000016 2.8752585300000000 Au
atom 18.6722239499999993 37.7772895100000028 2.4019370599999998 Au
atom 21.7612931799999991 37.8410447999999988 2.2553244000000001 Au
atom 24.7843799599999990 37.8313937599999974 2.7105569500000000 Au
atom 27.2824720300000010 37.7789780800000017 2.9654938300000002 Au
atom 1.8460687300000000 37.6637108199999986 2.8563324400000001 Au
atom 4.7341512999999997 37.6118091000000021 2.8010665100000001 Au
atom 8.8850431099999998 0.8644513400000000 2.9203125800000000 Au
atom 11.9497224299999996 0.6468280900000000 3.0143079300000002 Au
atom 14.5770184199999999 0.8391066000000000 2.6748746900000002 Au
atom 17.3261676499999986 0.6837549400000000 2.8577820200000001 Au
atom 20.0567312800000010 0.7601563000000000 2.5309587599999999 Au
atom 23.1224809799999989 0.7957102500000000 2.6393595900000002 Au
atom 25.9106741700000001 0.9203526000000000 2.6184451200000001 Au
atom 0.4797621200000000 0.7271601600000001 2.8222482699999998 Au
atom 3.3715813799999999 0.7643647300000000 2.9513161299999999 Au
atom 5.9970786100000000 0.8001373300000000 2.8815474600000002 Au
atom 7.6063596999999996 3.3467594699999998 3.1398374300000000 Au
atom 10.5274810399999996 3.3048979300000001 3.0735888199999999 Au
atom 13.3327127700000005 3.3348632500000002 2.9431457800000000 Au
atom 16.1629421899999990 3.3515881300000001 2.8871773500000000 Au
atom 18.9281028199999994 3.2595270300000001 2.7996709200000001 Au
atom 21.6714301300000010 3.3162693499999998 2.7364665900000000 Au
atom 24.5655831199999994 3.3254847600000002 2.7363704700000002 Au
atom 27.2990495899999992 3.1328046199999999 2.7514922700000000 Au
atom 1.9633850300000000 3.2256556700000001 2.7849825400000001 Au
atom 4.8584802399999996 3.2625827500000000 3.0053300699999999 Au
atom 9.0939263199999996 5.8549580299999997 2.7919071299999998 Au
atom 11.9234618500000007 5.8382420300000000 2.8059738300000001 Au
atom 14.7531710700000005 5.6764395499999996 2.7097592200000000 Au
atom 17.5530502199999994 5.8387345200000000 2.6460767700000001 Au
atom 20.2829186200000002 5.8390321299999997 2.4510737900000001 Au
atom 23.1083052500000008 5.7713373399999996 2.6641045600000002 Au
atom 25.9327774200000007 5.8169768199999998 2.7366944599999998 Au
atom 0.5559976200000000 5.8507258999999996 2.7403859300000000 Au
atom 3.3473326499999998 5.7375830199999998 2.8510974000000000 Au
atom 6.2976687199999999 5.7133987599999996 2.8977358799999999 Au
atom 7.6661127699999998 8.2343689100000006 2.5193399400000001 Au
atom 10.3538502099999992 8.3390925300000003 2.8101671600000002 Au
atom 13.1947069199999998 8.2234600699999998 2.7351031699999999 Au
atom 16.0972498100000010 8.2512080500000007 2.4977481899999998 Au
atom 18.8115744300000003 8.3607136299999993 2.4300265099999998 Au
atom 21.6577868299999992 8.2011885600000003 2.4357710500000000 Au
atom 24.4680019800000004 8.2268079299999997 2.5030294600000000 Au
atom 27.2170403999999984 8.3693746499999992 2.7267041800000000 Au
atom 1.8914290700000000 8.3746763899999994 2.7379792400000000 Au
atom 4.7928674400000002 8.2306334700000008 2.8056830200000000 Au
atom 8.8987172599999997 10.6893025200000000 2.5684694700000001 Au
atom 11.8006944699999998 10.7522139699999997 2.7651377500000001 Au
atom 14.5656925299999997 10.7105404199999992 2.7081430900000001 Au
atom 17.3045634499999998 10.7286227200000006 2.2748215300000001 Au
atom 20.2584669700000006 10.7466954099999992 2.3617468700000002 Au
atom 23.0819419000000003 10.7407737900000004 2.3092265900000002 Au
atom 25.8881052099999991 10.7801481599999995 2.5547361799999999 Au
atom 0.4258168300000000 10.7187991300000007 2.4030125800000000 Au
atom 3.3383395600000001 10.7549711600000002 2.6559775200000000 Au
atom 6.1030481400000003 10.6186997000000005 2.4489663300000002 Au
atom 7.2294513199999999 13.3367917699999996 5.8420855999999999 Cl
atom 7.3451452399999999 16.0566470499999987 8.4753158400000004 Cl
atom 7.1038584900000004 13.2772775799999998 8.3640561699999996 Na
atom 7.4136633999999999 16.2307350300000017 5.7985723100000000 Na
atom 7.0860032600000000 19.0029859700000010 5.8413178500000003 Cl
atom 7.1720361300000004 21.8456922899999988 8.6749586000000001 Cl
atom 7.3369979499999998 19.1160157599999998 8.4542602700000007 Na
atom 7.2278992799999999 21.7430937299999982 5.8790921699999998 Na
atom 7.1249386699999997 24.6801408500000008 5.8586057599999997 Cl
atom 7.1312871600000003 27.4960529399999984 8.6807170100000004 Cl
atom 7.1537636300000003 24.5957082100000015 8.4473116400000006 Na
atom 7.2110013200000003 27.3650568499999984 5.7909376000000004 Na
atom 7.1474353600000002 30.0256771100000002 5.5691310100000004 Cl
atom 7.0932554500000000 32.8692665499999990 8.4313151400000006 Cl
atom 7.0292187100000003 30.2276548299999988 8.3120386400000008 Na
atom 7.0350746600000003 33.0272630400000011 5.7199361000000000 Na
atom 7.0357112800000001 36.0507330300000035 5.8239379900000001 Cl
atom 7.0852114999999998 38.6514587100000000 8.6439140800000001 Cl
atom 7.0432933100000001 35.8361723200000029 8.4903631900000001 Na
atom 7.3285830900000004 38.7669164899999998 6.0658146899999998 Na
atom 7.2874955699999999 2.0753288300000001 5.9413948400000001 Cl
atom 7.0734092100000003 4.8866568499999996 8.7872976900000008 Cl
atom 7.0078138699999997 2.0154657999999999 8.8562932700000001 Na
atom 7.2229487099999998 4.8676128900000002 6.0097295300000004 Na
atom 7.1887238000000000 7.5001291200000004 5.8033582499999996 Cl
atom 6.9801019300000000 10.4639558899999994 8.5890946499999998 Cl
atom 7.1384774599999998 7.7242046300000000 8.4553327700000001 Na
atom 7.1975997999999999 10.4513986299999999 5.9923586899999997 Na
atom 10.0242239299999998 13.2534230599999994 5.8858814400000004 Na
atom 12.9710935799999998 13.3586620000000007 5.6818307700000004 Cl
atom 10.0642282099999996 16.3485374300000004 8.5565625500000007 Na
atom 12.8698383300000003 16.0192715700000008 8.6039813299999999 Cl
atom 12.9499031000000002 13.2869879999999991 8.4794217199999995 Na
atom 10.3581993600000004 13.1863960799999997 8.5518292000000002 Cl
atom 12.9662230699999999 16.1128390599999989 5.8083792799999996 Na
atom 10.1504006199999992 16.1608145999999984 5.8119675700000002 Cl
atom 10.0937826899999994 18.9778158800000014 5.9391432799999997 Na
atom 12.8015541800000001 18.8891906799999987 5.7259911700000004 Cl
atom 10.1378112700000003 21.8907786100000017 8.4816080300000003 Na
atom 12.8596152499999992 21.6894982499999998 8.5899176700000002 Cl
atom 12.7560140099999995 19.0523126599999983 8.5719604599999997 Na
atom 10.0107505200000002 19.2346393099999986 8.4849100699999997 Cl
atom 12.7334448200000008 21.7599103599999992 5.7745911999999997 Na
atom 10.0813964800000004 21.7995615799999989 5.6994055000000001 Cl
atom 9.8973572799999996 24.5772033100000016 5.9155609199999999 Na
atom 13.0469323399999997 24.4835848799999987 5.7803621900000000 Cl
atom 10.1038276499999995 27.5969143899999985 8.5607226500000007 Na
atom 13.0033873300000007 27.4234374500000015 8.5373456300000008 Cl
atom 12.7911127499999999 24.5389316000000015 8.4031304099999993 Na
atom 9.9449630199999994 24.5661975800000008 8.6501785800000004 Cl
atom 12.8111744099999996 27.2523252300000003 5.8116311999999999 Na
atom 9.9629183599999998 27.1355253900000015 5.9351079300000000 Cl
atom 10.0484768899999999 30.1103920500000015 5.6046355200000004 Na
atom 12.8070956999999996 30.2736257100000010 5.8015318699999998 Cl
atom 10.0426757599999998 32.8684654099999989 8.2643327099999997 Na
atom 12.8645803099999991 32.8555836199999973 8.6892978900000006 Cl
atom 13.0284319400000008 30.1571445199999992 8.4377598500000008 Na
atom 10.1069542600000002 30.1124222999999986 8.2816868199999991 Cl
atom 12.9183575299999998 32.9778036299999968 5.8869129100000004 Na
atom 9.7905224000000004 33.1547205199999979 5.6993723999999997 Cl
atom 10.0186269100000001 36.1372973599999980 5.7026018599999997 Na
atom 12.7200281799999999 35.6674300399999993 5.8991502400000000 Cl
atom 9.9786480599999994 38.5830095399999990 8.6462906900000007 Na
atom 12.9835453899999997 38.4719146699999968 8.6253023899999999 Cl
atom 12.7604737700000008 35.5993118000000024 8.5378104599999993 Na
atom 9.8787987099999999 35.7556431599999982 8.3896897300000006 Cl
atom 12.6741754899999997 38.5020118600000032 6.0013057900000000 Na
atom 9.9894706099999997 38.6849820400000013 5.7596584999999996 Cl
atom 9.8228374800000005 2.0274421899999999 6.0153096499999998 Na
atom 12.7475830699999992 1.8749842600000000 5.8453083799999996 Cl
atom 9.8998627199999998 4.9699905600000003 8.6878206700000007 Na
atom 12.9437791099999995 4.6621092900000001 8.5847148900000008 Cl
atom 12.4910385500000007 1.9856777299999999 8.4091857799999996 Na
atom 10.0814672000000005 2.0588598899999999 8.7410775300000001 Cl
atom 12.8548203300000008 4.6413120599999997 5.9263225799999999 Na
atom 10.0652082299999996 4.8171447100000000 5.8512516999999997 Cl
atom 10.0339772299999996 7.5393631000000001 6.1528299100000003 Na
atom 12.8697139699999994 7.5793912600000004 5.8474029900000000 Cl
atom 10.1249280499999994 10.4449392299999992 8.6005813300000007 Na
atom 12.9216095000000006 10.4184302500000001 8.4453161300000001 Cl
atom 12.8537981099999996 7.6974682600000000 8.3806849400000001 Na
atom 10.1143766100000008 7.7224598999999996 8.7971170099999991 Cl
atom 12.7619645100000003 10.4663168899999999 5.8664676199999999 Na
atom 10.1158395700000003 10.4014993300000000 5.9412231799999997 Cl
atom 15.7325783399999999 13.3866305800000003 5.5581701099999998 Na
atom 18.5143467299999998 13.3329370600000008 5.6051774800000000 Cl
atom 15.5961793300000000 16.2894019900000018 8.3389198199999992 Na
atom 18.4365551100000005 16.2241983300000001 8.4827415199999994 Cl
atom 18.4538191100000013 13.3911712299999994 8.3226367999999997 Na
atom 15.6663171899999991 13.3371966299999993 8.4499864000000002 Cl
atom 18.4177498600000007 16.3363891899999985 5.7301326699999997 Na
atom 15.6923868700000000 16.1186899299999986 5.5844965799999997 Cl
atom 15.4608337099999993 18.9900396399999991 5.7922617499999998 Na
atom 18.5292651299999989 19.0195637700000013 5.4941420799999996 Cl
atom 15.7322938699999995 21.7076487200000017 8.3924895799999994 Na
atom 18.6095815800000004 21.7845306399999998 8.5084810300000004 Cl
atom 18.5667111600000005 19.0994522800000013 8.0928810200000001 Na
atom 15.6126925599999993 18.9022449100000003 8.5063499799999995 Cl
atom 18.6546196299999991 21.8524922599999982 5.5917479200000004 Na
atom 15.8316812500000008 21.6976810700000016 5.7370648700000002 Cl
atom 15.7453224699999996 24.5508015300000011 5.8485107599999999 Na
atom 18.6483711099999994 24.5633130599999987 5.6638326699999997 Cl
atom 15.7403721799999996 27.1980437399999992 8.5654532099999994 Na
atom 18.5619643200000013 27.3141751200000016 8.5262543300000004 Cl
atom 18.4500940799999995 24.5310264999999994 8.4418072800000008 Na
atom 15.5882378999999993 24.4272010500000007 8.6421447899999997 Cl
atom 18.6039857700000013 27.2596498099999991 5.7861422400000002 Na
atom 15.6574690499999996 27.3227835200000015 5.8917968500000004 Cl
atom 15.6546040299999998 30.0158859800000002 5.7984792399999998 Na
atom 18.3574004399999993 30.2004846700000016 5.5587795199999999 Cl
atom 15.7102210299999996 32.8068191300000009 8.3885342400000003 Na
atom 18.6427201199999999 32.8154599300000029 8.4776051100000007 Cl
atom 18.5159002000000008 30.0962222100000005 8.2167612299999995 Na
atom 15.6834985000000007 30.1610104499999991 8.5307785900000006 Cl
atom 18.4551679499999999 33.0453912999999986 5.8308519199999997 Na
atom 15.7101660499999998 33.0494043500000032 5.7128588000000002 Cl
atom 15.6241213499999994 35.7262705799999978 5.9803239699999997 Na
atom 18.3974967599999992 36.0379819899999987 5.7156203600000000 Cl
atom 15.5088727700000000 38.5085549499999971 8.1025789100000001 Na
atom 18.3706424999999989 38.6146773099999976 8.5239124400000001 Cl
atom 18.4560440499999991 35.8839816699999972 8.4042935199999995 Na
atom 15.7674122899999993 35.6606456600000001 8.7472923500000004 Cl
atom 18.3190057800000012 38.6178426600000009 5.8483731399999996 Na