#===============================================================================
# Created using the Atomic Simulation Environment (ASE)

# Tue Dec 23 21:42:30 2025

#=======================================================
lattice_vector 28.1999999999999993 0.0000000000000000 0.0000000000000000 
lattice_vector 0.0000000000000000 39.4799999999999969 0.0000000000000000 
lattice_vector 0.0000000000000000 0.0000000000000000 62.3296083400000001 
atom 7.5552728900000004 14.8602455599999992 0.0033238200000000 Au
atom 10.3384188399999992 14.7721943400000004 0.0284034200000000 Au
atom 13.1700390100000000 14.7640610100000007 -0.0863046900000000 Au
atom 15.9576901000000007 14.8298352500000004 0.0202640900000000 Au
atom 18.7733555999999986 14.8095382999999998 0.1649973900000000 Au
atom 21.5916044599999992 14.8261522400000008 -0.0547071100000000 Au
atom 24.3829865199999993 14.8266897300000000 -0.0313143900000000 Au
atom 27.2393255299999986 14.8201134000000003 0.0022701200000000 Au
atom 1.8693749799999999 14.8445709099999998 0.0888687300000000 Au
atom 4.7306711699999999 14.7431246799999993 -0.0104117200000000 Au
atom 8.9764612400000008 17.3201594199999995 0.0254922900000000 Au
atom 11.7317038700000005 17.2194275300000008 -0.0088031200000000 Au
atom 14.5184365399999997 17.2898842100000003 0.0066125200000000 Au
atom 17.3919279700000011 17.2899511699999984 -0.1108923100000000 Au
atom 20.1641995200000004 17.2833325400000000 0.0872401500000000 Au
atom 22.9994715899999989 17.3057991700000002 -0.0064436800000000 Au
atom 25.8226531000000001 17.2396078899999985 -0.0055957300000000 Au
atom 0.4641218500000000 17.3083010900000005 0.0422083600000000 Au
atom 3.3130673700000002 17.2515673599999992 0.0892680100000000 Au
atom 6.1564467799999996 17.2560836299999991 -0.0579395000000000 Au
atom 7.5062524200000000 19.7889674599999985 0.1727878100000000 Au
atom 10.3535178099999996 19.8296764199999984 0.0368993500000000 Au
atom 13.1179506600000000 19.7234532800000011 0.1431947600000000 Au
atom 15.9846015799999996 19.7688572299999983 0.0168563500000000 Au
atom 18.8154141499999987 19.7420875900000006 0.2389659900000000 Au
atom 21.5996958399999990 19.7846300100000008 0.0322133100000000 Au
atom 24.4252747600000006 19.7330310100000013 0.0948873300000000 Au
atom 27.2120454999999986 19.6765791000000014 -0.0247319300000000 Au
atom 1.9058815200000001 19.7058153099999984 0.0166300200000000 Au
atom 4.6996832099999999 19.7259845600000006 -0.0002272500000000 Au
atom 8.9343017000000007 22.1978486699999991 0.1717042500000000 Au
atom 11.7754322800000004 22.2147964599999987 0.1874245300000000 Au
atom 14.5883715600000006 22.2231171399999994 0.2001319400000000 Au
atom 17.3636918000000016 22.1996098000000011 0.1887297900000000 Au
atom 20.2141061700000009 22.2313944700000015 0.1598726900000000 Au
atom 23.0470581400000007 22.2635293899999986 0.0718323900000000 Au
atom 25.8566027100000007 22.1937340799999987 0.0523764700000000 Au
atom 0.4703427100000000 22.1722351099999990 -0.0279109200000000 Au
atom 3.2623875999999998 22.1681645399999994 -0.0026933800000000 Au
atom 6.0991447200000000 22.1964288500000002 0.1928875100000000 Au
atom 7.5029620499999998 24.6593671999999984 0.1157132700000000 Au
atom 10.3490748600000000 24.6234304199999983 0.0863025200000000 Au
atom 13.1450091400000009 24.6565141099999998 0.2010985900000000 Au
atom 15.9791507799999994 24.7432649299999987 0.1046020200000000 Au
atom 18.8016497200000003 24.6988240899999987 0.2205264300000000 Au
atom 21.6846015200000011 24.7140118599999994 0.2298865800000000 Au
atom 24.4984723100000004 24.6843126300000009 0.1477231700000000 Au
atom 27.2855870799999991 24.6288425999999987 0.1959927100000000 Au
atom 1.9155082000000001 24.6944407000000012 0.0867691800000000 Au
atom 4.6957354400000000 24.6602832999999997 0.2136838100000000 Au
atom 8.9813395099999997 27.0814703399999992 -0.0964221300000000 Au
atom 11.6850530100000007 27.1143519200000007 0.0118105400000000 Au
atom 14.5437895299999997 27.1243343299999999 0.0227434900000000 Au
atom 17.3707153100000014 27.1761842199999997 0.2162969800000000 Au
atom 20.2433346599999986 27.2104510899999994 0.1153724800000000 Au
atom 23.0417297599999991 27.1279797599999988 0.2294596100000000 Au
atom 25.8667327200000017 27.1634742899999999 0.1013081200000000 Au
atom 0.4367769900000000 27.1271428300000004 0.0643013000000000 Au
atom 3.2719839700000000 27.1283012399999990 0.0476540200000000 Au
atom 6.0799271900000003 27.0747965000000015 -0.0430347700000000 Au
atom 7.4462300099999998 29.5774287300000012 -0.0703089900000000 Au
atom 10.2791510600000002 29.6085260099999985 0.0499736800000000 Au
atom 13.1028934300000000 29.5518971700000002 0.0862456500000000 Au
atom 15.9799552600000005 29.5822053199999999 0.0414460100000000 Au
atom 18.8607903599999993 29.5710273400000005 0.0492345800000000 Au
atom 21.6735700800000011 29.6417828700000001 0.0392491200000000 Au
atom 24.4533198100000000 29.5947957200000005 0.0223918000000000 Au
atom 27.2723642700000006 29.5739644900000016 0.0242681000000000 Au
atom 1.8689877399999999 29.5730274400000006 0.0313709800000000 Au
atom 4.6531151499999996 29.6028665900000014 -0.0796774800000000 Au
atom 8.8757383000000001 32.0492438200000009 -0.0490311100000000 Au
atom 11.6611863499999995 32.0699060900000035 -0.0115866500000000 Au
atom 14.5640015799999993 32.0601117699999989 0.0050409500000000 Au
atom 17.3821322299999999 32.0269695900000002 -0.0639297000000000 Au
atom 20.1999627299999993 32.1055614899999995 0.0401188200000000 Au
atom 23.0670214800000011 32.0898232699999966 -0.1338939800000000 Au
atom 25.8832608600000000 32.1119828300000023 0.0723040800000000 Au
atom 0.4542164400000000 32.0574433600000006 -0.0268865400000000 Au
atom 3.2648372299999999 32.1061403900000002 0.0052182700000000 Au
atom 6.0455765699999997 32.0643665099999993 0.1067767200000000 Au
atom 7.5076527200000003 34.5577924099999976 -0.0210400200000000 Au
atom 10.3181182899999992 34.5459152199999977 -0.0934977700000000 Au
atom 13.1405749800000002 34.5288184699999974 -0.0525136500000000 Au
atom 15.9495894800000002 34.5361049300000005 -0.1338660600000000 Au
atom 18.7913971099999983 34.5838424000000018 0.0235475400000000 Au
atom 21.5925996399999995 34.5431377399999988 -0.0071373000000000 Au
atom 24.4271649500000017 34.5998939899999982 -0.0596342200000000 Au
atom 27.2344109500000009 34.5930062300000003 -0.0766984900000000 Au
atom 1.8456514200000000 34.5636650399999965 -0.0028965300000000 Au
atom 4.6744597399999996 34.5063930499999998 0.0337637600000000 Au
atom 8.9392509600000007 37.0282870899999992 0.0501527600000000 Au
atom 11.7566385699999998 37.0326420900000031 -0.0093903600000000 Au
atom 14.5438481300000007 37.0224057699999989 0.0989708700000000 Au
atom 17.3371293800000004 36.9893544999999975 0.0689119800000000 Au
atom 20.2256844099999995 37.0133606400000019 0.0265521400000000 Au
atom 23.0683638199999983 37.0256231600000021 -0.0185498700000000 Au
atom 25.8780587799999999 37.1010976900000031 -0.0808368600000000 Au
atom 0.4712414600000000 37.0948741400000017 -0.0111123200000000 Au
atom 3.3080052400000000 37.0227595799999989 -0.0827541100000000 Au
atom 6.1345381000000003 36.9993226599999971 -0.0298526300000000 Au
atom 7.4637707899999999 -0.0047121000000000 -0.0129675600000000 Au
atom 10.2991171900000005 -0.0466862900000000 0.2109070900000000 Au
atom 13.1430147500000007 0.0163926300000000 -0.0757911900000000 Au
atom 16.0007150299999985 -0.0340522100000000 0.1661103500000000 Au
atom 18.8286573699999984 -0.0266296900000000 0.0897143500000000 Au
atom 21.6161943900000004 -0.0040961900000000 -0.0643932500000000 Au
atom 24.3733318899999993 0.0092856000000000 0.0879929100000000 Au
atom 27.2152292600000010 0.0399832600000000 0.2233900500000000 Au
atom 1.8926330200000001 0.0195385500000000 0.0773322100000000 Au
atom 4.6960195400000000 -0.0177136100000000 0.1037235600000000 Au
atom 8.8586080400000000 2.4486709300000000 0.0404463100000000 Au
atom 11.7087979999999998 2.4153079599999998 -0.0123703800000000 Au
atom 14.5745594799999996 2.4393125100000002 0.0375896000000000 Au
atom 17.4108250099999999 2.3925415499999998 0.0975901200000000 Au
atom 20.2124600399999999 2.4627652499999999 0.1361314300000000 Au
atom 22.9972150900000010 2.4951502500000000 0.0574396500000000 Au
atom 25.8514080499999999 2.4382649999999999 0.0909273700000000 Au
atom 0.5205944000000000 2.4868805400000000 0.1279391000000000 Au
atom 3.3366102500000001 2.4375607399999999 0.1058864700000000 Au
atom 6.0953786699999997 2.4963728900000000 0.0865724700000000 Au
atom 7.5067369299999998 4.9190519699999999 0.0544544200000000 Au
atom 10.3405190299999994 4.9241416899999999 0.1052558300000000 Au
atom 13.1127655200000000 4.8875346999999998 0.2034961100000000 Au
atom 15.9997553900000007 4.8981386499999999 0.1435605000000000 Au
atom 18.8169360899999987 4.9023706699999998 0.1255008700000000 Au
atom 21.6317879899999994 4.9717377899999997 0.1585219400000000 Au
atom 24.4526613300000015 4.9124212600000003 -0.0056918700000000 Au
atom 27.2279799300000001 4.9246873999999998 0.1065227600000000 Au
atom 1.8909093200000000 4.9406237099999997 0.1151621700000000 Au
atom 4.7098226299999997 4.9143205800000000 0.1877664000000000 Au
atom 8.8979993099999994 7.3690265100000003 0.0309162300000000 Au
atom 11.7898732200000005 7.3630699699999997 0.1442794700000000 Au
atom 14.6299538200000008 7.3270486899999998 0.1220958700000000 Au
atom 17.4423364599999999 7.3838466399999998 0.2522801900000000 Au
atom 20.2592433499999984 7.4354775599999998 0.0904222100000000 Au
atom 23.0344619399999999 7.4391182300000001 0.0244751800000000 Au
atom 25.8347656900000011 7.3894136699999997 0.1703364100000000 Au
atom 0.4322514000000000 7.4302324500000001 0.1543555700000000 Au
atom 3.2649280900000002 7.4095376599999998 0.0860905100000000 Au
atom 6.1267537000000001 7.4020630599999997 0.0823249700000000 Au
atom 7.5544673500000004 9.8863694199999994 -0.0408508700000000 Au
atom 10.3215564799999999 9.7990131900000002 -0.0079691800000000 Au
atom 13.1404905599999999 9.8404832399999993 -0.0342039800000000 Au
atom 15.9578069899999999 9.8080164199999995 0.0179489800000000 Au
atom 18.7731666299999986 9.8284240900000004 0.0042609900000000 Au
atom 21.6215856600000009 9.9082980500000009 0.0103544100000000 Au
atom 24.4811545600000002 9.8058874599999992 0.0140960700000000 Au
atom 27.2655061900000000 9.8741393899999998 -0.0591293800000000 Au
atom 1.8548457199999999 9.8206688100000008 -0.0175800000000000 Au
atom 4.7035261700000000 9.8636659000000009 0.0313712300000000 Au
atom 8.9367238600000007 12.3253400600000003 -0.0806351000000000 Au
atom 11.7582762899999995 12.3297466500000006 -0.0499806300000000 Au
atom 14.5813544600000000 12.3400257300000007 0.0301497100000000 Au
atom 17.3818385100000015 12.3309858200000004 -0.0395820300000000 Au
atom 20.1474322800000003 12.3163612300000000 -0.1066455700000000 Au
atom 22.9779101799999985 12.3079455800000002 -0.0710351100000000 Au
atom 25.8105691600000000 12.3359292800000002 -0.0022583600000000 Au
atom 0.4641042300000000 12.3413735100000004 -0.0329042300000000 Au
atom 3.2551953299999998 12.3420301299999995 0.0725428200000000 Au
atom 6.1417161800000004 12.3145867100000004 -0.0392783000000000 Au
atom 7.5204285300000002 13.2005750400000004 2.5837972900000001 Au
atom 10.3398069400000008 13.1886814599999997 2.5845272100000001 Au
atom 13.1703225100000001 13.2270650100000005 2.5781776600000001 Au
atom 15.9915037400000006 13.2190317700000008 2.5805945100000001 Au
atom 18.7825348900000009 13.1924645399999996 2.6458329500000000 Au
atom 21.5961231200000014 13.1983701999999994 2.5110760299999999 Au
atom 24.4096079999999986 13.1857466799999994 2.5845134700000001 Au
atom 27.2632076199999993 13.2084426599999993 2.5549692199999998 Au
atom 1.9182898100000001 13.2167697400000002 2.6520310800000000 Au
atom 4.7438942700000002 13.1907315999999994 2.5325971799999998 Au
atom 8.9010286500000007 15.6790018100000008 2.6492880400000001 Au
atom 11.7718664600000000 15.6397736599999995 2.5740656899999999 Au
atom 14.5333151899999997 15.6641146800000008 2.5904627699999998 Au
atom 17.4239160899999987 15.6733841199999997 2.6319646699999999 Au
atom 20.1944231700000003 15.6505465200000007 2.7119296799999999 Au
atom 22.9936523500000014 15.6538336400000002 2.5760515100000001 Au
atom 25.8210513400000004 15.6533869100000000 2.6159223200000001 Au
atom 0.5035923100000000 15.6939294999999994 2.6690935900000001 Au
atom 3.3442662799999998 15.6675377200000003 2.6913180600000000 Au
atom 6.0940076699999999 15.7004149799999997 2.5344788000000000 Au
atom 7.5618639099999996 18.1225588000000002 2.7124484299999998 Au
atom 10.3541175800000005 18.1341399999999986 2.5761729000000000 Au
atom 13.1170047299999997 18.0696997599999989 2.6208768800000000 Au
atom 15.9609667500000008 18.0935264599999996 2.5000810699999998 Au
atom 18.7299116199999993 18.1324390000000015 2.7010033700000000 Au
atom 21.5881934300000005 18.1154892300000014 2.6519518199999998 Au
atom 24.3795217999999991 18.0602464299999994 2.7267950800000000 Au
atom 27.2166794699999990 18.1312849999999983 2.6238060499999998 Au
atom 1.8675633800000000 18.1324143400000004 2.6709992400000000 Au
atom 4.7044833500000003 18.1490164800000002 2.5814087300000002 Au
atom 8.9267824800000000 20.6152930300000001 2.8196756500000002 Au
atom 11.7121224799999997 20.5421690900000016 2.8238591000000000 Au
atom 14.5336256699999993 20.5677792799999999 2.7274447099999999 Au
atom 17.3104854999999986 20.5808315700000009 2.8049195099999999 Au
atom 20.2195556100000005 20.5890690200000002 2.7649501200000000 Au
atom 23.0114790599999992 20.5382787899999997 2.6754904599999998 Au
atom 25.8209677000000006 20.5611897500000005 2.7113100299999999 Au
atom 0.4901626100000000 20.5865611000000008 2.6509783800000002 Au
atom 3.3025464900000001 20.6090049999999998 2.6505796400000001 Au
atom 6.0999393599999996 20.5624653799999990 2.7611510600000000 Au
atom 7.5717400799999997 23.1133173300000010 2.7632247599999999 Au
atom 10.3384099799999998 23.0725075699999991 2.8188558000000001 Au
atom 13.1418087600000000 23.0203272100000014 2.8015976299999998 Au
atom 15.9638010599999998 23.1175983699999996 2.7255532300000000 Au
atom 18.8339537099999994 23.0117125999999992 2.7861427000000001 Au
atom 21.6421701400000011 23.0756645999999996 2.6921360900000000 Au
atom 24.4361283399999998 23.0308045200000002 2.6161218399999999 Au
atom 27.2403528299999991 23.0248790499999991 2.7060419900000001 Au
atom 1.9246327400000001 23.0497839999999989 2.5582410699999998 Au
atom 4.7410185100000000 23.1337906500000017 2.7702240599999999 Au
atom 8.8929935400000009 25.5759666999999986 2.7017596500000001 Au
atom 11.7201588700000006 25.5359638900000014 2.7712772999999999 Au
atom 14.5159940100000000 25.5284694600000002 2.7759315199999999 Au
atom 17.3896132200000011 25.5326820900000016 2.7937562400000000 Au
atom 20.2089109799999989 25.5348269899999991 2.7696346699999999 Au
atom 23.0720873399999995 25.5382181099999990 2.8869456200000001 Au
atom 25.8243576499999996 25.5809960700000012 2.7374711899999999 Au
atom 0.4350396000000000 25.5751102599999989 2.7218337799999999 Au
atom 3.2616524600000001 25.5522644399999983 2.6685862299999998 Au
atom 6.0908899800000000 25.5837128900000010 2.7365856800000001 Au
atom 7.4988399499999998 28.0257153300000006 2.4769882700000001 Au
atom 10.3655910799999997 28.0441559900000001 2.6943242100000000 Au
atom 13.1412888199999998 27.9846445300000006 2.6896778399999999 Au
atom 15.9282722799999998 28.0109660699999985 2.6668275299999999 Au
atom 18.8024053500000008 28.0206901299999984 2.6319939699999999 Au
atom 21.6251750700000009 28.0024551300000013 2.7721586899999999 Au
atom 24.4181324699999998 28.0739655600000013 2.7395615499999999 Au
atom 27.2206125099999987 28.0268419500000014 2.7391285100000000 Au
atom 1.8349168700000000 28.0421333399999995 2.6649697600000000 Au
atom 4.6646442500000003 27.9928069300000004 2.5191745100000000 Au
atom 8.8939228799999999 30.4568878199999986 2.6174083800000001 Au
atom 11.7068734100000000 30.4959113500000001 2.6544354800000001 Au
atom 14.5131060299999994 30.4771245600000000 2.6184603800000001 Au
atom 17.3760193899999997 30.4669100600000000 2.5845723199999999 Au
atom 20.1865508399999989 30.5088446799999993 2.6225490300000001 Au
atom 23.0041171999999996 30.5115481899999992 2.5778383100000002 Au
atom 25.8429830400000000 30.4849260099999988 2.5918625899999999 Au
atom 0.4469764900000000 30.4379017000000012 2.6768708900000000 Au
atom 3.2528070400000000 30.4988665599999997 2.5972770800000000 Au
atom 6.0746674000000001 30.4650929499999990 2.6299910199999998 Au
atom 7.5222244700000003 32.8811840199999992 2.5854174599999999 Au
atom 10.2774685199999993 32.9388399099999987 2.6189496700000001 Au
atom 13.1152646399999995 32.8984335999999971 2.5542706300000000 Au
atom 15.9386357400000005 32.9427056800000031 2.5547018200000000 Au
atom 18.7420667799999983 32.9301891799999993 2.5802931199999999 Au
atom 21.5867986800000011 32.9429282099999980 2.5832142700000000 Au
atom 24.4211491000000009 32.9615837999999997 2.4528294100000001 Au
atom 27.2234710000000000 32.9331730500000006 2.7040228100000001 Au
atom 1.8017690300000000 32.9277209500000012 2.5504085399999998 Au
atom 4.6739173999999997 32.9580395600000031 2.7634980400000000 Au
atom 8.9341249600000001 35.3798833900000034 2.5700338500000002 Au
atom 11.7204495000000009 35.3918644600000007 2.4637888399999999 Au
atom 14.5427290399999993 35.3611850200000006 2.6011722800000001 Au
atom 17.3786322999999996 35.3333834199999970 2.5455942100000000 Au
atom 20.1847283799999992 35.4006289499999980 2.6435330499999998 Au
atom 23.0068053399999997 35.3777178400000025 2.6105654500000002 Au
atom 25.7856057700000001 35.4198879099999999 2.4843866700000001 Au
atom 0.3985056400000000 35.4491833700000001 2.5296651099999998 Au
atom 3.1795065299999998 35.3653310799999971 2.5947907699999999 Au
atom 6.0900394899999997 35.3592164299999965 2.5815981699999999 Au
atom 7.5062133500000003 37.9125708700000033 2.5627944100000000 Au
atom 10.3406984299999998 37.8266305399999965 2.7703612500000001 Au
atom 13.1897578800000002 37.8799662300000008 2.6025110599999999 Au
atom 15.9938761899999999 37.7900653199999965 2.8322559699999998 Au
atom 18.7857292600000001 37.8441526200000027 2.6535707600000000 Au
atom 21.6183105799999993 37.8606370600000020 2.5394043900000001 Au
atom 24.4456363199999984 37.8256074299999980 2.6543497800000000 Au
atom 27.2535197899999986 37.8758076000000017 2.7267743599999998 Au
atom 1.8682616999999999 37.8459380299999992 2.5233349299999999 Au
atom 4.6551444599999998 37.8039700699999983 2.6823044399999998 Au
atom 8.9121612599999995 0.8902725200000000 2.7105765800000001 Au
atom 11.7608543000000001 0.8118001500000001 2.7148268500000001 Au
atom 14.4976187900000006 0.7768730000000000 2.6129175800000000 Au
atom 17.3995425399999988 0.7800419800000000 2.7442808599999999 Au
atom 20.1945276800000002 0.8684142900000000 2.6638538999999999 Au
atom 22.9910871800000010 0.8216199700000000 2.7089751199999998 Au
atom 25.7760702600000009 0.8152761900000000 2.7820647799999998 Au
atom 0.4872295900000000 0.8772166600000000 2.8875034999999998 Au
atom 3.2700305400000000 0.7713756400000000 2.7196389600000002 Au
atom 6.0670622700000001 0.8808313100000000 2.7115271800000000 Au
atom 7.5225709299999997 3.3249093799999998 2.6684713499999999 Au
atom 10.3466751800000001 3.2669860800000001 2.5811294000000000 Au
atom 13.1193925799999995 3.3252244200000001 2.6335960699999998 Au
atom 15.9654329799999992 3.2433176900000000 2.6565076699999999 Au
atom 18.7581633699999983 3.4044928300000001 2.7890486200000000 Au
atom 21.5788998300000010 3.3134371699999998 2.7627838800000002 Au
atom 24.3988939199999990 3.3179602799999999 2.6055516999999999 Au
atom 27.2443568599999999 3.3020268100000001 2.6722627900000000 Au
atom 1.8791378800000000 3.3120979300000002 2.6965474999999999 Au
atom 4.6711964699999999 3.3351177800000000 2.7949711200000000 Au
atom 8.9003036699999996 5.7946090300000002 2.6804049399999998 Au
atom 11.7200657400000008 5.7867165700000003 2.8337219400000002 Au
atom 14.5796780899999998 5.8025093400000003 2.7872491799999999 Au
atom 17.3886005399999988 5.8068278600000003 2.7851609900000001 Au
atom 20.2003690200000001 5.8468747900000002 2.7061839700000001 Au
atom 23.0243582199999999 5.7841693200000002 2.6453300799999999 Au
atom 25.8301868100000007 5.8197788299999997 2.6950766900000001 Au
atom 0.4105947300000000 5.7801451999999998 2.7064498200000000 Au
atom 3.2761469000000001 5.8624523499999999 2.7902996500000001 Au
atom 6.1198232099999998 5.8560918600000003 2.8051554200000002 Au
atom 7.5266659899999997 8.3173280999999992 2.6892764200000001 Au
atom 10.3360825300000005 8.2203057400000006 2.6427032399999999 Au
atom 13.1376328600000001 8.3425203400000001 2.6371015700000000 Au
atom 15.9632519199999994 8.2565954099999992 2.7462050200000001 Au
atom 18.7833808799999993 8.2974413600000005 2.7759067499999999 Au
atom 21.6323619100000002 8.3020909500000002 2.6410171600000001 Au
atom 24.4061045599999993 8.2681349199999996 2.8561290499999998 Au
atom 27.2580929099999985 8.2548105500000002 2.7390590100000001 Au
atom 1.8892278899999999 8.2963444800000001 2.6897515200000002 Au
atom 4.6578192800000000 8.2903683600000004 2.6320258100000000 Au
atom 8.9764869500000000 10.7411676099999998 2.5253317900000001 Au
atom 11.7804491099999993 10.7588835899999999 2.5877581599999999 Au
atom 14.6348592699999998 10.7610656000000002 2.5727636999999999 Au
atom 17.4366315000000007 10.7429964299999998 2.5419976499999999 Au
atom 20.2515973199999983 10.7590400499999994 2.5755986100000001 Au
atom 23.0361535300000000 10.7485600699999999 2.6681317500000001 Au
atom 25.8312922200000017 10.6998724900000006 2.5713190300000002 Au
atom 0.4448583400000000 10.7377243599999996 2.5898689500000001 Au
atom 3.2856436400000000 10.7311770200000005 2.6100684200000002 Au
atom 6.1499224899999998 10.7385531800000003 2.5769404100000002 Au
atom 7.4854775399999998 13.1888965200000001 5.6791151400000004 Cl
atom 7.4628780399999997 15.9969735699999998 8.5745151600000007 Cl
atom 7.4884608999999998 13.2197755000000008 8.3030995900000004 Na
atom 7.5227653400000003 16.0507088499999995 5.7747118300000002 Na
atom 7.4890885500000000 18.8456404800000001 5.7895852000000003 Cl
atom 7.4535382600000002 21.6875900299999991 8.5844991499999992 Cl
atom 7.5007387400000001 18.7869572900000001 8.3648035099999998 Na
atom 7.4662032900000002 21.5872186299999989 5.8227844600000003 Na
atom 7.4479456400000004 24.4719038900000001 5.8072025900000002 Cl
atom 7.4994512799999997 27.2342718899999987 8.5639530300000004 Cl
atom 7.4702834700000000 24.4074844099999986 8.4195797599999995 Na
atom 7.4794700599999997 27.2588804200000006 5.8345026200000003 Na
atom 7.5426792999999996 30.1071232699999989 5.6736773200000004 Cl
atom 7.5178948500000002 32.8920036700000011 8.6920541000000000 Cl
atom 7.5499169400000001 30.0607022000000015 8.3668590199999997 Na
atom 7.4985751399999998 32.9194785600000017 5.9034690699999999 Na
atom 7.5273789700000000 35.7294286500000027 5.7206725199999999 Cl
atom 7.4643930699999999 38.5541729700000033 8.5966696200000001 Cl
atom 7.5571971099999997 35.7112417700000009 8.4096035499999999 Na
atom 7.5234592500000002 38.6387344700000028 5.8431126500000001 Na
atom 7.5618420500000001 1.9134461700000001 5.7739651199999997 Cl
atom 7.4258283499999997 4.7176516900000003 8.5943375199999998 Cl
atom 7.5658320699999999 1.9059996299999999 8.4309851699999996 Na
atom 7.4779055000000003 4.7079650199999996 5.8970263100000002 Na
atom 7.5178857600000004 7.5103450900000004 5.6776755200000002 Cl
atom 7.4923087199999996 10.3359765499999998 8.6231700100000008 Cl
atom 7.5192471500000000 7.5657982800000001 8.3959731600000005 Na
atom 7.4407792099999996 10.2974008200000000 5.8097894999999999 Na
atom 10.4157647900000008 13.1591037899999996 5.7658387199999996 Na
atom 13.2525028599999999 13.2803690900000007 5.8906983300000002 Cl
atom 10.3440848699999997 15.9773566900000006 8.3225894399999998 Na
atom 13.1580102599999993 16.0506643300000000 8.5425735500000002 Cl
atom 13.0889786099999998 13.1309857000000001 8.4921364399999995 Na
atom 10.2432733799999998 13.2519226499999991 8.6276574000000004 Cl
atom 13.1662146500000006 16.0435679700000016 5.7956330600000001 Na
atom 10.3735649399999996 15.9373693500000009 5.7172964200000003 Cl
atom 10.3264399800000000 18.8574499399999986 5.7966885399999999 Na
atom 13.1612446199999997 18.9205044499999993 5.6946341000000000 Cl
atom 10.2909023699999995 21.6270717899999987 8.4371107100000007 Na
atom 13.1086087899999999 21.6254181800000005 8.5988457700000005 Cl
atom 13.1086903400000008 18.8567240100000006 8.3885231900000008 Na
atom 10.3368082000000001 18.8247444299999991 8.6084746699999997 Cl
atom 13.1296107800000001 21.7042147800000009 5.8462461399999999 Na
atom 10.2507751000000003 21.6734179199999986 5.8263334499999999 Cl
atom 10.3213041800000003 24.4750338200000002 5.9491727399999998 Na
atom 13.1655965599999991 24.4859496700000001 5.9264163300000003 Cl
atom 10.2632315799999994 27.2706263200000016 8.4504590299999993 Na
atom 13.1107373099999993 27.3341721600000014 8.7200536199999998 Cl
atom 13.1263678400000003 24.4772734599999993 8.5472319599999995 Na
atom 10.3099006200000005 24.4977748300000009 8.7257741200000005 Cl
atom 13.1368570699999996 27.2292906099999996 5.9434851999999996 Na
atom 10.3693161099999998 27.2149551599999988 5.8123525899999997 Cl
atom 10.3273421299999999 30.0323890099999993 5.8547817300000000 Na
atom 13.1135337399999994 30.0854115799999988 5.7859927300000003 Cl
atom 10.2762337099999996 32.8933096299999974 8.4587143400000002 Na
atom 13.1325079799999997 32.8585513900000024 8.5936913100000005 Cl
atom 13.1152817000000006 30.0953035500000006 8.4561912199999991 Na
atom 10.2673601800000007 30.0574768799999994 8.6100305699999993 Cl
atom 13.0825511100000007 32.9056386800000027 5.8808496799999999 Na
atom 10.2601059600000006 32.9472572999999969 5.8202058799999996 Cl
atom 10.3574966699999997 35.7372531700000025 5.8904893500000002 Na
atom 13.0672146799999993 35.7892992100000029 5.8232166000000003 Cl
atom 10.3052334000000005 38.5834463200000002 8.4739080799999993 Na
atom 13.1075523199999999 38.5540591899999967 8.7127898600000009 Cl
atom 13.1174835499999993 35.7024869899999970 8.4765739500000006 Na
atom 10.2783361299999996 35.7908169999999970 8.6747963000000006 Cl
atom 13.0794070999999992 38.5582987800000012 5.9119537400000004 Na
atom 10.2796469399999992 38.6128695700000009 5.7842632900000002 Cl
atom 10.3424412300000004 1.9140190399999999 5.7662743200000000 Na
atom 13.1699548100000001 1.9291957200000001 5.8234335899999996 Cl
atom 10.3086122099999997 4.7054035000000001 8.4850358999999997 Na
atom 13.0994614699999996 4.6866981200000000 8.6190234199999995 Cl
atom 13.1224570299999996 1.8372774999999999 8.4256923399999994 Na
atom 10.3295124699999992 1.8148023200000001 8.6144272999999991 Cl
atom 13.1590328200000002 4.7606155699999997 5.8672541000000002 Na
atom 10.3356966200000002 4.6889705700000004 5.8365373099999998 Cl
atom 10.3071486900000000 7.5036199699999999 5.8393871900000001 Na
atom 13.0580070999999993 7.5439806200000001 5.8107779199999996 Cl
atom 10.2483945999999992 10.4817609800000007 8.4853080100000007 Na
atom 13.0389325199999995 10.4397888800000000 8.5987483299999994 Cl
atom 13.0116683000000002 7.6269920000000004 8.4364343300000009 Na
atom 10.2500347699999992 7.5025838299999998 8.6491464800000006 Cl
atom 13.1255753700000000 10.4134786199999994 5.8118487700000001 Na
atom 10.2877781899999992 10.4093384699999998 5.8486078800000003 Cl
atom 15.9775666800000007 13.2399910799999994 6.0829545600000001 Na
atom 18.7191173800000001 13.1855689700000003 6.0347443399999996 Cl
atom 15.8390461499999997 16.0464128799999983 8.5525524999999991 Na
atom 18.5597563000000001 16.1470194499999984 8.6029451100000003 Cl
atom 18.8394191599999985 13.2869831299999994 8.6800771799999996 Na
atom 15.9640848299999991 13.2522646500000008 8.8095831400000009 Cl
atom 18.8186748600000016 16.0083869499999984 5.9466883900000003 Na
atom 16.0674163599999993 16.0343253799999985 5.8406018099999999 Cl
atom 15.9680426499999992 18.8346098099999999 5.9120729399999998 Na
atom 18.7600657800000015 18.9004451899999992 5.7860766500000000 Cl
atom 15.8725307200000003 21.7231864399999992 8.4825814899999994 Na
atom 18.7950879800000017 21.6657495000000004 8.7048544700000008 Cl
atom 18.6573917400000013 18.8918436199999995 8.5059686100000000 Na
atom 15.9066027200000004 18.8357644300000011 8.7697897000000005 Cl
atom 18.7953825899999991 21.6186024299999993 6.0138008000000003 Na
atom 16.0518049900000008 21.6252566199999983 5.8814375200000004 Cl
atom 15.9621938199999995 24.4628209699999992 5.9304272899999999 Na
atom 18.7429356399999989 24.4727140900000002 5.8008672800000003 Cl
atom 15.9106807400000001 27.3038174200000014 8.5136036500000003 Na
atom 18.7379571600000006 27.3275573799999982 8.6579873299999992 Cl
atom 18.7853599100000004 24.4870291500000015 8.4670258399999998 Na
atom 15.9548517600000004 24.5027539300000008 8.6832856500000002 Cl
atom 18.6533232200000008 27.1799531899999991 5.8991446200000004 Na
atom 15.8952225600000006 27.2430613000000008 5.8055199100000001 Cl
atom 15.9601926200000008 30.0403651200000006 5.9272372899999999 Na
atom 18.8067518000000007 30.1088250600000009 5.7936829599999999 Cl
atom 15.9215188800000007 32.8908761300000023 8.4212392200000004 Na
atom 18.6659420699999998 33.0066518400000035 8.6052291600000004 Cl
atom 18.7702690600000004 30.1573315499999985 8.3950419699999994 Na
atom 15.9410127599999996 30.0494189200000008 8.5972068099999994 Cl
atom 18.7520635599999999 32.9417076599999987 5.8706978400000001 Na
atom 15.9630924699999994 32.9185824300000007 5.7365876499999997 Cl
atom 15.9443705900000001 35.6578986499999999 5.8347464999999996 Na
atom 18.6917619799999990 35.7647969399999965 5.7583059900000002 Cl
atom 15.9150832100000006 38.5350790800000027 8.4070022000000009 Na
atom 18.6985555900000016 38.5213011700000010 8.6414862899999996 Cl
atom 18.7135013599999986 35.7521256500000035 8.4736833100000002 Na
atom 15.8738051599999999 35.6797515100000027 8.6037632199999994 Cl
atom 18.7062378500000008 38.5004278799999966 5.9043948799999999 Na