#===============================================================================
# Created using the Atomic Simulation Environment (ASE)

# Tue Dec 23 22:27:05 2025

#=======================================================
lattice_vector 28.1999999999999993 0.0000000000000000 0.0000000000000000 
lattice_vector 0.0000000000000000 39.4799999999999969 0.0000000000000000 
lattice_vector 0.0000000000000000 0.0000000000000000 62.3296083400000001 
atom 7.4568003799999998 14.6566985499999998 0.3924719300000000 Au
atom 10.3973828299999997 14.8628874300000007 0.3175641700000000 Au
atom 13.0190939199999995 14.8072741000000008 0.1433691900000000 Au
atom 15.8857395300000004 14.8018372800000009 -0.0125233600000000 Au
atom 18.7035747999999984 14.9581951400000008 -0.4512532500000000 Au
atom 21.5629583300000007 15.0392248899999998 -0.3019135100000000 Au
atom 24.3464019500000006 15.0026565800000000 -0.2017303400000000 Au
atom 27.1586577300000016 14.8020383800000008 -0.0454383300000000 Au
atom 1.7768549600000001 14.7415942999999992 0.1738910800000000 Au
atom 4.8960364700000003 14.7685433800000006 -0.2817646600000000 Au
atom 9.0079141899999993 17.2385710100000011 -0.2403366200000000 Au
atom 11.5896125800000007 17.2400799199999994 0.0616360700000000 Au
atom 14.5601576300000009 17.3667920900000006 0.1001995700000000 Au
atom 17.2539085499999985 17.3940651600000002 0.0588587100000000 Au
atom 20.2862053200000005 17.4503922600000010 -0.2213136300000000 Au
atom 23.0562186400000009 17.5460707700000000 -0.0249783100000000 Au
atom 25.9156598699999989 17.3427594200000001 0.1095757500000000 Au
atom 0.4856201200000000 17.2526147799999983 -0.0444685600000000 Au
atom 3.2373646100000002 17.1612736199999993 -0.3335000600000000 Au
atom 6.1834287500000000 17.1669118000000012 -0.0768167000000000 Au
atom 7.4468471000000003 19.7534425400000018 -0.0723709300000000 Au
atom 10.1359853700000002 19.5866032700000012 0.0656516600000000 Au
atom 13.0590248700000000 19.7473229600000018 0.1379361600000000 Au
atom 15.8407063600000004 19.8977211199999999 0.0335008500000000 Au
atom 18.7836809600000016 19.9912915200000008 0.0381800100000000 Au
atom 21.5207114399999995 19.7893247199999998 0.0358913000000000 Au
atom 24.3945016800000012 19.8959524899999991 -0.0621638400000000 Au
atom 27.2969560499999986 19.7418733999999994 0.0354754700000000 Au
atom 1.8799562299999999 19.5245954600000005 -0.1292392200000000 Au
atom 4.7286416400000002 19.6675111300000012 0.1516178700000000 Au
atom 9.0249285900000000 22.2690077899999999 0.0448084700000000 Au
atom 11.7661234100000005 22.3792685400000018 0.1283676100000000 Au
atom 14.5917159900000009 22.2988611299999988 -0.0405343000000000 Au
atom 17.5282601199999988 22.1074801100000009 0.0519324600000000 Au
atom 20.4661506200000005 21.9902158900000018 -0.1132050100000000 Au
atom 23.0939991900000017 22.4561163000000015 0.0261686000000000 Au
atom 25.9123974500000003 22.1789989500000004 -0.2249478000000000 Au
atom 0.4930750300000000 22.3161014500000014 -0.1085421800000000 Au
atom 3.3924593800000000 22.2162098000000015 0.0667008300000000 Au
atom 6.0963270800000000 22.0083402399999990 -0.0189159100000000 Au
atom 7.7521847299999997 24.6374489700000012 0.1795556500000000 Au
atom 10.5119572100000003 24.5583593499999999 0.0741736900000000 Au
atom 13.1246722100000000 24.8177838299999998 0.3397444100000000 Au
atom 15.8964859700000005 24.6536727000000013 0.5268140500000000 Au
atom 18.8426374900000013 24.6300390000000000 0.1860743200000000 Au
atom 21.8938750499999983 24.6880533699999987 -0.0084830800000000 Au
atom 24.5464494600000016 24.6028940799999987 0.3279074100000000 Au
atom 27.1405284100000017 24.7087469999999989 -0.2693866900000000 Au
atom 1.9945303999999999 24.6888594899999987 0.1179308800000000 Au
atom 4.8504234100000003 24.5540434500000018 0.0033645600000000 Au
atom 9.0299128799999995 27.1496622599999995 -0.1524662800000000 Au
atom 11.8865573599999994 27.1439615600000010 -0.0979733900000000 Au
atom 14.6290365799999993 27.2708474800000005 0.1902314500000000 Au
atom 17.5351469800000004 26.8674735099999999 0.5082092900000000 Au
atom 20.3211075900000004 27.0124983000000007 0.0784614500000000 Au
atom 23.0648606200000010 27.0534137399999999 -0.0879718500000000 Au
atom 25.8269537299999996 27.1248144999999994 -0.1108860400000000 Au
atom 0.6294525600000000 27.3266508299999984 -0.0927633300000000 Au
atom 3.4150379399999999 26.8557948700000004 -0.1652925000000000 Au
atom 6.2068054200000002 27.0777036899999999 0.1680071900000000 Au
atom 7.5785910799999998 29.6159860100000003 0.0641838600000000 Au
atom 10.5086186799999997 29.7014629399999990 -0.1657565500000000 Au
atom 13.0986471600000005 29.6269360400000004 -0.0544618700000000 Au
atom 16.1201212799999993 29.5899615599999990 0.2439502600000000 Au
atom 18.8345833899999988 29.6928690700000004 0.3171735700000000 Au
atom 21.7622170900000000 29.6455322300000006 0.6012342000000001 Au
atom 24.4381510900000016 29.7562521400000008 0.1960792800000000 Au
atom 27.0088239100000003 29.7692996399999998 0.0479504800000000 Au
atom 1.7197744300000000 29.4907088600000016 0.1506572900000000 Au
atom 4.6947139599999996 29.3887714600000010 0.1662355900000000 Au
atom 8.9954086699999998 32.0116346499999977 -0.1980028000000000 Au
atom 11.8090911100000007 32.1379615700000016 0.2804484800000000 Au
atom 14.6763800999999994 32.1160842600000009 0.0097661300000000 Au
atom 17.3755816000000003 32.0320507300000017 0.1281522300000000 Au
atom 20.1098126499999985 32.2045708099999999 0.2894613700000000 Au
atom 22.7795735899999983 32.2994201500000031 0.3198987500000000 Au
atom 25.9712439800000006 32.1849661299999994 0.0715778000000000 Au
atom 0.7068342399999999 32.0807451299999968 0.1550839500000000 Au
atom 3.3909455999999998 31.8719124799999989 -0.0353215700000000 Au
atom 6.2168101299999998 31.9437044899999982 0.0567006000000000 Au
atom 7.7227396900000000 34.3744465799999972 0.0982493300000000 Au
atom 10.5672397700000005 34.4477729999999980 -0.0149910200000000 Au
atom 13.1610676099999999 34.5566285600000000 0.0471896100000000 Au
atom 15.8152313200000005 34.4885933199999997 0.4823664700000000 Au
atom 18.7517700100000013 34.6474857899999975 0.2645023900000000 Au
atom 21.6856037999999991 34.4848641099999966 0.0710750000000000 Au
atom 24.5047633500000011 34.6776751900000022 0.1908930700000000 Au
atom 27.1747145400000001 34.5229570199999998 -0.2548344500000000 Au
atom 2.1544048099999999 34.5093378999999985 0.1376710300000000 Au
atom 4.9183397199999996 34.4727139000000022 -0.0240223000000000 Au
atom 9.0942939200000001 36.8740698900000012 -0.1695311800000000 Au
atom 11.7147147700000005 37.0878891199999998 -0.0223694200000000 Au
atom 14.7498879100000000 37.0574615700000010 0.2673172700000000 Au
atom 17.3608998300000010 36.9035913100000030 0.1310472100000000 Au
atom 20.2400986399999994 36.9596238499999998 0.3848081200000000 Au
atom 23.0479970600000001 36.9074437000000017 -0.3248124300000000 Au
atom 26.0325257599999986 36.7169060399999978 0.1101713600000000 Au
atom 0.5331276400000000 36.8918700199999989 -0.0015925900000000 Au
atom 3.2068950900000002 36.9287269599999988 -0.1425787100000000 Au
atom 6.3337977299999997 36.8994537199999968 0.0030896900000000 Au
atom 7.2175790400000004 0.0233764900000000 -0.0818543900000000 Au
atom 10.1191720099999998 0.0307222400000000 0.2994129500000000 Au
atom 13.1382122900000002 0.0061643100000000 0.1286930000000000 Au
atom 15.9400517799999992 -0.0534270800000000 0.4020199600000000 Au
atom 18.8553070500000004 0.0180153000000000 0.1906129400000000 Au
atom 21.5262999999999991 -0.0614287200000000 0.1822685200000000 Au
atom 24.6149160599999988 0.1803303000000000 -0.0588899600000000 Au
atom 27.2999241999999995 -0.0628078600000000 -0.1574903600000000 Au
atom 1.8982444100000000 -0.2014796800000000 0.0996894600000000 Au
atom 4.6109744600000004 -0.2588292300000000 0.3781642900000000 Au
atom 8.8750412300000008 2.3597889599999999 -0.0730044200000000 Au
atom 11.8012526100000006 2.4473234599999998 -0.0603012400000000 Au
atom 14.4942286100000004 2.5732376499999998 0.0667643900000000 Au
atom 17.2772229899999985 2.4451630299999998 0.0329861000000000 Au
atom 19.9798442600000001 2.4848867299999999 0.2070139100000000 Au
atom 23.1554459299999991 2.3020565899999998 0.2820079800000000 Au
atom 25.7941778299999989 2.6348278000000001 -0.2051062900000000 Au
atom 0.6322111800000000 2.5065753499999999 0.0277275100000000 Au
atom 3.3018861500000001 2.2349202400000001 0.2523405000000000 Au
atom 5.9485094700000003 2.5304158800000001 -0.1724266500000000 Au
atom 7.6017253199999999 4.6602349199999997 -0.1918163400000000 Au
atom 10.3442513599999995 4.8953115399999998 -0.0183094600000000 Au
atom 13.0803518299999997 4.6599586899999998 -0.0772232300000000 Au
atom 15.8436780200000005 4.8777403300000000 -0.0795228400000000 Au
atom 18.7438749199999997 4.9908165000000002 -0.1891099100000000 Au
atom 21.6487751800000012 4.9753229799999996 -0.0866528700000000 Au
atom 24.7387714800000005 5.0007064999999997 -0.0600279800000000 Au
atom 27.2888408499999997 5.1645397700000002 0.0011065400000000 Au
atom 1.7632343300000000 4.9164165200000003 0.4384019700000000 Au
atom 4.5847156299999998 4.7891640600000001 -0.2349719900000000 Au
atom 9.0176742000000001 7.1964435800000004 -0.2966651200000000 Au
atom 11.7901405599999993 7.4497158499999996 0.0276610200000000 Au
atom 14.6196196500000006 7.3984696500000000 -0.3697157100000000 Au
atom 17.1179753099999985 7.2365975699999998 -0.0467674700000000 Au
atom 20.2396205699999996 7.2949230199999997 -0.2439959200000000 Au
atom 23.0913210299999996 7.2889353899999998 -0.5733357400000000 Au
atom 25.8695400000000006 7.3693356899999998 -0.3544775600000000 Au
atom 0.6147567600000000 7.2873608000000001 -0.4040277900000000 Au
atom 3.1173223499999998 7.3554629299999998 -0.3278494600000000 Au
atom 6.1064797300000002 7.0492724400000002 -0.0917419100000000 Au
atom 7.5960841900000000 9.7186566499999998 -0.1693198200000000 Au
atom 10.4891075399999991 9.9550742700000008 -0.1131851800000000 Au
atom 13.2251532199999993 9.7399305199999997 -0.1785388900000000 Au
atom 15.8330140299999993 9.7934814499999998 -0.2350065600000000 Au
atom 18.6688309900000000 9.5772212299999993 -0.4866525600000000 Au
atom 21.5241673999999996 9.8494660799999991 -0.2163540400000000 Au
atom 24.4743156500000012 9.8595611400000003 -0.3678637300000000 Au
atom 27.0973645500000018 9.6524326400000007 -0.3832262500000000 Au
atom 1.9798322699999999 9.9505054400000006 -0.0013330200000000 Au
atom 4.8933107400000004 9.8013477400000006 -0.0030533100000000 Au
atom 9.0075773300000002 12.4753922900000003 0.0135894400000000 Au
atom 11.7744584499999991 12.3961688300000006 0.0776469000000000 Au
atom 14.6229831699999995 12.2496798400000007 -0.0563653200000000 Au
atom 17.3178349500000017 12.2467804200000003 -0.6382057400000000 Au
atom 20.1670218199999987 12.3473067000000007 -0.2140770300000000 Au
atom 22.8937800399999993 12.4142078700000003 -0.1916381000000000 Au
atom 25.8115989399999997 12.4788885100000009 -0.4160162400000000 Au
atom 0.5668598200000000 12.2825265800000007 -0.2752152300000000 Au
atom 3.3552492200000001 12.2816759399999995 -0.2815894800000000 Au
atom 5.9799775500000001 12.1897579199999999 -0.3464477100000000 Au
atom 7.2404787900000001 13.0570789099999995 2.7380785099999998 Au
atom 10.5193026500000002 13.1878614600000006 2.9094073100000002 Au
atom 13.2721052299999993 13.2126714399999994 2.8472757000000000 Au
atom 16.1197640000000000 13.1274843000000008 2.3512916700000002 Au
atom 18.5832177399999985 13.1039901400000005 1.9801566300000000 Au
atom 21.5083841299999996 13.1727701300000000 2.2359149500000002 Au
atom 24.4231444300000007 12.9678122299999998 2.2587627299999999 Au
atom 27.1963799900000005 13.1430600099999992 2.0715108099999999 Au
atom 1.6985715500000000 13.1451711800000002 2.6453933300000001 Au
atom 4.6334555699999997 13.3125485399999999 2.7389102699999999 Au
atom 9.0515244799999994 15.6429465200000006 2.7391390200000001 Au
atom 11.8037707699999999 15.7815745300000003 2.8992160000000000 Au
atom 14.7910955499999996 15.5359135899999998 2.8702537900000000 Au
atom 17.4623005599999992 15.8498411800000003 2.7640003100000001 Au
atom 20.2261024899999988 15.5990836999999996 2.2828163199999998 Au
atom 23.1797864400000009 15.4579543499999996 2.1754441400000002 Au
atom 25.8801741099999987 15.5060775900000003 2.6674943600000001 Au
atom 0.2294244900000000 15.6517349100000001 2.5668774900000000 Au
atom 3.2511350800000001 15.4928147599999999 2.4046282099999998 Au
atom 5.9938697100000002 15.5757889299999999 2.6645019500000000 Au
atom 7.4006924300000003 18.4060671300000003 2.8232402599999999 Au
atom 10.3643946600000003 18.1409590399999985 2.6170333200000000 Au
atom 13.1864587899999997 18.0406335400000017 2.8228121900000001 Au
atom 15.8886757200000002 18.0786584899999987 2.3462673900000000 Au
atom 18.9849128200000017 18.1586434700000012 2.4952355399999999 Au
atom 21.7251125000000016 18.0655666400000001 2.7232271400000001 Au
atom 24.6708179500000000 18.1727559599999999 2.8338082400000002 Au
atom 27.3644780599999997 18.3438408399999986 2.6432514100000000 Au
atom 1.8648903699999999 18.0043261600000015 2.5410531299999999 Au
atom 4.7391482700000003 18.1603334600000004 2.5890800899999999 Au
atom 9.2170577799999993 20.7651635900000002 2.5811552199999999 Au
atom 11.8648023699999996 20.6790610699999995 2.9138501699999999 Au
atom 14.7574384300000006 20.4426124700000003 2.7939920900000002 Au
atom 17.4267475800000007 20.7286152399999999 2.6828237200000000 Au
atom 20.2685614299999983 20.7653453600000013 2.6342943600000002 Au
atom 22.9414624200000006 20.5508800299999983 2.4610071300000000 Au
atom 25.9411504700000002 20.6298950800000007 2.5302979500000000 Au
atom 0.4388513100000000 20.6611049800000011 2.6203957400000002 Au
atom 3.2435467999999998 20.4951015800000000 2.7105652999999998 Au
atom 6.0416090999999996 20.8564607500000001 2.5913897399999999 Au
atom 7.6321673700000003 23.1378135000000000 2.7983629699999999 Au
atom 10.5221003500000005 23.0451289499999987 3.0824754300000001 Au
atom 13.1069392100000002 23.0437823600000016 2.7218325900000000 Au
atom 16.0219344899999996 23.1191798400000010 2.9677985900000001 Au
atom 18.7831692200000013 23.1053652400000011 2.6100987700000000 Au
atom 21.4932080200000009 23.0444277000000000 2.6407345800000002 Au
atom 24.2555372700000014 22.9120197999999995 2.5915490800000001 Au
atom 27.5241587599999988 23.0279969700000002 2.5116459400000002 Au
atom 2.0580344099999999 22.8734912500000007 2.5765724400000001 Au
atom 4.8360629099999999 23.2115127500000007 2.6739197699999999 Au
atom 9.0041317599999999 25.5950943600000009 2.8094612099999998 Au
atom 11.6862624000000004 25.3809571500000004 2.9106690300000002 Au
atom 14.6546299100000006 25.5296111000000003 3.1441216500000002 Au
atom 17.5756095399999985 25.5174682100000005 3.1078604699999999 Au
atom 20.3234716900000016 25.6336140000000015 2.6889365299999999 Au
atom 22.9716250600000009 25.5703617700000017 2.5778760400000000 Au
atom 25.9511923200000005 25.3559806200000004 2.6119265999999999 Au
atom 0.4379580100000000 25.3831547200000003 2.6787925700000002 Au
atom 3.1038029200000001 25.5318807899999989 2.7264499299999998 Au
atom 6.1140097600000001 25.5597917999999993 2.7836747900000001 Au
atom 7.7467575399999999 27.9822971500000008 2.7796490199999999 Au
atom 10.7500487899999992 28.0418301899999989 2.6067902300000001 Au
atom 13.2798458200000002 27.8589214200000015 2.4611067700000002 Au
atom 16.2055517900000012 27.7170357199999984 2.8971545999999999 Au
atom 19.1081040000000009 27.8290520500000014 2.7545417600000000 Au
atom 21.5991096599999999 28.0988252199999984 2.6392867299999998 Au
atom 24.3846125399999991 28.2315604299999983 2.3849706400000001 Au
atom 27.0657352700000011 28.0172424599999985 2.6709757000000001 Au
atom 1.8829860000000000 27.9805872999999998 2.7023364600000002 Au
atom 4.5177613499999998 27.9995695600000012 2.7861916899999999 Au
atom 9.0401937100000005 30.3362407800000007 2.7088926299999998 Au
atom 11.6554650399999993 30.4241764000000003 2.6189312199999999 Au
atom 14.8422744299999998 30.4342187799999984 2.6829972400000002 Au
atom 17.5359009300000004 30.1989175699999990 2.6271637299999999 Au
atom 20.3722887300000011 30.4032988700000004 3.2263445800000001 Au
atom 23.1030001799999987 30.6221354800000007 2.9750435199999998 Au
atom 25.8837363600000003 30.3867420800000012 2.6247827099999999 Au
atom 0.4202861400000000 30.3592656400000003 2.4874226699999999 Au
atom 3.2190524800000002 30.3711417099999998 2.3431847399999999 Au
atom 6.1315793500000000 30.3521406999999996 2.8502920700000001 Au
atom 7.5756634099999998 32.6334967900000024 2.7983798900000001 Au
atom 10.2133855199999992 32.7455130700000012 2.6668704600000002 Au
atom 13.0442517799999997 32.9375017999999997 2.8696982499999999 Au
atom 16.2794413200000001 32.7557537200000013 2.6845803899999998 Au
atom 18.8470171800000017 33.0429131900000002 2.9949055900000001 Au
atom 21.5571472200000009 33.2656757600000006 2.9165782700000000 Au
atom 24.5111791399999994 32.8433511499999966 2.5649811900000001 Au
atom 27.4564123799999997 32.8207259599999972 2.8201897800000002 Au
atom 1.8829301300000001 32.9871405600000003 2.5269893200000002 Au
atom 4.6819444199999998 32.9466009400000033 2.6204776800000000 Au
atom 8.8697180499999995 35.2228268200000016 2.7458521000000000 Au
atom 11.8046586300000005 35.2435559600000019 2.6740607800000000 Au
atom 14.5858420899999999 35.3052558700000034 2.7137582000000000 Au
atom 17.4414639800000018 35.6088442300000025 2.7387914000000002 Au
atom 20.4374809299999995 35.6361232599999980 2.7151397799999999 Au
atom 23.1234877300000008 35.6081396399999974 2.6337826700000000 Au
atom 26.0688135699999997 35.3950127100000032 2.5946530900000000 Au
atom 0.3532573300000000 35.4434998799999974 2.6405949400000002 Au
atom 3.3990065899999999 35.2918836300000009 2.6147398599999998 Au
atom 6.3102775299999996 35.3952182000000022 2.5056657800000002 Au
atom 7.5778727200000002 37.9746901500000007 2.3603022199999999 Au
atom 10.3608149600000008 37.9097850500000035 2.3694900799999998 Au
atom 12.9815319200000001 38.0115706799999984 2.6062963200000002 Au
atom 15.8140285200000008 37.8216876500000012 3.0500781600000000 Au
atom 18.9496410200000014 38.0087790700000028 2.5446766200000002 Au
atom 21.8272158800000007 37.9492678200000029 2.8924363899999999 Au
atom 24.4773555000000016 37.6895642799999990 2.5182230500000000 Au
atom 27.3199684900000008 37.8698632099999983 2.7621141800000002 Au
atom 1.8014958800000000 37.8881798600000010 2.6164160700000001 Au
atom 4.8480172699999997 37.7224347300000034 2.6865986799999999 Au
atom 8.9105358700000004 0.6562731800000000 2.7760751799999999 Au
atom 11.7622894099999993 0.8125567500000000 2.9914054700000001 Au
atom 14.4488538599999998 0.7653010099999999 2.8415933099999999 Au
atom 17.5786610799999998 0.6132177900000000 3.0928374000000001 Au
atom 20.3174543400000012 0.7782316200000000 2.8167267200000001 Au
atom 23.4536601199999986 0.6547232900000000 2.9061776600000000 Au
atom 25.9662072100000003 0.8468493400000000 2.5438054900000000 Au
atom 0.7648392800000000 0.9755678000000000 2.4378843200000002 Au
atom 3.3446790399999999 0.9172817500000000 2.9464816900000002 Au
atom 5.9655061500000004 0.8071688600000000 2.3958114500000001 Au
atom 7.3584052700000004 3.2894309700000002 2.4502071399999998 Au
atom 10.1851989900000000 3.0861742099999998 2.4734424700000002 Au
atom 12.8805378800000003 3.3773509900000001 2.7125233299999998 Au
atom 16.0992922999999983 3.3640957999999999 2.7625093600000001 Au
atom 18.7181445900000014 3.3388073299999999 2.6105793400000001 Au
atom 21.7185339699999993 3.4073618799999998 2.8588304999999998 Au
atom 24.3935359799999993 3.3310518199999999 2.0395730799999998 Au
atom 27.3316790999999988 3.3593505299999999 2.3183753800000000 Au
atom 1.7303542800000000 3.2424065999999998 2.9889426600000002 Au
atom 4.5018367699999997 3.4153746900000002 2.2859652900000000 Au
atom 8.7844071300000000 5.8790390700000001 2.5008702500000002 Au
atom 11.6627637400000008 5.6889878100000004 2.4258929299999998 Au
atom 14.5319130100000002 5.6431687300000002 2.4288632600000000 Au
atom 17.3350254300000017 5.7379998099999998 2.4882306500000002 Au
atom 19.9977420399999986 5.7764653700000004 2.2250107400000001 Au
atom 22.9155447099999989 5.6587928200000004 2.2631465199999998 Au
atom 25.8814997899999995 5.7037900199999996 2.7085092500000001 Au
atom 0.5011096400000000 5.7951101700000001 3.0901007400000000 Au
atom 3.4846552200000001 5.7254010800000001 2.4880667800000000 Au
atom 6.1081792999999998 5.9775271600000002 2.3103626899999998 Au
atom 7.4893701799999999 8.1538416599999994 2.4360485700000001 Au
atom 10.3483093000000004 8.2444040199999993 2.6223342100000000 Au
atom 13.1750831799999997 8.4121398599999999 2.7864706099999998 Au
atom 16.1222524100000015 8.2337069500000002 2.6132140499999998 Au
atom 18.6356111999999996 8.4266901399999998 2.3009022500000000 Au
atom 21.5821250000000013 8.3432519299999992 2.3752981900000001 Au
atom 24.3816425999999993 8.2569254900000004 2.2198123199999999 Au
atom 27.3594635100000012 8.1292790400000001 2.1120938100000002 Au
atom 1.7216762299999999 8.2403165099999995 2.5589613999999998 Au
atom 4.6636467699999997 8.2871552000000008 2.2281476200000001 Au
atom 8.8511645500000000 10.7584935700000006 2.4650819600000000 Au
atom 11.7470638800000007 10.4510693999999997 2.7477722500000001 Au
atom 14.6899256299999994 10.7629925699999998 2.5827590400000000 Au
atom 17.3361823299999998 10.5992400700000005 2.2969967200000001 Au
atom 20.1428448700000011 10.5031033300000001 2.3415400100000001 Au
atom 22.8999199500000010 10.8252573099999996 2.0853963700000002 Au
atom 25.9045873600000007 10.5525316599999996 2.3296633899999999 Au
atom 0.5831278500000000 10.8086460300000002 2.4971910700000000 Au
atom 3.1936643999999998 10.8031832600000008 2.3517125100000000 Au
atom 5.9411362900000002 10.5692574399999994 2.6741303200000002 Au
atom 7.5212647400000003 13.0657778800000006 5.7921477599999998 Cl
atom 7.3437997199999998 15.9719603899999996 8.3091191400000000 Cl
atom 7.2988304099999999 13.4050369600000003 8.0859457700000004 Na
atom 7.4788846600000003 16.0642850199999998 5.5012068599999999 Na
atom 7.6559266800000003 18.8906517700000016 5.7175390899999998 Cl
atom 7.8081226600000004 21.9843648300000005 8.3506905200000006 Cl
atom 7.7031521600000001 19.0417898000000001 8.1549800900000005 Na
atom 7.6409083000000004 21.8202391899999988 5.7590592599999999 Na
atom 7.5499877199999998 24.6547625000000004 5.7443636099999997 Cl
atom 7.5847819400000001 27.4507516600000017 8.5730576099999993 Cl
atom 7.4039759700000003 24.7540048100000014 8.4409603600000001 Na
atom 7.4080959399999999 27.3149140300000006 5.9669140699999996 Na
atom 7.6124505200000003 30.4117068400000008 5.9422969600000002 Cl
atom 7.3997855699999997 33.1174805699999979 8.7975321900000001 Cl
atom 7.6871129800000002 30.2572122899999982 8.4766416400000004 Na
atom 7.5911719000000000 32.9651088199999975 6.0476168000000001 Na
atom 7.4187748100000004 35.8165996800000030 5.7098155999999998 Cl
atom 7.7178166099999999 38.7700234899999998 8.3141318399999999 Cl
atom 7.2130511600000000 36.0484170900000009 8.4799216699999995 Na
atom 7.4424764000000003 38.8671760499999976 5.7417598400000003 Na
atom 7.5350484800000004 2.2295542400000001 5.5459175800000002 Cl
atom 7.3992680100000001 4.8421126799999996 8.4422890699999993 Cl
atom 7.5298743999999997 2.0019006199999998 7.9682360799999996 Na
atom 7.7544201800000003 5.1609639899999999 5.8235864499999996 Na
atom 7.5496131399999999 7.9419015499999999 5.6739430400000002 Cl
atom 7.6282936399999999 10.6743461499999999 8.4409967399999992 Cl
atom 7.5390909600000002 7.6260082599999999 8.3156449000000006 Na
atom 7.4666838000000002 10.6238969500000007 5.7195496900000000 Na
atom 10.5220751200000002 13.4243908199999993 5.8469275900000000 Na
atom 12.9741572499999993 13.3392642299999995 5.8007012199999997 Cl
atom 10.5613535100000000 16.1561865299999994 8.5815953900000004 Na
atom 13.2113376799999998 15.8547624099999993 8.6170118700000007 Cl
atom 13.3694090699999997 13.1446004199999997 8.3407665600000005 Na
atom 10.6773096699999996 13.3898550000000007 8.5076623300000005 Cl
atom 13.0961060200000006 16.1681736600000008 5.8264305500000004 Na
atom 10.2657275899999991 16.0894675000000014 5.7223851600000000 Cl
atom 10.6125780800000005 18.9340214899999992 5.7400996800000001 Na
atom 13.3598094500000002 18.9627444999999994 5.7363271700000000 Cl
atom 10.5083082700000006 21.6011169000000010 8.5492946399999994 Na
atom 13.4147592299999996 21.8039537400000007 8.7657322299999993 Cl
atom 13.3225372800000006 18.6737446300000016 8.4186689799999996 Na
atom 10.3093120599999999 18.8788374300000008 8.4913701499999998 Cl
atom 13.2393103900000000 21.6830896200000005 5.6625848699999999 Na
atom 10.5259732600000007 21.8516050899999996 5.6198894900000003 Cl
atom 10.1342052299999992 24.6603337799999984 5.8344829200000001 Na
atom 13.1013383099999992 24.4737691599999998 5.8592976400000003 Cl
atom 10.2215624100000007 27.2731171500000009 8.4160376899999996 Na
atom 13.0713971200000003 27.3220620799999985 8.5701496499999994 Cl
atom 12.9557947700000007 24.4254172400000016 8.5805148100000004 Na
atom 10.2625222899999997 24.7701794900000003 8.7810562900000004 Cl
atom 13.1046773299999995 27.4575633900000007 5.6415155900000000 Na
atom 10.2289844799999994 27.5682504600000016 5.6294129899999996 Cl
atom 10.2883387499999994 30.2083064300000004 5.7893942599999999 Na
atom 13.2706716399999998 30.3477507300000013 5.5789303099999996 Cl
atom 10.1119308799999992 33.0445801600000024 8.4926980899999993 Na
atom 13.0358876699999993 33.0419584899999990 8.3340129300000001 Cl
atom 12.9727628500000005 30.3612857299999988 8.2978268100000001 Na
atom 10.2937889699999996 30.0557681899999984 8.4392800799999996 Cl
atom 12.9716467600000005 33.2382714600000000 5.8688720700000001 Na
atom 10.1396042600000005 33.2885595099999989 5.8894299200000004 Cl
atom 10.3785763899999992 36.0076279800000023 5.9671071199999997 Na
atom 13.2598867699999996 36.0580230099999994 6.1259143099999998 Cl
atom 10.2623308000000009 38.9174655200000004 8.0543972299999993 Na
atom 13.0993911399999998 38.8208671300000034 8.4834821300000005 Cl
atom 13.1802425999999997 35.7562757500000004 8.6182450399999997 Na
atom 10.5279145300000003 36.0447901000000002 8.5460902999999995 Cl
atom 12.9840774299999993 38.6709492700000013 5.6917607700000001 Na
atom 10.0645115100000009 38.6048418700000013 5.6960563500000001 Cl
atom 10.2903753499999997 2.0140105199999998 5.3481068000000000 Na
atom 12.9931031299999997 2.0045801999999999 5.7096023899999997 Cl
atom 10.2558978199999995 5.0002871999999998 8.4459122400000002 Na
atom 13.1353861900000002 4.8516638099999998 8.5255569500000004 Cl
atom 13.2047405799999993 2.2746287700000001 8.3205232900000006 Na
atom 10.2196166999999996 2.2313372100000000 8.4934020199999996 Cl
atom 13.2085126899999992 4.7095627200000001 5.6877242600000004 Na
atom 10.4671726799999991 5.0034565300000002 5.7095542100000003 Cl
atom 10.6792873200000002 7.7800070999999997 6.0373812300000003 Na
atom 13.2420947899999994 7.7785950200000000 5.6799875499999999 Cl
atom 10.2602448800000001 10.4925091199999994 8.3736012800000008 Na
atom 13.0894167800000005 10.4320432400000005 8.3765839799999995 Cl
atom 13.3835300700000008 7.5950409199999998 8.2675111000000001 Na
atom 10.1063859899999997 7.6806309300000004 8.6853204200000000 Cl
atom 13.0864308800000000 10.4403586700000002 5.7060836500000001 Na
atom 10.4406466099999999 10.5019049800000008 5.6848108300000000 Cl
atom 15.9072030299999998 13.0716275500000005 5.6054712599999998 Na
atom 18.9351070899999989 13.3373857900000008 5.6076252999999996 Cl
atom 15.6814776299999998 16.1114096899999986 8.4932927399999993 Na
atom 18.7906900199999995 16.0060357599999996 8.6017291799999995 Cl
atom 18.6256048800000009 13.2126475100000000 8.1497695100000005 Na
atom 15.9504386399999998 13.1148329500000003 8.5250356600000003 Cl
atom 18.7152131600000011 16.1399382399999993 5.6516043800000002 Na
atom 16.0741951800000002 15.9713967900000000 5.7406904799999996 Cl
atom 16.0502881899999998 18.7952110899999987 5.8328105399999997 Na
atom 18.9765158199999995 18.7882106799999988 5.4936516700000002 Cl
atom 16.1063660499999983 21.4786512899999984 8.6180210299999995 Na
atom 18.8307882000000006 21.6281285799999985 8.4855270699999998 Cl
atom 19.1166780699999990 18.9457570299999993 8.1967307300000005 Na
atom 16.0129174399999989 18.5472555499999991 8.8114085600000003 Cl
atom 18.9716677699999998 21.8416552800000012 5.5289978399999997 Na
atom 15.9340899700000005 21.5510582200000016 5.6577035000000002 Cl
atom 15.7901118999999994 24.5275706800000002 5.6411176400000000 Na
atom 18.4966762899999999 24.6724296199999991 5.8270870900000000 Cl
atom 15.6629517000000007 27.1722064500000009 8.4542968700000003 Na
atom 18.7467711699999988 27.2969045299999991 9.1406977600000001 Cl
atom 18.6918082299999995 24.4597045699999995 8.4100435400000002 Na
atom 16.0313540400000001 24.5345037099999992 8.5928653900000000 Cl
atom 18.7555864700000008 27.4625712600000007 5.9699408600000003 Na
atom 15.9154654299999994 27.4710406399999982 5.8251972600000004 Cl
atom 15.9274781000000001 30.3086050299999989 5.9552964299999998 Na
atom 18.9565554700000014 30.1624238700000014 5.9626121599999999 Cl
atom 15.8081631500000004 32.9961406600000018 8.3855281200000000 Na
atom 18.6160373300000010 32.9653989099999976 8.8124094700000004 Cl
atom 18.3416696600000009 29.9930727700000013 8.7155665700000000 Na
atom 15.5860889999999994 30.1739308999999984 8.7349872099999999 Cl
atom 18.5048126999999987 32.8865992100000000 5.9687302700000000 Na
atom 16.0349607300000017 33.0621574899999970 5.7420522800000002 Cl
atom 16.2080049499999994 35.8968973799999986 5.8957718100000003 Na
atom 18.6053926499999989 35.6801232500000012 5.7977023599999997 Cl
atom 16.1207256000000001 38.6700311499999998 8.2478149300000005 Na
atom 18.6427452000000002 38.6772629600000002 8.6183433199999993 Cl
atom 18.6142075600000005 36.1029672499999990 8.6906072999999999 Na
atom 15.9219810800000001 35.9414437399999969 8.6513852000000000 Cl
atom 18.6984952699999987 38.7968915699999997 5.8501957999999998 Na