#===============================================================================
# Created using the Atomic Simulation Environment (ASE)

# Tue Dec 23 21:42:06 2025

#=======================================================
lattice_vector 28.1999999999999993 0.0000000000000000 0.0000000000000000 
lattice_vector 0.0000000000000000 39.4799999999999969 0.0000000000000000 
lattice_vector 0.0000000000000000 0.0000000000000000 62.3296083400000001 
atom 7.4502903299999996 14.6704593299999999 -0.2758926800000000 Au
atom 10.3020933400000008 14.7884956899999995 -0.4180175900000000 Au
atom 13.2131189399999993 14.8422072800000002 -0.4037178500000000 Au
atom 16.0417387799999993 14.6949762400000008 -0.3363041300000000 Au
atom 18.7579643199999992 14.7538521899999999 -0.4260975500000000 Au
atom 21.5600885899999994 14.7836567300000006 -0.1995004100000000 Au
atom 24.4020653400000000 14.7090990599999998 -0.2797690700000000 Au
atom 27.3390322700000006 14.9209827700000002 0.0622805200000000 Au
atom 1.8765645700000000 14.7924849799999993 0.0763385200000000 Au
atom 4.7029953300000003 14.6396542899999993 -0.0299562900000000 Au
atom 8.8844128199999997 17.2389373299999988 -0.0666832500000000 Au
atom 11.7423295499999991 17.2877928499999989 -0.1315545600000000 Au
atom 14.5466708499999999 17.2343809099999987 -0.1067598500000000 Au
atom 17.4141062899999994 17.3565185500000005 -0.4552049900000000 Au
atom 20.1778097900000013 17.2987112100000004 -0.2671355600000000 Au
atom 22.9727765099999992 17.2497118000000000 0.0699669000000000 Au
atom 25.7831116400000013 17.1611721800000012 0.1309875700000000 Au
atom 0.4751081600000000 17.1884547499999982 0.1374005100000000 Au
atom 3.3111233900000001 17.2800069399999998 0.0178637100000000 Au
atom 5.9735885299999998 17.2144706999999997 -0.1748632600000000 Au
atom 7.5112079999999999 19.6887686600000009 0.0064623000000000 Au
atom 10.2831732099999993 19.6697156100000008 0.0464606000000000 Au
atom 13.1688671399999997 19.7106083800000000 0.2026723600000000 Au
atom 16.0116163399999998 19.7843818999999996 0.0109033300000000 Au
atom 18.7533426699999985 19.7978548299999986 -0.0175442400000000 Au
atom 21.6837119600000001 19.7994087999999984 -0.0778791000000000 Au
atom 24.4766825799999985 19.6468311900000003 0.2220134600000000 Au
atom 27.2859147799999988 19.7101061800000004 0.1726317400000000 Au
atom 1.8488041300000000 19.6771479599999992 0.4045276000000000 Au
atom 4.7472381900000000 19.6548315699999989 0.1613454200000000 Au
atom 8.9203104000000000 22.2866376200000005 0.0065670200000000 Au
atom 11.7181855400000003 22.1581219999999988 0.1288847700000000 Au
atom 14.5914776499999999 22.1477951799999992 0.4580076300000000 Au
atom 17.3243277400000011 22.2472856400000012 -0.1816439900000000 Au
atom 20.1902959700000011 22.2039851100000014 -0.0832168800000000 Au
atom 23.0308488400000009 22.2223869299999990 0.0787345900000000 Au
atom 25.8556980400000000 22.2703435899999995 0.3152218300000000 Au
atom 0.5249193900000000 22.1749825499999993 0.1995845100000000 Au
atom 3.3647005900000000 22.0573641299999998 0.1134775800000000 Au
atom 6.2158839500000003 22.1698935100000014 0.0013247400000000 Au
atom 7.5896284600000001 24.7213775799999986 0.0804764700000000 Au
atom 10.3988023900000002 24.6499881000000016 0.1223754800000000 Au
atom 13.2586116300000008 24.6328223800000004 0.2604822000000000 Au
atom 16.0220560100000000 24.5946500800000010 0.1201383600000000 Au
atom 18.8758377000000017 24.6839284200000009 0.1734881100000000 Au
atom 21.7497903199999989 24.5856049100000007 0.1320090900000000 Au
atom 24.5516404000000001 24.6735894299999998 0.0389775900000000 Au
atom 27.3718519600000008 24.6259219599999994 0.0495725200000000 Au
atom 2.0061120300000002 24.6217838399999991 0.1949101000000000 Au
atom 4.7395830900000000 24.6304284899999999 0.2266063200000000 Au
atom 8.9244565900000001 27.0920786800000002 -0.0259696000000000 Au
atom 11.8490410199999996 27.1151485600000015 -0.0139372700000000 Au
atom 14.6449978299999994 26.9777829000000011 0.1269905300000000 Au
atom 17.4323558100000007 27.0217530699999990 -0.1220286800000000 Au
atom 20.2813587899999987 27.1360204899999999 0.2715696800000000 Au
atom 22.9878792300000008 27.0495014400000002 0.0986606000000000 Au
atom 25.7722881100000016 27.1249368000000004 0.1580274300000000 Au
atom 0.4539507400000000 27.0710000599999994 0.1693624100000000 Au
atom 3.2503250000000001 27.1270062799999998 0.1338321200000000 Au
atom 6.0845800499999996 27.0829244299999985 -0.0564755800000000 Au
atom 7.6601846399999998 29.5825477799999987 -0.0602911400000000 Au
atom 10.4168262200000008 29.5436425199999988 -0.2747160100000000 Au
atom 13.2842682900000000 29.5651224200000016 -0.1029224400000000 Au
atom 16.0407577100000012 29.4533414200000010 0.1548064100000000 Au
atom 18.8174273300000010 29.5962668899999990 0.0582615100000000 Au
atom 21.6567603499999990 29.5454611100000015 0.0518657300000000 Au
atom 24.3858534700000007 29.5841353399999996 0.0493547300000000 Au
atom 27.2659431199999993 29.4875711500000008 -0.0396201000000000 Au
atom 1.8582125800000000 29.6221816400000009 -0.1035387800000000 Au
atom 4.7737285800000002 29.6587421000000013 -0.0387293700000000 Au
atom 8.9874861399999997 32.0526272299999988 -0.0450293300000000 Au
atom 11.7799137599999995 32.0872088899999994 -0.0973401800000000 Au
atom 14.5549527699999999 31.9725842299999989 0.1430447600000000 Au
atom 17.3372783999999989 32.0264203300000005 0.0563839100000000 Au
atom 20.2013611399999995 32.0316544000000007 0.0904242500000000 Au
atom 22.9542711200000014 32.1664147700000029 0.1432791600000000 Au
atom 25.7839127899999987 32.0292727900000003 -0.2202248500000000 Au
atom 0.4470098300000000 32.0082114200000021 -0.0199361500000000 Au
atom 3.2988301199999999 32.0223401200000026 -0.3041762200000000 Au
atom 6.1714562500000003 32.0521613599999995 -0.2062573500000000 Au
atom 7.5247190399999999 34.5747797900000009 0.0412197400000000 Au
atom 10.4087019699999992 34.5441015299999989 0.0232259900000000 Au
atom 13.1995593000000007 34.5264075700000035 0.0633153000000000 Au
atom 16.0610703900000011 34.4778216200000003 0.1180167700000000 Au
atom 18.7600100099999985 34.5643607599999996 0.2231296900000000 Au
atom 21.4349334999999996 34.5528118499999977 0.1296008400000000 Au
atom 24.4028741400000015 34.4972460999999981 0.0491274300000000 Au
atom 27.2515703800000004 34.5247681999999969 0.0306318000000000 Au
atom 2.0198293199999999 34.5896651899999981 -0.0969599600000000 Au
atom 4.8145996000000002 34.4610213500000029 -0.1027226700000000 Au
atom 8.9101065599999991 37.0746247599999990 0.1586637400000000 Au
atom 11.7597413700000004 36.9846261599999977 0.0675935500000000 Au
atom 14.5028688999999993 36.9679356299999995 0.1859846900000000 Au
atom 17.3929590800000007 36.9598904599999969 0.2235130200000000 Au
atom 20.2529842600000016 37.0476891599999973 0.1382367000000000 Au
atom 22.9984517000000004 36.9269675700000022 0.1311283000000000 Au
atom 25.9277822600000007 36.9241319599999969 -0.1408585900000000 Au
atom 0.5850029700000000 36.9607210200000011 -0.3016284500000000 Au
atom 3.4272947899999999 36.9803060300000013 0.0085291000000000 Au
atom 6.1824424599999999 37.0462868400000005 -0.0639265500000000 Au
atom 7.6003435399999999 -0.0424486600000000 0.0187789600000000 Au
atom 10.4070091799999993 0.1031320000000000 0.3061206200000000 Au
atom 13.1228415500000004 -0.0752155800000000 0.0953401300000000 Au
atom 15.9555529299999996 -0.0597312400000000 0.1436892400000000 Au
atom 18.9339352699999992 -0.0032767700000000 0.3346207800000000 Au
atom 21.6676229300000003 -0.0528276600000000 0.2678102800000000 Au
atom 24.4168037700000014 -0.1218552900000000 0.2515000100000000 Au
atom 27.2746907699999994 0.0511397500000000 -0.2710778700000000 Au
atom 1.8716912200000000 0.0037577100000000 0.0138477300000000 Au
atom 4.8064262199999996 -0.0389688500000000 -0.0973636900000000 Au
atom 8.9481836599999998 2.5450601000000002 0.0521924200000000 Au
atom 11.7708045099999996 2.5300799500000002 0.2430017800000000 Au
atom 14.5735593800000007 2.4701818599999998 -0.0811188800000000 Au
atom 17.4095414499999990 2.4259295700000001 0.0707676600000000 Au
atom 20.2847343199999983 2.4414472300000001 0.2109519200000000 Au
atom 23.0472922300000000 2.3770432399999999 0.2280661900000000 Au
atom 25.8201044300000007 2.4321274000000002 0.1579188100000000 Au
atom 0.4895966400000000 2.4819367200000002 0.1932537000000000 Au
atom 3.3236030699999999 2.3943453500000000 -0.0167157600000000 Au
atom 6.2032247199999997 2.4125892200000001 0.2801396000000000 Au
atom 7.4748688200000002 4.8943397900000001 0.2503395700000000 Au
atom 10.2815165999999998 4.9841309999999996 0.1371877000000000 Au
atom 13.2089666700000006 4.9133506400000000 0.0116308900000000 Au
atom 15.9608879500000000 4.8664678400000003 0.1172378800000000 Au
atom 18.9175469400000011 4.8879642399999996 0.0423112600000000 Au
atom 21.6431722999999998 4.9026690000000004 0.2440634000000000 Au
atom 24.3957582799999990 4.8921254000000003 0.2459053300000000 Au
atom 27.2534245999999989 4.9091038800000000 -0.0306865000000000 Au
atom 1.9338660999999999 4.9705396600000000 -0.2726653100000000 Au
atom 4.6615950599999998 4.8358463100000000 0.1919310100000000 Au
atom 8.8366445900000006 7.3486626700000004 -0.0188282400000000 Au
atom 11.8221311700000005 7.3861171199999998 -0.2532426000000000 Au
atom 14.6097171600000006 7.2576065300000003 -0.2634213900000000 Au
atom 17.4553166799999993 7.3245363699999997 -0.1828875500000000 Au
atom 20.3110027200000012 7.3379051300000002 0.2321640400000000 Au
atom 23.1573975300000008 7.3369517200000001 0.1613022500000000 Au
atom 25.9814991000000006 7.4681075000000003 0.2531010600000000 Au
atom 0.5039720300000000 7.4528645100000004 -0.1144847400000000 Au
atom 3.3090438000000000 7.3699419800000001 -0.0227651700000000 Au
atom 6.0445576399999998 7.2714994500000003 0.0808325500000000 Au
atom 7.4442217700000004 9.6900389600000008 0.0705354400000000 Au
atom 10.2468871999999998 9.7101667500000008 -0.3907887800000000 Au
atom 13.1851112399999995 9.7582070800000000 -0.3735139300000000 Au
atom 16.0316144999999999 9.7148237599999998 -0.3178235800000000 Au
atom 18.9646906400000006 9.7531572600000001 -0.3211682000000000 Au
atom 21.7392373399999990 9.7789635599999993 -0.2337335000000000 Au
atom 24.5230372599999988 9.8259412099999999 -0.2913976100000000 Au
atom 27.2489131499999999 9.8943880300000000 -0.1045951500000000 Au
atom 1.8531840500000001 9.8442499699999999 -0.1092952800000000 Au
atom 4.6847713899999999 9.8060946500000004 -0.1327358600000000 Au
atom 8.9489902200000007 12.1321828400000005 -0.3057303600000000 Au
atom 11.7115683900000001 12.2567848599999998 -0.4376795700000000 Au
atom 14.5189367899999997 12.2385807999999994 -0.4286209400000000 Au
atom 17.3981775200000008 12.1944384100000001 -0.6468184200000000 Au
atom 20.1999607400000016 12.2857260999999998 -0.2991940400000000 Au
atom 23.1162449899999984 12.1824930100000000 -0.1904179400000000 Au
atom 26.0169080800000003 12.3427762699999999 -0.0416374800000000 Au
atom 0.5403169300000000 12.3821961399999996 -0.3398128500000000 Au
atom 3.2594983000000002 12.2790990200000003 -0.3175771700000000 Au
atom 6.0801243400000002 12.2303048600000004 -0.0296733500000000 Au
atom 7.5463729800000001 13.2136018100000001 2.5295634100000002 Au
atom 10.3779328700000004 13.2396002100000008 2.1734434399999998 Au
atom 13.1787126000000008 13.1353198199999994 2.1402733399999998 Au
atom 16.0515733800000007 13.2318075000000004 2.1102247500000000 Au
atom 18.8012769700000000 13.0919585499999993 2.2103271699999998 Au
atom 21.5643911800000012 13.1402399400000007 2.4221964100000002 Au
atom 24.2997022499999993 13.1818882500000001 2.4980642600000000 Au
atom 27.2798038799999993 13.1928201200000004 2.4916304399999998 Au
atom 1.8156324100000001 13.1242526700000006 2.5848423800000000 Au
atom 4.6505181799999997 13.0940890400000001 2.5102380000000002 Au
atom 8.9727609699999995 15.6083936100000003 2.3738242100000000 Au
atom 11.8691505500000005 15.5481824799999995 2.2412005599999998 Au
atom 14.6952274500000009 15.5849070300000001 2.5878124100000002 Au
atom 17.3767023300000005 15.6629978199999993 2.2653664099999999 Au
atom 20.1690757199999986 15.5896889699999992 2.3233226800000000 Au
atom 22.9298368799999999 15.5702314499999996 2.4418237199999999 Au
atom 25.7457138900000011 15.6583153100000008 2.7080272500000002 Au
atom 0.4536774900000000 15.6241529200000002 2.8230011099999999 Au
atom 3.2685726000000002 15.6151639400000004 2.5337966700000001 Au
atom 6.1517779199999998 15.5828140899999994 2.4685965500000000 Au
atom 7.5317036799999997 18.1157990700000013 2.4857296299999998 Au
atom 10.3831865800000003 18.0702506000000014 2.5789947400000002 Au
atom 13.1322337900000008 18.0072911600000012 2.7100133099999999 Au
atom 16.0600269100000013 18.1921825300000002 2.3817016099999999 Au
atom 18.7730159599999986 18.0185358700000009 2.4323289699999999 Au
atom 21.4693931300000003 18.1606971000000001 2.5295228399999998 Au
atom 24.2763582699999994 18.0492102000000010 2.7223789900000002 Au
atom 27.1167543500000008 18.1184296899999993 2.6733764199999999 Au
atom 1.7696184800000001 17.9801203100000002 2.7838497900000001 Au
atom 4.6972634199999996 18.0034740400000004 2.6964411600000000 Au
atom 8.9147717499999999 20.6235240600000012 2.5421380000000000 Au
atom 11.7366168700000006 20.5394495699999986 2.7596390000000000 Au
atom 14.5339061500000000 20.4581669599999998 2.7905090100000001 Au
atom 17.3777788300000005 20.5749358800000017 2.8090016900000001 Au
atom 20.1152255900000014 20.5560384999999997 2.7024898400000001 Au
atom 22.9815798399999984 20.5921917500000013 2.6944849999999998 Au
atom 25.7830872800000002 20.4934510100000011 2.8457053399999999 Au
atom 0.5110711400000000 20.4582408499999993 2.9969948899999999 Au
atom 3.3316331899999998 20.5617940700000013 2.9498779000000002 Au
atom 6.1804030699999997 20.6235209099999999 2.7243254399999999 Au
atom 7.4769631199999997 23.0912001300000007 2.7311782299999998 Au
atom 10.2545485799999998 23.1536878799999997 2.6146334499999999 Au
atom 13.0600900600000003 22.9514911999999995 2.7779454200000000 Au
atom 15.9388299999999994 22.9949499899999985 3.0027616300000002 Au
atom 18.7193472199999995 22.9201439200000010 2.4002801599999999 Au
atom 21.4697403700000002 22.9729775799999985 2.5677889100000000 Au
atom 24.3988726100000015 23.0562064800000002 2.7992540699999999 Au
atom 27.2128610900000005 22.9662060799999992 2.7468687900000002 Au
atom 1.8102477400000001 22.9214060400000008 2.6226398899999999 Au
atom 4.6631865499999998 23.1525362799999996 2.8029022600000002 Au
atom 8.9425031500000003 25.6824777900000001 2.6997515800000000 Au
atom 11.7428812199999992 25.5404952099999996 2.7690983400000002 Au
atom 14.5880359199999994 25.4257271799999991 2.8015511300000000 Au
atom 17.2881544900000002 25.4962727399999984 2.7533850800000002 Au
atom 20.1097344199999988 25.4157876000000016 2.8456994199999999 Au
atom 22.9693293300000008 25.5122630999999984 2.8440885900000001 Au
atom 25.8684925200000002 25.4946632300000005 2.7622842699999999 Au
atom 0.4632647500000000 25.4702228499999990 2.8023361300000000 Au
atom 3.2723526900000000 25.5107252600000010 2.9008148100000000 Au
atom 6.0773289200000002 25.6592080699999983 2.9187908400000002 Au
atom 7.4490369300000001 28.0788115100000013 2.5668609899999999 Au
atom 10.3540790999999999 27.9892965099999991 2.4837638100000001 Au
atom 13.1713071399999997 27.9397901600000012 2.5162240800000002 Au
atom 16.0171850999999990 27.9340513399999999 2.6966574799999998 Au
atom 18.7471272000000013 27.9245439299999987 2.6318963000000002 Au
atom 21.6349018700000002 27.9088593899999999 2.8513683500000000 Au
atom 24.4370653299999994 27.9623773100000008 2.7919746399999998 Au
atom 27.1832056900000012 28.0315603399999986 2.7736650500000000 Au
atom 1.9476458200000000 28.0003817899999987 2.6703673999999999 Au
atom 4.6673992699999998 28.0509346300000004 2.6985436400000000 Au
atom 9.0549397700000007 30.4807233300000000 2.4783583999999999 Au
atom 11.8141031400000003 30.4162842699999985 2.4571771700000000 Au
atom 14.5990171100000001 30.3883170900000010 2.7115706600000000 Au
atom 17.4182900700000012 30.3900825099999992 2.6485610700000000 Au
atom 20.2593899099999994 30.3971187900000004 2.6084902200000002 Au
atom 23.1639257500000006 30.5044453599999983 2.7238160499999999 Au
atom 25.9333175199999992 30.4724488999999998 2.4892081699999999 Au
atom 0.5457215700000000 30.4758626300000017 2.6039401400000002 Au
atom 3.3288667400000000 30.4789486600000004 2.4033351900000000 Au
atom 6.0792501000000003 30.5193463700000009 2.4681459200000000 Au
atom 7.6208727999999999 33.0281214000000034 2.4689528699999999 Au
atom 10.3908414699999998 32.9775739700000017 2.6456530900000002 Au
atom 13.1234715299999998 32.9212812299999982 2.6229290000000001 Au
atom 15.9469305000000006 32.8483577000000011 2.7411442199999998 Au
atom 18.8009824499999993 32.9007598600000009 2.6328223600000000 Au
atom 21.6088784300000007 32.9475667399999992 2.6125237700000001 Au
atom 24.5781542799999997 32.9773535300000020 2.5127780000000000 Au
atom 27.3181405899999987 32.9066164500000014 2.5290789700000000 Au
atom 1.9789654800000001 32.9750040500000026 2.4391326499999999 Au
atom 4.7732434200000000 32.9514560799999998 2.4062320100000001 Au
atom 8.9588837100000003 35.4308679700000013 2.7589586000000001 Au
atom 11.7953046700000002 35.4446612099999996 2.6904731900000001 Au
atom 14.5904071299999991 35.3084408499999967 2.7245049099999998 Au
atom 17.3737329600000017 35.4366361699999999 2.8461647499999998 Au
atom 20.1623318699999992 35.4812806099999989 2.8570176699999998 Au
atom 23.0633003899999984 35.3111224100000030 2.6942480700000000 Au
atom 25.9627300400000003 35.4779742999999996 2.5948936800000002 Au
atom 0.6512290900000000 35.4103144299999997 2.3416919200000001 Au
atom 3.3867291800000001 35.4357743600000035 2.5812070100000000 Au
atom 6.1372873999999999 35.4347591100000017 2.6594708100000002 Au
atom 7.5371098600000002 37.8046981299999985 2.6634158000000001 Au
atom 10.3489127700000001 37.8505919400000010 2.7973445600000000 Au
atom 13.2088014499999993 37.8793823000000032 2.9539892900000000 Au
atom 15.9816353800000002 37.8085914899999977 2.8979933600000001 Au
atom 18.8296540899999982 37.8857314500000015 2.8045293400000002 Au
atom 21.7340533200000010 37.7833819399999982 2.8348800600000001 Au
atom 24.5403520700000009 37.7592070299999989 2.6477850599999999 Au
atom 27.3576849799999984 37.8099416800000014 2.2654015200000002 Au
atom 1.9803780499999999 37.8600691500000011 2.4896443700000002 Au
atom 4.7459734300000003 37.9709823800000024 2.6388117200000001 Au
atom 8.8995082500000002 0.8423167000000000 2.5745194699999998 Au
atom 11.8024558800000001 0.9278098700000000 2.8661114400000001 Au
atom 14.5871892899999995 0.9394003399999999 2.5412631600000002 Au
atom 17.3303646499999999 0.8128646700000000 2.7100810800000001 Au
atom 20.2099506300000016 0.8077200900000000 2.8554269400000001 Au
atom 23.0433467500000013 0.9045464100000000 2.8863262800000000 Au
atom 25.8256678499999985 0.8388302200000000 2.5571439200000001 Au
atom 0.4325206300000000 0.8692954600000000 2.6841198500000001 Au
atom 3.2479268299999999 0.9561986900000000 2.4922787099999999 Au
atom 6.0874317500000004 0.9298318100000000 2.7028681799999998 Au
atom 7.5835488900000003 3.3048152599999998 2.8990518100000000 Au
atom 10.4177586400000006 3.3342384900000002 2.7545691099999998 Au
atom 13.2042384599999991 3.3942153199999998 2.6373947300000000 Au
atom 15.9777472800000009 3.3758608300000001 2.6998140899999998 Au
atom 18.8048395600000013 3.2403309500000002 2.7251315699999998 Au
atom 21.6342769799999992 3.3560369500000000 2.8615609900000001 Au
atom 24.4547622699999998 3.3261356100000001 2.9328732099999999 Au
atom 27.2314274199999993 3.3157176900000001 2.6954186999999998 Au
atom 1.8280392200000000 3.4058086200000002 2.5808547499999999 Au
atom 4.6334430099999997 3.2900148100000002 2.7424923600000000 Au
atom 8.8641777600000005 5.7830042099999996 2.8108703400000001 Au
atom 11.8126288000000006 5.9194425500000003 2.6882749200000000 Au
atom 14.6183926399999997 5.8617010299999999 2.7526050999999998 Au
atom 17.4502777199999990 5.7537092500000000 2.5594819400000000 Au
atom 20.2134297499999995 5.7795162600000003 2.8785272100000001 Au
atom 23.0938578899999989 5.7542098399999997 2.8457992600000002 Au
atom 25.8798113600000015 5.8023253600000002 2.6551755300000002 Au
atom 0.4728904000000000 5.8739043400000002 2.2295208000000000 Au
atom 3.2829927900000002 5.7923858800000003 2.6920242100000000 Au
atom 6.0798201000000001 5.7458866899999999 2.7773426799999998 Au
atom 7.5727127699999999 8.1403358600000004 2.7260622500000000 Au
atom 10.3932278500000006 8.2185760699999992 2.2958912800000002 Au
atom 13.1838217899999997 8.3166162900000007 2.3614486000000001 Au
atom 15.9929420199999992 8.2924375700000006 2.1597624099999999 Au
atom 18.7045598899999987 8.3012678500000003 2.5450943700000002 Au
atom 21.6034557599999992 8.1980730699999995 2.6616500200000002 Au
atom 24.4641493899999993 8.3207460999999991 2.6868948200000000 Au
atom 27.2955584699999996 8.3903284399999993 2.5364681700000000 Au
atom 1.9333380499999999 8.2433806300000008 2.6056194100000001 Au
atom 4.7201496000000001 8.3046383899999991 2.7193074400000001 Au
atom 8.9147488300000006 10.6278604100000003 2.3861634700000001 Au
atom 11.6540929000000002 10.6823774999999994 2.3212958700000001 Au
atom 14.6340921399999999 10.7082311600000004 2.2105165000000002 Au
atom 17.4396526999999999 10.7488790800000000 2.2101084700000002 Au
atom 20.2288942799999987 10.6434527499999998 2.3843915400000002 Au
atom 23.0103625399999991 10.7971228499999992 2.4099225000000000 Au
atom 25.7995413099999986 10.7792276200000003 2.4819339399999998 Au
atom 0.5347041200000000 10.7759985799999995 2.5104700900000001 Au
atom 3.3251957600000002 10.6152624299999996 2.4386620500000000 Au
atom 6.1866911599999996 10.7658156900000002 2.6821422300000002 Au
atom 7.4135727800000000 13.5244396499999997 5.5281916799999999 Cl
atom 7.7100908700000002 16.2666386199999984 8.2761785600000000 Cl
atom 7.5201424799999996 13.4419606199999997 8.1904689400000006 Na
atom 7.5198832299999996 16.1831551100000013 5.6115420599999997 Na
atom 7.4782246099999998 19.0067588600000015 5.5408606000000002 Cl
atom 7.6246314300000000 21.4879575500000009 8.5605076600000007 Cl
atom 7.5310754299999996 18.8524154000000017 8.1791834600000008 Na
atom 7.6180482300000003 21.7103826600000005 5.7712113299999999 Na
atom 7.5668424300000003 24.5339224000000016 5.7902200400000003 Cl
atom 7.6891486000000002 27.3501504900000008 8.4559403399999997 Cl
atom 7.5372853099999997 24.5591922099999991 8.4044622400000009 Na
atom 7.4837287000000003 27.4536528699999991 5.6520583499999999 Na
atom 7.6578424099999998 30.2555353700000005 5.5901562900000004 Cl
atom 7.5348897800000003 33.0019456200000008 8.5621077400000001 Cl
atom 7.6070976500000000 30.2276062100000011 8.2392130100000003 Na
atom 7.4894156699999996 32.9704134099999990 5.7539649300000004 Na
atom 7.4315250500000003 35.8545755399999990 5.7517050200000002 Cl
atom 7.4223759899999999 38.6364820499999979 8.5380805700000000 Cl
atom 7.6112092400000000 35.6896901599999978 8.3280597200000006 Na
atom 7.5537515800000001 38.6368367899999967 5.7483025100000003 Na
atom 7.6410691399999999 1.9925678499999999 5.7769500000000003 Cl
atom 7.5458407400000000 5.0683026199999999 8.5018628599999992 Cl
atom 7.4048714100000002 2.0281348499999998 8.3409850500000005 Na
atom 7.4615991700000004 4.8338575800000001 5.8366442799999998 Na
atom 7.4474204000000004 7.6195839999999997 5.5964108699999997 Cl
atom 7.3843950600000001 10.5988163100000001 8.3485980200000007 Cl
atom 7.6228223300000000 7.7021546299999999 8.2790470700000007 Na
atom 7.4143068000000003 10.5772790800000003 5.7163805400000003 Na
atom 10.2746003100000003 13.2579347900000002 5.5087297199999998 Na
atom 13.1819609599999996 13.3448210199999995 5.4676350899999999 Cl
atom 10.4745059699999992 16.2098295599999993 8.0210130700000004 Na
atom 13.2976272099999999 16.1782969399999992 8.2045742199999996 Cl
atom 13.0681247299999992 13.2289011700000003 8.1034788100000004 Na
atom 10.1706320300000002 13.1350173399999992 8.2023101700000005 Cl
atom 13.3495025300000005 16.1797012400000000 5.5848612199999996 Na
atom 10.4889691999999997 16.1929745499999989 5.3107370100000004 Cl
atom 10.5039021600000009 18.8727951999999988 5.5103906100000000 Na
atom 13.2975442899999994 19.1054994200000010 5.5567123100000000 Cl
atom 10.3515976399999996 21.7498898899999986 8.1078138200000005 Na
atom 12.9838624599999992 21.6181935400000000 8.5802438199999997 Cl
atom 13.2444103900000005 18.8460182500000002 8.3516528300000008 Na
atom 10.4102048000000007 18.9104868500000016 8.0607580500000005 Cl
atom 13.4080608800000007 21.8219990400000015 5.6095829999999998 Na
atom 10.4235583399999996 21.7583844699999993 5.4321730400000003 Cl
atom 10.4129942300000007 24.5948146200000011 5.5195540000000003 Na
atom 13.1511894500000004 24.5243327899999990 5.6485254899999999 Cl
atom 10.3417871600000009 27.5122697299999999 8.1611616300000005 Na
atom 12.9667083099999996 27.5311107300000018 8.3352627899999998 Cl
atom 13.2127154499999993 24.5332837200000000 8.4082335399999995 Na
atom 10.4349813099999995 24.4410945400000017 8.3471493399999996 Cl
atom 13.1273593500000008 27.3484263399999996 5.5564165299999999 Na
atom 10.3529603100000003 27.3547819200000006 5.4365928600000002 Cl
atom 10.4377340600000004 30.3119512100000001 5.6510929900000004 Na
atom 13.1243775399999993 30.2507610999999983 5.5258508400000004 Cl
atom 10.3622764499999995 33.0077665100000033 8.2954214400000001 Na
atom 13.0571196300000008 33.1110218299999985 8.3877409499999995 Cl
atom 13.0356284099999993 30.2217569099999999 8.2441033299999997 Na
atom 10.2322410700000006 30.2978401400000017 8.4834632499999998 Cl
atom 13.1423835400000009 33.0693111599999980 5.6566920900000000 Na
atom 10.2909006699999992 33.2143686100000011 5.7480164100000000 Cl
atom 10.3323146999999995 35.9950706300000007 5.8383052099999997 Na
atom 12.9875471200000003 35.9364184800000004 5.6285633400000004 Cl
atom 10.0708347299999996 38.7183235500000009 8.4296424600000002 Na
atom 12.9482662800000004 38.7301917899999992 8.7990755099999998 Cl
atom 13.0510147399999994 35.9401634800000025 8.3333218099999993 Na
atom 10.4304393300000005 35.9165799499999991 8.6644201499999998 Cl
atom 13.0942773199999998 38.8130962999999980 5.9365083399999996 Na
atom 10.4065729999999999 38.7119402200000025 5.7819295500000001 Cl
atom 10.3068450400000007 2.0535086300000001 5.6228714699999998 Na
atom 13.1566559299999994 2.0098202199999999 5.7711142500000001 Cl
atom 10.3431065699999998 4.9011378900000002 8.3005016900000008 Na
atom 13.1303039500000001 4.9837421700000002 8.6645825100000007 Cl
atom 12.9591676699999994 2.0778356499999999 8.4232085199999993 Na
atom 10.2699343299999999 2.2647188800000002 8.4643783500000005 Cl
atom 13.1238328200000005 4.8689487099999997 5.6636332100000004 Na
atom 10.3214303899999997 5.0002058199999997 5.5913386899999997 Cl
atom 10.3616674300000007 7.7708481200000001 5.3964150999999996 Na
atom 13.1004005100000001 7.5725364099999997 5.6924022799999996 Cl
atom 10.4924119999999998 10.5124718399999999 8.1987815699999995 Na
atom 13.3229685900000003 10.5061688499999999 8.4141128399999996 Cl
atom 13.1041928700000003 7.6530449799999998 8.2940224100000002 Na
atom 10.2450167899999993 7.6632866699999997 8.3518270700000006 Cl
atom 13.1415314700000003 10.4231969400000004 5.5186983900000000 Na
atom 10.3184510700000001 10.3562904699999994 5.5481631299999998 Cl
atom 15.9269081999999997 13.3267424000000005 5.5391696000000001 Na
atom 18.8071518299999987 13.3468696500000004 5.4238348199999997 Cl
atom 15.9924423900000008 15.9677650399999997 8.1602443400000002 Na
atom 18.8884376600000010 16.1305033999999985 8.5203598899999999 Cl
atom 18.8580718099999984 13.3935051600000001 8.0995703900000002 Na
atom 15.9639880900000009 13.2270040400000006 8.3373308000000002 Cl
atom 18.8814762499999986 16.1585244400000008 5.8327985599999996 Na
atom 16.0888046399999993 16.2156056299999989 5.5377968600000003 Cl
atom 16.0007120799999996 19.0187451500000009 5.7041651900000003 Na
atom 18.8038481200000014 18.9744153500000010 5.5975744900000004 Cl
atom 16.1547452900000010 21.8636778800000009 8.1617855299999995 Na
atom 18.8558552100000014 21.9118024300000016 8.4614967599999993 Cl
atom 18.8044577199999985 18.9299103100000004 8.3501672700000000 Na
atom 16.0968899100000016 18.9969857900000001 8.4417589300000007 Cl
atom 18.9835607899999985 21.7757907099999990 5.8312451000000003 Na
atom 16.2095701800000001 21.8400999700000007 5.5340680300000002 Cl
atom 16.2782669400000017 24.5903116100000005 5.7305510599999998 Na
atom 19.1513967600000008 24.6932474900000010 5.6402770000000002 Cl
atom 15.9176482999999998 27.5057135399999986 8.4295028100000007 Na
atom 18.7447716399999997 27.5053742300000010 8.5143889200000000 Cl
atom 18.9197707199999989 24.7575816700000004 8.2886777299999999 Na
atom 16.2138776000000000 24.5591389900000010 8.3815910099999993 Cl
atom 18.8205911700000001 27.4062555400000001 5.9674848100000002 Na
atom 15.9362444700000001 27.5255497300000016 5.6860742200000001 Cl
atom 15.9234801200000007 30.1853659900000011 5.6687927900000004 Na
atom 18.9166798299999996 30.3965796700000013 5.6761331100000003 Cl
atom 15.8934557999999999 33.0524974400000033 8.2716149399999992 Na
atom 18.6272174399999990 33.0966837100000006 8.4289581400000007 Cl
atom 18.6747145299999993 30.2497179500000009 8.2692157000000002 Na
atom 15.9231126100000004 30.2736454500000001 8.3776123499999997 Cl
atom 18.6680410999999999 33.1173823199999973 5.6742520599999997 Na
atom 15.8079095699999996 33.1088409099999978 5.6505971400000004 Cl
atom 15.7633794100000006 35.9454629299999979 5.7743150700000001 Na
atom 18.5342932800000000 35.9240568999999965 5.6280171799999996 Cl
atom 15.9511433300000007 38.7603498200000018 8.3251732500000006 Na
atom 18.8323446899999993 38.6602550799999989 8.6908218399999999 Cl
atom 18.6836940799999986 35.8716106999999980 8.2493188100000001 Na
atom 15.7862474800000001 35.9343566100000018 8.3921610300000005 Cl
atom 18.6321187500000001 38.8170636999999985 5.8536879700000002 Na