#===============================================================================
# Created using the Atomic Simulation Environment (ASE)

# Tue Dec 23 22:26:38 2025

#=======================================================
lattice_vector 28.1999999999999993 0.0000000000000000 0.0000000000000000 
lattice_vector 0.0000000000000000 39.4799999999999969 0.0000000000000000 
lattice_vector 0.0000000000000000 0.0000000000000000 62.3296083400000001 
atom 7.5005457399999997 14.8207655000000003 0.0096208900000000 Au
atom 10.3630669999999991 14.8104850599999995 -0.1305508300000000 Au
atom 13.1383601100000007 14.8030348200000006 -0.1812931300000000 Au
atom 16.0344746600000008 14.7893735999999993 -0.0885344300000000 Au
atom 18.8155182900000000 14.8225634799999995 -0.0970230700000000 Au
atom 21.6289513699999993 14.8061724300000002 0.0784188400000000 Au
atom 24.3714819300000016 14.8455740400000007 -0.0601364200000000 Au
atom 27.2479751999999991 14.9246913699999997 -0.3065043400000000 Au
atom 1.9029080300000001 14.8020602399999994 -0.0256343400000000 Au
atom 4.6347543599999996 14.7346540000000008 -0.1539610700000000 Au
atom 8.9714248199999993 17.2470540200000002 -0.2139980800000000 Au
atom 11.7804286999999999 17.2754173900000012 -0.1955884900000000 Au
atom 14.6017372099999996 17.2687062299999994 -0.2675387200000000 Au
atom 17.4600156700000007 17.3965065800000005 -0.1120181300000000 Au
atom 20.2178745699999993 17.3004256900000009 0.0539329600000000 Au
atom 22.9639602099999998 17.2779322899999990 0.1734872000000000 Au
atom 25.8661812600000012 17.3832749500000006 0.1561261300000000 Au
atom 0.4997969400000000 17.2667887499999999 -0.0278164500000000 Au
atom 3.3592757600000001 17.2915690700000013 -0.0446393500000000 Au
atom 6.1238119800000002 17.2466615999999995 0.0465308100000000 Au
atom 7.5196511700000004 19.7446213099999994 0.0301128600000000 Au
atom 10.3784815699999999 19.7246364199999995 0.0821110900000000 Au
atom 13.1962043399999995 19.8426063100000007 -0.0974320500000000 Au
atom 16.0134083899999986 19.8067827799999989 -0.0759918300000000 Au
atom 18.9203771399999994 19.8460623100000007 -0.0649850900000000 Au
atom 21.6976177200000002 19.8360697799999990 0.0769587700000000 Au
atom 24.4802754900000004 19.7313018500000013 0.1648789800000000 Au
atom 27.2691459499999986 19.7873752200000013 0.0245668600000000 Au
atom 1.8449532500000001 19.8122529999999983 0.0503823800000000 Au
atom 4.7264340999999996 19.7701745399999993 0.0234570200000000 Au
atom 9.0430491400000008 22.2605722999999998 -0.1267234500000000 Au
atom 11.8436608099999994 22.2658171600000010 0.0151310000000000 Au
atom 14.6106941300000006 22.2643422800000010 0.1775811400000000 Au
atom 17.4369261999999985 22.2572554700000005 0.0450496700000000 Au
atom 20.3214630499999984 22.2219587199999999 -0.1066649500000000 Au
atom 23.0724405700000013 22.3220804100000016 -0.0517937100000000 Au
atom 25.7801960399999999 22.2013535600000012 0.3898999000000000 Au
atom 0.3906629700000000 22.0914652499999988 -0.0897282800000000 Au
atom 3.2411032199999998 22.2363723899999997 0.0965838500000000 Au
atom 6.1470130599999999 22.2873359800000017 -0.0451891400000000 Au
atom 7.5489885200000000 24.7394831199999992 0.0418812500000000 Au
atom 10.3723270400000001 24.7707350499999990 0.1024304000000000 Au
atom 13.1144490099999995 24.7230496299999984 0.1431490000000000 Au
atom 15.9791222899999994 24.6839326399999983 0.1228004400000000 Au
atom 18.8449115700000007 24.7066264099999984 0.1030936200000000 Au
atom 21.6454735800000009 24.7781754300000010 -0.1435234000000000 Au
atom 24.4624839499999993 24.6659115299999989 0.0981158200000000 Au
atom 27.2678508499999985 24.7524931300000013 0.0172589100000000 Au
atom 1.9765921000000000 24.7687641800000016 0.0637865300000000 Au
atom 4.7697660800000001 24.7382276200000000 0.0856152900000000 Au
atom 8.9979795800000009 27.1561176300000007 0.1216890100000000 Au
atom 11.7840925599999995 27.1985578399999994 0.2061288300000000 Au
atom 14.6275388599999996 27.1572377899999999 -0.1298828000000000 Au
atom 17.4092587899999991 27.1150855100000001 0.1256850900000000 Au
atom 20.1968490799999998 27.2185968000000003 -0.0717628800000000 Au
atom 23.1016697700000009 27.1695189900000003 -0.2083485600000000 Au
atom 25.8452343300000003 27.1397934899999989 -0.0844983100000000 Au
atom 0.4196937200000000 27.2145201800000009 -0.0224059000000000 Au
atom 3.3523382000000002 27.1718932200000012 -0.0777278300000000 Au
atom 6.1500929700000002 27.2403382600000015 0.2101085600000000 Au
atom 7.5768892499999998 29.6421666100000003 0.0522069000000000 Au
atom 10.3872247000000009 29.7182582999999987 -0.0159443800000000 Au
atom 13.1605597200000002 29.7049505300000014 0.0978510000000000 Au
atom 16.0038505099999995 29.6007066499999993 0.0467974400000000 Au
atom 18.7703033499999989 29.6222537300000006 -0.0985200700000000 Au
atom 21.6214031300000009 29.6283775799999987 -0.0211747000000000 Au
atom 24.4416274400000013 29.6227046899999991 -0.1977409600000000 Au
atom 27.2384195600000005 29.5016101800000001 0.0913005600000000 Au
atom 1.9238453600000001 29.6626330899999999 0.0804981600000000 Au
atom 4.7235658699999998 29.6551581000000013 0.0791163200000000 Au
atom 8.9505055099999993 32.0757398699999996 0.0550050400000000 Au
atom 11.7767003700000004 32.1534091500000017 0.1631423400000000 Au
atom 14.5671229699999998 32.1675290800000013 -0.0083848700000000 Au
atom 17.4065085300000000 32.1098465899999965 -0.1284893300000000 Au
atom 20.1971854200000003 32.0786496799999981 -0.1960567700000000 Au
atom 22.9711361799999985 32.1055914800000011 0.0850763000000000 Au
atom 25.8030002100000004 32.1583412600000003 -0.2622022100000000 Au
atom 0.4161824100000000 32.0742875899999973 -0.0940650100000000 Au
atom 3.2784026900000001 32.0892219099999991 -0.0450510600000000 Au
atom 6.1801607900000004 32.0766220599999983 0.0275713100000000 Au
atom 7.5427855900000003 34.5663886500000004 0.0603228300000000 Au
atom 10.3052085299999998 34.6406000300000017 0.0036745400000000 Au
atom 13.1381319699999999 34.6505411999999993 -0.1273671300000000 Au
atom 15.9948765099999992 34.5468046599999994 -0.1278192500000000 Au
atom 18.7520076799999984 34.6170962899999992 -0.1812748600000000 Au
atom 21.6127410600000012 34.5863027700000032 0.0253168700000000 Au
atom 24.4840277600000000 34.6466646599999990 -0.2000760900000000 Au
atom 27.2623909299999987 34.6527820399999982 -0.1403717100000000 Au
atom 1.8876776500000001 34.4960682099999971 0.0302983700000000 Au
atom 4.6723078600000001 34.5947632700000014 -0.1778794500000000 Au
atom 8.9290691599999992 37.0673810300000000 0.2540913200000000 Au
atom 11.6259084900000005 37.0783141799999996 0.1094808100000000 Au
atom 14.5052979499999992 37.1593288199999989 0.0746628200000000 Au
atom 17.2249797099999995 37.0614003900000029 0.0426120300000000 Au
atom 20.0837426800000003 37.0401676600000016 -0.2140455300000000 Au
atom 22.9861910400000014 37.0243476500000028 -0.1664271700000000 Au
atom 25.7888584999999999 37.0802385300000026 -0.0265022800000000 Au
atom 0.5258417100000000 37.0392231100000018 0.1044073600000000 Au
atom 3.4244862100000000 36.9923299399999976 0.0500983900000000 Au
atom 5.9331624900000000 37.0433244800000026 0.0555559600000000 Au
atom 7.3872398900000000 0.0646400900000000 0.4362929100000000 Au
atom 10.1553227600000007 0.0399954800000000 0.3822857500000000 Au
atom 13.0700133600000008 0.0331301600000000 0.1230617900000000 Au
atom 15.9719153899999995 0.0507302800000000 0.2943439700000000 Au
atom 18.6853725299999986 0.0182444200000000 0.2110129600000000 Au
atom 21.7429117199999986 0.0028978900000000 -0.2342171200000000 Au
atom 24.3360227100000017 0.0208997000000000 -0.0898985500000000 Au
atom 27.2574861900000016 -0.1109691500000000 0.1912309400000000 Au
atom 1.3605912600000001 0.0423321800000000 0.0498816200000000 Au
atom 4.5266450000000003 0.0457333600000000 -0.1321625400000000 Au
atom 8.8206141500000008 2.5149157299999998 0.2182694600000000 Au
atom 11.6760300499999996 2.5390599500000000 0.2208177700000000 Au
atom 14.5027478999999992 2.5169165300000000 0.2112293500000000 Au
atom 17.3534516699999983 2.4784016699999998 0.1691625100000000 Au
atom 20.0864720100000014 2.3961624399999999 -0.0871878000000000 Au
atom 22.9629355500000010 2.4531930900000001 -0.1769097200000000 Au
atom 25.7731326600000017 2.4850284199999999 -0.1111785700000000 Au
atom 0.3814557100000000 2.2887765999999998 -0.0124391700000000 Au
atom 3.1671557300000002 2.4182161400000002 0.0778036600000000 Au
atom 6.0129158399999998 2.5467947799999999 0.0895095900000000 Au
atom 7.4758679700000004 4.9653611399999997 0.1077051900000000 Au
atom 10.3544776400000007 4.9841532300000004 0.0862731400000000 Au
atom 13.1563092499999996 4.9981433900000001 -0.0563151400000000 Au
atom 15.9450655000000001 4.9309324900000000 0.0520242100000000 Au
atom 18.8038022900000001 4.9367881400000000 0.0721008700000000 Au
atom 21.6091498299999998 4.8615977700000004 0.0944399600000000 Au
atom 24.3666326399999988 4.9633690799999997 0.0998933500000000 Au
atom 27.2169053400000003 5.0112524699999996 0.0392482200000000 Au
atom 1.8254087100000000 4.8456700699999997 -0.0515902500000000 Au
atom 4.6683373000000001 4.9690950200000001 0.1197496800000000 Au
atom 8.8968620000000005 7.3377953400000004 0.0362156300000000 Au
atom 11.7815767999999998 7.4452640600000004 0.0389677200000000 Au
atom 14.6123123400000008 7.4723042499999996 0.1112502700000000 Au
atom 17.4226270899999989 7.3991593299999998 0.0480926500000000 Au
atom 20.2216418699999991 7.4728311800000000 0.1870666800000000 Au
atom 23.0690444799999987 7.3134729299999996 0.2809847100000000 Au
atom 25.8234491300000002 7.3033633599999996 -0.0061317100000000 Au
atom 0.4528891900000000 7.4365412199999996 0.0439908800000000 Au
atom 3.2090823500000001 7.4054928300000000 0.1014683500000000 Au
atom 6.0715912699999999 7.4482547400000003 0.2356771800000000 Au
atom 7.5180712700000001 9.8890324500000002 0.0188996300000000 Au
atom 10.3392049499999992 9.8527131099999998 -0.1432626500000000 Au
atom 13.1840264099999995 9.9176978600000005 -0.0772093100000000 Au
atom 16.0507132900000009 9.8254010399999991 -0.0360212200000000 Au
atom 18.8224553099999987 9.9149106600000003 0.1667723600000000 Au
atom 21.6480404799999988 9.9396257099999996 0.2276150300000000 Au
atom 24.4022846099999988 9.8433884400000000 0.0753424800000000 Au
atom 27.2604216599999987 9.8610634099999999 0.0238523800000000 Au
atom 1.8378330100000000 9.8705055200000000 -0.0017228300000000 Au
atom 4.6597536200000000 9.8495833200000007 0.1410957300000000 Au
atom 8.9279595700000005 12.2537933500000005 -0.1600262800000000 Au
atom 11.7702160399999993 12.3588317399999994 -0.0592024500000000 Au
atom 14.5989676199999998 12.3143905399999998 -0.3452135500000000 Au
atom 17.3693260500000015 12.2350609800000001 -0.1006333900000000 Au
atom 20.1638378299999985 12.3965064999999992 0.0872993000000000 Au
atom 22.9731690499999992 12.3580053500000009 0.0553909800000000 Au
atom 25.8896878100000016 12.3394182099999998 0.0269224800000000 Au
atom 0.4554751300000000 12.3597883599999996 -0.0060248000000000 Au
atom 3.2287995000000000 12.3143345400000008 0.1227029700000000 Au
atom 6.1350170500000001 12.2969286100000001 -0.1848739900000000 Au
atom 7.4584856700000000 13.1413958199999996 2.3958472199999998 Au
atom 10.3419844500000000 13.1924314200000001 2.5384105899999998 Au
atom 13.1558785300000007 13.2251642599999997 2.2746407600000000 Au
atom 15.8949369300000001 13.1935272900000005 2.3614565199999999 Au
atom 18.7576699100000006 13.2985128800000005 2.6376828899999998 Au
atom 21.5660465200000004 13.2739123699999997 2.6054377700000000 Au
atom 24.4300692099999992 13.2879949300000000 2.6568135499999999 Au
atom 27.1684970800000016 13.3138075699999998 2.4160945599999999 Au
atom 1.8991040100000001 13.3393970799999995 2.6006964699999999 Au
atom 4.6580685600000002 13.2031888899999998 2.5237935100000000 Au
atom 8.9286037599999997 15.6199448400000005 2.4346058099999999 Au
atom 11.8014234499999997 15.5992739500000006 2.4770496600000000 Au
atom 14.5226952100000002 15.6755924600000007 2.3964611900000001 Au
atom 17.3388408399999996 15.7461480199999997 2.5763020900000000 Au
atom 20.1950942600000012 15.7391085499999992 2.6820256499999999 Au
atom 23.1047757400000009 15.7435115700000008 2.6888102599999999 Au
atom 25.8451201799999986 15.6349182700000000 2.5917586400000001 Au
atom 0.4448225600000000 15.6786883699999997 2.5381811200000000 Au
atom 3.2668271299999998 15.6341550399999996 2.5227161599999999 Au
atom 6.0783731999999997 15.6016183300000009 2.6513671799999998 Au
atom 7.5701285699999996 18.1290413500000014 2.6575622100000000 Au
atom 10.3413173199999999 18.1019728600000001 2.6837979999999999 Au
atom 13.1778579800000006 18.0774983200000001 2.3958773099999999 Au
atom 16.0074197299999987 18.0948446800000013 2.5434960400000000 Au
atom 18.7727988600000018 18.2191586200000017 2.5811523900000002 Au
atom 21.5353788399999999 18.2053273799999999 2.7028793200000001 Au
atom 24.4274483099999991 18.1627197100000011 2.8530517899999999 Au
atom 27.3193895100000006 18.1048293399999984 2.5831023900000001 Au
atom 1.8876801900000000 18.1726327800000007 2.5194893000000000 Au
atom 4.7282170600000004 18.1897373400000006 2.5542698900000000 Au
atom 9.0084477700000001 20.6460802699999988 2.5185590100000002 Au
atom 11.8458156399999996 20.5582735200000002 2.5879833500000000 Au
atom 14.5929891600000001 20.4840124400000008 2.7449395100000000 Au
atom 17.4322830499999988 20.6411998799999985 2.6589985000000000 Au
atom 20.1985442699999993 20.6190626399999992 2.5978924700000001 Au
atom 23.0221964800000016 20.6605554600000012 2.6772163899999999 Au
atom 25.8281669600000008 20.5524562300000007 2.8678487200000000 Au
atom 0.4504548800000000 20.5793530999999987 2.8143218200000000 Au
atom 3.3232687400000001 20.6259124800000002 2.7366238900000002 Au
atom 6.2721545100000000 20.6283103600000004 2.6935888399999999 Au
atom 7.6074896900000004 23.1453230999999988 2.5539586000000001 Au
atom 10.4498908700000008 22.9881803299999987 2.6172545800000000 Au
atom 13.2721849800000005 23.0370104200000014 2.7351106600000001 Au
atom 16.0492008599999991 23.1281031000000006 2.7477791200000001 Au
atom 18.7967684199999994 23.1127044999999995 2.6268795800000002 Au
atom 21.6046812000000017 23.1505720699999991 2.5286335599999998 Au
atom 24.4445432300000007 23.1010116600000011 2.8483716700000001 Au
atom 27.2438237600000015 23.1806283499999992 2.6735181600000000 Au
atom 1.8912902899999999 22.9935800700000001 2.5996352500000000 Au
atom 4.7108074000000002 23.0862758799999988 2.5707167900000001 Au
atom 8.9907334599999995 25.5390421399999994 2.7072926000000002 Au
atom 11.7836708500000000 25.5437053799999987 2.7937605300000001 Au
atom 14.5450986800000006 25.5408313999999983 2.7100210200000001 Au
atom 17.3548910999999997 25.6153979900000017 2.7019319300000002 Au
atom 20.1724790100000000 25.5686714200000011 2.5620766000000001 Au
atom 22.9978687800000010 25.5879408099999992 2.6577590500000001 Au
atom 25.8107787199999983 25.5352949299999992 2.6293961000000001 Au
atom 0.4670687300000000 25.5151139899999997 2.9043456499999998 Au
atom 3.2955708300000000 25.6041885799999989 2.6564694700000002 Au
atom 6.1052270499999999 25.5166930500000007 2.7967624600000001 Au
atom 7.5407833300000000 28.0028549799999986 2.7399402600000000 Au
atom 10.4237401199999997 28.0176909700000003 2.8046965500000001 Au
atom 13.2278954899999999 27.9908174199999991 2.7173044700000002 Au
atom 15.8924140999999999 28.0903407999999999 2.5782913000000001 Au
atom 18.8397830800000001 28.0359812999999995 2.6677449400000000 Au
atom 21.6507898599999997 28.0474080599999986 2.4343091200000000 Au
atom 24.3639118400000001 28.0091120800000013 2.3418627399999998 Au
atom 27.2286144199999995 27.7860278100000002 2.5170243299999999 Au
atom 1.9039719300000000 27.9548152700000010 2.6009551700000002 Au
atom 4.6789715300000001 28.0511313300000005 2.7330546999999998 Au
atom 8.9686508200000006 30.3620805699999998 2.6814153900000002 Au
atom 11.8180292999999992 30.4944828500000007 2.6759771300000001 Au
atom 14.6424420499999997 30.5473534499999992 2.4978110099999999 Au
atom 17.4074369900000008 30.4762978099999984 2.6353431600000001 Au
atom 20.2383733700000015 30.4917225400000014 2.5392961399999998 Au
atom 23.0396332699999995 30.5345067700000001 2.6822222999999998 Au
atom 25.8346911199999987 30.5464066299999999 2.3255573599999999 Au
atom 0.4462320400000000 30.5218284799999999 2.6420055300000000 Au
atom 3.3023486100000001 30.5131221699999990 2.6889359599999998 Au
atom 6.1359621300000002 30.4699825199999985 2.6429682600000000 Au
atom 7.6147350100000004 32.9112811999999977 2.6890103299999999 Au
atom 10.4331385099999991 32.9596620499999986 2.8445283500000000 Au
atom 13.1907214699999997 32.9778319300000007 2.6936853300000001 Au
atom 16.0060586399999991 33.0137885800000035 2.5492233500000001 Au
atom 18.8288046899999983 33.0019339400000007 2.4243990900000001 Au
atom 21.5968079300000007 33.0103100400000002 2.7886409900000002 Au
atom 24.3892404700000007 32.9655502499999997 2.5235581300000001 Au
atom 27.2089302300000000 33.0637850800000024 2.2918343000000001 Au
atom 1.9169485900000001 32.8225262999999998 2.6185003099999999 Au
atom 4.7698625100000003 32.9519688399999993 2.6304193800000002 Au
atom 8.9433772200000003 35.4362741400000019 2.7682185700000002 Au
atom 11.7535245400000008 35.4844036900000006 2.5601181600000000 Au
atom 14.5819193800000004 35.4645436099999998 2.5082814999999998 Au
atom 17.4142916999999997 35.4223899699999976 2.5153974899999998 Au
atom 20.3009643799999999 35.5032933999999969 2.4692281800000000 Au
atom 23.1113493699999992 35.4336196799999996 2.3902750600000000 Au
atom 25.8989614000000010 35.3791678199999993 2.4687333400000000 Au
atom 0.5205179500000000 35.4852241500000005 2.5637437099999998 Au
atom 3.3029332600000001 35.3433475000000001 2.5771743200000001 Au
atom 6.0437352899999999 35.4047455500000012 2.4901303499999998 Au
atom 7.2053256699999997 37.9090109799999979 2.7651926800000002 Au
atom 10.2776184500000003 37.8816169999999985 3.1078831600000001 Au
atom 13.0340972100000005 37.8467156500000002 2.6841343900000001 Au
atom 16.0975591099999988 37.8480558400000007 2.7450833700000001 Au
atom 18.7859325699999999 37.8994659100000035 2.9495250199999998 Au
atom 21.6448069600000004 37.8878936799999977 2.5235987799999999 Au
atom 24.5380728400000017 37.7621395099999972 2.6194075500000000 Au
atom 27.4437844499999990 37.5480101799999986 2.4026800399999999 Au
atom 1.7969213300000000 37.8802520400000020 2.7323838700000000 Au
atom 4.8033277200000004 37.8611945800000029 2.5814411300000000 Au
atom 8.8314391099999998 0.8379193600000000 3.0065464300000002 Au
atom 11.8285906099999991 0.8455009000000000 2.8313628700000000 Au
atom 14.5081956499999993 0.8634577600000000 2.9078995700000001 Au
atom 17.2610898500000012 0.8540248900000000 2.7921200300000000 Au
atom 20.1876506999999989 0.8546900400000000 2.4270216699999998 Au
atom 22.9185911599999983 0.9231458000000000 2.6129836700000002 Au
atom 25.8148272399999996 0.7202343500000000 2.5658480099999998 Au
atom 0.4708574200000000 0.8691472200000000 2.9309935100000000 Au
atom 3.2143947100000001 0.9167436100000000 2.7895487900000000 Au
atom 6.0806180000000003 0.8897028299999999 2.6565633300000000 Au
atom 7.3996012999999996 3.3562144799999998 2.7181481299999999 Au
atom 10.2277210600000004 3.3534819599999999 2.7572361900000000 Au
atom 13.1130783199999996 3.3772258800000001 2.8084409300000002 Au
atom 16.0032264200000007 3.3003986900000002 2.6754834399999998 Au
atom 18.7939134299999999 3.3452849400000000 2.6180363000000000 Au
atom 21.4947668999999983 3.3882666100000001 2.5540863599999999 Au
atom 24.3822602800000006 3.3342375099999999 2.6070432800000001 Au
atom 27.1777772300000002 3.5272926700000000 2.5892144099999999 Au
atom 1.8190542900000000 3.4068087700000000 2.6355775600000002 Au
atom 4.6172523400000003 3.4061093400000000 2.7299986600000001 Au
atom 8.8272867799999997 5.8577721399999998 2.6774451099999999 Au
atom 11.7262601100000001 5.7700592300000002 2.6928682500000001 Au
atom 14.4863806700000008 5.7998881700000000 2.5756689499999998 Au
atom 17.2752256799999984 5.8629162399999997 2.7117584199999998 Au
atom 20.0973831400000016 5.8420994600000000 2.7698768800000000 Au
atom 22.9438178199999996 5.8459194300000004 2.7816391700000000 Au
atom 25.7763596399999990 5.8096958900000004 2.7020549300000001 Au
atom 0.4318425100000000 5.7030489099999997 2.5767615099999999 Au
atom 3.2328294000000000 5.8230680499999998 2.5815711100000001 Au
atom 5.9940417100000003 5.7903418400000000 2.7576765100000000 Au
atom 7.5302503099999996 8.2704239800000003 2.8011602799999999 Au
atom 10.2838239900000001 8.2628159399999994 2.5635211500000001 Au
atom 13.1383495299999993 8.2904320800000004 2.5780196499999999 Au
atom 15.9197010199999998 8.2419589799999997 2.6556342399999999 Au
atom 18.7092461900000018 8.2519193099999999 2.7634590200000000 Au
atom 21.5890034100000001 8.3357822800000001 2.8523126599999999 Au
atom 24.4810403799999996 8.2996316399999994 2.8048206300000000 Au
atom 27.2060060800000016 8.5221921900000002 2.4794691200000001 Au
atom 1.7683322299999999 8.2992135099999995 2.5568268900000000 Au
atom 4.6563395800000000 8.2740132499999994 2.7979150800000001 Au
atom 8.9252165500000000 10.7227013600000003 2.4910713200000001 Au
atom 11.7538101699999995 10.7227880500000001 2.4842917899999999 Au
atom 14.5295530599999996 10.7912573100000007 2.5170743099999999 Au
atom 17.4372054900000002 10.7793466799999997 2.6384539999999999 Au
atom 20.1304892200000012 10.7842268000000008 2.7059257600000000 Au
atom 23.0371546900000013 10.8196536999999999 2.8145374500000000 Au
atom 25.8235919799999998 10.7280147600000006 2.7187561100000002 Au
atom 0.4182235600000000 10.7611850699999998 2.5825047400000001 Au
atom 3.2509638399999998 10.8108613699999996 2.6847368100000000 Au
atom 6.0790415099999997 10.6812972399999992 2.6229132800000001 Au
atom 7.4057624999999998 13.1149196299999993 5.8327309999999999 Cl
atom 7.4353956600000002 16.0090535400000000 8.7018326699999999 Cl
atom 7.2902611100000003 13.1394806699999993 8.4873334299999996 Na
atom 7.5205465599999997 16.0247666299999985 5.9070610700000001 Na
atom 7.4356196700000003 18.7694668600000014 5.8830524700000000 Cl
atom 7.5453298799999997 21.4438503599999990 8.7123795899999994 Cl
atom 7.4613813100000002 18.7982055800000012 8.4819720699999994 Na
atom 7.5574152200000002 21.4561794799999994 5.9202073700000000 Na
atom 7.5265627400000001 24.3116080500000002 5.8908132000000002 Cl
atom 7.5102711299999996 27.1152799199999990 8.7648571799999999 Cl
atom 7.3295599400000002 24.2924648199999993 8.4408949700000004 Na
atom 7.4933643300000004 27.1645528499999998 5.9915530400000003 Na
atom 7.5913650500000003 29.8933538799999994 5.8394495199999996 Cl
atom 7.5702511499999998 32.8421129600000015 8.6568965200000001 Cl
atom 7.5433118800000001 29.9305331199999998 8.4637893300000009 Na
atom 7.6423893400000003 32.6887947900000029 5.8694823700000001 Na
atom 7.4748299300000003 35.5437828100000033 5.7156322700000004 Cl
atom 7.5791280800000003 38.3746433199999970 8.5734984999999995 Cl
atom 7.5636610299999996 35.5974116200000026 8.3324277500000008 Na
atom 7.7342526200000004 38.4009611299999989 5.7952796299999996 Na
atom 7.6242806200000004 1.6594819500000000 5.6994203199999998 Cl
atom 7.3695109299999997 4.5382215600000002 8.6989060299999998 Cl
atom 7.4446825700000003 1.7447895499999999 8.3003494300000007 Na
atom 7.4478205099999997 4.6077333100000004 5.9322749300000002 Na
atom 7.4375698400000001 7.4492099400000003 5.8034068999999997 Cl
atom 7.2413425599999997 10.2441061300000005 8.6152834800000004 Cl
atom 7.3329069200000001 7.4218864099999999 8.4327509400000000 Na
atom 7.2758817300000000 10.2823986299999994 5.9555968100000003 Na
atom 10.2377170399999997 13.0010089400000002 6.0023691499999998 Na
atom 13.1131325699999994 13.1456142299999996 5.7355083400000000 Cl
atom 10.2113622199999998 16.0044314000000014 8.6558918400000007 Na
atom 13.2075099399999996 15.9357102499999996 8.6151579500000004 Cl
atom 13.1412280999999993 12.9945674499999999 8.5385675400000007 Na
atom 10.0609981699999995 12.8600161600000007 8.5310224199999993 Cl
atom 13.0897225899999992 15.8193920099999996 5.9734001900000004 Na
atom 10.2280188600000006 15.9550018900000001 5.9490850399999999 Cl
atom 10.3196873100000008 18.7221177499999989 6.0002394299999997 Na
atom 13.1197918799999993 18.7701981199999999 5.7537587200000004 Cl
atom 10.3407130200000008 21.4269886900000017 8.6520647400000001 Na
atom 13.1225867100000002 21.3110579099999988 8.8500306500000008 Cl
atom 13.1215890500000008 18.6799604300000013 8.4679842500000007 Na
atom 10.2055931999999991 18.7554590999999995 8.6591350400000007 Cl
atom 13.1978364900000003 21.4902205899999998 5.8546927999999996 Na
atom 10.3128844399999995 21.5856095199999984 5.8557021799999998 Cl
atom 10.3291844400000006 24.2931112300000009 6.0643243399999998 Na
atom 13.0324275000000007 24.2767978100000015 5.9099088300000000 Cl
atom 10.1657610500000004 27.1323645700000000 8.4148313699999999 Na
atom 12.9413175999999996 27.1927574199999995 8.7001300599999993 Cl
atom 13.0713940999999991 24.2880049100000015 8.7050477599999994 Na
atom 10.3366325299999993 24.3161604599999990 8.6657563799999995 Cl
atom 13.0882629799999997 27.0832234400000011 5.9493287400000003 Na
atom 10.2404363299999996 27.0072699800000002 5.8454157400000000 Cl
atom 10.3303567899999997 29.8904366099999983 5.8882679099999997 Na
atom 13.1059468999999993 29.9311386400000004 5.8696055600000001 Cl
atom 10.2883636099999993 32.7904065500000002 8.4200626399999994 Na
atom 13.1641432500000004 32.8095111900000020 8.6746604200000004 Cl
atom 13.0699267700000004 29.9332421199999992 8.5068668100000000 Na
atom 10.2367873199999995 30.0028593999999984 8.7077905100000006 Cl
atom 13.0804043799999992 32.7938611000000009 5.8938223399999998 Na
atom 10.3586985899999995 32.6549489100000017 5.7281177899999998 Cl
atom 10.3488199900000009 35.5712329699999970 5.7322929499999997 Na
atom 13.1368409499999999 35.5432000400000021 5.6847728100000001 Cl
atom 10.6527385100000007 38.4801713199999966 8.3398360100000009 Na
atom 13.0719444599999992 38.5690255900000025 8.4758075999999996 Cl
atom 13.2479451299999997 35.5326376300000035 8.3133151000000005 Na
atom 10.4345796100000001 35.6721793800000029 8.4369788900000007 Cl
atom 13.1613786400000006 38.4662815599999988 5.7696856299999997 Na
atom 10.4293306999999995 38.3638380900000016 5.7352525300000003 Cl
atom 10.4850478700000007 1.7636744900000001 5.6957096199999997 Na
atom 13.0833045499999994 1.8284346000000000 5.7388838099999999 Cl
atom 10.2128855600000001 4.6212212499999996 8.5344037499999992 Na
atom 13.0233446700000002 4.6557774800000002 8.6234901700000002 Cl
atom 13.3180694099999997 1.7819985400000000 8.2641326500000005 Na
atom 10.3330604699999995 1.6665893800000000 8.6877514700000003 Cl
atom 12.9347135299999998 4.6351044400000001 5.9814724000000004 Na
atom 10.2139365000000009 4.6162197100000002 5.8289526900000004 Cl
atom 10.2353568999999993 7.4537769400000000 5.8499724799999999 Na
atom 13.0951494299999993 7.5194746300000004 5.7227616100000001 Cl
atom 10.1741260899999997 10.2898908200000001 8.4164277199999997 Na
atom 13.0830670799999993 10.2408795700000006 8.5637814799999994 Cl
atom 12.9807737400000001 7.5309137699999997 8.3972492100000000 Na
atom 10.2078754800000002 7.4795458200000002 8.6489473700000001 Cl
atom 13.1592841400000005 10.3099478500000004 5.7158223200000000 Na
atom 10.0296322700000005 10.2462355400000007 5.7192329099999997 Cl
atom 15.8590331100000004 13.1004236299999999 6.0237794100000004 Na
atom 18.6504911000000000 13.0835591600000001 5.8109731299999998 Cl
atom 15.9120820399999996 15.9031102900000008 8.5711286700000002 Na
atom 18.6403088100000005 15.9169114799999996 8.7090324599999995 Cl
atom 18.7217943200000008 13.0389022099999998 8.4547132200000004 Na
atom 15.9570950699999994 13.0123700499999995 8.5736048100000009 Cl
atom 18.6955105000000010 15.8951816000000008 6.0031637499999997 Na
atom 15.8533894899999996 15.9803040200000002 5.6852136499999997 Cl
atom 16.0986697499999991 18.6692533900000015 5.9458930700000003 Na
atom 18.7405327700000015 18.7134840699999998 5.8202408900000000 Cl
atom 15.9443959900000003 21.3547775000000009 8.4790094400000005 Na
atom 18.8628891000000003 21.4816248700000010 8.6574624300000007 Cl
atom 18.7209242200000006 18.6962371699999998 8.5570191599999994 Na
atom 15.8772864600000005 18.5137383299999989 8.6184922000000004 Cl
atom 18.7076365100000004 21.5363396300000005 5.9869047899999996 Na
atom 15.7650517400000005 21.2164149500000008 5.8963138400000004 Cl
atom 15.8777463200000000 24.2987610200000006 5.8619184500000001 Na
atom 18.6182650199999991 24.2189204599999997 5.8680000100000003 Cl
atom 15.8996481299999992 27.1286069400000009 8.7301393100000002 Na
atom 18.7937664600000005 27.0573213400000014 8.6877859700000002 Cl
atom 18.5560711400000002 24.2172736399999984 8.6416898399999997 Na
atom 15.9397362900000008 24.2425874999999991 8.3712998499999998 Cl
atom 18.6593400199999984 27.0109040799999995 5.9083951700000004 Na
atom 15.7905546500000007 27.1163278599999984 5.7716042600000002 Cl
atom 15.9379878799999997 30.0136004499999984 5.8873427100000004 Na
atom 18.6411986100000000 29.8135101400000018 5.8309401699999999 Cl
atom 15.9864776899999992 32.7369653000000014 8.5542662600000003 Na
atom 18.6657764999999998 32.8168454799999978 8.7060734499999999 Cl
atom 18.7590204500000013 29.8035273200000006 8.4951639399999994 Na
atom 15.9691177199999998 29.8864935699999990 8.7527522500000003 Cl
atom 18.7031339699999997 32.8079193200000034 5.9875620899999999 Na
atom 15.8632159000000001 32.7107987300000005 5.8980790499999998 Cl
atom 15.9568780599999993 35.5525577800000008 5.8588990100000000 Na
atom 18.7169159399999998 35.6122601300000028 5.6636650099999999 Cl
atom 15.7772202799999999 38.4654093999999986 8.1425382600000002 Na
atom 18.7636692399999987 38.4257660099999967 8.5640889199999997 Cl
atom 18.8438524700000016 35.5909024400000007 8.3682783700000005 Na
atom 16.0033432699999985 35.6952268599999982 8.5825905000000002 Cl
atom 19.0234833300000012 38.4277311700000013 5.6379259499999996 Na