#===============================================================================
# Created using the Atomic Simulation Environment (ASE)

# Tue Dec 23 21:42:16 2025

#=======================================================
lattice_vector 28.1999999999999993 0.0000000000000000 0.0000000000000000 
lattice_vector 0.0000000000000000 39.4799999999999969 0.0000000000000000 
lattice_vector 0.0000000000000000 0.0000000000000000 62.3296083400000001 
atom 7.4992584100000004 14.8005443099999994 -0.0558757700000000 Au
atom 10.3204980600000003 14.8109022199999991 -0.0973873100000000 Au
atom 13.1450310800000008 14.8013501999999999 -0.0828806400000000 Au
atom 15.9696277000000002 14.8160830499999996 -0.0964712100000000 Au
atom 18.7899294200000000 14.8008936099999993 -0.0317170100000000 Au
atom 21.6099092900000009 14.8132910599999992 -0.0512629200000000 Au
atom 24.4285573599999992 14.8025072499999997 -0.0124037400000000 Au
atom 27.2463053600000009 14.8171396600000005 -0.0512353600000000 Au
atom 1.8631577300000000 14.8052263800000006 -0.0209154700000000 Au
atom 4.6796225199999997 14.8170866500000002 -0.0755354900000000 Au
atom 8.9013471000000006 17.2786829500000003 -0.0347410800000000 Au
atom 11.7308202500000007 17.2806501499999996 -0.0675747700000000 Au
atom 14.5491751600000008 17.2812980799999991 -0.0836934500000000 Au
atom 17.3856934400000007 17.2789858299999999 -0.0573276200000000 Au
atom 20.2008725399999989 17.2772862899999993 -0.0088689700000000 Au
atom 23.0273440600000008 17.2773338699999996 0.0108358000000000 Au
atom 25.8378832000000003 17.2827246599999995 0.0194368600000000 Au
atom 0.4596364500000000 17.2856908099999984 0.0165081100000000 Au
atom 3.2688662200000000 17.2856342400000003 0.0076070100000000 Au
atom 6.0915208300000003 17.2850528399999988 -0.0092129200000000 Au
atom 7.4950109400000002 19.7430071100000006 0.0879582000000000 Au
atom 10.3100282799999992 19.7519319899999992 -0.0313044300000000 Au
atom 13.1366183999999997 19.7418494500000001 -0.0406665100000000 Au
atom 15.9677046300000001 19.7540357499999999 -0.1292679200000000 Au
atom 18.7967175200000014 19.7377147099999988 -0.0119815800000000 Au
atom 21.6200578700000001 19.7467131400000007 0.0176982900000000 Au
atom 24.4348511600000009 19.7410695899999986 0.1104717300000000 Au
atom 27.2499583799999989 19.7578040699999988 0.0632685700000000 Au
atom 1.8645596000000000 19.7493541499999985 0.1188720100000000 Au
atom 4.6787801499999997 19.7597675300000013 0.0478033800000000 Au
atom 8.9047826899999993 22.2097788200000004 0.0310761900000000 Au
atom 11.7218838299999994 22.2104712400000004 -0.0847860600000000 Au
atom 14.5480066099999998 22.2128952800000015 -0.1912590300000000 Au
atom 17.3868577399999999 22.2104605200000016 -0.1806641000000000 Au
atom 20.2108560500000003 22.2040621999999992 -0.0527775600000000 Au
atom 23.0268285000000006 22.2052327299999988 0.0521650200000000 Au
atom 25.8407747299999997 22.2126339500000007 0.0769126800000000 Au
atom 0.4574255000000000 22.2169028699999984 0.0805258900000000 Au
atom 3.2720113500000001 22.2177680899999999 0.0783927500000000 Au
atom 6.0891312500000003 22.2148551599999990 0.0633345100000000 Au
atom 7.5003916700000000 24.6832318700000002 0.0725550000000000 Au
atom 10.3190465600000003 24.6797181300000013 0.0082750000000000 Au
atom 13.1371451500000003 24.6875763699999986 -0.1053855600000000 Au
atom 15.9682765599999996 24.6929997400000012 -0.2099741200000000 Au
atom 18.7979507999999988 24.6837121699999997 -0.1093399800000000 Au
atom 21.6136644599999990 24.6756361499999990 0.0283186100000000 Au
atom 24.4292721999999998 24.6801985500000001 0.0995026600000000 Au
atom 27.2464696099999983 24.6846346499999996 0.0952803500000000 Au
atom 1.8644208300000000 24.6879477600000001 0.1149082300000000 Au
atom 4.6825603999999998 24.6851343700000001 0.0871012100000000 Au
atom 8.9203705899999992 27.1468996900000015 0.0427488800000000 Au
atom 11.7305029100000002 27.1482902300000006 -0.0520634500000000 Au
atom 14.5586777800000000 27.1660678500000010 -0.1706111600000000 Au
atom 17.3798808700000009 27.1647628899999987 -0.1607909800000000 Au
atom 20.2019324199999986 27.1478703900000014 -0.0267489400000000 Au
atom 23.0104265300000002 27.1436419399999984 0.0635761400000000 Au
atom 25.8346820299999997 27.1445908200000012 0.0708131100000000 Au
atom 0.4512363100000000 27.1466858299999991 0.0712627100000000 Au
atom 3.2781855300000000 27.1474092400000018 0.0720715000000000 Au
atom 6.0940526999999998 27.1462600800000011 0.0580689400000000 Au
atom 7.5076355799999996 29.6158472000000010 -0.0200755000000000 Au
atom 10.3301266399999996 29.6084747499999992 0.0054013200000000 Au
atom 13.1450794200000001 29.6373993300000009 -0.1205676200000000 Au
atom 15.9674353700000005 29.6342659200000007 -0.1098421500000000 Au
atom 18.7877910399999983 29.6343075499999991 -0.0810410800000000 Au
atom 21.6020264200000014 29.6083230399999984 0.0215706900000000 Au
atom 24.4214851499999988 29.6136379500000011 0.0003696200000000 Au
atom 27.2421923700000015 29.6058037200000008 0.0134088900000000 Au
atom 1.8640774200000001 29.6146689300000006 -0.0037251000000000 Au
atom 4.6862286900000001 29.6065144599999996 0.0105830800000000 Au
atom 8.9199978600000005 32.0837433599999997 -0.0414154900000000 Au
atom 11.7317693100000007 32.0933119000000033 -0.0474242600000000 Au
atom 14.5590388300000004 32.1078679700000009 -0.0749516600000000 Au
atom 17.3729986300000014 32.1056945099999993 -0.0592041800000000 Au
atom 20.1983126999999989 32.0908576599999975 -0.0287394700000000 Au
atom 23.0105098999999989 32.0808551300000033 -0.0284276100000000 Au
atom 25.8364760099999984 32.0799274199999971 -0.0325240800000000 Au
atom 0.4511529600000000 32.0800877000000000 -0.0367086700000000 Au
atom 3.2781470100000001 32.0808900600000015 -0.0379602300000000 Au
atom 6.0929284399999997 32.0813365500000032 -0.0373213800000000 Au
atom 7.5042957799999996 34.5617405300000016 -0.0485050000000000 Au
atom 10.3235218599999996 34.5535848000000030 -0.0083420700000000 Au
atom 13.1430822000000003 34.5758726299999992 -0.0504391800000000 Au
atom 15.9653772499999995 34.5669703399999975 -0.0126864500000000 Au
atom 18.7879158100000012 34.5722841799999969 -0.0392652800000000 Au
atom 21.6068258499999999 34.5517020200000005 -0.0064667900000000 Au
atom 24.4254769799999991 34.5595618400000006 -0.0432618400000000 Au
atom 27.2448462499999984 34.5477782500000004 -0.0129792100000000 Au
atom 1.8646613700000001 34.5603125599999998 -0.0480194000000000 Au
atom 4.6845487700000001 34.5484800300000003 -0.0131389900000000 Au
atom 8.9161617900000003 37.0292981999999995 0.0185215000000000 Au
atom 11.7296348500000001 37.0336303999999998 0.0214207600000000 Au
atom 14.5572318400000000 37.0379124399999995 0.0198278500000000 Au
atom 17.3738148499999987 37.0368794700000024 0.0203750000000000 Au
atom 20.2006375700000014 37.0319019499999982 0.0226616200000000 Au
atom 23.0138756399999984 37.0276935400000013 0.0209410000000000 Au
atom 25.8384040400000004 37.0268150500000033 0.0197906300000000 Au
atom 0.4518932500000000 37.0271331599999982 0.0194804700000000 Au
atom 3.2775443499999999 37.0276464200000035 0.0184530100000000 Au
atom 6.0911573800000003 37.0277502799999993 0.0195663500000000 Au
atom 7.5041127599999999 0.0207661900000000 0.0648213400000000 Au
atom 10.3233248500000006 0.0116691800000000 0.1207731000000000 Au
atom 13.1438083300000006 0.0247459800000000 0.0665164800000000 Au
atom 15.9650758699999997 0.0157525900000000 0.1197701900000000 Au
atom 18.7863328400000000 0.0238084700000000 0.0670521200000000 Au
atom 21.6065350100000018 0.0106168700000000 0.1208343200000000 Au
atom 24.4257279199999999 0.0196410200000000 0.0658949900000000 Au
atom 27.2449683799999995 0.0088824800000000 0.1203806300000000 Au
atom 1.8648159300000000 0.0200760000000000 0.0643911200000000 Au
atom 4.6846592800000000 0.0095813400000000 0.1197147600000000 Au
atom 8.9149263100000002 2.4764797000000001 0.0788866100000000 Au
atom 11.7335059400000006 2.4776331300000001 0.0803575500000000 Au
atom 14.5545745800000006 2.4790744400000002 0.0796221500000000 Au
atom 17.3745944899999998 2.4785127800000000 0.0797822500000000 Au
atom 20.1961721599999997 2.4767011299999999 0.0797435800000000 Au
atom 23.0150730500000016 2.4755044100000001 0.0790946400000000 Au
atom 25.8357836899999995 2.4749327499999998 0.0784854400000000 Au
atom 0.4545657500000000 2.4751547800000000 0.0774651100000000 Au
atom 3.2757270500000000 2.4755890400000000 0.0766896600000000 Au
atom 6.0945592099999999 2.4761378999999999 0.0778274500000000 Au
atom 7.5057998100000001 4.9451161399999997 0.0988072400000000 Au
atom 10.3245892300000008 4.9451950199999999 0.1198956100000000 Au
atom 13.1434297600000001 4.9465337299999996 0.1009675800000000 Au
atom 15.9639760200000005 4.9466023899999998 0.1184920100000000 Au
atom 18.7847632900000008 4.9449519999999998 0.0995834100000000 Au
atom 21.6051957899999998 4.9443233700000002 0.1176566300000000 Au
atom 24.4251592899999999 4.9433371199999998 0.0974567300000000 Au
atom 27.2452380500000011 4.9435084199999997 0.1147810300000000 Au
atom 1.8654890399999999 4.9433252899999998 0.0947500800000000 Au
atom 4.6858454800000002 4.9446194800000001 0.1140576800000000 Au
atom 8.9148258600000005 7.4054424599999997 0.0837127600000000 Au
atom 11.7350698599999994 7.4062917700000002 0.0842510500000000 Au
atom 14.5508227699999999 7.4058707000000004 0.0704476500000000 Au
atom 17.3768027899999993 7.4045876799999997 0.0716287700000000 Au
atom 20.1926679399999998 7.4035655100000000 0.0719107400000000 Au
atom 23.0173924899999989 7.4033983900000004 0.0718886600000000 Au
atom 25.8326562600000003 7.4027930700000004 0.0690541900000000 Au
atom 0.4576424500000000 7.4027603300000004 0.0665815700000000 Au
atom 3.2736811000000001 7.4031632800000002 0.0654304500000000 Au
atom 6.0992638200000000 7.4043149200000000 0.0671680600000000 Au
atom 7.5066300500000001 9.8658004199999993 0.0266287100000000 Au
atom 10.3249363299999999 9.8729138400000007 0.0285950200000000 Au
atom 13.1436802600000000 9.8670816299999995 0.0224889800000000 Au
atom 15.9648435499999994 9.8728921599999993 -0.0000257600000000 Au
atom 18.7852635499999998 9.8634828799999994 0.0140650800000000 Au
atom 21.6052112500000000 9.8712030899999998 0.0012740500000000 Au
atom 24.4250081200000011 9.8632975900000002 0.0134197900000000 Au
atom 27.2448574500000014 9.8711447499999991 -0.0037710700000000 Au
atom 1.8648553299999999 9.8631650000000004 0.0078702900000000 Au
atom 4.6859651400000004 9.8721587199999998 -0.0011610800000000 Au
atom 8.9101647300000000 12.3322324299999995 -0.0473507700000000 Au
atom 11.7384435899999993 12.3334401299999996 -0.0543335800000000 Au
atom 14.5551576600000008 12.3365120099999999 -0.0624286700000000 Au
atom 17.3821274599999995 12.3362518199999993 -0.0495931200000000 Au
atom 20.1939645299999988 12.3358619399999991 -0.0339144200000000 Au
atom 23.0194139200000016 12.3362943699999992 -0.0334247000000000 Au
atom 25.8323656399999990 12.3369433100000006 -0.0366286800000000 Au
atom 0.4570953600000000 12.3374946899999998 -0.0391459400000000 Au
atom 3.2685107100000002 12.3366902399999994 -0.0499302900000000 Au
atom 6.0949088299999996 12.3355846000000007 -0.0540046200000000 Au
atom 7.5079376299999998 13.1927642299999999 2.5863079700000000 Au
atom 10.3282123400000003 13.1988201699999994 2.5069558700000001 Au
atom 13.1480094699999999 13.2044527600000006 2.5683976799999999 Au
atom 15.9652050100000000 13.2043588799999991 2.5025017100000002 Au
atom 18.7812996199999986 13.1975415599999994 2.6113618000000001 Au
atom 21.6021661599999995 13.1931731699999997 2.5387466700000001 Au
atom 24.4238131600000017 13.1863566900000002 2.6179805300000001 Au
atom 27.2449791400000016 13.1898432700000008 2.5351138799999999 Au
atom 1.8665980099999999 13.1872656300000006 2.6093389000000000 Au
atom 4.6862573000000003 13.1918348900000009 2.5137069400000001 Au
atom 8.9121882299999999 15.6480572700000007 2.5437066599999998 Au
atom 11.7411108399999993 15.6563731199999996 2.5132262800000000 Au
atom 14.5539857999999995 15.6633515699999997 2.5184912200000000 Au
atom 17.3757869000000014 15.6622133399999992 2.5528092600000001 Au
atom 20.1903943199999993 15.6528055100000003 2.5805453300000001 Au
atom 23.0162102600000011 15.6454387500000003 2.5974998000000000 Au
atom 25.8331267099999984 15.6443284499999997 2.5982789500000001 Au
atom 0.4574571300000000 15.6450194000000007 2.5924209999999999 Au
atom 3.2740199500000000 15.6450813400000008 2.5841235600000001 Au
atom 6.0973688900000003 15.6463842300000007 2.5567499200000001 Au
atom 7.5094998300000002 18.0983262600000003 2.6712279099999998 Au
atom 10.3266425900000005 18.1206874900000017 2.5281517000000000 Au
atom 13.1473282000000005 18.1159038599999995 2.5841434300000001 Au
atom 15.9633605299999992 18.1376130700000004 2.4761138900000002 Au
atom 18.7792753200000000 18.1168971899999995 2.6279491699999999 Au
atom 21.6032564100000002 18.1181221800000003 2.5897837099999999 Au
atom 24.4243486599999997 18.0984815099999992 2.6967744699999998 Au
atom 27.2461788899999995 18.1157618000000014 2.6182002500000001 Au
atom 1.8676587099999999 18.1002162099999993 2.6949232099999998 Au
atom 4.6880458200000001 18.1163931699999985 2.5975767699999999 Au
atom 8.9171518400000007 20.5785983100000003 2.6646171999999999 Au
atom 11.7354686000000008 20.5911408700000003 2.5649465100000000 Au
atom 14.5541532300000007 20.5983258000000014 2.4979167000000002 Au
atom 17.3716855800000012 20.5996699300000010 2.5105154800000000 Au
atom 20.1890430700000003 20.5897259599999991 2.6111124800000001 Au
atom 23.0118718499999986 20.5789248799999989 2.6970577100000002 Au
atom 25.8349390800000016 20.5815838599999985 2.7179373199999999 Au
atom 0.4546302100000000 20.5840628800000012 2.7234206799999998 Au
atom 3.2770830499999999 20.5829795699999991 2.7185867400000001 Au
atom 6.0955121300000004 20.5833598400000000 2.6981780299999998 Au
atom 7.5147934000000003 23.0485374800000002 2.6550465299999999 Au
atom 10.3414690100000008 23.0657724399999999 2.5888597600000001 Au
atom 13.1559918000000007 23.0532661800000014 2.4559946400000001 Au
atom 15.9640890399999993 23.0801698299999991 2.3725510000000001 Au
atom 18.7736866000000013 23.0544153399999985 2.4723700800000001 Au
atom 21.5907976800000014 23.0638546200000008 2.6122179800000001 Au
atom 24.4173934400000014 23.0465425500000016 2.6755995399999999 Au
atom 27.2425876799999998 23.0680999399999997 2.6826319199999999 Au
atom 1.8664107599999999 23.0520931199999985 2.6896814899999999 Au
atom 4.6902443800000002 23.0682861899999985 2.6785671299999998 Au
atom 8.9273456000000007 25.5298915099999988 2.6618331700000000 Au
atom 11.7467943500000001 25.5412203399999989 2.5833219299999999 Au
atom 14.5643660399999995 25.5432296799999996 2.4297912600000000 Au
atom 17.3683812800000013 25.5404853500000009 2.4406404199999998 Au
atom 20.1829363499999985 25.5361282000000003 2.5940454900000001 Au
atom 23.0013231100000013 25.5314656599999985 2.6916544400000002 Au
atom 25.8313159699999986 25.5384898299999996 2.7202722800000001 Au
atom 0.4524572600000000 25.5406655600000008 2.7293074700000002 Au
atom 3.2800581900000001 25.5395161199999983 2.7253305100000000 Au
atom 6.1011739100000000 25.5386805599999995 2.7064501000000001 Au
atom 7.5197830500000000 28.0031039799999988 2.6123512899999999 Au
atom 10.3490967600000001 28.0059075399999990 2.6562297600000000 Au
atom 13.1597496599999992 28.0077347500000009 2.4514396299999999 Au
atom 15.9678339600000001 28.0115398999999989 2.4782916699999999 Au
atom 18.7732950900000013 28.0041800999999992 2.4914774899999999 Au
atom 21.5862192999999998 28.0052948499999985 2.6760706999999999 Au
atom 24.4144434699999984 28.0027761400000017 2.6323771699999998 Au
atom 27.2410558199999997 28.0135838499999998 2.6938586500000001 Au
atom 1.8668800000000001 28.0064271200000015 2.6344737399999998 Au
atom 4.6942906200000003 28.0125786599999991 2.6932942000000000 Au
atom 8.9273111699999994 30.4645089599999999 2.5864658899999999 Au
atom 11.7461781700000003 30.4673584300000009 2.5652248800000002 Au
atom 14.5632273699999999 30.4701236900000012 2.5039889999999998 Au
atom 17.3694702300000010 30.4702567500000008 2.5286344700000001 Au
atom 20.1860029499999989 30.4672898399999994 2.5929103100000002 Au
atom 23.0037661100000008 30.4659468900000014 2.6131508000000001 Au
atom 25.8325251000000016 30.4680136099999999 2.6086549300000001 Au
atom 0.4507045200000000 30.4691116000000015 2.6046520000000002 Au
atom 3.2803815500000000 30.4682137699999984 2.6004756599999999 Au
atom 6.0991664900000000 30.4668989299999993 2.6000981500000000 Au
atom 7.5100449200000003 32.9247975600000018 2.5364660899999998 Au
atom 10.3309560000000005 32.9196964400000027 2.6175200799999998 Au
atom 13.1497627599999998 32.9313247600000025 2.5221337799999999 Au
atom 15.9645417300000005 32.9252725500000025 2.6063518299999999 Au
atom 18.7813327100000009 32.9316793300000015 2.5439820100000001 Au
atom 21.6017821199999993 32.9229213599999966 2.6243278600000002 Au
atom 24.4219185500000009 32.9255471600000007 2.5451618400000000 Au
atom 27.2437188900000002 32.9225488499999983 2.6152228200000001 Au
atom 1.8656803600000000 32.9258691300000024 2.5361450300000001 Au
atom 4.6883960399999998 32.9212990899999980 2.6144948000000001 Au
atom 8.9175273599999993 35.3817884899999981 2.5998899400000002 Au
atom 11.7334283199999998 35.3835942400000008 2.6048212799999999 Au
atom 14.5569282599999994 35.3873671099999996 2.6018909899999998 Au
atom 17.3726411200000008 35.3876802200000000 2.6041660300000000 Au
atom 20.1973175000000005 35.3851771300000024 2.6082529200000000 Au
atom 23.0130563600000002 35.3828814700000009 2.6041797400000002 Au
atom 25.8367200100000005 35.3818380499999989 2.6000003899999999 Au
atom 0.4530543200000000 35.3813658099999984 2.5987516899999998 Au
atom 3.2774205099999998 35.3813314399999967 2.5968583999999999 Au
atom 6.0940543500000004 35.3808099100000035 2.5995526999999998 Au
atom 7.5045912699999997 37.8543581799999984 2.6175275000000000 Au
atom 10.3238247699999999 37.8389268999999970 2.6969798300000001 Au
atom 13.1439044999999997 37.8575195800000017 2.6200150199999999 Au
atom 15.9648603100000006 37.8421343500000020 2.6962592800000000 Au
atom 18.7859942500000017 37.8572036600000033 2.6217413299999999 Au
atom 21.6066124899999998 37.8395470600000010 2.6983436900000002 Au
atom 24.4260640600000016 37.8542119299999982 2.6194495299999998 Au
atom 27.2457019699999989 37.8375665000000012 2.6971029199999998 Au
atom 1.8653901399999999 37.8539550799999986 2.6168178200000001 Au
atom 4.6851037299999998 37.8375394400000005 2.6961773299999998 Au
atom 8.9130015199999999 0.8432433400000000 2.7239681899999999 Au
atom 11.7340872800000007 0.8436733500000000 2.7252975899999998 Au
atom 14.5532508800000002 0.8450671100000000 2.7248910600000000 Au
atom 17.3757303999999984 0.8445056300000000 2.7252926899999999 Au
atom 20.1952151600000001 0.8433076000000000 2.7251365299999999 Au
atom 23.0165752999999995 0.8423649900000000 2.7246579799999999 Au
atom 25.8347675599999995 0.8419599200000000 2.7237897400000000 Au
atom 0.4557775900000000 0.8416671000000000 2.7230362600000002 Au
atom 3.2742015400000000 0.8423389600000000 2.7222430100000001 Au
atom 6.0952096100000004 0.8421966600000000 2.7230095099999998 Au
atom 7.5050929499999999 3.3292093899999999 2.6815663199999999 Au
atom 10.3244930099999994 3.3116316399999999 2.6901343299999998 Au
atom 13.1441943699999992 3.3306382299999999 2.6833648499999998 Au
atom 15.9641785899999995 3.3123003600000001 2.6885200500000002 Au
atom 18.7847966900000003 3.3293404899999999 2.6825979599999998 Au
atom 21.6050821800000001 3.3102518200000000 2.6886412100000001 Au
atom 24.4252435400000003 3.3279387300000001 2.6815459000000001 Au
atom 27.2453490299999999 3.3098599300000000 2.6870498299999999 Au
atom 1.8655689900000001 3.3282619100000002 2.6794189799999999 Au
atom 4.6853615399999997 3.3107654900000001 2.6860068199999998 Au
atom 8.9138724899999993 5.8023753500000002 2.7363236500000001 Au
atom 11.7360294599999992 5.8032695600000004 2.7367402900000002 Au
atom 14.5522050800000002 5.8047097200000000 2.7319495900000001 Au
atom 17.3752226599999986 5.8028144299999997 2.7317901800000000 Au
atom 20.1923486700000012 5.8015862399999998 2.7312911099999999 Au
atom 23.0158440800000008 5.8004038299999996 2.7303911099999998 Au
atom 25.8334491499999999 5.8004304600000003 2.7286768499999998 Au
atom 0.4568056200000000 5.8005227699999997 2.7270553799999999 Au
atom 3.2741642799999999 5.8016768599999997 2.7271547400000000 Au
atom 6.0971007600000000 5.8022355699999997 2.7287384800000001 Au
atom 7.5059306299999999 8.2803005800000005 2.6928280299999998 Au
atom 10.3262148400000005 8.2734833400000003 2.6663317300000000 Au
atom 13.1461852300000004 8.2843588700000002 2.6927986700000002 Au
atom 15.9637463400000001 8.2734948199999998 2.6331365799999999 Au
atom 18.7829700700000011 8.2801298499999998 2.6922524399999999 Au
atom 21.6032909900000014 8.2686797900000002 2.6368850099999999 Au
atom 24.4246903599999996 8.2762075999999993 2.6917747099999998 Au
atom 27.2455092999999984 8.2675631700000007 2.6322708000000001 Au
atom 1.8664965400000000 8.2772188799999995 2.6857230099999998 Au
atom 4.6865806100000000 8.2695454799999997 2.6305956400000001 Au
atom 8.9168836500000008 10.7410725800000009 2.6404613299999999 Au
atom 11.7379381600000006 10.7449663700000002 2.6319569899999999 Au
atom 14.5517088099999992 10.7468474700000005 2.6053619100000001 Au
atom 17.3760426099999989 10.7426581300000006 2.6034319199999998 Au
atom 20.1895689599999990 10.7372307399999993 2.6085103799999998 Au
atom 23.0156550700000011 10.7333762499999992 2.6084024800000001 Au
atom 25.8319270799999998 10.7324646399999999 2.6055419899999999 Au
atom 0.4580441600000000 10.7328616399999994 2.6020740700000000 Au
atom 3.2734186300000001 10.7351655000000008 2.6010614699999999 Au
atom 6.0998099699999999 10.7381707100000003 2.6103664200000001 Au
atom 7.4492600199999996 13.1075281100000005 5.6581269499999998 Cl
atom 7.4913726499999997 15.9689500899999999 8.4743769199999992 Cl
atom 7.4714306800000001 13.1454040600000006 8.3038451299999991 Na
atom 7.4365090499999997 15.9575697000000005 5.6977751400000001 Na
atom 7.4181624599999996 18.8071466399999991 5.6796153000000000 Cl
atom 7.4706102599999999 21.6088241200000013 8.5594910199999994 Cl
atom 7.4641702700000003 18.7907380699999997 8.3213743000000004 Na
atom 7.3990486799999999 21.6326961199999985 5.7966059799999998 Na
atom 7.4081596699999999 24.4579185199999998 5.7550490800000000 Cl
atom 7.4657868000000001 27.2934456800000014 8.5706147799999997 Cl
atom 7.4517587100000000 24.4576019100000011 8.3838660899999997 Na
atom 7.3954510200000003 27.2858854400000013 5.8116605699999999 Na
atom 7.4305782499999999 30.1359300200000000 5.7257504399999997 Cl
atom 7.4784688299999997 32.9382059599999977 8.5774841100000003 Cl
atom 7.4755586599999999 30.1187231100000012 8.3711072200000007 Na
atom 7.4602396100000004 32.9568216199999995 5.8295914199999999 Na
atom 7.4719525999999998 35.7729724300000029 5.7342933399999998 Cl
atom 7.4803150000000000 38.5521028599999980 8.6013051899999997 Cl
atom 7.4792653299999996 35.7493340500000016 8.3842846299999998 Na
atom 7.4809270300000001 38.5901115300000015 5.8402342799999998 Na
atom 7.4874647799999998 1.9048477300000000 5.7969081200000003 Cl
atom 7.4808519300000000 4.6964669499999996 8.6401436799999995 Cl
atom 7.4838904399999997 1.8853735199999999 8.4428128900000008 Na
atom 7.4912231000000000 4.6947058999999998 5.8746501999999996 Na
atom 7.4871523000000000 7.4783433700000002 5.7703232699999996 Cl
atom 7.4512582800000002 10.3403677799999993 8.5908593199999999 Cl
atom 7.4783379700000001 7.5117613700000003 8.4317467300000004 Na
atom 7.4897852800000004 10.2826927200000000 5.8341697600000000 Na
atom 10.2817990800000008 13.0745496800000005 5.7408322099999998 Na
atom 13.1365571400000007 13.1035549400000004 5.6145070300000004 Cl
atom 10.3097451400000004 16.0243918200000017 8.1351451299999997 Na
atom 13.1274038700000002 15.9828805099999993 8.4207074399999993 Cl
atom 13.1369309800000007 13.1141724499999999 8.2283395200000005 Na
atom 10.3032473000000007 13.2430025100000002 8.4555497400000004 Cl
atom 13.1324083500000004 15.9427506700000006 5.6241031200000000 Na
atom 10.2703294599999992 15.9635912300000005 5.5466691299999997 Cl
atom 10.2225748400000001 18.8338026499999991 5.6522073600000002 Na
atom 13.0673132499999998 18.8015771299999983 5.5226558099999998 Cl
atom 10.2735817199999993 21.6526494599999992 8.2473694799999997 Na
atom 13.1189543000000004 21.6698560700000016 8.3413808800000009 Cl
atom 13.1103683699999998 18.8483471999999992 8.1036780000000004 Na
atom 10.3203268500000007 18.8023269699999993 8.4320325399999998 Cl
atom 13.0435718800000000 21.6517943399999986 5.5630992499999996 Na
atom 10.1904260099999995 21.6331334200000001 5.6388587899999996 Cl
atom 10.1872371200000007 24.4784541699999991 5.6809294599999998 Na
atom 12.9411900800000002 24.4801813400000015 5.4314337899999998 Cl
atom 10.2589235100000007 27.2954277900000015 8.2694565400000002 Na
atom 13.0719433800000004 27.3014973000000012 8.3479784499999994 Cl
atom 13.0506317099999993 24.5009249900000015 8.0541273199999992 Na
atom 10.3080082399999995 24.4637181599999991 8.4648657600000003 Cl
atom 13.0107130899999994 27.3238731799999996 5.5928202599999999 Na
atom 10.1690366700000006 27.3128211800000003 5.6233015100000001 Cl
atom 10.2432232499999998 30.1504996200000015 5.7379800899999998 Na
atom 13.0632223500000002 30.1727362300000017 5.6105338700000003 Cl
atom 10.3053512400000002 32.9410580300000007 8.3575479200000000 Na
atom 13.1292076400000006 32.9261545100000035 8.5363619400000008 Cl
atom 13.0875036100000006 30.1082362100000012 8.2522029000000003 Na
atom 10.2932486599999997 30.1141056899999988 8.4942503800000004 Cl
atom 13.1126531499999999 32.9784309699999980 5.7918586200000002 Na
atom 10.2787991999999999 32.9814805800000030 5.7066916200000000 Cl
atom 10.2994918599999998 35.7833481300000003 5.8032039199999996 Na
atom 13.1317788400000008 35.7872307399999983 5.7344789299999999 Cl
atom 10.3026431499999997 38.5580195200000020 8.4045059299999991 Na
atom 13.1284946500000004 38.5613705399999986 8.6032648799999993 Cl
atom 13.1299614400000006 35.7580614100000034 8.3806929500000003 Na
atom 10.3021159099999995 35.7553808199999992 8.5693991999999994 Cl
atom 13.1305649500000001 38.5969606199999973 5.8438026399999998 Na
atom 10.3021334299999996 38.5886485799999974 5.7456361100000004 Cl
atom 10.3087887299999998 1.9006192600000000 5.8666303299999996 Na
atom 13.1307112900000007 1.9091488800000000 5.7984303600000002 Cl
atom 10.3103835700000008 4.6880899800000000 8.4607108699999998 Na
atom 13.1403188100000001 4.6992088100000000 8.6408910599999995 Cl
atom 13.1336250999999997 1.8922148900000000 8.4435763500000007 Na
atom 10.3065214600000008 1.8810001700000001 8.6331600599999998 Cl
atom 13.1307920599999992 4.6996808000000003 5.8758917100000003 Na
atom 10.3099710600000005 4.6980673599999996 5.8110503600000003 Cl
atom 10.3069865899999993 7.4876607799999997 5.9153721600000004 Na
atom 13.1295810100000008 7.4741280899999998 5.7691663999999996 Cl
atom 10.3045149299999999 10.3267922700000003 8.5920922900000001 Na
atom 13.2393493699999993 10.3386902999999997 8.5319491900000006 Cl
atom 13.1426807500000002 7.5208909600000000 8.4385477800000004 Na
atom 10.3100106500000006 7.4861156199999996 8.6682513900000000 Cl
atom 13.1279652400000000 10.2720245699999992 5.8052593200000002 Na
atom 10.3079553900000001 10.2751825799999992 5.9040294199999996 Cl
atom 15.9707469399999997 13.1181409400000000 5.7560712799999996 Na
atom 18.7961556899999991 13.1417984800000003 5.6888567500000002 Cl
atom 15.9533628000000007 15.9953612199999995 8.2615856700000005 Na
atom 18.7461239699999993 16.0194496000000015 8.4999356099999996 Cl
atom 18.7752168300000015 13.1713978600000008 8.3353374000000002 Na
atom 15.9549045899999999 13.1854058500000004 8.5075466100000003 Cl
atom 18.7954829799999992 15.9744695300000004 5.7174277099999999 Na
atom 15.9664915500000006 15.9664170799999994 5.6415275600000001 Cl
atom 15.9417608000000008 18.8055710900000008 5.6138811600000000 Na
atom 18.7930241400000000 18.8190470300000001 5.5986627699999998 Cl
atom 15.9025463299999998 21.7102943900000014 8.0271629799999999 Na
atom 18.7192555300000016 21.6741400700000000 8.3751361099999997 Cl
atom 18.7581112400000016 18.8300576699999986 8.2188375300000001 Na
atom 15.9169389300000006 18.8509478500000007 8.3677591800000002 Cl
atom 18.7884922400000001 21.6456933099999986 5.5973341000000003 Na
atom 15.9104159400000000 21.6000284399999991 5.4629345899999997 Cl
atom 15.8679567000000006 24.5286304299999998 5.2879668700000000 Na
atom 18.8669263500000000 24.4755544500000006 5.5120512799999997 Cl
atom 15.8774563099999995 27.3332254799999994 8.0699497900000008 Na
atom 18.6859621000000011 27.1885162999999999 8.4792262800000007 Cl
atom 18.7671511799999990 24.4670936200000000 8.0690412800000004 Na
atom 15.7889434200000007 24.5700593100000013 7.8917908700000003 Cl
atom 18.7873122899999991 27.2907543600000011 5.6688550600000003 Na
atom 15.9092906500000009 27.4055551800000003 5.4283516100000000 Cl
atom 15.9209460299999996 30.1658702400000003 5.6614898399999998 Na
atom 18.7639934699999991 30.0949012700000011 5.7094184700000001 Cl
atom 15.9354356100000008 32.9145816199999999 8.3367967200000006 Na
atom 18.7458464999999990 32.9113166300000017 8.5700834100000005 Cl
atom 18.7332443300000016 30.0690086699999988 8.3670211299999995 Na
atom 15.9008177400000008 30.0664759500000009 8.4398996700000009 Cl
atom 18.7759526399999999 32.9313875799999991 5.8321457700000003 Na
atom 15.9553017900000000 32.9602560499999981 5.6936080100000002 Cl
atom 15.9615767599999998 35.7756883899999991 5.8017011099999998 Na
atom 18.7856729899999984 35.7674282199999993 5.7483285500000001 Cl
atom 15.9574895399999992 38.5598498900000024 8.4045074000000000 Na
atom 18.7846251100000003 38.5589488600000010 8.6042627100000004 Cl
atom 18.7749170800000016 35.7449753300000026 8.3927771900000003 Na
atom 15.9531318100000004 35.7470317000000009 8.5616934499999999 Cl
atom 18.7849796799999993 38.5898168499999983 5.8475069099999999 Na