#===============================================================================
# Created using the Atomic Simulation Environment (ASE)

# Tue Dec 23 21:41:54 2025

#=======================================================
lattice_vector 28.1999999999999993 0.0000000000000000 0.0000000000000000 
lattice_vector 0.0000000000000000 39.4799999999999969 0.0000000000000000 
lattice_vector 0.0000000000000000 0.0000000000000000 62.3296083400000001 
atom 7.5399651900000002 14.7697545100000003 -0.0087862000000000 Au
atom 10.3376543600000002 14.8203600400000006 -0.0958032700000000 Au
atom 13.1691805300000002 14.7759915999999993 -0.2091159800000000 Au
atom 15.9650120999999992 14.7898864900000007 0.0154151100000000 Au
atom 18.8387172400000011 14.7740189100000006 0.0464459400000000 Au
atom 21.6097183900000012 14.7484666799999999 0.0826340700000000 Au
atom 24.3930530499999989 14.7145701800000008 0.1400501200000000 Au
atom 27.1280553100000006 14.7367471299999995 -0.0228079900000000 Au
atom 1.7121085500000000 14.7155597000000000 -0.0482854500000000 Au
atom 4.6670430800000000 14.7432679899999997 0.0411552000000000 Au
atom 8.9342950200000004 17.2139758500000006 0.0937960700000000 Au
atom 11.7797294499999996 17.2820225100000009 0.0228504600000000 Au
atom 14.5660480499999991 17.2444995900000002 -0.0098865100000000 Au
atom 17.4058516099999991 17.2221306299999988 -0.0714918700000000 Au
atom 20.1757434199999999 17.2229641300000011 -0.1395788500000000 Au
atom 23.0362289999999987 17.2521438899999993 -0.0633922300000000 Au
atom 25.8305761800000013 17.2057444000000004 0.1136979200000000 Au
atom 0.4234854300000000 17.2614601100000016 0.0587740700000000 Au
atom 3.2604545100000002 17.2313909599999988 -0.0201825700000000 Au
atom 6.0175592299999998 17.1973201799999984 0.1929902200000000 Au
atom 7.4556171400000002 19.6999849500000010 0.1639857100000000 Au
atom 10.3102865000000001 19.7623516200000005 -0.0260859600000000 Au
atom 13.1446155800000000 19.7045327800000010 0.2679568500000000 Au
atom 15.9285113599999999 19.7062470599999990 -0.0800431600000000 Au
atom 18.7681923300000015 19.6833710900000014 -0.0301881400000000 Au
atom 21.6243409699999987 19.7593496500000008 -0.0947813300000000 Au
atom 24.3975420800000009 19.6947649300000016 0.0334368200000000 Au
atom 27.2222097699999992 19.7106463100000013 0.0117637800000000 Au
atom 1.8146224600000000 19.7440270399999989 0.0125556700000000 Au
atom 4.6228957299999998 19.7121313700000016 0.1387431100000000 Au
atom 8.9133232299999996 22.2261770699999985 -0.0345991600000000 Au
atom 11.7535504000000000 22.1582303399999994 0.0220816100000000 Au
atom 14.5614038299999997 22.1479439199999995 0.2046411500000000 Au
atom 17.3478592700000007 22.1224869200000001 0.0411686200000000 Au
atom 20.2018264000000016 22.2027082299999989 0.0343527700000000 Au
atom 23.0091670199999996 22.2060386600000008 -0.0733427600000000 Au
atom 25.8316473699999989 22.1890234699999986 0.0479889000000000 Au
atom 0.5097684900000000 22.2287325799999991 0.2727451600000000 Au
atom 3.3070920199999998 22.1839949800000014 0.2535297700000000 Au
atom 6.1116369199999996 22.1922751900000002 0.0411218800000000 Au
atom 7.4862591900000002 24.7351364899999986 -0.0153274200000000 Au
atom 10.2875779000000005 24.6225811999999991 0.1414016700000000 Au
atom 13.1227230400000003 24.6789289700000012 0.1413053900000000 Au
atom 15.9560544600000007 24.5947326900000007 0.0783361000000000 Au
atom 18.7824994899999993 24.6637192700000014 0.1041942800000000 Au
atom 21.6568483299999990 24.6847058600000011 0.1129035000000000 Au
atom 24.3893051400000012 24.7247112300000005 0.1145227800000000 Au
atom 27.2031311299999992 24.6523926600000003 0.1873327400000000 Au
atom 1.8462245700000000 24.6823569399999982 0.3080156900000000 Au
atom 4.6468739899999996 24.6746265700000009 0.2107482200000000 Au
atom 8.8985513699999998 27.1828839600000016 0.1556116900000000 Au
atom 11.7172950799999995 27.1587146600000011 0.2650269400000000 Au
atom 14.5433520600000001 27.1373560400000002 0.2208940800000000 Au
atom 17.3082492200000004 27.0921201099999998 0.0861859700000000 Au
atom 20.1482495200000002 27.1367555299999985 0.1123949900000000 Au
atom 23.0330129100000001 27.1353582499999995 0.1502579800000000 Au
atom 25.7968456800000006 27.1899329300000012 0.0501305500000000 Au
atom 0.4418349800000000 27.0951473900000011 -0.0273141300000000 Au
atom 3.2407863799999999 27.0791265599999988 0.0145990600000000 Au
atom 6.0573896400000002 27.1114982399999995 -0.0204749700000000 Au
atom 7.4995735799999999 29.6476915000000005 0.0429052500000000 Au
atom 10.3263750299999995 29.6181767399999991 0.0587457000000000 Au
atom 13.1667753899999997 29.5413644899999994 0.1459822800000000 Au
atom 15.9351713299999993 29.5817821599999995 -0.0053644000000000 Au
atom 18.7708848900000014 29.6202689200000009 -0.0295007200000000 Au
atom 21.6027227199999992 29.6312703999999982 -0.1330062100000000 Au
atom 24.4619359699999990 29.5875373500000016 0.0238525000000000 Au
atom 27.2152710700000000 29.6202177900000017 -0.0349715700000000 Au
atom 1.8372727000000000 29.5295870299999983 -0.0800907000000000 Au
atom 4.6604295400000000 29.5988362999999985 -0.0178914500000000 Au
atom 8.8852558800000008 32.1330013099999974 -0.0076557200000000 Au
atom 11.7514188199999996 31.9974421100000015 0.0117821000000000 Au
atom 14.5705165799999996 32.0607097800000034 -0.0085759600000000 Au
atom 17.3816021700000007 32.0330087099999972 -0.1370903400000000 Au
atom 20.2481229700000007 32.1197927400000012 -0.1518151700000000 Au
atom 22.9803223400000007 32.1027647000000016 -0.1191505900000000 Au
atom 25.8104329600000000 32.0593556099999972 -0.1519222100000000 Au
atom 0.4352780900000000 32.1408833999999999 -0.1543172800000000 Au
atom 3.1960483800000001 32.0305273800000023 0.0425769500000000 Au
atom 6.0326608700000000 32.0334592700000016 0.0414910600000000 Au
atom 7.4223543799999998 34.5961309099999994 -0.0292513900000000 Au
atom 10.2638416200000009 34.5451720499999979 0.0108829700000000 Au
atom 13.1177782799999996 34.5486448999999993 -0.0565990900000000 Au
atom 16.0019392600000003 34.5775999700000014 -0.1283985900000000 Au
atom 18.7992006300000014 34.5666330999999971 -0.0849444800000000 Au
atom 21.6463533499999983 34.5957928099999990 -0.0358791500000000 Au
atom 24.4902812400000016 34.5506506600000023 0.1196800700000000 Au
atom 27.2796335799999987 34.5477609200000018 -0.1337699900000000 Au
atom 1.8452645299999999 34.5696886500000033 -0.0600709800000000 Au
atom 4.6225992700000003 34.5433591199999981 0.1794654800000000 Au
atom 8.8826493000000006 37.0404689499999975 0.0430876600000000 Au
atom 11.7114661299999998 36.9696951700000014 -0.0733725300000000 Au
atom 14.5356065999999995 37.0282902000000007 -0.1437461000000000 Au
atom 17.3724699600000001 37.0696998100000030 0.0123020500000000 Au
atom 20.2039464399999993 37.0451294200000021 0.1478549800000000 Au
atom 23.0902311000000005 37.0619809100000026 0.0920932400000000 Au
atom 25.9173125700000000 37.0269080599999967 0.0548585200000000 Au
atom 0.4911946500000000 37.0338229299999995 -0.2526071200000000 Au
atom 3.2710375300000001 37.0500180000000015 0.0905149200000000 Au
atom 6.0417233100000001 37.0544779399999982 0.2558115200000000 Au
atom 7.5138197499999997 -0.0253087500000000 0.1175107300000000 Au
atom 10.2898305299999997 -0.0017664200000000 0.1160516100000000 Au
atom 13.0810536899999992 0.0203463500000000 -0.0262180700000000 Au
atom 15.9347039600000002 -0.0293697900000000 0.1404055200000000 Au
atom 18.7493590099999992 0.0314325500000000 0.0572755800000000 Au
atom 21.6266584399999999 0.0353851700000000 0.1375032100000000 Au
atom 24.4587475300000001 0.0262755900000000 0.2481091600000000 Au
atom 27.2352576999999982 0.0211889600000000 0.1985757000000000 Au
atom 1.8789953300000000 0.0581606000000000 0.0456901600000000 Au
atom 4.6882211700000003 0.0082408600000000 0.2376575900000000 Au
atom 8.8987508099999992 2.4569719299999999 0.1068589600000000 Au
atom 11.7116223500000007 2.4852891100000001 0.0257113700000000 Au
atom 14.5626657999999995 2.4545084500000001 0.0958765900000000 Au
atom 17.3567944499999989 2.4877848199999999 0.0223559800000000 Au
atom 20.1845620100000005 2.5149572000000000 0.0045622900000000 Au
atom 23.0402753300000001 2.4805698800000000 0.0643653500000000 Au
atom 25.8494817200000000 2.4424252599999998 0.1571359900000000 Au
atom 0.4752308400000000 2.4412172200000000 0.1856957100000000 Au
atom 3.3108868800000000 2.4925424299999999 -0.0188152500000000 Au
atom 6.1689021100000003 2.4090436600000000 -0.0317374400000000 Au
atom 7.5555398000000000 4.9055688899999996 0.1178289000000000 Au
atom 10.2795666099999998 4.9037550000000003 -0.0810808500000000 Au
atom 13.1142137600000002 4.9474319700000002 0.0488861700000000 Au
atom 15.9633456900000006 4.9662496999999997 0.1008332500000000 Au
atom 18.7956871300000010 4.9434988799999999 0.1280674200000000 Au
atom 21.6474788599999997 4.9061938100000004 0.0926676300000000 Au
atom 24.4572202300000008 4.9200195400000002 0.1009552700000000 Au
atom 27.2563845899999997 4.8444356099999997 0.1588926500000000 Au
atom 1.8664588400000000 4.8994580399999998 -0.0003223600000000 Au
atom 4.7641852900000004 4.8860585199999997 -0.1071694800000000 Au
atom 8.9554844899999999 7.3730118800000000 -0.0095100800000000 Au
atom 11.6842258000000001 7.3981478200000002 -0.0897369600000000 Au
atom 14.5064292500000001 7.3994422999999996 0.1185396600000000 Au
atom 17.3553305699999996 7.3533675599999997 0.3076648700000000 Au
atom 20.2505936499999990 7.3688280700000002 0.2383251800000000 Au
atom 23.0343325800000009 7.3693272299999997 0.0959603900000000 Au
atom 25.8310953300000001 7.2873361299999999 0.2691386400000000 Au
atom 0.4497256400000000 7.3372665100000001 0.0495021200000000 Au
atom 3.2506833899999998 7.4070688300000000 -0.0811155000000000 Au
atom 6.0842013699999997 7.3896612099999999 0.1082298600000000 Au
atom 7.5164748599999998 9.8314783699999992 -0.0268838400000000 Au
atom 10.3022629099999996 9.8260542799999993 -0.0143877500000000 Au
atom 13.1111847800000003 9.8337151499999997 -0.0037734900000000 Au
atom 15.9468661300000001 9.8391241699999998 0.0048409100000000 Au
atom 18.7663958400000013 9.8142662900000008 0.1378242400000000 Au
atom 21.5276588000000011 9.8510745499999999 0.0698699700000000 Au
atom 24.3235126999999984 9.8185298400000001 0.1809168200000000 Au
atom 27.1777388400000000 9.8149417999999997 0.1223612400000000 Au
atom 1.8257223600000001 9.8275948100000008 0.0209322100000000 Au
atom 4.6743021899999997 9.8299362000000006 -0.1011204500000000 Au
atom 8.9029600400000000 12.3610202200000003 -0.0980127100000000 Au
atom 11.6869900900000001 12.3231943800000003 -0.0151008000000000 Au
atom 14.5325144300000009 12.2902412099999996 -0.0073870200000000 Au
atom 17.3355159000000008 12.3495018200000004 0.0301812300000000 Au
atom 20.1805950900000006 12.2747253900000004 0.0206421500000000 Au
atom 23.0055772099999984 12.2817669600000006 0.0480910700000000 Au
atom 25.7440978099999995 12.2068414300000008 0.0991839200000000 Au
atom 0.3136970700000000 12.2421572500000000 0.0635542100000000 Au
atom 3.2303511299999998 12.3386695599999996 -0.0218692500000000 Au
atom 6.0547249399999998 12.3246941999999997 0.1404776700000000 Au
atom 7.4922588100000000 13.2189615200000006 2.7520912200000001 Au
atom 10.3172621099999997 13.1632084900000006 2.5520267099999998 Au
atom 13.0790092599999994 13.2379990700000008 2.4274316300000001 Au
atom 15.9416800300000006 13.2250066700000009 2.6116191600000001 Au
atom 18.7744898499999984 13.2073805300000000 2.7468979800000000 Au
atom 21.5871125799999994 13.1585638800000009 2.6857180999999999 Au
atom 24.3593036400000003 13.1316943100000003 2.7197253400000001 Au
atom 27.2398399600000012 13.2907612999999998 2.6550072299999998 Au
atom 1.8569723400000000 13.2205460099999996 2.6206120300000002 Au
atom 4.6838019099999997 13.2170704899999993 2.6390402100000001 Au
atom 8.9563239899999996 15.6613785500000002 2.6398475900000000 Au
atom 11.7593411200000002 15.6849731600000002 2.4995864000000001 Au
atom 14.4855871700000005 15.6741537900000001 2.5516263200000000 Au
atom 17.3950863600000005 15.7064322399999998 2.7012624999999999 Au
atom 20.1644366999999995 15.6946072000000001 2.6240067599999999 Au
atom 23.0104196799999983 15.6322827499999999 2.6531136100000001 Au
atom 25.7737069100000014 15.6033854200000004 2.7129229300000000 Au
atom 0.4223120700000000 15.6360862399999991 2.6733224000000000 Au
atom 3.2479819800000000 15.6556841500000008 2.5421790899999999 Au
atom 6.0661871999999999 15.6516441700000009 2.7622817600000000 Au
atom 7.5264834299999999 18.1264368900000008 2.7657668200000001 Au
atom 10.3611515399999998 18.1309998999999991 2.5838204000000000 Au
atom 13.1554372799999992 18.0778069700000010 2.7879203499999998 Au
atom 15.9340580599999999 18.0828661699999991 2.5290995000000001 Au
atom 18.7491519599999990 18.1321879499999987 2.6179557600000001 Au
atom 21.6083447900000003 18.1056884599999997 2.3787900199999998 Au
atom 24.3995866499999998 18.0741055400000015 2.7207721700000000 Au
atom 27.2322429799999988 18.1185073699999997 2.6774767499999998 Au
atom 1.8385586899999999 18.0795382800000013 2.6431856200000001 Au
atom 4.6710379199999998 18.1049777700000014 2.6862005799999999 Au
atom 8.8966970799999991 20.6166445299999985 2.7131228799999998 Au
atom 11.7403847199999998 20.6145573999999989 2.7010535899999999 Au
atom 14.5468056200000007 20.5495136500000015 2.8318988699999998 Au
atom 17.3412195800000006 20.5697014699999983 2.6602455100000002 Au
atom 20.1965086599999992 20.5219828299999989 2.5041074200000000 Au
atom 23.0945808200000009 20.6074721799999985 2.6067718100000001 Au
atom 25.8250602299999983 20.5941556199999987 2.6067424799999999 Au
atom 0.4360240900000000 20.5741078199999983 2.8342850300000002 Au
atom 3.2233962500000000 20.5453658600000004 2.7766238200000002 Au
atom 6.1018371499999997 20.5315226799999984 2.7009398500000001 Au
atom 7.5175787999999999 23.1310163200000005 2.6157392200000000 Au
atom 10.3352026299999995 23.0927937300000004 2.7883508400000001 Au
atom 13.1679889800000005 23.0194851800000002 2.6097636899999999 Au
atom 15.9920004900000006 23.0857165699999989 2.7039413699999999 Au
atom 18.8106255299999994 22.9942273999999998 2.6857858700000001 Au
atom 21.6547105000000002 22.9963241300000014 2.6269655099999998 Au
atom 24.4391804899999983 22.9797856799999991 2.5931955100000001 Au
atom 27.2817175600000006 23.0918284400000005 2.7071416799999999 Au
atom 1.8795837300000000 23.1034145799999990 2.9159834999999998 Au
atom 4.6863453000000002 23.0240816200000005 2.7421657499999998 Au
atom 8.8958414500000007 25.5481292599999996 2.7071389400000001 Au
atom 11.7194166099999997 25.5910794099999990 2.7188155100000002 Au
atom 14.5220011200000005 25.4960002199999991 2.7236026899999999 Au
atom 17.3823221200000013 25.5197352200000012 2.7772208799999998 Au
atom 20.1246053600000003 25.4723826299999985 2.6609676100000001 Au
atom 22.9878175999999996 25.4891129800000016 2.7438007600000001 Au
atom 25.7891516000000003 25.5435658299999986 2.7981599099999999 Au
atom 0.4442397500000000 25.5910080899999990 2.8519251600000000 Au
atom 3.3064719600000001 25.5695520599999995 2.8148766200000002 Au
atom 6.0932999199999998 25.5679563200000004 2.6565633800000001 Au
atom 7.4426637600000003 28.0836132499999991 2.6793686999999999 Au
atom 10.2698246300000005 28.0396033600000010 2.8248230200000002 Au
atom 13.1511726099999997 28.0755881100000018 2.8619947099999998 Au
atom 15.9184095499999998 28.0206283999999997 2.6951895600000002 Au
atom 18.7607249899999999 27.9685742300000015 2.6929737000000000 Au
atom 21.5611520399999996 27.9304215700000000 2.6881808299999999 Au
atom 24.4172155199999992 27.9489984900000010 2.7264851000000001 Au
atom 27.2483108899999991 28.0023723800000006 2.5738218000000002 Au
atom 1.9357139699999999 28.0344032799999994 2.5911114600000000 Au
atom 4.7214288700000004 28.0126603100000011 2.6306775600000001 Au
atom 8.8760402599999999 30.4947021800000009 2.5931966000000002 Au
atom 11.6867941799999997 30.4874880600000004 2.7166067100000002 Au
atom 14.5420795500000004 30.5124723300000014 2.5842303499999999 Au
atom 17.3788569799999983 30.4747939499999987 2.6063938699999998 Au
atom 20.2257197099999999 30.3900668699999983 2.4684058300000000 Au
atom 23.0337383299999985 30.4456040600000009 2.5580504999999998 Au
atom 25.8342279300000008 30.4983747500000000 2.6305567000000001 Au
atom 0.4362436900000000 30.4861499900000013 2.5600546700000000 Au
atom 3.2219323700000002 30.4834630799999999 2.6202046200000000 Au
atom 6.0483038100000002 30.5293657299999985 2.6574924400000000 Au
atom 7.4674995400000004 32.9452568900000031 2.5655022700000001 Au
atom 10.2567405699999998 32.9016846399999991 2.5683590000000001 Au
atom 13.1319568300000000 32.9513408799999965 2.4920243800000001 Au
atom 16.0157971299999993 32.9285180500000010 2.5645225100000002 Au
atom 18.8504018100000010 32.8662753500000022 2.5358831700000000 Au
atom 21.6097930399999996 32.9043299300000029 2.6171800099999998 Au
atom 24.3665836599999999 32.9377443699999972 2.5402656200000000 Au
atom 27.2328630899999986 32.9851128199999977 2.5212771900000002 Au
atom 1.8222989800000000 33.0062157300000010 2.5024915200000000 Au
atom 4.6050520199999996 32.9665689300000011 2.7346239099999998 Au
atom 8.8907963199999998 35.3995228699999984 2.6336207200000001 Au
atom 11.7269204299999998 35.3574101600000006 2.5702493500000001 Au
atom 14.5962042899999993 35.3508520600000011 2.4673250699999998 Au
atom 17.4119128900000000 35.3890352000000021 2.5994528699999999 Au
atom 20.2078278900000008 35.3943620599999988 2.6925724799999999 Au
atom 23.0040821599999994 35.3643165699999997 2.6098839400000000 Au
atom 25.8555316300000015 35.3790402099999994 2.6910152500000000 Au
atom 0.5049953300000000 35.4668887600000033 2.4189143199999998 Au
atom 3.2143892799999998 35.4128447699999995 2.6859514099999999 Au
atom 6.1047728599999997 35.3850259000000023 2.7799915999999998 Au
atom 7.4861402999999997 37.8957525900000007 2.6926639600000000 Au
atom 10.3457583900000003 37.8536759300000014 2.7005257500000002 Au
atom 13.1597326399999996 37.8034144800000007 2.4707649800000002 Au
atom 16.0047640199999996 37.8030983700000007 2.6807030100000002 Au
atom 18.8199952300000000 37.8541971699999991 2.7024252700000000 Au
atom 21.6451714499999994 37.8534082700000027 2.6842334000000001 Au
atom 24.4384241799999984 37.8588425200000032 2.6911195000000001 Au
atom 27.2349950400000012 37.8915387300000006 2.7046939200000000 Au
atom 1.8366796500000000 37.9273175300000034 2.4878238499999998 Au
atom 4.6055315500000003 37.8237285599999993 2.8286556900000002 Au
atom 8.8990927899999992 0.8191582900000000 2.7673553499999999 Au
atom 11.6975835600000000 0.8515903700000000 2.7418107200000001 Au
atom 14.4984431699999998 0.7478105500000000 2.6769564799999999 Au
atom 17.3313391000000010 0.7945985000000000 2.6369432000000002 Au
atom 20.1818479599999989 0.7949762200000000 2.6959876500000002 Au
atom 23.0284793999999984 0.8743742600000000 2.7650755400000002 Au
atom 25.8154796399999995 0.8961036800000000 2.8712413500000000 Au
atom 0.4256642200000000 0.9233719500000001 2.7874699600000001 Au
atom 3.1969284500000001 0.8953889800000000 2.7804908199999998 Au
atom 6.0650087700000004 0.9124620100000000 2.7822391899999999 Au
atom 7.4780604700000000 3.3745247200000001 2.7404096999999998 Au
atom 10.3223015100000008 3.2845832399999999 2.5825663699999999 Au
atom 13.1041645700000000 3.2980104699999999 2.7017678799999998 Au
atom 15.9341127399999998 3.2841863400000002 2.6009306300000001 Au
atom 18.7090618500000012 3.1900137300000000 2.6953095299999998 Au
atom 21.5868829799999986 3.2464379499999998 2.6330772200000001 Au
atom 24.4407956499999983 3.3470534999999999 2.7290934600000001 Au
atom 27.2505079300000013 3.3388546600000000 2.7955038100000000 Au
atom 1.8880115399999999 3.3992596599999998 2.7023135200000001 Au
atom 4.7114051100000003 3.3606682900000000 2.4900082700000001 Au
atom 8.9195162900000007 5.7362179800000002 2.6828965299999998 Au
atom 11.7415793500000003 5.7850726300000002 2.5231347099999999 Au
atom 14.5381113200000005 5.7136018899999996 2.6549076000000000 Au
atom 17.4042428800000017 5.7744533300000001 2.8277376699999999 Au
atom 20.1531572700000012 5.7474382200000003 2.7242637200000002 Au
atom 22.9829294699999984 5.7817802900000004 2.7555593200000001 Au
atom 25.8353211899999984 5.8658099400000001 2.8434905300000000 Au
atom 0.4352908600000000 5.8590436300000004 2.6545789399999999 Au
atom 3.2261293599999998 5.8999584799999996 2.5733135499999999 Au
atom 6.0345415500000001 5.8482889100000000 2.6452663799999998 Au
atom 7.5510516100000000 8.2120154099999993 2.6156941300000001 Au
atom 10.3069232999999993 8.2274210900000000 2.6925587300000000 Au
atom 13.0997907799999993 8.2325940600000003 2.6484428300000000 Au
atom 15.8716380000000008 8.3122626999999998 2.6774493499999998 Au
atom 18.7267824300000001 8.2474503800000001 2.8808790100000001 Au
atom 21.5711371400000012 8.2354184700000008 2.7299038800000002 Au
atom 24.3829081999999993 8.2489515900000008 2.8406254099999999 Au
atom 27.2404682399999984 8.3163379800000001 2.6868143700000000 Au
atom 1.9127335599999999 8.3238595899999996 2.6847219400000002 Au
atom 4.6893533500000002 8.2837642099999993 2.5565354100000000 Au
atom 8.8686116899999998 10.7389337499999993 2.5554009999999998 Au
atom 11.7145719300000000 10.7028636099999996 2.6957735399999998 Au
atom 14.4633074100000005 10.7738956199999993 2.6496756100000001 Au
atom 17.3639785300000007 10.7316191900000000 2.6166419500000000 Au
atom 20.1730402200000007 10.7156117399999999 2.7131282699999999 Au
atom 22.9220867499999983 10.7268688700000006 2.7218603200000002 Au
atom 25.8158045799999982 10.7426548000000004 2.7003490299999999 Au
atom 0.4788747700000000 10.7778907799999999 2.6659046300000000 Au
atom 3.2931174300000001 10.8043005300000008 2.6048983300000002 Au
atom 6.1380309799999999 10.7421982000000007 2.6344835500000001 Au
atom 7.6648990899999996 13.2638065600000008 5.7217781199999997 Cl
atom 7.5967473999999999 16.0882490699999998 8.5132645300000007 Cl
atom 7.6180914199999998 13.2237667200000004 8.3966623800000004 Na
atom 7.5380040299999997 16.0725638500000017 5.6824875099999996 Na
atom 7.5798522400000001 18.9359126599999996 5.7191237299999997 Cl
atom 7.6628506999999999 21.6609591100000003 8.6165306099999999 Cl
atom 7.5944734000000000 18.9171724999999995 8.3827196799999992 Na
atom 7.5486722300000002 21.6959844000000004 5.8697546100000002 Na
atom 7.5547441099999997 24.4719537900000006 5.8039495399999996 Cl
atom 7.6158735699999998 27.3252337499999989 8.5626770499999996 Cl
atom 7.5309617700000002 24.5074786499999995 8.4488146299999993 Na
atom 7.5482905200000001 27.1592096900000008 5.8504712600000000 Na
atom 7.5378351800000001 30.0801428000000008 5.6964957600000004 Cl
atom 7.5909446100000002 32.9129049599999988 8.5601523600000000 Cl
atom 7.6435377500000001 30.1373193300000004 8.4007429699999996 Na
atom 7.5512583800000002 32.8564794799999973 5.8170225799999997 Na
atom 7.5650975699999998 35.8688771899999992 5.7370283799999999 Cl
atom 7.4816876700000003 38.5032966300000012 8.6350565899999996 Cl
atom 7.6569070100000003 35.7273534799999979 8.3806208400000006 Na
atom 7.5142048099999998 38.7233143200000001 5.8636446299999996 Na
atom 7.5428687600000002 1.9899161700000001 5.9008311899999999 Cl
atom 7.5498746499999996 4.7232358000000003 8.7361059999999995 Cl
atom 7.5704355699999999 1.8936825700000000 8.5153602199999998 Na
atom 7.6131707100000003 4.7395393300000004 5.9315580499999996 Na
atom 7.5446938100000001 7.5274187799999996 5.7730100300000000 Cl
atom 7.6768494399999998 10.3376600199999995 8.4981318399999992 Cl
atom 7.5436360899999997 7.6109005600000001 8.4664502800000001 Na
atom 7.5909647099999997 10.3675128999999995 5.7455538199999996 Na
atom 10.3723674799999994 13.1723786300000008 5.7373111799999998 Na
atom 13.1020868000000004 13.2184793299999992 5.6335512599999999 Cl
atom 10.4198281399999999 16.0406224600000016 8.3644071499999999 Na
atom 13.1279574500000003 16.0262295299999984 8.6555411899999992 Cl
atom 13.0347709199999997 13.1903978300000002 8.3751658100000004 Na
atom 10.3095386199999997 13.1193211600000001 8.6315506800000001 Cl
atom 13.1896429499999996 16.0678945999999989 5.8668156900000001 Na
atom 10.3233286100000008 16.1236738700000011 5.6945105900000001 Cl
atom 10.4310388300000003 18.9674207700000004 5.7569093999999996 Na
atom 13.2234506199999995 18.9465513399999992 5.7885339199999999 Cl
atom 10.3805045200000006 21.7356235200000008 8.4544712000000004 Na
atom 13.2718297500000002 21.6256513099999985 8.8711416100000005 Cl
atom 13.1445004099999991 18.9159866200000017 8.4519995199999993 Na
atom 10.4424059499999995 18.9682261600000004 8.5798135799999997 Cl
atom 13.2773857799999995 21.8034432400000000 6.1057430300000002 Na
atom 10.4809240100000007 21.8100572399999990 5.8162962100000000 Cl
atom 10.3715490700000004 24.5833564399999993 5.9538775599999996 Na
atom 13.2243052599999995 24.5445231600000007 5.8533793999999997 Cl
atom 10.4763577899999998 27.3613837800000006 8.4411048399999995 Na
atom 13.2373668200000001 27.4980764800000017 8.5563046800000002 Cl
atom 13.2314954300000007 24.6270334599999998 8.5428133299999995 Na
atom 10.4085245400000002 24.4997076500000013 8.6947357499999995 Cl
atom 13.2842569000000008 27.3240803099999994 5.9430490799999998 Na
atom 10.3350739800000007 27.2469728599999996 5.8087236100000004 Cl
atom 10.2832319800000000 30.2022793400000005 5.7159681300000003 Na
atom 13.1234466600000008 30.1798434799999988 5.6968216700000003 Cl
atom 10.3223816900000003 33.0511118699999997 8.3541496199999994 Na
atom 13.1570019299999998 33.0990546900000027 8.5379534400000008 Cl
atom 13.1508084899999993 30.3028154399999998 8.3142423399999998 Na
atom 10.4438328800000004 30.1479831599999990 8.6038085300000002 Cl
atom 13.1961194400000004 33.0408542400000016 5.7696343600000004 Na
atom 10.2624475000000004 32.9328178499999993 5.6867350300000004 Cl
atom 10.4103745700000001 35.8499512799999991 5.6547689300000004 Na
atom 13.2516639999999999 35.8088001599999970 5.7252692500000002 Cl
atom 10.4066427200000007 38.5783512400000035 8.3421564099999994 Na
atom 13.1215448099999996 38.6668891699999975 8.5213953599999996 Cl
atom 13.1929143999999994 35.8329679900000002 8.3449158099999998 Na
atom 10.3759726299999997 35.8351685100000026 8.5408355000000000 Cl
atom 13.1709393499999994 38.6398336600000007 5.6776453699999996 Na
atom 10.3109269799999996 38.6016867199999965 5.7054375300000002 Cl
atom 10.3014863800000001 1.9744122200000001 5.8810731599999997 Na
atom 13.1588949599999996 2.0399608599999999 5.7055790200000001 Cl
atom 10.3049994300000005 4.7702010100000001 8.4414483100000002 Na
atom 13.1328926500000005 4.7682941200000002 8.6590214599999999 Cl
atom 13.1711908599999994 1.9809502900000000 8.3850559199999992 Na
atom 10.4180654599999993 1.9929056100000000 8.5718900599999994 Cl
atom 13.1259510600000002 4.7431818799999999 5.7909602199999997 Na
atom 10.3265878200000003 4.7595200300000000 5.7532593299999997 Cl
atom 10.3885715100000002 7.4887072200000002 5.8863747799999997 Na
atom 13.2014072000000002 7.4973864299999997 5.7015847400000004 Cl
atom 10.4350966100000004 10.3312638200000002 8.3493879500000006 Na
atom 13.2408919500000000 10.3726999699999993 8.4134542400000001 Cl
atom 13.1907260199999996 7.5819343000000003 8.3650160800000002 Na
atom 10.4143156500000007 7.6005925699999999 8.5926393500000007 Cl
atom 13.2531353599999999 10.3536133499999998 5.7621127899999998 Na
atom 10.3924942100000006 10.3807799200000002 5.6797436699999997 Cl
atom 15.9652956600000007 13.1927708399999997 5.8376354600000004 Na
atom 18.7082685700000013 13.2186939799999994 5.8568765999999997 Cl
atom 16.0215580700000011 16.0361575400000014 8.4607034300000006 Na
atom 18.8010627100000001 16.0119090700000015 8.6754701599999997 Cl
atom 18.8861574999999995 13.3230615100000005 8.5085389599999992 Na
atom 15.9040687100000007 13.1560947600000002 8.7081851500000003 Cl
atom 18.8261247500000017 15.9756766599999995 5.8182025800000003 Na
atom 15.9529055799999995 16.0171525400000014 5.8148416300000001 Cl
atom 16.0444759300000008 18.8808564099999998 5.8868281900000001 Na
atom 18.7303667000000011 18.8493376800000014 5.8469706600000002 Cl
atom 16.0748938099999990 21.6056158700000012 8.4968139399999991 Na
atom 18.8123162899999983 21.6718386000000010 8.7299616400000009 Cl
atom 18.8439184699999984 18.9444522400000004 8.4429531499999992 Na
atom 16.0548532900000005 18.8335671200000014 8.6347956600000000 Cl
atom 18.8813208800000005 21.6859588800000012 5.7604365299999998 Na
atom 16.0239323200000001 21.7792745500000002 5.8160367900000001 Cl
atom 15.9994086099999997 24.5232916900000006 5.9149362700000001 Na
atom 18.8386690899999998 24.5542438400000016 5.7650995099999998 Cl
atom 16.0959754500000010 27.4986714100000000 8.4298802300000002 Na
atom 18.7765222399999985 27.6187925499999984 8.5367410300000000 Cl
atom 18.8286971600000008 24.3678268899999999 8.4714406600000007 Na
atom 15.9742008999999996 24.6101262600000013 8.6573448699999993 Cl
atom 18.8573368600000002 27.4059357599999984 5.9367436800000002 Na
atom 16.0191411600000002 27.3096937199999985 5.6930442100000000 Cl
atom 15.9412053199999999 30.1175902399999984 5.7527278199999996 Na
atom 18.9425492999999996 30.3180755600000005 5.7911799899999998 Cl
atom 16.0021287000000001 33.0325105100000016 8.3747239400000009 Na
atom 18.8875420799999993 33.0463709899999998 8.6352106600000003 Cl
atom 18.8447964500000005 30.2969915299999997 8.3497264300000005 Na
atom 15.9390733600000001 30.2760351900000018 8.5447966300000004 Cl
atom 18.8750320699999996 33.0001729900000029 5.8791726899999999 Na
atom 16.0894278799999988 33.0219791299999983 5.6757153899999997 Cl
atom 15.9978169700000006 35.8281403499999982 5.7685987299999999 Na
atom 18.9727375400000007 35.7273064700000020 5.8061937900000000 Cl
atom 15.9135032600000006 38.6651266200000023 8.3669566900000003 Na
atom 18.8805488900000000 38.6915548599999966 8.5705201199999994 Cl
atom 18.8747636300000003 35.8380714500000011 8.5001020900000004 Na
atom 16.0239301199999993 35.9409041400000007 8.6242677600000004 Cl
atom 18.8191782600000010 38.5173999399999971 5.8468718800000001 Na