#===============================================================================
# Created using the Atomic Simulation Environment (ASE)

# Sat Nov  1 21:48:32 2025

#=======================================================
lattice_vector 28.1999999999999993 0.0000000000000000 0.0000000000000000 
lattice_vector 0.0000000000000000 39.4799999999999969 0.0000000000000000 
lattice_vector 0.0000000000000000 0.0000000000000000 62.3296083400000001 
atom 7.5174889299999998 14.8367015999999996 0.0832621100000000 Au
atom 10.3552782400000005 14.8470994500000000 -0.0125749800000000 Au
atom 13.1401359499999995 14.8347047300000003 0.0918479900000000 Au
atom 15.9810899400000004 14.8269425199999993 0.0091286000000000 Au
atom 18.7690779600000006 14.7921661199999992 0.0838024200000000 Au
atom 21.5952875800000008 14.8398312200000007 -0.0175165600000000 Au
atom 24.4506401999999987 14.8212886000000008 0.0725699200000000 Au
atom 27.2481120399999988 14.9081817200000000 -0.0645762400000000 Au
atom 1.8800191300000000 14.8913565999999999 -0.0490079800000000 Au
atom 4.7103270100000003 14.8287836300000002 -0.0354395500000000 Au
atom 8.9229944200000002 17.2764595499999984 0.0421321800000000 Au
atom 11.7336436499999994 17.2564285099999992 0.0284154800000000 Au
atom 14.5231318199999997 17.2952277400000014 0.0480771700000000 Au
atom 17.3684371800000008 17.2989065000000011 0.0170175600000000 Au
atom 20.2096884900000013 17.2845350199999999 0.0296228000000000 Au
atom 23.0236617099999989 17.2778875499999991 0.0057853200000000 Au
atom 25.8437431300000000 17.3052369699999993 0.0148318300000000 Au
atom 0.4545631600000000 17.2294127000000010 -0.0940172600000000 Au
atom 3.2862350999999999 17.3121468000000007 0.0535667400000000 Au
atom 6.1064056200000003 17.3102483599999992 0.0340160500000000 Au
atom 7.5032128199999999 19.7540089300000012 0.1176138400000000 Au
atom 10.3074084700000004 19.7765185499999987 0.0588021900000000 Au
atom 13.1324270700000003 19.7613775199999999 0.1227207000000000 Au
atom 15.9773244800000001 19.7701978899999986 0.0573902100000000 Au
atom 18.8134820199999986 19.7568100300000005 0.0996540600000000 Au
atom 21.6413688700000009 19.7839582800000002 0.0517546400000000 Au
atom 24.4541883499999990 19.7700178199999996 0.1157575000000000 Au
atom 27.2796375900000001 19.8953566899999998 0.3598613600000000 Au
atom 1.8939922600000001 19.7557709800000012 0.1438747100000000 Au
atom 4.6757369799999999 19.7700408699999990 0.0604894200000000 Au
atom 8.9074895499999993 22.2410691800000002 0.1066977400000000 Au
atom 11.7402224999999998 22.2186431000000013 0.0636865500000000 Au
atom 14.5674661400000005 22.2006006300000003 0.0714250500000000 Au
atom 17.3517307400000007 22.2479814400000002 0.0657920300000000 Au
atom 20.1871108399999990 22.1963499199999994 0.0802263100000000 Au
atom 23.0215504600000003 22.2474585100000013 0.0909672700000000 Au
atom 25.8264903500000003 22.2937920100000007 0.0969446400000000 Au
atom 0.4230533200000000 22.2111604299999996 0.0969877000000000 Au
atom 3.3016532700000001 22.2396981899999986 0.0875808800000000 Au
atom 6.1238104699999996 22.2282256800000013 0.0712249500000000 Au
atom 7.4992498100000002 24.7107099699999999 0.0643858400000000 Au
atom 10.3430540600000000 24.7229092900000005 0.1219245800000000 Au
atom 13.1475745400000008 24.7037036699999994 0.0857521100000000 Au
atom 15.9712617199999993 24.6856262499999985 0.0920257600000000 Au
atom 18.7792195600000014 24.6709843100000015 0.0885246600000000 Au
atom 21.6149209499999984 24.6865276099999988 0.1070348300000000 Au
atom 24.4191287499999987 24.6989216399999982 0.1299236000000000 Au
atom 27.2593271100000010 24.7462810799999993 0.0290805600000000 Au
atom 1.8386029399999999 24.6792942900000014 0.1301972800000000 Au
atom 4.6887151400000002 24.6790562899999983 0.1074415800000000 Au
atom 8.8732636199999995 27.1721094000000001 0.0590534400000000 Au
atom 11.7555117399999993 27.1667056000000002 0.0587131900000000 Au
atom 14.5799776600000008 27.1512535899999996 0.0577039300000000 Au
atom 17.4005613200000013 27.1452390799999996 0.0864180900000000 Au
atom 20.2015176200000006 27.1495381599999988 0.0734677800000000 Au
atom 23.0322612299999996 27.1470126299999990 0.0439217000000000 Au
atom 25.8195428999999983 27.2220994500000018 0.0945555000000000 Au
atom 0.4673376500000000 27.1099746400000008 0.2936546200000000 Au
atom 3.2647025500000000 27.1358031699999991 0.0516819200000000 Au
atom 6.1001999400000004 27.1439431599999992 0.0519588300000000 Au
atom 7.5205922500000000 29.5879710100000004 -0.0054977000000000 Au
atom 10.3344072400000009 29.5976677700000010 0.0542898800000000 Au
atom 13.1000951499999996 29.5895650699999990 0.0596414700000000 Au
atom 15.9499735400000002 29.6044093199999985 0.0576349700000000 Au
atom 18.7680972399999995 29.6053252100000002 0.0090644300000000 Au
atom 21.6272313499999989 29.6094697300000007 0.0491190900000000 Au
atom 24.4285275599999991 29.6216493400000012 0.0347735300000000 Au
atom 27.2392585300000007 29.3225544300000003 0.1276629400000000 Au
atom 1.8805466600000000 29.5553092500000005 -0.0514047000000000 Au
atom 4.6921180099999997 29.6114481699999992 0.0502257200000000 Au
atom 8.9063403200000000 32.1079131099999984 0.0090209300000000 Au
atom 11.7322354900000008 32.1027574200000032 -0.0035809000000000 Au
atom 14.5695050599999991 32.0626025999999982 0.0273799200000000 Au
atom 17.4000349000000014 32.0758577900000006 0.0164319600000000 Au
atom 20.1770519700000008 32.0968494000000035 0.0264854300000000 Au
atom 23.0136639999999986 32.0589311600000002 0.0135927200000000 Au
atom 25.8377336399999997 32.0524592000000013 0.0247886500000000 Au
atom 0.4393594700000000 32.1122040200000001 0.1427686600000000 Au
atom 3.2680754699999999 32.0889198799999988 -0.0021665300000000 Au
atom 6.0585517099999997 32.0911087799999990 0.0114920100000000 Au
atom 7.4970898600000000 34.5588737400000028 -0.0060979000000000 Au
atom 10.3329491400000002 34.5746506300000007 0.0436329000000000 Au
atom 13.1677291400000005 34.5443530699999997 0.0010333600000000 Au
atom 15.9572925399999992 34.5511997799999975 0.0738294600000000 Au
atom 18.7403603300000015 34.5900040399999966 -0.0243312300000000 Au
atom 21.5715994199999983 34.5516790400000033 0.0700091300000000 Au
atom 24.3819683699999992 34.5747945199999975 -0.0523407700000000 Au
atom 27.2472050000000010 34.7118144299999969 0.2584311400000000 Au
atom 1.8267424699999999 34.5469895900000026 0.0618333200000000 Au
atom 4.6794453300000001 34.5322271400000034 0.0393536100000000 Au
atom 8.8362407399999991 37.0080558699999997 0.0154419400000000 Au
atom 11.6627864999999993 37.0459398300000018 -0.0795412900000000 Au
atom 14.5381190100000008 37.0429259300000027 0.1097646900000000 Au
atom 17.3261720299999986 37.0280171699999983 0.0397513800000000 Au
atom 20.1071145999999992 37.0505771999999993 0.0216767500000000 Au
atom 23.2197216799999993 37.0361641300000031 0.0749489800000000 Au
atom 25.6728261999999994 36.9750089599999967 0.1579348000000000 Au
atom 0.4485288900000000 37.0455162299999969 0.1112976600000000 Au
atom 3.1841619400000001 37.0193076099999985 0.0726598100000000 Au
atom 6.1763016400000001 37.0373846099999966 0.0565894100000000 Au
atom 7.6094265700000001 -0.0183521200000000 0.0283177500000000 Au
atom 10.2842383300000009 0.0175774200000000 0.1285516600000000 Au
atom 13.0937702300000005 -0.0006152700000000 -0.2110834600000000 Au
atom 15.8362989800000005 0.0324957400000000 0.1869210800000000 Au
atom 18.8234757799999990 0.0010020500000000 0.0757168100000000 Au
atom 21.5030050800000012 0.0220864500000000 0.3243437100000000 Au
atom 24.3992440899999998 0.0254880500000000 -0.1845928700000000 Au
atom 27.1411016200000006 -0.3180596600000000 0.2435446500000000 Au
atom 1.9410390500000001 -0.0023590500000000 -0.0588821600000000 Au
atom 4.7754132199999999 0.0177038100000000 0.0526010700000000 Au
atom 8.8991077099999991 2.5091434900000000 0.0662552500000000 Au
atom 11.7258092800000000 2.4847080500000001 0.1149229500000000 Au
atom 14.5879118400000003 2.5002637600000002 0.0886435600000000 Au
atom 17.3840181499999993 2.4861862000000001 0.0677609000000000 Au
atom 20.2283793500000009 2.4708878500000000 0.0900534300000000 Au
atom 23.0427081999999999 2.4732829600000001 0.0753358900000000 Au
atom 25.8378727700000006 2.5262285599999998 0.0440969100000000 Au
atom 0.4679807800000000 2.5696557499999999 0.1499892600000000 Au
atom 3.2632499899999998 2.4613427600000000 0.0894103100000000 Au
atom 6.0696630000000003 2.4750905300000001 0.0951591800000000 Au
atom 7.4892899300000000 4.9567395500000000 0.1151632100000000 Au
atom 10.3128598300000007 4.9533377999999999 0.0849455400000000 Au
atom 13.1484710899999993 4.9612764299999998 0.0996170200000000 Au
atom 15.9844850399999991 4.9623262900000000 0.0892991700000000 Au
atom 18.7853169199999996 4.9401224199999998 0.1141444900000000 Au
atom 21.6127504799999990 4.9849640099999997 0.0805448300000000 Au
atom 24.4387763199999988 4.9327900400000004 0.1160118500000000 Au
atom 27.2341632599999990 5.1445890399999996 0.0906044900000000 Au
atom 1.8742854000000000 5.0229058599999998 0.0695402800000000 Au
atom 4.6854214499999998 4.9390878699999998 0.0816392300000000 Au
atom 8.9220963900000001 7.4526486299999997 0.0608254200000000 Au
atom 11.7022156899999992 7.4437800100000002 0.0514741000000000 Au
atom 14.5335031000000008 7.4087932800000003 0.0781514600000000 Au
atom 17.3661802899999991 7.4126881999999998 0.0766605700000000 Au
atom 20.1974296500000001 7.4252177499999998 0.0606128800000000 Au
atom 23.0360376500000008 7.4222660700000000 0.0560442400000000 Au
atom 25.8562584499999986 7.4162204100000002 0.0758604300000000 Au
atom 0.4339161500000000 7.4349586499999996 0.0727823200000000 Au
atom 3.2850981899999998 7.4209193999999998 0.0588053000000000 Au
atom 6.1023212100000004 7.4058096000000004 0.0691213600000000 Au
atom 7.4805202499999996 9.8730539700000008 0.0733360700000000 Au
atom 10.3014276200000001 9.8652777599999997 0.0221829800000000 Au
atom 13.1702099900000000 9.8992443300000001 0.0462409600000000 Au
atom 15.9526075600000006 9.8815922999999994 0.0109618200000000 Au
atom 18.8050064100000007 9.8759723299999997 0.0779617400000000 Au
atom 21.6190341900000007 9.8864725999999994 0.0198979900000000 Au
atom 24.4403589100000005 9.8680703399999992 0.0543014000000000 Au
atom 27.2277597100000008 9.9727837200000007 0.1801457000000000 Au
atom 1.8378339600000000 9.8935928600000000 0.1259565100000000 Au
atom 4.6774025300000002 9.8732713000000007 -0.0182650200000000 Au
atom 8.9076988000000004 12.3510981900000001 -0.0026215600000000 Au
atom 11.7414318299999998 12.3452754299999992 0.0206048400000000 Au
atom 14.5602420200000005 12.3165550600000007 0.0242528200000000 Au
atom 17.3385117999999991 12.3619333900000008 0.0003779200000000 Au
atom 20.2060014899999985 12.3407846400000007 0.0068682800000000 Au
atom 23.0212595700000016 12.3474487400000008 0.0100041400000000 Au
atom 25.8445797699999993 12.3235014799999991 0.0348381800000000 Au
atom 0.4793528200000000 12.2160308400000002 -0.0272717300000000 Au
atom 3.2900199200000002 12.3586465400000005 0.0157191400000000 Au
atom 6.0923805900000003 12.3378479199999997 0.0164520600000000 Au
atom 7.4993876700000000 13.1805227499999997 2.6686542000000002 Au
atom 10.3310955100000008 13.1849028300000004 2.5511325899999999 Au
atom 13.1423115599999996 13.1919313500000008 2.6244081300000000 Au
atom 15.9816764300000003 13.1871007799999997 2.5541046100000000 Au
atom 18.7732364700000005 13.1542028099999992 2.6319682400000000 Au
atom 21.6119377200000002 13.1726880000000008 2.6007178999999998 Au
atom 24.4151488000000008 13.1495210999999994 2.6878848999999998 Au
atom 27.2799190100000004 13.1190381400000007 2.4871067899999999 Au
atom 1.8646276799999999 13.1551420100000005 2.5827650900000001 Au
atom 4.6629357599999999 13.1524642000000007 2.5443390300000002 Au
atom 8.8918735899999994 15.6328749400000007 2.6123985699999999 Au
atom 11.7507010800000007 15.6541710399999996 2.6513138999999999 Au
atom 14.5606434100000008 15.6275205600000007 2.6216619200000002 Au
atom 17.3683970199999997 15.7046091299999997 2.6480735000000002 Au
atom 20.1883366299999985 15.6492924500000008 2.6125039600000002 Au
atom 23.0304377699999989 15.6744725400000000 2.6565525499999998 Au
atom 25.8571188899999989 15.6980399300000002 2.6600781100000002 Au
atom 0.4946680700000000 15.6769718000000005 2.6785974900000000 Au
atom 3.2925231799999999 15.6591309100000000 2.6728059399999999 Au
atom 6.1016252399999997 15.6045568100000001 2.6500290099999999 Au
atom 7.4839203699999999 18.1137780600000013 2.6918702200000002 Au
atom 10.3109243900000003 18.1425373699999994 2.6199811899999998 Au
atom 13.1576481399999992 18.1028395099999990 2.7029829300000001 Au
atom 15.9996117699999996 18.1091728799999991 2.6045217200000002 Au
atom 18.7873192700000011 18.0745861699999999 2.7057515900000002 Au
atom 21.5716267700000017 18.1135153100000004 2.6256314299999999 Au
atom 24.4223443399999987 18.0978224499999989 2.6959803700000000 Au
atom 27.2392061900000009 18.1449967100000009 2.8023271400000000 Au
atom 1.8693516600000000 18.0805663900000013 2.7415122400000000 Au
atom 4.6815584299999999 18.0805184499999996 2.6111788499999999 Au
atom 8.9594986700000003 20.5990184099999993 2.7643795199999999 Au
atom 11.7175317499999991 20.5922381200000011 2.7028747499999999 Au
atom 14.5690245399999991 20.5751075300000004 2.6961098500000000 Au
atom 17.4033243300000002 20.5714518899999987 2.7077438400000000 Au
atom 20.2015500299999999 20.5831247099999999 2.6973224400000002 Au
atom 23.0158533500000004 20.5890030199999998 2.7245376100000001 Au
atom 25.8174613300000004 20.6508723600000010 2.6602754700000002 Au
atom 0.4422132900000000 20.6494921799999993 2.9026403599999999 Au
atom 3.2511492199999998 20.5721298700000013 2.6891919799999999 Au
atom 6.0998437900000004 20.5925042199999986 2.7153665100000000 Au
atom 7.5318857899999996 23.0262780199999995 2.6671468400000000 Au
atom 10.3325284199999992 23.0573047100000004 2.6804770300000000 Au
atom 13.1325175499999993 23.0519193199999997 2.7040731500000001 Au
atom 15.9487019199999995 23.0638292000000007 2.6754785700000001 Au
atom 18.7773729100000004 23.0130455800000000 2.6631203700000001 Au
atom 21.6213472099999997 23.0638678800000001 2.7090405899999999 Au
atom 24.4193397300000008 23.0421027999999986 2.6801803099999999 Au
atom 27.2580928200000017 23.0284376299999991 2.6947542499999999 Au
atom 1.8981059600000001 23.0531497899999991 2.7452172600000000 Au
atom 4.6967772900000000 23.0533133899999996 2.6893563000000000 Au
atom 8.9636139200000002 25.5553141599999982 2.7184056700000001 Au
atom 11.7476997500000007 25.5126013500000006 2.6796711599999998 Au
atom 14.5192925400000004 25.5030636999999984 2.6898882300000002 Au
atom 17.3614539100000016 25.5501060500000001 2.7373781099999999 Au
atom 20.2341387700000013 25.5309622300000001 2.7387420900000001 Au
atom 23.0037357699999987 25.5332527399999982 2.6949449200000002 Au
atom 25.8524474399999988 25.5704144400000004 2.6053519600000001 Au
atom 0.4569954600000000 25.5988563300000003 2.8075422300000001 Au
atom 3.2547755000000000 25.5280840399999995 2.7317757700000000 Au
atom 6.0515215099999997 25.5131925399999986 2.7005914199999999 Au
atom 7.5010276500000002 27.9997268800000008 2.5943677699999999 Au
atom 10.3041647199999993 28.0079221300000007 2.6730434500000002 Au
atom 13.1564389300000002 27.9832856099999994 2.6239818700000002 Au
atom 15.9770058400000003 27.9896834199999986 2.7010927499999999 Au
atom 18.7634666900000013 28.0090311400000012 2.5838260700000002 Au
atom 21.5862170099999986 28.0149429900000015 2.6872936100000002 Au
atom 24.4357004000000018 28.0066848499999992 2.6014206199999999 Au
atom 27.2325612700000015 28.0043013700000003 2.7036140400000002 Au
atom 1.8517919100000000 27.9374359500000011 2.5839708899999998 Au
atom 4.6933754299999997 28.0124151300000008 2.7083162600000001 Au
atom 8.8895877700000003 30.4291515500000003 2.6689513400000000 Au
atom 11.7152673600000004 30.4280982500000015 2.6573369499999999 Au
atom 14.5182667500000004 30.4671665900000015 2.6410494199999999 Au
atom 17.3900434100000005 30.4574948499999998 2.6479398000000001 Au
atom 20.1572326900000007 30.4897642399999995 2.6462074000000002 Au
atom 23.0223029500000003 30.4581973899999987 2.6729803500000000 Au
atom 25.8459107199999991 30.4428510000000010 2.7275907099999999 Au
atom 0.4492633000000000 30.3236372400000000 2.4588363700000002 Au
atom 3.2843741000000000 30.4700871999999983 2.6527941899999998 Au
atom 6.1011343199999999 30.4473144699999985 2.6382633900000001 Au
atom 7.5002949900000004 32.8863150600000012 2.5272015699999999 Au
atom 10.2964637499999991 32.9037920900000032 2.6578695799999998 Au
atom 13.0980055800000006 32.9127652000000026 2.5590661600000000 Au
atom 15.9671519499999999 32.9242780100000019 2.6674480900000002 Au
atom 18.7570844299999990 32.9628955000000019 2.5651436400000001 Au
atom 21.5943499199999991 32.9565873800000020 2.6697097099999998 Au
atom 24.4414210400000016 32.9311197800000031 2.5547979100000000 Au
atom 27.2344162099999991 32.7221789600000008 2.8153775099999998 Au
atom 1.8379668400000000 32.9214407099999988 2.5668087200000000 Au
atom 4.6923470700000003 32.9163936599999971 2.6743380200000000 Au
atom 8.9337147300000002 35.3599482500000022 2.6379465000000000 Au
atom 11.7456255200000008 35.3768451600000020 2.6611546399999999 Au
atom 14.5851681800000001 35.3814779699999988 2.6441305000000002 Au
atom 17.3805433100000002 35.4036830900000012 2.6340329200000001 Au
atom 20.1998802099999999 35.3820449600000018 2.6360295100000002 Au
atom 23.0313305100000001 35.4106442499999972 2.6325017499999999 Au
atom 25.8178330000000003 35.4133635299999980 2.6478722100000001 Au
atom 0.4448171900000000 35.4948158699999965 2.6174910300000001 Au
atom 3.2693919400000002 35.4012860899999993 2.6389121599999998 Au
atom 6.0858699700000001 35.4079407199999991 2.6298875900000001 Au
atom 7.3656135599999999 37.8598936100000003 2.5899301000000001 Au
atom 10.3126587700000005 37.8251310099999998 2.7460870000000002 Au
atom 12.9062697899999996 37.8576056300000019 2.8304307700000000 Au
atom 16.0824864800000000 37.8288093600000010 2.7331635400000001 Au
atom 18.8868467200000012 37.8407855199999972 2.4458787000000002 Au
atom 21.7816533800000016 37.8285449700000029 2.5660232600000001 Au
atom 24.2262615799999992 37.8971029599999980 2.5745089800000001 Au
atom 27.2708699500000016 37.7358963200000019 2.8612823700000001 Au
atom 1.8716869800000000 37.9094328700000034 2.3758530499999999 Au
atom 4.9379434499999997 37.8307112800000027 2.7425423100000001 Au
atom 8.9054017200000004 0.7968001900000000 2.7473985999999999 Au
atom 11.7507415700000006 0.8322615100000000 2.7258800500000002 Au
atom 14.6607954100000004 0.8546326200000000 2.7604071299999999 Au
atom 17.4139156399999990 0.8326354200000000 2.7270405499999999 Au
atom 20.2086747899999999 0.8108343099999999 2.5518326899999999 Au
atom 23.0513970099999987 0.8409802800000000 2.7035311300000000 Au
atom 25.9317416300000012 0.8102034000000000 2.7129405800000002 Au
atom 0.6136688700000000 0.8087790600000000 2.6548552399999998 Au
atom 3.3515718699999999 0.8464350400000000 2.6172641799999998 Au
atom 6.1921807099999997 0.8360591400000000 2.6236264199999999 Au
atom 7.5100926899999996 3.3114223500000000 2.6630115800000000 Au
atom 10.2988004199999992 3.2838424300000000 2.6556492100000000 Au
atom 13.1384130700000004 3.3354491099999999 2.7043922100000000 Au
atom 15.9490849099999998 3.2717055199999998 2.7101648200000001 Au
atom 18.8218618199999987 3.3228138199999999 2.6802551100000001 Au
atom 21.6374994700000016 3.3176491900000000 2.6866235500000002 Au
atom 24.4271467099999988 3.3364166200000001 2.6797865299999999 Au
atom 27.2351425200000001 3.3051377899999999 2.6222176500000001 Au
atom 1.8665423800000001 3.3345445699999998 2.7015096500000002 Au
atom 4.6799282900000003 3.2622317999999999 2.6922022399999999 Au
atom 8.9558623700000002 5.7727482700000001 2.7273630000000000 Au
atom 11.7276103200000001 5.7927989100000001 2.7185329999999999 Au
atom 14.5638958499999998 5.7994125500000004 2.6856525599999999 Au
atom 17.3572999900000013 5.7383278200000003 2.7347630000000001 Au
atom 20.2055259199999995 5.7685395699999997 2.7148288500000000 Au
atom 23.0096695099999984 5.7773506899999996 2.7273543500000001 Au
atom 25.8093712599999989 5.7390670100000003 2.6365187500000000 Au
atom 0.4863639200000000 5.7217738100000002 2.7183998200000001 Au
atom 3.2787241300000001 5.8095625499999999 2.7166793000000000 Au
atom 6.1119325499999997 5.7925257500000003 2.7089028800000001 Au
atom 7.5004282199999999 8.2805030800000008 2.7190109200000001 Au
atom 10.3580552600000004 8.2511708200000005 2.6552314899999998 Au
atom 13.1430618300000006 8.2667945199999995 2.7011335800000000 Au
atom 15.9517626900000007 8.2190811200000002 2.6119304600000000 Au
atom 18.7676286800000014 8.2707028600000001 2.7066534199999999 Au
atom 21.6022633699999993 8.2473480099999996 2.6545101799999999 Au
atom 24.4287083000000003 8.2641301499999997 2.7105547099999998 Au
atom 27.2163133600000009 8.3476646399999996 2.6048263000000000 Au
atom 1.8568958700000000 8.2093241700000004 2.7039183699999998 Au
atom 4.6824583400000002 8.2393311699999998 2.5970032000000001 Au
atom 8.9101769300000004 10.7353995799999993 2.6011389600000001 Au
atom 11.7361839299999993 10.7028495600000007 2.6435257700000001 Au
atom 14.5684339099999995 10.7365037099999991 2.6327431600000000 Au
atom 17.3933802799999988 10.7461658900000003 2.6293328699999998 Au
atom 20.2238625899999995 10.7464864200000001 2.6266201800000002 Au
atom 23.0025128300000006 10.7021942699999997 2.6556077899999999 Au
atom 25.8561778900000014 10.6791444299999991 2.6198036899999999 Au
atom 0.4981218700000000 10.6316463500000005 2.5452255600000000 Au
atom 3.2546940200000001 10.6945705100000001 2.6306775500000001 Au
atom 6.0583231099999999 10.7168435399999993 2.6404356500000001 Au
atom 7.4931906000000001 13.1679780700000002 5.7081038199999998 Cl
atom 7.4848199800000002 15.9917900399999997 8.5626448100000001 Cl
atom 7.4820729400000001 13.1313400799999993 8.3384077100000003 Na
atom 7.5194290400000003 15.9980657900000001 5.8292174599999997 Na
atom 7.5034847999999998 18.8312448100000012 5.7015348399999999 Cl
atom 7.5226345700000001 21.6298587699999985 8.5772484799999997 Cl
atom 7.5204138800000004 18.7899946699999987 8.3981166700000003 Na
atom 7.5133942100000004 21.6308631499999997 5.8251933400000002 Na
atom 7.5026756099999998 24.4505043800000017 5.7497849600000004 Cl
atom 7.4832177199999999 27.2558325699999990 8.5283449400000002 Cl
atom 7.5155453100000003 24.4184486599999993 8.4189115999999995 Na
atom 7.5032339300000004 27.2515858400000006 5.8076503300000004 Na
atom 7.5067892000000001 30.0853839299999990 5.7013177099999996 Cl
atom 7.4851825600000002 32.9229248199999986 8.5435309600000000 Cl
atom 7.4968326799999998 30.0808369900000017 8.3620616400000003 Na
atom 7.5207197499999996 32.8995253000000005 5.8511227899999998 Na
atom 7.5038576199999998 35.7264552099999975 5.7473983899999999 Cl
atom 7.5957764499999998 38.5427222300000025 8.4667554099999993 Cl
atom 7.4609980900000004 35.7369800700000013 8.3948509700000002 Na
atom 7.3535534499999997 38.5393658500000029 5.8664271899999996 Na
atom 7.4611637999999996 1.8815922000000000 5.7603562100000003 Cl
atom 7.5177861400000001 4.7187157300000004 8.5445175500000001 Cl
atom 7.5579159499999999 1.9252922600000000 8.4601931500000003 Na
atom 7.4477039999999999 4.7043739200000001 5.8230357100000001 Na
atom 7.5121320699999998 7.5174838399999997 5.7083368300000004 Cl
atom 7.4635069400000003 10.3545968300000002 8.5208434400000002 Cl
atom 7.5101241999999999 7.5572469399999997 8.3783542600000001 Na
atom 7.5084057000000000 10.3213143800000005 5.8017842000000002 Na
atom 10.3286160299999992 13.1807230000000004 5.8069683200000002 Na
atom 13.1504648799999995 13.1677039300000001 5.7370804299999998 Cl
atom 10.2792783300000004 15.9889648999999991 8.3459424400000000 Na
atom 13.1630991799999997 15.9807241799999993 8.5390906599999994 Cl
atom 13.1402671499999997 13.1531775100000008 8.3186460199999992 Na
atom 10.3280925099999994 13.1621949199999992 8.5848017100000007 Cl
atom 13.1317070600000001 15.9743496900000004 5.8101161799999996 Na
atom 10.3270678900000004 15.9997697900000002 5.7051487300000003 Cl
atom 10.3327548100000008 18.8464163000000013 5.8425958700000002 Na
atom 13.1482361500000007 18.8237761200000016 5.7047140900000004 Cl
atom 10.3085851200000000 21.6057928600000011 8.3443371200000005 Na
atom 13.1308839899999992 21.6060132399999993 8.5783981100000002 Cl
atom 13.1592023099999995 18.8141486700000016 8.3875016500000008 Na
atom 10.3070705199999999 18.8129573599999986 8.5885739200000000 Cl
atom 13.1450737899999996 21.6687151600000014 5.8087608599999996 Na
atom 10.3343396599999995 21.6404635499999998 5.7400921599999997 Cl
atom 10.3031239800000005 24.4500744099999991 5.8261737599999996 Na
atom 13.1486851799999993 24.4491928600000001 5.7118185700000002 Cl
atom 10.2975110000000001 27.2510939999999984 8.3361149599999997 Na
atom 13.1282040700000007 27.2721209400000006 8.5999312900000007 Cl
atom 13.1279999299999997 24.4249931599999996 8.4064506199999993 Na
atom 10.3198431700000004 24.4494089300000006 8.5645954500000006 Cl
atom 13.1138959699999997 27.2699621400000005 5.8499677099999996 Na
atom 10.3175344199999994 27.2594704499999985 5.7233955300000003 Cl
atom 10.3205482600000007 30.0601628500000011 5.7904970300000000 Na
atom 13.1365451899999996 30.0674377100000001 5.6867516299999998 Cl
atom 10.3118440800000002 32.9018194900000012 8.3581014899999992 Na
atom 13.1248307400000002 32.8959097299999996 8.5714341800000007 Cl
atom 13.1252206999999999 30.0986205399999989 8.3690528700000009 Na
atom 10.3147485499999991 30.0922077899999998 8.5482297099999993 Cl
atom 13.1603331899999993 32.9014311299999989 5.7894093299999998 Na
atom 10.2967219900000000 32.9017947500000005 5.7120205700000000 Cl
atom 10.3216829699999995 35.7435258800000000 5.7970843600000004 Na
atom 13.1181264399999993 35.7394372899999979 5.7336478399999997 Cl
atom 10.1888876100000001 38.5379815499999978 8.4695636800000003 Na
atom 13.1923398899999995 38.5531985499999976 8.5783460399999996 Cl
atom 13.1365136400000004 35.7189509199999975 8.3622799299999997 Na
atom 10.3185110899999994 35.7149795600000033 8.5668167799999999 Cl
atom 13.1856890300000007 38.5572119300000011 5.8422580999999996 Na
atom 10.4336729399999992 38.5589454799999984 5.7111912199999999 Cl
atom 10.1794966000000002 1.8535967400000000 5.9351751100000003 Na
atom 13.0589075900000005 1.8857677700000000 5.7509210900000003 Cl
atom 10.3084416999999995 4.6965215400000000 8.3608693699999996 Na
atom 13.1413083400000001 4.7034427000000001 8.5693951899999998 Cl
atom 13.0931568200000008 1.9041972599999999 8.3472752900000007 Na
atom 10.2921602199999995 1.8852262900000001 8.6004580100000005 Cl
atom 13.1225856499999995 4.6921165599999997 5.8806700999999997 Na
atom 10.2949967699999991 4.7118137100000004 5.7299687800000001 Cl
atom 10.2857658999999995 7.5006826999999996 5.8197224199999997 Na
atom 13.1595113399999999 7.5201774500000003 5.7186968299999998 Cl
atom 10.3055394299999996 10.3334744900000004 8.3402678300000002 Na
atom 13.1408558200000005 10.3449700100000008 8.5300481599999998 Cl
atom 13.1361982299999998 7.5153724400000002 8.3990948900000006 Na
atom 10.3338379800000002 7.5288722999999997 8.5684882499999997 Cl
atom 13.1402886700000003 10.3165415700000000 5.8090102899999998 Na
atom 10.3057651400000001 10.3367757900000008 5.7296404699999997 Cl
atom 15.9718927300000004 13.1879595300000005 5.8477449699999999 Na
atom 18.7815871100000003 13.1655358800000002 5.7237036799999998 Cl
atom 15.9670115199999998 15.9916706800000004 8.3640709599999994 Na
atom 18.7785511700000001 15.9973954900000006 8.5483787099999997 Cl
atom 18.7699960300000015 13.1651736600000007 8.3665230099999999 Na
atom 15.9616406600000005 13.1751321299999997 8.5683608099999997 Cl
atom 18.7675556700000001 15.9803672999999993 5.7779671300000004 Na
atom 15.9622065800000001 15.9922493299999999 5.7395380800000000 Cl
atom 15.9727768900000004 18.7998907300000013 5.8436491500000001 Na
atom 18.7620305400000014 18.8177698999999983 5.7253564600000004 Cl
atom 15.9494353400000008 21.6092248500000004 8.3715238200000002 Na
atom 18.7830346100000014 21.6181165700000015 8.5870801300000004 Cl
atom 18.7865259599999987 18.8131716599999983 8.4130578699999994 Na
atom 15.9639112599999997 18.8099945300000009 8.5590194900000007 Cl
atom 18.7924196999999999 21.6464361799999985 5.8302831900000003 Na
atom 15.9627423799999999 21.6326897400000000 5.7122337700000001 Cl
atom 15.9486333800000004 24.4549423899999994 5.8104259400000000 Na
atom 18.7911049900000009 24.4277610199999984 5.7551130600000002 Cl
atom 15.9630039900000007 27.2345831499999989 8.3706191200000006 Na
atom 18.7523165399999989 27.2641775700000011 8.5647913899999999 Cl
atom 18.7912825699999999 24.4178335900000008 8.3999951999999993 Na
atom 15.9513434200000006 24.4496142899999995 8.5603365599999997 Cl
atom 18.7561531099999996 27.2329777200000009 5.8548545900000004 Na
atom 15.9475964500000007 27.2553646100000009 5.7318084999999996 Cl
atom 15.9530837600000002 30.0985593899999984 5.7962034800000000 Na
atom 18.7728489500000002 30.0603896400000004 5.7461336200000002 Cl
atom 15.9578467499999999 32.8871720799999991 8.3887159400000009 Na
atom 18.7785534699999985 32.8987731400000030 8.5755238800000004 Cl
atom 18.7734357600000017 30.0803333100000003 8.4010609800000005 Na
atom 15.9443941200000001 30.0868979000000003 8.5530387599999997 Cl
atom 18.7767373999999982 32.9130135199999998 5.8275673100000001 Na
atom 15.9462054900000005 32.8969383000000022 5.7083509299999999 Cl
atom 15.9520452699999993 35.7174087400000033 5.8021701099999996 Na
atom 18.7644469799999989 35.7275095899999968 5.7138560099999998 Cl
atom 15.6874742200000004 38.5432392399999983 8.4217725800000007 Na
atom 18.6877468899999997 38.5657966200000004 8.5844828000000000 Cl
atom 18.7561333499999989 35.7053264199999987 8.3192119699999996 Na
atom 15.9451229500000000 35.7225668999999968 8.5499379199999996 Cl
atom 18.9336488500000009 38.5605876300000006 5.8637855700000001 Na
atom 16.0704534499999987 38.5546642799999972 5.8019508599999998 Cl