#===============================================================================
# Created using the Atomic Simulation Environment (ASE)

# Tue Dec 23 21:42:05 2025

#=======================================================
lattice_vector 28.1999999999999993 0.0000000000000000 0.0000000000000000 
lattice_vector 0.0000000000000000 39.4799999999999969 0.0000000000000000 
lattice_vector 0.0000000000000000 0.0000000000000000 62.3296083400000001 
atom 7.4935612799999998 14.8393909900000001 0.0239581700000000 Au
atom 10.3293121499999998 14.8229881799999994 0.0216518700000000 Au
atom 13.1640356300000008 14.8017793599999994 -0.0540019600000000 Au
atom 15.9668922299999991 14.8174584300000003 -0.0119593600000000 Au
atom 18.7721316599999994 14.8027787899999996 0.0468815200000000 Au
atom 21.6003890100000007 14.8097460999999999 0.0310699500000000 Au
atom 24.3805614000000013 14.8137885600000008 0.0523254300000000 Au
atom 27.1789093999999984 14.8304272600000004 -0.0766787400000000 Au
atom 1.8420027100000000 14.8297540600000008 0.0445411000000000 Au
atom 4.6983521000000001 14.8606730000000002 -0.0718111600000000 Au
atom 8.9584245599999992 17.2894475999999990 -0.0517031500000000 Au
atom 11.7552483900000002 17.3123444100000015 0.1278701400000000 Au
atom 14.5461203900000005 17.3391904500000003 0.0836513700000000 Au
atom 17.3675928599999985 17.3180779300000012 0.0291025400000000 Au
atom 20.1869282900000009 17.3183563199999995 0.0776511200000000 Au
atom 23.0209052300000003 17.2696025599999992 -0.0022150900000000 Au
atom 25.7904623800000010 17.2903699800000012 0.0089526700000000 Au
atom 0.4275915200000000 17.2928294999999999 0.0458612800000000 Au
atom 3.2784898700000000 17.3190541700000011 0.0165607500000000 Au
atom 6.0911927700000001 17.3119603799999986 0.0129496500000000 Au
atom 7.5311201099999998 19.7728019999999987 0.1061158500000000 Au
atom 10.3512895399999998 19.7465514099999986 -0.0023773800000000 Au
atom 13.1365201700000007 19.7931620399999986 0.0296503700000000 Au
atom 15.9415673600000005 19.7555519699999991 0.0677807400000000 Au
atom 18.7883622700000004 19.7566905300000002 0.0741334200000000 Au
atom 21.6626799599999984 19.7689154800000004 -0.0027702500000000 Au
atom 24.4602113999999986 19.7564590699999982 0.1103143700000000 Au
atom 27.2662659900000008 19.7440205999999989 -0.0274943000000000 Au
atom 1.8714975700000001 19.7763411900000001 0.0645638200000000 Au
atom 4.7199828000000004 19.7613923199999988 0.0850617400000000 Au
atom 8.9228056599999999 22.2270414900000013 0.1414390400000000 Au
atom 11.7453443600000007 22.2576058100000012 0.0046016800000000 Au
atom 14.5739100399999995 22.2141205900000003 0.0526606200000000 Au
atom 17.4001388500000012 22.1897632599999994 0.0143474800000000 Au
atom 20.1886973400000009 22.2243454999999983 0.0805244500000000 Au
atom 23.0538324099999983 22.2589145500000001 0.1403289900000000 Au
atom 25.8315355900000014 22.1909573699999996 0.1067239400000000 Au
atom 0.4569906300000000 22.2016541200000006 0.0697451900000000 Au
atom 3.2700734800000002 22.2381351100000018 0.0003281900000000 Au
atom 6.1047535000000002 22.2114805199999985 0.1239913800000000 Au
atom 7.5160476100000002 24.6904858699999998 0.1001365200000000 Au
atom 10.3230866900000002 24.6932265199999996 0.0765731600000000 Au
atom 13.1602064999999993 24.6852937899999993 0.1561595800000000 Au
atom 15.9708234400000002 24.6850321199999989 0.1085886800000000 Au
atom 18.7862244499999989 24.7020167599999994 0.1247273300000000 Au
atom 21.5910328699999994 24.6724879299999991 0.0868828700000000 Au
atom 24.4418758800000013 24.6871754599999988 0.1867146700000000 Au
atom 27.2105949000000003 24.6822226100000002 -0.0015641000000000 Au
atom 1.8124092100000000 24.6831933799999987 0.1023014400000000 Au
atom 4.6440878400000001 24.7250672499999986 0.1598472200000000 Au
atom 8.8913262399999997 27.1494903200000017 0.1464393000000000 Au
atom 11.7136691200000005 27.1799071000000012 0.0178614400000000 Au
atom 14.5552120299999999 27.1571741099999997 0.0428273900000000 Au
atom 17.3574400799999999 27.2121717600000004 0.0302790300000000 Au
atom 20.1702786500000002 27.1464071999999987 0.0950423300000000 Au
atom 23.0219576400000001 27.1452734999999983 0.0721860000000000 Au
atom 25.8614285899999992 27.1678949199999984 0.0887929400000000 Au
atom 0.4071781700000000 27.1566430200000006 0.0312895100000000 Au
atom 3.2351883600000000 27.1526943400000000 0.0966432100000000 Au
atom 6.0497962799999998 27.1407733200000010 0.0495015900000000 Au
atom 7.5048621500000001 29.6238795599999989 -0.0661089500000000 Au
atom 10.3229689499999999 29.6402635900000000 0.0291758400000000 Au
atom 13.1273394900000007 29.6305077200000007 -0.0086721300000000 Au
atom 15.9492426199999997 29.6413259199999999 0.1123368600000000 Au
atom 18.7755005799999992 29.6253363299999997 0.0162660800000000 Au
atom 21.5761474600000014 29.5804231299999998 -0.0027050700000000 Au
atom 24.4258103300000009 29.5924008699999987 -0.0111050300000000 Au
atom 27.2257757699999985 29.6348254400000002 0.0381786000000000 Au
atom 1.8355884300000000 29.6148440099999988 0.0589117000000000 Au
atom 4.6368141300000003 29.5868492900000000 0.0424072600000000 Au
atom 8.8933079500000005 32.1010301999999967 0.0353308600000000 Au
atom 11.7314309300000001 32.0813921299999976 0.0080298800000000 Au
atom 14.5851199400000002 32.0824158100000005 0.0064516800000000 Au
atom 17.4067417999999989 32.0940751899999981 0.0463506300000000 Au
atom 20.2148548000000012 32.0339222400000025 -0.0048004500000000 Au
atom 23.0340197800000013 32.0790860199999983 0.0960598100000000 Au
atom 25.8611983999999993 32.0837748699999992 -0.0113650500000000 Au
atom 0.4773179800000000 32.1060066599999985 0.0388993900000000 Au
atom 3.2514757599999999 32.0796171799999996 0.0254212400000000 Au
atom 6.0466577800000003 32.0474999999999994 0.0438653200000000 Au
atom 7.4592156400000000 34.5332567499999996 -0.0509479800000000 Au
atom 10.3143633000000001 34.6031963499999975 0.0362706800000000 Au
atom 13.1503744499999993 34.5428315999999995 -0.0629666900000000 Au
atom 15.9891558000000007 34.5378923299999983 0.0353446600000000 Au
atom 18.8197593900000015 34.5645227799999972 -0.0263892000000000 Au
atom 21.6067752800000008 34.5337073099999969 0.0231265600000000 Au
atom 24.3686573600000003 34.5781975900000020 0.0347097400000000 Au
atom 27.2089877800000011 34.5871288700000008 -0.0314644500000000 Au
atom 1.8646188500000000 34.5865608800000004 -0.0531732200000000 Au
atom 4.6589263699999997 34.5465556600000028 0.0122392000000000 Au
atom 8.9115415000000002 37.0088618199999999 -0.0120748400000000 Au
atom 11.7256049800000000 37.0044086099999987 -0.0200473800000000 Au
atom 14.5736565000000002 36.9960788300000019 0.1038344000000000 Au
atom 17.3861041299999997 37.0345080100000033 0.0096249600000000 Au
atom 20.2095428400000010 37.0395881199999977 0.0642712000000000 Au
atom 22.9715482999999985 37.0023158300000006 0.0597229700000000 Au
atom 25.8070818799999984 37.0030302999999989 0.0167240900000000 Au
atom 0.4631846000000000 37.0220577899999981 -0.0009673900000000 Au
atom 3.2911869800000000 37.0480168699999979 0.0650824600000000 Au
atom 6.0926993800000000 37.0232768400000012 -0.0524923900000000 Au
atom 7.5266854900000002 -0.0177092700000000 0.0686403100000000 Au
atom 10.3507709299999995 -0.0092043300000000 0.1824508800000000 Au
atom 13.1383077499999992 -0.0261215400000000 0.1040050000000000 Au
atom 15.9420803400000004 -0.0221349600000000 0.1385507900000000 Au
atom 18.7963823599999991 -0.0171986800000000 0.0556919500000000 Au
atom 21.6389471200000010 -0.0059078800000000 0.1375889600000000 Au
atom 24.4523320099999992 0.0163672100000000 0.0816496200000000 Au
atom 27.2759493500000012 -0.0496331700000000 0.1591416800000000 Au
atom 1.9129085100000001 0.0377214900000000 0.0856303200000000 Au
atom 4.7435960200000000 0.0322753000000000 0.0870200600000000 Au
atom 8.9200793100000002 2.4584556100000001 0.1218420400000000 Au
atom 11.7741675299999997 2.4273114800000002 0.0618209100000000 Au
atom 14.5034577500000008 2.4693395699999998 0.1392211400000000 Au
atom 17.3633133999999991 2.4210008400000000 0.0577681500000000 Au
atom 20.2148094500000006 2.4635532100000002 0.1124096400000000 Au
atom 23.0314674199999985 2.5087481199999999 0.0323957400000000 Au
atom 25.8358618399999997 2.4554989800000002 0.0954068400000000 Au
atom 0.4116358700000000 2.4289834099999998 0.1123141100000000 Au
atom 3.2884168800000002 2.4995467599999999 0.1096689100000000 Au
atom 6.1218878800000001 2.4913186000000000 0.0875895100000000 Au
atom 7.4689915600000001 4.9558345299999997 0.1920398000000000 Au
atom 10.3122857000000003 4.8904529900000000 0.1248026300000000 Au
atom 13.1434432399999999 4.9356206199999999 0.1042219000000000 Au
atom 15.9396272499999991 4.8776101299999999 0.1741170400000000 Au
atom 18.7946773200000017 4.9323474999999997 0.0766424400000000 Au
atom 21.6107855600000001 4.9722317699999996 0.0679452500000000 Au
atom 24.4755719899999988 4.9504424900000004 0.1113888500000000 Au
atom 27.2390077200000000 4.9765184099999997 0.1795452800000000 Au
atom 1.8641286500000001 4.9769285900000000 0.0194032000000000 Au
atom 4.6709753999999997 4.9617606500000004 0.0582384400000000 Au
atom 8.9218698300000003 7.3977743599999997 0.2108216800000000 Au
atom 11.7559660899999994 7.3910115999999997 0.0414800400000000 Au
atom 14.5585718300000000 7.3787805300000002 0.0403326000000000 Au
atom 17.3764324300000013 7.3860404400000004 0.0258999200000000 Au
atom 20.2190939900000011 7.4045157000000001 0.0586831800000000 Au
atom 22.9841242500000007 7.4072684500000001 0.0000198900000000 Au
atom 25.8256833700000001 7.4123452900000002 0.0559623300000000 Au
atom 0.4795924600000000 7.4283349799999998 0.0422419500000000 Au
atom 3.2869609500000001 7.4252914099999998 0.0037162000000000 Au
atom 6.0524535600000000 7.4118515000000000 0.1393212700000000 Au
atom 7.5256743300000002 9.8593917300000005 0.0650255300000000 Au
atom 10.3271996599999998 9.8605503500000005 0.0494254500000000 Au
atom 13.1642966000000001 9.8328466100000007 0.0090370000000000 Au
atom 15.9696990200000002 9.8550391200000007 0.0149218400000000 Au
atom 18.7622932599999999 9.8532390700000008 -0.0038527400000000 Au
atom 21.5842953199999990 9.8638666399999995 0.0102113300000000 Au
atom 24.4110971200000009 9.8487552500000000 -0.0110451300000000 Au
atom 27.2034980600000011 9.9048370299999995 0.0068730400000000 Au
atom 1.8477272600000001 9.8759850399999998 0.0462012100000000 Au
atom 4.6657845499999997 9.8944728099999999 -0.0055756300000000 Au
atom 8.9270954699999994 12.3531110300000009 -0.0359118900000000 Au
atom 11.7742509500000008 12.3073067199999997 -0.0435051000000000 Au
atom 14.5726288600000000 12.3126103400000009 -0.0385909200000000 Au
atom 17.3648923199999992 12.3368251299999994 -0.0085017200000000 Au
atom 20.2119142099999998 12.3091197700000006 0.0011705600000000 Au
atom 23.0319712800000005 12.3162711100000006 -0.0495996900000000 Au
atom 25.8563811900000005 12.3379774999999992 -0.0084237600000000 Au
atom 0.4438757000000000 12.3563596400000009 -0.0530793300000000 Au
atom 3.2681309299999999 12.3925672200000001 -0.0585125000000000 Au
atom 6.1067476000000003 12.3315832000000007 0.0146596400000000 Au
atom 7.5188718799999998 13.1695923700000002 2.6352731899999999 Au
atom 10.3146405899999998 13.1483679200000001 2.5310044899999999 Au
atom 13.1259522700000009 13.2012256899999993 2.6163133099999998 Au
atom 15.9511508299999996 13.1840056400000005 2.5472412900000001 Au
atom 18.7941998499999983 13.2191948099999994 2.6098150800000002 Au
atom 21.6190547399999993 13.1410621699999997 2.5389184800000000 Au
atom 24.3959836599999988 13.1679853700000002 2.6623090199999999 Au
atom 27.2179172700000009 13.1699344899999993 2.6003019799999998 Au
atom 1.8198175100000000 13.2007355900000007 2.6412018300000000 Au
atom 4.6552129300000002 13.2343308900000007 2.5628893100000001 Au
atom 8.8898753399999997 15.6302212199999992 2.6016139800000002 Au
atom 11.7367718500000002 15.6424647900000000 2.5686022300000002 Au
atom 14.5581808299999995 15.6541736599999997 2.5114749600000001 Au
atom 17.3728209299999996 15.6521906600000005 2.5736377899999998 Au
atom 20.1844345499999989 15.6530225999999999 2.6433136600000000 Au
atom 23.0099155199999998 15.6463519800000004 2.5617580800000002 Au
atom 25.8251068799999999 15.6169377500000000 2.6140098799999998 Au
atom 0.4302943100000000 15.6178660300000001 2.6823003500000002 Au
atom 3.2484371900000002 15.6591070000000006 2.5436960700000002 Au
atom 6.0990857399999996 15.6558097000000007 2.6444469599999998 Au
atom 7.5574358400000001 18.0506977599999985 2.6524269600000001 Au
atom 10.3128498900000007 18.1329266000000011 2.5854435400000000 Au
atom 13.1476084100000001 18.0918208500000013 2.6745653100000002 Au
atom 15.9735542099999996 18.1559541799999984 2.6521605099999999 Au
atom 18.7584937899999993 18.1392440599999993 2.7478017100000001 Au
atom 21.6267518599999988 18.1085107799999996 2.5596041000000000 Au
atom 24.4159265999999988 18.0813948099999990 2.6785242600000001 Au
atom 27.2377355600000008 18.1061171999999999 2.6604332600000000 Au
atom 1.8476876900000001 18.0938819299999984 2.7106681799999999 Au
atom 4.6926038999999999 18.1087883599999984 2.6618795999999998 Au
atom 8.9132285000000007 20.5224191900000008 2.8053526899999999 Au
atom 11.7210213999999997 20.6127662299999983 2.5520279800000001 Au
atom 14.5396311899999997 20.5921095899999997 2.6196664599999999 Au
atom 17.3725659099999987 20.5769877799999996 2.6787395100000002 Au
atom 20.2127323300000015 20.5633467199999984 2.7014226200000002 Au
atom 23.0327311399999992 20.5649802000000008 2.7222331999999998 Au
atom 25.8452425400000010 20.5352603599999988 2.7379634500000001 Au
atom 0.4307832800000000 20.5566378299999997 2.6813049300000000 Au
atom 3.2352934100000001 20.5391689799999995 2.6632031899999999 Au
atom 6.1026076400000004 20.5710153399999989 2.6992594599999999 Au
atom 7.5697459699999996 23.0347755999999997 2.7121632500000001 Au
atom 10.3396536000000001 23.0645522999999990 2.6630868900000002 Au
atom 13.1354286400000007 23.0752190900000009 2.5876159900000002 Au
atom 15.9623433800000001 23.0622490700000000 2.5973472300000000 Au
atom 18.7555424299999984 23.0129217200000014 2.6053061799999999 Au
atom 21.5894210599999994 23.0468375799999983 2.6863619999999999 Au
atom 24.4263479699999984 23.0306340700000014 2.6538587100000002 Au
atom 27.2768908799999998 23.0421756500000008 2.6955694100000001 Au
atom 1.8819533799999999 23.0292265799999996 2.7179844599999998 Au
atom 4.6870744799999997 23.0127662599999994 2.7160817900000001 Au
atom 8.9124873999999998 25.5727450900000015 2.7612082800000000 Au
atom 11.6632892600000009 25.5604627700000009 2.6672267299999999 Au
atom 14.5530156999999996 25.5382005800000016 2.7182819700000000 Au
atom 17.3908566200000010 25.5556933099999988 2.6437357200000000 Au
atom 20.2159015699999998 25.5320176399999994 2.6932447000000002 Au
atom 23.0288395699999988 25.5315842599999989 2.6652493599999998 Au
atom 25.8370491599999994 25.5284326499999992 2.7672045399999998 Au
atom 0.4832739700000000 25.4980181700000017 2.6794851899999999 Au
atom 3.2873694200000001 25.5374132899999999 2.8415091600000002 Au
atom 6.0813347100000001 25.5239314399999984 2.7279266600000001 Au
atom 7.5097106800000004 28.0138053099999986 2.6502999500000000 Au
atom 10.3511377299999996 28.0607926100000000 2.6597658399999999 Au
atom 13.1576496600000006 28.0262666600000010 2.6277205700000001 Au
atom 15.9601105200000006 28.0198499900000009 2.7164828200000000 Au
atom 18.8233971400000009 28.0462561400000006 2.6529099999999999 Au
atom 21.6208163999999989 28.0068588799999993 2.6872108699999999 Au
atom 24.4544116199999984 28.0142829900000017 2.6608685699999999 Au
atom 27.2778844499999984 27.9756396900000013 2.6807707199999999 Au
atom 1.8915367900000000 27.9934224299999990 2.6313739500000000 Au
atom 4.6972554700000000 28.0208286199999996 2.7113440500000001 Au
atom 8.8805279600000002 30.4871939099999985 2.6048445299999998 Au
atom 11.7016568700000008 30.4961525199999990 2.6744752100000002 Au
atom 14.5848990199999999 30.4567288299999994 2.7054052500000001 Au
atom 17.3599175599999995 30.4699781700000010 2.6656491700000000 Au
atom 20.1858342499999992 30.4598187899999999 2.6224034399999998 Au
atom 23.0342760300000009 30.4535570699999987 2.5716250299999999 Au
atom 25.8500337800000004 30.4557014700000011 2.6216635300000002 Au
atom 0.4591644700000000 30.4530112200000005 2.6087412699999999 Au
atom 3.2551026599999999 30.4713792400000010 2.6151518700000000 Au
atom 6.0712514100000003 30.4516829499999986 2.6369197099999999 Au
atom 7.4413479300000001 32.9227080000000001 2.5704432800000001 Au
atom 10.2962396900000002 32.9037631500000032 2.5886066300000001 Au
atom 13.1606179399999998 32.9150307800000022 2.5736675500000001 Au
atom 15.9406272399999995 32.9232103499999980 2.7205284000000001 Au
atom 18.7686004000000004 32.9238089099999982 2.6089961900000000 Au
atom 21.6096886599999998 32.9326172000000028 2.6883768600000000 Au
atom 24.4314281700000002 32.9043344199999979 2.6477514599999998 Au
atom 27.2355085800000012 32.9094406399999997 2.6332313500000000 Au
atom 1.8304693400000001 32.9757742700000023 2.5979130700000002 Au
atom 4.6219054399999999 32.9277171199999970 2.7053053600000001 Au
atom 8.8840801000000003 35.3551152599999980 2.6611489700000002 Au
atom 11.7000292600000009 35.3671581400000008 2.6231520900000000 Au
atom 14.5375827100000006 35.3967207800000025 2.5884887700000001 Au
atom 17.3545999199999983 35.3802704499999976 2.5762442299999999 Au
atom 20.2059011599999998 35.3944025099999990 2.5732178000000001 Au
atom 23.0150558300000014 35.3762824100000017 2.6083870500000002 Au
atom 25.8427139600000011 35.3282341500000001 2.6912420799999999 Au
atom 0.4366153800000000 35.4055283599999981 2.5805282900000002 Au
atom 3.2775163400000000 35.4587824299999994 2.6515262300000000 Au
atom 6.0562930399999999 35.4223435700000024 2.5861676800000000 Au
atom 7.5086968399999998 37.8620325099999988 2.6579340100000000 Au
atom 10.3222048700000002 37.8088126500000001 2.6583359400000002 Au
atom 13.0996922799999993 37.8337785299999965 2.6368292000000002 Au
atom 15.9519690000000001 37.8081357399999973 2.7718465399999999 Au
atom 18.7962511399999990 37.8433555800000008 2.6477464700000000 Au
atom 21.6216976999999986 37.8362490100000031 2.7574746800000001 Au
atom 24.4176430700000004 37.8074641999999983 2.6284244000000001 Au
atom 27.2472353500000004 37.8086311699999982 2.7543806399999999 Au
atom 1.8718265599999999 37.8649340199999997 2.6547694700000002 Au
atom 4.7028188599999998 37.8633685599999978 2.6742619900000002 Au
atom 8.9205772299999992 0.8419246800000000 2.7330398200000001 Au
atom 11.7593730999999995 0.8519976000000000 2.7375236100000002 Au
atom 14.5647183400000007 0.8277979000000000 2.7388669700000001 Au
atom 17.3795502699999993 0.7986642100000000 2.7011238000000000 Au
atom 20.2183779799999996 0.8286338700000000 2.6999008500000001 Au
atom 23.0588697799999984 0.8887544900000000 2.7085737499999998 Au
atom 25.8714460300000013 0.7914304800000000 2.7439130399999998 Au
atom 0.4370452300000000 0.8204026800000001 2.7295371799999999 Au
atom 3.2729683399999998 0.8504387700000000 2.7578802400000000 Au
atom 6.0950706200000004 0.8553180200000000 2.7342420600000001 Au
atom 7.4872146500000003 3.3005160700000000 2.7067740800000002 Au
atom 10.3420164099999994 3.2996239799999998 2.6442002699999998 Au
atom 13.1627084700000001 3.3349887699999998 2.6881579699999998 Au
atom 15.9926015600000007 3.2942061499999999 2.7283512800000000 Au
atom 18.7862922499999989 3.3010364000000001 2.6245030300000001 Au
atom 21.6312377399999995 3.3295892000000000 2.6414965700000002 Au
atom 24.4725853499999992 3.3193075500000000 2.6931840999999999 Au
atom 27.2413954400000016 3.3138412399999999 2.7057243199999998 Au
atom 1.8335559100000001 3.3234151999999999 2.6654370400000000 Au
atom 4.6782617699999998 3.3085911299999999 2.7013233400000001 Au
atom 8.9198378799999993 5.7548788799999997 2.8206399700000002 Au
atom 11.7369138000000000 5.8256863900000004 2.7022068799999999 Au
atom 14.5995040599999992 5.7698396000000001 2.7380902200000001 Au
atom 17.3918332100000015 5.8208135900000002 2.7248754800000001 Au
atom 20.1881837799999992 5.8131201399999997 2.7286740500000000 Au
atom 23.0298029000000000 5.8051929199999996 2.6116002699999998 Au
atom 25.8581481300000000 5.8102856899999997 2.7212912199999999 Au
atom 0.4833873500000000 5.8003270999999996 2.7503324099999999 Au
atom 3.3234310300000001 5.7934662899999996 2.6877188300000001 Au
atom 6.0545075300000004 5.7858831200000003 2.7884454999999999 Au
atom 7.4951656000000000 8.2678879300000006 2.7626393199999999 Au
atom 10.3579002199999994 8.2790169200000001 2.6878969599999998 Au
atom 13.1513169500000000 8.2855937700000002 2.7255997800000000 Au
atom 15.9716429400000006 8.2556245199999996 2.6142106300000001 Au
atom 18.8032479200000004 8.2966302699999996 2.6441709200000001 Au
atom 21.6286106999999994 8.2316428199999994 2.5934746400000002 Au
atom 24.4541702500000007 8.2383312400000008 2.6599173199999999 Au
atom 27.3057731799999992 8.2235626100000001 2.6191968200000000 Au
atom 1.9134643000000000 8.2842009399999998 2.7107238300000001 Au
atom 4.7075616699999996 8.2983720499999993 2.6520795399999999 Au
atom 8.9079390200000006 10.7184130900000003 2.6715630199999998 Au
atom 11.7552284199999999 10.7326335499999992 2.6030234999999999 Au
atom 14.5638152099999996 10.7511076699999997 2.6134154800000000 Au
atom 17.3901893799999989 10.7609690600000008 2.6256347799999999 Au
atom 20.2053457399999985 10.6993800100000005 2.6439874300000001 Au
atom 23.0177228199999995 10.7255320300000001 2.5786683199999998 Au
atom 25.8016567200000004 10.7079843900000000 2.6825925000000002 Au
atom 0.4070700800000000 10.7249557499999995 2.5576279099999999 Au
atom 3.2852913300000002 10.7670383399999992 2.6078299600000001 Au
atom 6.0976929999999996 10.7332250699999996 2.6735833800000002 Au
atom 7.3854853299999998 13.1081487200000009 5.6524100900000001 Cl
atom 7.6122231600000001 16.0055819700000015 8.3643988000000000 Cl
atom 7.5984923000000002 13.1990290699999999 8.2237112099999994 Na
atom 7.4390311300000000 16.1016624600000000 5.6147102499999999 Na
atom 7.3882462499999999 18.9484262000000001 5.6557146100000004 Cl
atom 7.4466748899999997 21.6478934599999988 8.6146767299999993 Cl
atom 7.5849131700000001 18.8400264200000009 8.2534085400000006 Na
atom 7.4334141499999999 21.6848982300000017 5.8407350100000004 Na
atom 7.4326088900000000 24.4288678499999996 5.7462818699999998 Cl
atom 7.5136800800000003 27.2962008199999993 8.5097491600000001 Cl
atom 7.4748485200000001 24.5443086699999995 8.4041396800000001 Na
atom 7.4990170400000000 27.2354249599999996 5.7144203300000003 Na
atom 7.4710355000000002 30.1087819000000003 5.7378680199999996 Cl
atom 7.5460541599999997 32.8783231999999970 8.5781105899999996 Cl
atom 7.5396332399999997 30.0771081900000006 8.3410409399999992 Na
atom 7.5526892999999999 32.9432375499999992 5.8126103799999997 Na
atom 7.4895709500000001 35.7410558899999984 5.7395286299999997 Cl
atom 7.4546630900000004 38.5439919900000021 8.6357999000000003 Cl
atom 7.4783651300000002 35.7060036499999995 8.3974561199999993 Na
atom 7.4865829899999996 38.6154342199999974 5.8836362500000003 Na
atom 7.4904812500000002 1.8802806299999999 5.8559330999999997 Cl
atom 7.3988484500000000 4.7234444599999996 8.6587885900000003 Cl
atom 7.4521674899999999 1.8402051500000001 8.4338522999999999 Na
atom 7.4553482999999998 4.6624958100000002 5.8703997599999997 Na
atom 7.4149566800000004 7.4613433400000000 5.7330402899999999 Cl
atom 7.5001296799999997 10.3447912899999999 8.4440453099999999 Cl
atom 7.4350335300000001 7.4991295700000000 8.3730261899999991 Na
atom 7.3265643699999998 10.3051007600000002 5.7392722599999999 Na
atom 10.2166291699999991 13.1132635000000004 5.6997468299999996 Na
atom 13.1193036200000002 13.0437164499999998 5.5928056499999999 Cl
atom 10.4025291299999996 16.0875856500000012 8.0095525500000004 Na
atom 13.1021252300000004 15.9844909499999996 8.2221241200000001 Cl
atom 13.2265960800000002 13.2442409300000001 8.2784974899999995 Na
atom 10.4750474800000006 13.3583603400000008 8.4212125300000000 Cl
atom 13.0584518500000009 15.9114939199999998 5.2877030500000002 Na
atom 10.1941305900000003 15.9813984100000006 5.3655310199999997 Cl
atom 10.2429229999999993 19.0128018899999987 5.5217449500000004 Na
atom 13.0088634200000008 19.2740158199999989 5.4629148499999998 Cl
atom 10.4426096299999998 21.6873797999999987 8.3136541299999998 Na
atom 13.2720003000000002 21.7657077900000004 8.2798886799999991 Cl
atom 13.2381343000000005 18.9654293900000006 7.9598500100000003 Na
atom 10.4399204099999992 18.9042930600000005 8.2643197100000005 Cl
atom 13.1210301099999995 21.9226653700000007 5.6174369100000003 Na
atom 10.1179607100000002 21.8424559800000004 5.6802533400000002 Cl
atom 10.2465783600000009 24.5275233499999992 5.8149868299999996 Na
atom 13.1465441999999992 24.7030138599999987 5.5357985100000002 Cl
atom 10.2970189899999998 27.2761789800000010 8.2601089800000000 Na
atom 13.2612643200000004 27.2326321299999989 8.5134125699999998 Cl
atom 13.1485972199999992 24.5447675200000006 8.2501217499999999 Na
atom 10.3337986199999996 24.5380815500000011 8.5891173500000004 Cl
atom 13.2422067899999991 27.3196036500000012 5.7189870400000000 Na
atom 10.2273031000000003 27.3865016600000004 5.6352134400000002 Cl
atom 10.2541888900000000 30.1185249699999993 5.7388249000000000 Na
atom 13.1466550200000007 30.1230889099999999 5.6972218000000003 Cl
atom 10.3510780300000000 32.9013489700000008 8.3879606300000003 Na
atom 13.1102217000000003 32.8330252900000019 8.5247033999999999 Cl
atom 13.1762096900000003 30.0617298800000015 8.2845633700000008 Na
atom 10.3728891200000000 30.0532742400000004 8.4880864099999993 Cl
atom 13.1170812500000000 32.9882615300000026 5.8089961600000004 Na
atom 10.2589960999999992 32.9334720200000035 5.6684286300000002 Cl
atom 10.2941580100000003 35.7615206700000030 5.7606836299999999 Na
atom 13.1190553199999993 35.7450055699999965 5.6637779899999998 Cl
atom 10.2633489699999991 38.4985461599999965 8.4082179700000008 Na
atom 13.0434386399999998 38.5183982799999995 8.6639938700000005 Cl
atom 13.1177175899999998 35.7497946599999992 8.3771659300000003 Na
atom 10.3749353200000005 35.6644008499999998 8.5285944800000006 Cl
atom 13.1108969700000006 38.5699970599999986 5.8719620299999997 Na
atom 10.2974960299999996 38.5709616299999993 5.7334193000000004 Cl
atom 10.2557137699999998 1.8620795500000000 5.8936072499999996 Na
atom 13.1345510200000000 1.8898499400000000 5.7935754199999998 Cl
atom 10.3234661200000009 4.6920549300000003 8.5327962399999997 Na
atom 13.2267010799999998 4.6824112600000003 8.6266841799999998 Cl
atom 13.1161609600000002 1.8622243000000001 8.4322741299999997 Na
atom 10.2631976300000005 1.8640172300000000 8.6735430800000000 Cl
atom 13.1810209999999994 4.5897511399999997 5.8566591299999997 Na
atom 10.2591995100000002 4.6473917000000000 5.8686296100000002 Cl
atom 10.3298804400000002 7.3561286399999997 5.7831339499999999 Na
atom 13.1672054700000007 7.3517863099999996 5.6937038099999997 Cl
atom 10.3259221599999993 10.2877073899999996 8.2652577600000008 Na
atom 13.0518344800000001 10.4254659099999998 8.3520970000000005 Cl
atom 13.1821364699999997 7.4669027699999999 8.3303556899999993 Na
atom 10.3080095899999993 7.5113923600000003 8.5949981399999995 Cl
atom 13.1731534499999992 10.2257761699999996 5.6923477900000004 Na
atom 10.1352838900000002 10.2883043799999996 5.6671213700000003 Cl
atom 15.9766256000000002 13.0480514400000001 5.5718207900000003 Na
atom 18.9809546800000000 13.1375053000000008 5.6495587100000000 Cl
atom 16.1863593500000000 15.9521935199999998 7.9434046900000004 Na
atom 18.8558566300000017 16.0742008200000015 8.4398997599999994 Cl
atom 18.8539713599999992 13.1437098799999994 8.2418267600000004 Na
atom 15.8963425600000008 13.2619723000000000 8.2923765399999994 Cl
atom 19.0577123300000011 15.9363551700000006 5.6782207700000003 Na
atom 16.3237950000000005 15.9423505300000006 5.4459941299999999 Cl
atom 16.1084815299999988 18.9028061799999989 5.3616855299999999 Na
atom 18.9653764299999992 18.7826397800000002 5.5462287100000003 Cl
atom 16.0702600699999998 21.7053225500000018 8.0120658299999992 Na
atom 18.8762362000000010 21.8272370699999989 8.1068584099999992 Cl
atom 18.9362886800000005 18.9764465899999983 8.1187670799999996 Na
atom 15.9479979299999997 18.9897642699999984 8.1670683000000004 Cl
atom 19.0504541399999994 21.5744867499999984 5.4496699199999998 Na
atom 16.1228326499999994 21.7052434900000009 5.4094142300000003 Cl
atom 16.1132138199999986 24.5962174599999983 5.8072628599999998 Na
atom 19.0305575299999994 24.5510444800000016 5.5955954099999996 Cl
atom 16.1280552999999998 27.4698106200000005 8.3998653599999997 Na
atom 18.7732076499999998 27.1121372899999997 8.4122471000000001 Cl
atom 18.9567179099999983 24.4881608899999996 8.1552586900000001 Na
atom 15.9124051299999998 24.5927002100000003 8.5384808499999991 Cl
atom 18.9437632799999989 27.3437987599999985 5.6782814000000004 Na
atom 16.0527559999999987 27.3220205999999983 5.6004198900000004 Cl
atom 15.9953071500000004 30.1660005200000008 5.7263641200000004 Na
atom 18.8433443700000005 30.1714637600000017 5.8265715399999998 Cl
atom 15.9894846099999999 32.9456939199999965 8.3534051500000004 Na
atom 18.7619981699999983 32.9948061600000031 8.6122636299999993 Cl
atom 18.8276590800000001 30.0795512500000015 8.4450116499999996 Na
atom 15.9977474999999991 30.0833668100000011 8.5750198100000006 Cl
atom 18.8278444500000006 32.9741743399999976 5.8855452300000000 Na
atom 15.9665700000000008 33.0018427899999978 5.6857875399999998 Cl
atom 15.9330249599999991 35.7841092999999972 5.7553010100000002 Na
atom 18.7762197399999984 35.7916701300000000 5.7536852400000003 Cl
atom 15.9230786700000007 38.5411849099999984 8.4467727700000008 Na
atom 18.7533364099999993 38.5517633500000017 8.5481574400000007 Cl
atom 18.6897552000000005 35.7562653900000029 8.4260414600000004 Na
atom 15.8873155500000003 35.7071418600000001 8.5223044600000009 Cl
atom 18.7807937500000008 38.5921635099999989 5.8220813500000004 Na
atom 15.9183537600000005 38.5799088899999987 5.8004891399999998 Cl