#===============================================================================
# Created using the Atomic Simulation Environment (ASE)

# Tue Dec 23 22:26:24 2025

#=======================================================
lattice_vector 28.1999999999999993 0.0000000000000000 0.0000000000000000 
lattice_vector 0.0000000000000000 39.4799999999999969 0.0000000000000000 
lattice_vector 0.0000000000000000 0.0000000000000000 62.3296083400000001 
atom 7.6642419799999999 15.0214475899999993 -0.6042347500000000 Au
atom 10.2147500499999992 14.6973715699999996 -0.1900927300000000 Au
atom 12.9613463400000004 14.7916791900000000 -0.1814476100000000 Au
atom 15.9297686200000008 14.8964703400000005 -0.3811530300000000 Au
atom 18.6876839900000000 14.6837274000000004 -0.3085028100000000 Au
atom 21.8046655999999999 14.6622276899999999 -0.2236074900000000 Au
atom 24.2899642900000003 14.9530216199999995 -0.0806418800000000 Au
atom 27.2745815399999998 14.7394834100000001 -0.0364543800000000 Au
atom 2.0752123700000000 14.7948089800000009 -0.0890320200000000 Au
atom 4.9056703500000003 14.7947310999999999 -0.1316622800000000 Au
atom 9.0028910399999997 17.4176479800000017 -0.3982350800000000 Au
atom 11.6692608399999997 17.4837586000000016 -0.0767898400000000 Au
atom 14.5906712400000007 17.4786651400000004 -0.2096661200000000 Au
atom 17.6298805399999985 17.1863466100000011 0.0133570400000000 Au
atom 20.1341570200000000 17.1718303799999994 -0.1745910900000000 Au
atom 23.2669394300000008 17.1988190699999990 0.0077306700000000 Au
atom 25.8534407199999983 17.2903566499999997 0.0401265500000000 Au
atom 0.2384155000000000 17.1277405700000003 0.0730065900000000 Au
atom 3.2335103500000000 17.2321240099999997 -0.4128383100000000 Au
atom 5.9998046100000000 17.3011822700000018 -0.2849628900000000 Au
atom 7.3203976400000004 19.8391955399999986 -0.1407238800000000 Au
atom 10.4251763200000003 19.8482123100000010 0.0406421600000000 Au
atom 12.9711739599999998 19.9747019200000011 -0.4144063900000000 Au
atom 15.9796535100000003 19.7095085400000016 -0.2232199500000000 Au
atom 18.6904757900000007 19.6721560800000006 0.1822804200000000 Au
atom 21.4469209599999999 19.6683262200000009 0.2239484600000000 Au
atom 24.3307801099999992 19.7547073200000014 0.2711408900000000 Au
atom 27.1358275700000000 19.6861290900000014 -0.0998553400000000 Au
atom 1.5316027699999999 19.6441491399999997 0.1096914800000000 Au
atom 4.5536785000000002 19.8555400400000011 -0.4564699500000000 Au
atom 8.6135094199999997 22.3420563200000011 0.0882186100000000 Au
atom 11.6638628200000003 22.3284149099999993 0.0529637100000000 Au
atom 14.3023295400000006 22.3794503099999993 0.0752030000000000 Au
atom 17.2135773900000011 22.2932898900000005 0.2498859500000000 Au
atom 20.2617752600000003 22.2271120800000013 0.2503647300000000 Au
atom 22.9604336499999988 22.3235687200000008 0.4345057500000000 Au
atom 25.8315004899999998 21.9626842199999999 0.0441203600000000 Au
atom 0.3371772400000000 22.0371226799999995 0.1215904600000000 Au
atom 3.2336199699999999 22.3724662499999987 0.2451844000000000 Au
atom 6.0168024600000001 22.1639530899999997 -0.2007361500000000 Au
atom 7.6131749500000003 24.8968657899999997 0.1606989900000000 Au
atom 10.4147365500000006 24.8628655499999986 0.0040558000000000 Au
atom 13.2122704300000002 24.9087722999999990 0.0028178900000000 Au
atom 15.9038853800000002 24.7248989799999990 0.1818729600000000 Au
atom 18.6663789000000016 24.6197878900000013 0.0329105800000000 Au
atom 21.4531229100000012 24.6233850899999993 0.3077450800000000 Au
atom 24.3141169599999998 24.6831839500000001 -0.1890185400000000 Au
atom 27.2139984300000002 24.6168818400000013 -0.0931040900000000 Au
atom 1.8559260600000000 24.8610999799999988 -0.0830991100000000 Au
atom 4.5169287799999998 24.5194887600000015 0.2033497300000000 Au
atom 8.9002666399999999 27.3404628599999988 0.3684585200000000 Au
atom 12.0643509699999996 27.2456445400000007 -0.0000593200000000 Au
atom 14.7463982199999997 27.1773875300000007 -0.0492329300000000 Au
atom 17.4516226900000007 27.1732815300000006 -0.1922870300000000 Au
atom 20.2515403300000010 27.0280948499999987 -0.0935089900000000 Au
atom 23.0086122199999998 26.9235676400000017 -0.0928496500000000 Au
atom 25.7305193400000007 27.1176017599999994 -0.3394580600000000 Au
atom 0.3229976700000000 27.0930228699999986 -0.1185032200000000 Au
atom 3.0430441199999998 27.1698262399999990 -0.1006749200000000 Au
atom 5.7708564800000000 27.1673332700000003 -0.0755816000000000 Au
atom 7.4736314400000001 29.6863301600000007 -0.1361920200000000 Au
atom 10.1047689100000007 29.5492810400000003 -0.0550590400000000 Au
atom 13.0544243099999999 29.7288269900000017 0.1046819400000000 Au
atom 15.9188180500000005 29.6319720300000000 0.1775705800000000 Au
atom 18.7539080300000016 29.7340982099999991 0.0178992100000000 Au
atom 21.6064764999999994 29.6350000499999986 -0.2504793100000000 Au
atom 24.2230364499999986 29.7256709199999989 -0.0754401000000000 Au
atom 27.1471515900000000 29.5985047200000011 0.3627119300000000 Au
atom 1.7802125900000001 29.7083568599999985 0.0398180800000000 Au
atom 4.3889532400000002 29.5352040900000006 -0.1255496700000000 Au
atom 8.8729147800000003 32.1813983400000012 -0.1753919000000000 Au
atom 11.5474179299999999 32.1835811099999987 -0.2414272400000000 Au
atom 14.7046943300000006 31.9644575899999985 0.1562891400000000 Au
atom 17.2771398000000005 31.9692726799999996 -0.0549532300000000 Au
atom 20.1672406299999984 32.1248436799999979 0.2725424800000000 Au
atom 22.9360930299999985 32.3667749800000024 -0.0819030400000000 Au
atom 25.8640149000000008 32.1723587199999983 0.1966447300000000 Au
atom 0.2974585200000000 32.0436905400000001 0.1453404700000000 Au
atom 3.0258050399999998 32.0895774600000010 0.0306019800000000 Au
atom 6.0499157700000001 32.1045937100000032 -0.0085614000000000 Au
atom 7.4484967900000001 34.3727236499999975 -0.0912223600000000 Au
atom 10.3774685200000008 34.5592236000000028 -0.2671986600000000 Au
atom 13.0688706499999991 34.2840860599999999 -0.0489524200000000 Au
atom 15.8175565900000006 34.5837367999999969 0.1606702100000000 Au
atom 18.5671598600000003 34.5109619600000030 -0.0214361500000000 Au
atom 21.4792635499999989 34.6289524399999991 -0.2587520200000000 Au
atom 24.5570181599999984 34.5031395999999972 0.1841983500000000 Au
atom 27.2227852800000001 34.5469268800000009 0.8241636400000000 Au
atom 1.7330567100000001 34.6013692900000009 0.0267691000000000 Au
atom 4.6647934199999996 34.4593897299999981 -0.2772299600000000 Au
atom 8.7650715100000003 37.1261448500000029 0.2073883200000000 Au
atom 11.7409935700000005 37.1150977699999984 0.2762185300000000 Au
atom 14.3030273099999992 37.0734836000000030 0.0286235700000000 Au
atom 17.2443850800000007 37.0034515099999979 0.0811872200000000 Au
atom 20.0642430599999990 37.2669540999999995 0.2218800000000000 Au
atom 23.0180949699999999 37.0267283599999999 0.0780670200000000 Au
atom 25.8556812899999997 36.9049918799999972 0.2386096300000000 Au
atom 0.3680979400000000 37.0431586199999998 0.1280739300000000 Au
atom 3.3402953399999999 37.0901019200000022 -0.0160898900000000 Au
atom 5.7974557700000000 36.9279320899999988 -0.2121901700000000 Au
atom 7.3074284399999998 0.0543792100000000 0.1557968200000000 Au
atom 10.1745167700000003 0.0968878600000000 -0.2479976400000000 Au
atom 13.0189190499999992 -0.1357735100000000 0.0241668200000000 Au
atom 16.0000487199999988 0.0997387900000000 0.1432296600000000 Au
atom 18.8726705800000012 -0.0598328200000000 0.1846333200000000 Au
atom 21.6616563500000012 0.0989027500000000 0.4579355300000000 Au
atom 24.5262432699999984 -0.0207799700000000 0.1577380500000000 Au
atom 27.4971916800000002 -0.1707832900000000 0.2334062300000000 Au
atom 1.8665398300000000 0.1743632900000000 -0.0067286500000000 Au
atom 4.6277608700000004 -0.0826791500000000 0.1747437600000000 Au
atom 8.9596502999999998 2.5654121000000001 0.1569393300000000 Au
atom 11.7692256099999994 2.6562055800000000 0.1126817100000000 Au
atom 14.7501633000000005 2.5325587100000000 0.3831141000000000 Au
atom 17.2454187800000014 2.4342149200000001 0.1544290600000000 Au
atom 20.2689033000000016 2.4455564999999999 -0.0772017200000000 Au
atom 23.1275320999999998 2.6585573500000002 0.3894825000000000 Au
atom 25.8691465600000008 2.1888100900000000 0.6175292700000000 Au
atom 0.3770665500000000 2.4337582300000000 0.5444360200000000 Au
atom 3.0559856700000001 2.4427567099999998 0.1265171900000000 Au
atom 6.0329874800000001 2.5186994899999999 0.2497225400000000 Au
atom 7.7039630499999996 4.8041326900000003 0.1340618600000000 Au
atom 10.5679304100000007 4.9504758700000000 0.3549646600000000 Au
atom 13.1092504000000005 4.8012013700000002 0.1097819300000000 Au
atom 15.9937430099999993 4.8497713600000001 0.2560320000000000 Au
atom 18.8827148099999995 4.9483492299999998 -0.0452309900000000 Au
atom 21.5403788899999995 4.8458524399999998 -0.0961727500000000 Au
atom 24.4623554200000015 4.9007527599999996 0.2582540200000000 Au
atom 27.3257587099999988 4.8100606800000003 0.0623106900000000 Au
atom 1.8458157399999999 4.8598092599999996 0.3117632200000000 Au
atom 4.7550445799999999 4.9677895000000003 0.3840897900000000 Au
atom 9.0340114800000002 7.3400610899999998 0.2167007300000000 Au
atom 11.7876395299999999 7.3273235600000000 -0.0976497100000000 Au
atom 14.4612299499999999 7.3919344799999998 0.2065306600000000 Au
atom 17.2862862700000015 7.2243108999999999 -0.0394549000000000 Au
atom 20.2191938799999988 7.2683040999999999 0.0591212100000000 Au
atom 22.9852815600000007 7.3780731700000004 0.0361060600000000 Au
atom 25.7711036100000008 7.4163081000000002 0.1568474200000000 Au
atom 0.4777857700000000 7.4758139100000003 0.1014815300000000 Au
atom 3.3636049799999999 7.2819441100000004 -0.0013580600000000 Au
atom 5.9180175000000004 7.3767464699999996 0.1025488200000000 Au
atom 7.4538175799999999 9.7960401699999995 -0.1461653400000000 Au
atom 10.2392641799999993 9.8259097900000008 -0.0854279500000000 Au
atom 13.1111799300000005 9.7582457300000005 -0.1686616900000000 Au
atom 16.0224108399999992 9.9964329700000008 -0.2612852800000000 Au
atom 18.5666954900000007 9.9516483200000003 0.0041371100000000 Au
atom 21.3125291700000012 9.7167207599999994 0.0545130000000000 Au
atom 24.2974114400000012 9.9203462899999995 0.0690105500000000 Au
atom 27.1764370799999995 9.8964963600000004 0.0372414600000000 Au
atom 1.7222829200000001 9.6922915700000001 -0.1077054000000000 Au
atom 4.4897365300000001 9.5872159600000000 -0.1145180200000000 Au
atom 8.9500378600000001 12.3099906699999995 -0.3896189700000000 Au
atom 11.6873761199999997 12.3865148299999994 -0.1977222400000000 Au
atom 14.3385888099999992 12.3692012099999999 -0.3121453100000000 Au
atom 17.3658948399999993 12.3081501499999995 -0.1404237900000000 Au
atom 20.3861128500000000 12.4039802100000003 -0.2628745900000000 Au
atom 23.0378641900000005 12.2512176400000001 -0.0233863100000000 Au
atom 25.7329901300000010 12.3731385399999994 -0.2190237000000000 Au
atom 0.5822194000000001 12.2721386900000002 -0.0923317500000000 Au
atom 3.2592294499999999 12.4287984300000005 -0.3894064500000000 Au
atom 5.9315734999999998 12.3196688200000004 -0.7939399200000000 Au
atom 7.4068082899999999 13.2636628499999993 1.8541827099999999 Au
atom 10.2141933500000004 13.0637324400000008 2.3606718700000000 Au
atom 13.1841163699999999 13.1934356400000006 2.3703828800000002 Au
atom 15.9579384399999995 13.1152589699999993 2.0442921100000002 Au
atom 18.8171427800000011 13.1641955100000008 2.1897432299999999 Au
atom 21.5480426499999993 13.3159136900000004 2.4193760800000002 Au
atom 24.3785797100000003 13.2765202700000007 2.2653154199999999 Au
atom 27.2295044600000011 13.2264793100000002 2.4370910000000001 Au
atom 1.8041224400000000 13.2269020899999994 2.2750389300000000 Au
atom 4.7750886299999999 13.3749289299999994 2.2100902499999999 Au
atom 8.9922824200000004 15.7362430000000000 2.3287579699999998 Au
atom 11.6231176299999994 15.6982900500000007 2.4194627799999999 Au
atom 14.6661342999999995 15.4662888200000008 2.3107379099999998 Au
atom 17.3806691099999995 15.5383021200000009 2.2656738299999999 Au
atom 20.1317206400000011 15.4159340999999994 2.3087857199999999 Au
atom 22.8872524199999994 15.6348074900000000 2.6046939500000001 Au
atom 25.9183444099999996 15.5326016199999994 2.3557844399999999 Au
atom 0.6262552600000000 15.6947138200000005 2.5119456499999999 Au
atom 3.3440767400000002 15.7247770399999993 2.5736415300000002 Au
atom 6.1315711999999998 15.9848424100000006 2.3865171699999999 Au
atom 7.5016255899999997 18.3539731800000006 2.4953183299999999 Au
atom 10.3712125999999998 18.0088077300000009 2.1927894000000001 Au
atom 13.0761572099999999 18.1252580099999996 2.7367646099999998 Au
atom 15.9966231000000008 18.1953033300000016 2.5092943100000000 Au
atom 18.6036825499999985 17.9785849900000017 2.5348428500000000 Au
atom 21.5136651599999986 17.8902507499999999 2.6114584999999999 Au
atom 24.2132255399999998 18.0079946500000005 2.8102884000000001 Au
atom 27.2454596299999992 17.9416943999999994 2.5379812799999999 Au
atom 1.9020127200000001 18.1107745999999992 2.6334066900000002 Au
atom 4.5940076200000002 18.3248312999999996 2.1032778500000000 Au
atom 8.8974111300000001 20.5876718899999993 2.2898737900000001 Au
atom 11.6167991700000002 20.6251761999999985 2.5154754800000001 Au
atom 14.5374506100000005 20.7672637199999990 2.5128966799999999 Au
atom 17.3845477200000005 20.5877105900000004 2.8526867600000001 Au
atom 20.4025494099999989 20.4687306500000012 2.8089198299999998 Au
atom 23.2725939599999982 20.6928608599999997 2.7944820500000001 Au
atom 25.8667622699999988 20.6357246799999992 2.9322287399999998 Au
atom 0.3364661600000000 20.4964674400000000 2.6862628300000000 Au
atom 3.0897362300000002 20.5570647700000002 2.7137226700000001 Au
atom 6.0112756300000001 20.6543408299999989 2.3154430800000001 Au
atom 7.4293960600000002 23.2512149199999989 2.3748276200000000 Au
atom 10.0486131400000005 22.9631667800000017 2.4857561000000001 Au
atom 13.0549821300000009 23.0950134700000014 2.5879997600000002 Au
atom 15.8335667400000002 22.9122597299999988 2.7528116200000001 Au
atom 18.7748788799999993 23.0354018099999998 2.8033062700000002 Au
atom 21.5258220499999986 22.9115709400000007 2.6201039599999998 Au
atom 24.3569043200000017 23.0808689700000009 2.5929162699999999 Au
atom 27.3627893899999997 23.1575507000000016 2.6785894400000001 Au
atom 1.7626670300000000 23.2015599799999990 2.4474561499999998 Au
atom 4.6455950499999998 23.1885861800000015 2.6048200800000001 Au
atom 9.0618574299999999 25.3808151399999993 3.0536152500000000 Au
atom 11.5816675799999995 25.5288896700000016 2.5999406600000001 Au
atom 14.4602816199999999 25.4409311000000002 2.6041406600000001 Au
atom 17.3118720999999987 25.5861360299999987 2.4346573100000000 Au
atom 20.1521814500000005 25.6301769600000000 2.9314524899999999 Au
atom 23.1769374100000007 25.4969976900000006 2.6320892400000000 Au
atom 25.9739988299999993 25.5682876800000010 2.4961442100000002 Au
atom 0.5238391100000001 25.5277383899999997 2.4855957300000000 Au
atom 3.2621730599999998 25.5232424199999990 2.5930921699999998 Au
atom 6.1313849200000003 25.6028793000000015 2.6531674500000002 Au
atom 7.2898464799999996 28.0882233799999987 2.5869234200000002 Au
atom 10.3086523700000008 28.0039981900000008 2.6704348499999999 Au
atom 13.0638972500000001 28.0194540699999983 2.4285971100000001 Au
atom 15.7657257200000007 28.0479520999999998 2.4030681899999999 Au
atom 18.6895847099999983 27.8159837199999984 2.4996211800000001 Au
atom 21.4701899199999993 28.2471757699999984 2.5226613800000002 Au
atom 24.5239098300000009 28.1058513000000012 2.4210097899999998 Au
atom 27.0285891999999990 28.0391739599999994 2.8959732400000000 Au
atom 1.7064613399999999 28.2799211899999996 2.5088040100000000 Au
atom 4.6003593399999998 27.9309098999999996 2.5376694400000002 Au
atom 8.6931092000000003 30.4167371300000013 2.4446703599999999 Au
atom 11.5321964999999995 30.8137261600000016 2.8745406500000001 Au
atom 14.5000700899999995 30.3390984099999983 3.0552072699999999 Au
atom 17.0975640400000017 30.6280175800000016 2.6833412700000001 Au
atom 20.3358567800000003 30.3150478300000010 2.9483313500000001 Au
atom 22.9534670900000002 30.6719010999999995 2.1891392700000001 Au
atom 25.6201653500000006 30.2642080399999998 3.0887239100000001 Au
atom 0.4064530100000000 30.4104605399999990 2.9208923800000002 Au
atom 3.1859520600000000 30.5990367200000009 2.6882972299999999 Au
atom 5.9477574300000002 30.4611560099999998 2.6070959600000001 Au
atom 7.4394801099999999 32.9884731200000019 2.3804865199999998 Au
atom 10.2490615100000007 33.1059720800000008 2.6323872200000000 Au
atom 13.0776622499999995 33.0055419799999967 2.5864965899999999 Au
atom 15.8637872099999999 32.9651383300000020 2.6609167100000000 Au
atom 18.7949328300000005 32.9231831600000007 2.7481972300000002 Au
atom 21.4707436999999999 32.9596633999999966 2.7898396999999999 Au
atom 24.3408997700000000 32.8726626400000015 2.8037068199999999 Au
atom 26.9913802999999994 32.7677782800000017 3.2121899500000000 Au
atom 1.6360359499999999 32.9146633100000017 2.7510435800000002 Au
atom 4.5916242499999997 32.6776856999999978 2.4714900399999999 Au
atom 8.7554172300000008 35.2894703199999995 2.5454306299999998 Au
atom 11.6153998900000008 35.4937922700000001 2.2747543399999999 Au
atom 14.2264937800000002 35.5314091199999993 2.8621730799999998 Au
atom 17.3106969699999986 35.5358826000000008 2.6762177600000001 Au
atom 20.0547963500000002 35.5971168499999990 2.6720404900000001 Au
atom 22.9676130100000009 35.2727842700000025 2.5989842799999998 Au
atom 25.6810281700000012 35.3719569300000032 2.9465744100000002 Au
atom 0.5438873800000000 35.2828626800000009 3.2641575600000001 Au
atom 3.2392820900000001 35.2704883800000033 2.4285683800000002 Au
atom 5.9666997400000001 35.3528732799999972 2.5962258800000000 Au
atom 7.2360122899999997 37.8874445699999995 2.5304249300000001 Au
atom 10.0534350499999992 37.8988970099999989 2.8069566899999998 Au
atom 13.1580662900000007 37.9613696999999988 2.8274329800000002 Au
atom 15.6292887000000000 37.8102989699999981 2.6108066100000000 Au
atom 18.4702983399999994 37.9286438500000003 2.9154565200000002 Au
atom 21.6827188600000014 37.8167035900000030 3.0145836799999999 Au
atom 24.3714884900000008 37.6967409000000018 2.6191191400000000 Au
atom 27.1472300100000012 37.7083640900000034 3.0403876099999998 Au
atom 1.5571728100000000 37.8599697000000006 2.7944863799999999 Au
atom 4.4788541799999999 38.0263647399999982 2.9080501499999998 Au
atom 8.8378382999999996 0.9274855700000000 2.7878815200000000 Au
atom 11.9449379600000007 0.8838598900000000 2.7361376700000002 Au
atom 14.4324940300000009 0.8205526000000000 2.8203713000000001 Au
atom 17.1321382900000003 0.8112055000000000 2.7721966999999998 Au
atom 20.1089392199999999 0.6874387400000000 2.7612081399999999 Au
atom 23.0387303299999999 0.7844080300000000 3.1802643599999998 Au
atom 25.6950205300000007 0.5797502000000000 3.1684802500000000 Au
atom 0.3411747000000000 0.8906257100000000 2.9873892000000000 Au
atom 3.1275048600000002 0.8481280500000000 2.8784995599999998 Au
atom 6.0553973900000004 0.7710423199999999 2.7748206400000002 Au
atom 7.3135200700000000 3.1573426800000002 2.6519215100000002 Au
atom 10.1707250100000000 3.2489867200000000 2.8878726299999999 Au
atom 12.9345212000000007 3.4333906299999999 2.7448668299999999 Au
atom 15.6622819700000004 3.4046868099999998 2.6596249300000001 Au
atom 18.6821613500000012 3.4395151899999998 2.5103585300000000 Au
atom 21.7163038099999994 3.2903570000000002 2.6890614700000000 Au
atom 24.1305313599999991 3.3924644300000000 3.0796193500000002 Au
atom 27.2583539600000009 3.3193340899999999 3.2617431600000000 Au
atom 1.7429554700000001 3.4145895500000001 2.8749696600000001 Au
atom 4.6188303700000004 3.3756479100000001 2.8106558000000001 Au
atom 8.9936904900000005 5.8425615500000001 2.8118179900000002 Au
atom 11.6783539600000008 5.9166384100000000 2.4994715099999998 Au
atom 14.6532682500000000 5.9631498699999996 2.8119980500000001 Au
atom 17.3253820300000001 5.7721420600000002 3.1063804899999998 Au
atom 20.1517760899999985 5.8342621799999996 2.6047125200000001 Au
atom 23.0802248799999994 5.8571581400000001 2.7557100399999999 Au
atom 25.8492383900000000 5.9224777299999998 2.9006641599999998 Au
atom 0.4110000500000000 5.9283397700000000 2.7489716899999999 Au
atom 3.1746683700000000 5.7476738799999998 2.9229744100000001 Au
atom 6.1992043199999998 5.8456703000000001 2.8011791900000000 Au
atom 7.4404933599999996 8.4772565100000001 2.7357152899999999 Au
atom 10.3969397099999998 8.4547415000000008 2.4849326199999999 Au
atom 13.1158676799999991 8.4063045299999999 2.5908937000000001 Au
atom 15.8733882400000006 8.3763265800000006 2.4450308199999999 Au
atom 18.7017415400000004 8.0777687300000007 2.4625036900000001 Au
atom 21.4181817800000012 8.1536437199999998 2.6974786000000002 Au
atom 24.5069107200000005 8.4655353899999994 2.6461353000000001 Au
atom 27.2276291000000015 8.2323575899999994 2.7755585400000000 Au
atom 1.9494816600000000 8.2934943800000003 2.6670884099999999 Au
atom 4.6042353000000000 8.4373491999999999 2.6751663500000000 Au
atom 8.7691775500000002 10.6752650800000009 2.1871691700000002 Au
atom 11.5324378799999998 10.6289754599999995 2.4392029900000001 Au
atom 14.6198478800000000 10.6466891599999993 2.1080785099999999 Au
atom 17.4174680700000017 10.7525849499999993 2.4353933900000002 Au
atom 20.2886012399999984 10.4262615099999998 2.7978771600000001 Au
atom 22.8890048800000017 10.7342080000000006 2.8860786799999998 Au
atom 25.9720284200000009 10.7262274899999994 2.8123841000000001 Au
atom 0.3649190400000000 11.1351554099999994 2.6516203400000000 Au
atom 3.2088567299999999 10.6176971600000005 2.2643593900000001 Au
atom 6.1356953599999997 10.9898791899999999 2.4030271700000001 Au
atom 7.7222248000000002 13.3511971500000008 5.4302434899999996 Cl
atom 7.8290188199999999 16.1106352800000003 8.2860215099999994 Cl
atom 7.7054449299999996 13.0149576899999992 8.2594278899999996 Na
atom 7.6731993500000000 15.9726369600000009 5.7490236799999996 Na
atom 7.5672104300000003 18.5070438499999987 5.4699317799999996 Cl
atom 7.9806267300000000 21.6493974300000005 8.3815898999999998 Cl
atom 7.9319204900000004 18.6159639599999984 8.1387115500000000 Na
atom 7.9856141000000003 21.8784299299999994 5.5329903199999997 Na
atom 7.8993226999999999 24.3652076899999983 5.6350270599999996 Cl
atom 8.0858210699999997 27.4120719699999995 8.4318379500000002 Cl
atom 8.2447059899999999 24.5455015900000006 8.1505923300000003 Na
atom 7.9560506499999999 27.4870276000000011 5.7291867999999999 Na
atom 7.6790666099999996 29.9675094299999998 5.5102554599999998 Cl
atom 7.7244472399999999 33.1707652500000023 8.4554286100000002 Cl
atom 7.8814005800000002 30.1918983999999995 8.2924393900000002 Na
atom 7.7636775699999996 33.4648570900000024 5.8381227500000001 Na
atom 7.7558939000000002 35.9707168500000023 5.7956071700000003 Cl
atom 7.8701135899999999 38.6058920999999984 8.6796558800000003 Cl
atom 7.9596188300000001 35.7602861100000027 8.5234901099999991 Na
atom 7.7840521100000002 38.4181063699999967 5.6702130200000003 Na
atom 7.9512548299999999 1.8129728000000001 5.7957050499999996 Cl
atom 7.8438062899999998 4.8247512199999996 8.5796556299999995 Cl
atom 7.8033226200000003 1.8890155399999999 8.4230255900000000 Na
atom 7.6156838499999999 4.5994401500000004 5.8012818700000004 Na
atom 7.4357051299999997 7.3950320899999999 5.5810893899999998 Cl
atom 7.7196139600000002 10.2527744300000005 8.5112780000000008 Cl
atom 7.8162733199999996 7.3252803799999997 8.5116683299999991 Na
atom 8.0807802199999994 10.2182202100000001 5.6835641199999998 Na
atom 10.7045052799999993 13.0347702600000002 5.6261771100000004 Na
atom 13.5047938900000002 13.3754533999999996 5.5032881500000004 Cl
atom 10.8042521899999997 15.7727888699999994 8.3229186300000002 Na
atom 13.5727269199999991 15.7275664400000004 8.2076604700000004 Cl
atom 13.3955516600000006 13.2795597399999998 8.0032737699999998 Na
atom 10.8928541800000005 12.9815145899999997 8.2659939599999994 Cl
atom 13.3496664900000006 15.7733568900000005 5.3207251600000003 Na
atom 10.7378722799999995 15.8615674200000001 5.5514822800000001 Cl
atom 10.8947613400000005 18.3494831500000011 5.6574398800000001 Na
atom 13.4639577399999997 18.7889466899999995 5.5412710499999998 Cl
atom 10.7528647500000005 21.7500102899999987 8.2981433199999994 Na
atom 13.4826424300000003 21.6257190399999999 8.5652349399999999 Cl
atom 13.4216207900000004 18.7616708900000013 8.3485860200000008 Na
atom 10.6443129899999995 18.7771761400000017 8.5759839800000002 Cl
atom 13.5032735400000004 21.6449271299999992 5.9411607799999997 Na
atom 10.6344091299999999 21.4082231900000011 5.4591400800000001 Cl
atom 11.0030073200000000 24.4871249800000008 5.5601450500000000 Na
atom 13.3863892300000007 24.4513233399999983 5.8485873000000002 Cl
atom 10.7154000299999996 27.7447351799999993 8.3619538599999998 Na
atom 13.3677543799999992 27.3583633800000001 8.5900135399999993 Cl
atom 13.5061576199999998 24.5753910799999993 8.6334651000000004 Na
atom 10.7496361199999999 24.6097794199999989 8.5796382300000005 Cl
atom 13.7872489700000003 27.2101572300000001 5.8162280099999997 Na
atom 10.8387414700000004 27.3263940500000011 5.6908995600000001 Cl
atom 10.5314123300000002 30.1648212700000009 5.6109999999999998 Na
atom 13.5234984399999991 30.3776502800000010 5.7669902500000001 Cl
atom 10.7373797900000003 33.2019003600000033 8.1756945099999996 Na
atom 13.5801788299999995 32.9910881500000031 8.6708910800000005 Cl
atom 13.4023737000000001 30.2195517500000008 8.2943015800000008 Na
atom 10.6371888000000006 30.0646868400000002 8.2773343300000004 Cl
atom 13.4839102799999999 33.2100168099999991 5.7575195600000004 Na
atom 10.3986898399999994 32.8541078000000013 5.2650697700000002 Cl
atom 10.3877858900000000 35.5886165599999984 5.7219344000000003 Na
atom 13.5522047400000005 35.8181173899999976 5.7667597600000002 Cl
atom 10.7403352499999993 38.5026291200000017 8.6449743300000002 Na
atom 13.7317625900000007 38.6925521699999990 8.6783743799999993 Cl
atom 13.4361459100000005 35.8591464499999972 8.4052394899999996 Na
atom 10.7125080300000004 35.6432813500000023 8.3594342000000008 Cl
atom 13.3481164200000002 38.5795334100000034 5.8738736500000002 Na
atom 10.5033364299999992 38.6521681999999984 5.8599005999999996 Cl
atom 10.4654996499999999 1.6991669199999999 5.8389529800000002 Na
atom 13.3206832899999998 1.8322690699999999 5.7903014600000002 Cl
atom 10.4848855899999993 4.9569760100000000 8.3846403499999997 Na
atom 13.3959369200000005 4.7610321300000003 8.2701825600000003 Cl
atom 13.2735034499999998 1.9249894999999999 8.4411343199999997 Na
atom 10.6507937699999999 2.1339623400000001 8.4467746100000003 Cl
atom 13.5251438099999994 4.9185037100000004 5.7932636300000002 Na
atom 10.6352697099999993 4.8539523800000000 5.5202523899999996 Cl
atom 10.5062460299999998 7.5465288099999999 5.5732794400000003 Na
atom 13.6356060499999998 7.8460803500000003 5.6987420999999996 Cl
atom 10.5753241399999993 10.1616587099999993 8.2757477500000007 Na
atom 13.5007487400000006 10.4684921499999994 8.3091106499999992 Cl
atom 13.5482036000000008 7.8390223600000004 8.1341613299999995 Na
atom 10.7402592299999995 7.6548667000000004 8.2977867300000003 Cl
atom 13.4493553099999996 10.6006495800000007 5.5198252300000004 Na
atom 10.7071808999999991 10.4248553600000005 5.4385629399999997 Cl
atom 16.3637687999999990 13.3522420600000000 5.6468643399999996 Na
atom 19.5562379700000015 13.2666855199999993 5.3127444099999996 Cl
atom 15.9806039799999997 16.1288982899999986 8.1287083399999993 Na
atom 19.1965957399999994 16.1181246099999989 8.4687462599999996 Cl
atom 19.2907552600000010 13.4989053499999994 8.1606799100000007 Na
atom 16.6565651800000012 13.6385395400000000 8.1875973099999992 Cl
atom 19.1464738499999996 16.1465519999999998 5.6582401300000003 Na
atom 16.0021339800000000 16.0419472899999995 5.2350882600000004 Cl
atom 16.0195686299999984 18.8540736899999999 5.3857648400000002 Na
atom 19.3494723999999998 18.8645945399999988 5.6347195499999998 Cl
atom 16.1181103400000012 21.5097418400000002 8.4238144399999992 Na
atom 19.1293058999999985 21.7314270000000000 8.5135788399999992 Cl
atom 19.1612256400000014 18.9957060300000009 8.2662498299999996 Na
atom 16.4422175800000012 18.6599058999999983 8.5997115199999996 Cl
atom 19.0136758899999982 21.5772982800000008 5.7305113099999998 Na
atom 16.2494615799999984 21.7953279600000016 6.0918500599999996 Cl
atom 16.3086204700000010 24.4238295600000015 5.8041949900000001 Na
atom 19.3024218300000001 24.5091919199999992 5.7113573899999999 Cl
atom 16.1974532499999988 27.3627958500000013 8.2788396100000003 Na
atom 19.1428858899999987 27.3240429700000007 8.5031464700000008 Cl
atom 19.2025956300000011 24.4099099700000011 8.4947095699999995 Na
atom 16.3075116300000005 24.5815835699999994 8.5561864399999994 Cl
atom 19.0805392000000005 27.2414252899999987 5.8785580700000004 Na
atom 16.0187157800000008 27.4114543600000005 5.9216969900000000 Cl
atom 16.5091799299999984 30.2869163199999996 5.7545124699999999 Na
atom 19.3862613500000016 30.0176731900000000 5.8029032699999998 Cl
atom 16.1211552699999991 33.0163266699999980 8.4648313099999992 Na
atom 18.8886220099999989 33.2444425600000031 8.8268866700000004 Cl
atom 19.2801886099999997 30.3396539199999999 8.5521697000000003 Na
atom 16.0904456300000014 30.1122599999999991 8.5487008099999997 Cl
atom 19.1741369800000001 32.9853599400000022 6.0066956500000002 Na
atom 16.4141529700000000 33.1151648399999985 5.7018625900000002 Cl
atom 16.0433812099999997 35.9108699100000024 5.8755967599999996 Na
atom 19.1215657999999991 36.1182434099999981 5.8502475599999997 Cl
atom 16.5771752899999996 38.5942855099999989 8.3100307600000001 Na
atom 19.0970511199999997 38.9099099100000032 8.7444028899999999 Cl
atom 19.3564459900000010 35.9267849200000029 8.5242002600000006 Na
atom 16.3704465600000013 35.7437864700000034 8.2839176600000002 Cl
atom 19.4180695499999985 38.7921110899999988 5.9855222399999999 Na