#===============================================================================
# Created using the Atomic Simulation Environment (ASE)

# Tue Dec 23 21:43:04 2025

#=======================================================
lattice_vector 28.1999999999999993 0.0000000000000000 0.0000000000000000 
lattice_vector 0.0000000000000000 39.4799999999999969 0.0000000000000000 
lattice_vector 0.0000000000000000 0.0000000000000000 62.3296083400000001 
atom 7.5806277299999998 14.8587903200000007 -0.0723576100000000 Au
atom 10.2827794600000004 14.9003235099999998 0.1895278900000000 Au
atom 13.1454973600000002 14.8653519299999992 0.0256325800000000 Au
atom 15.8631303900000002 14.9082886499999994 0.0882678500000000 Au
atom 18.7278258300000005 14.9885541199999999 -0.3106027300000000 Au
atom 21.5994530000000005 14.9440091600000002 -0.1998571300000000 Au
atom 24.4918548800000018 14.8606559600000008 -0.3598332400000000 Au
atom 27.2692273800000002 14.8390742800000002 -0.3560145400000000 Au
atom 1.9322611000000001 14.8172374199999997 -0.3706058500000000 Au
atom 4.8081626699999997 14.8135330199999995 -0.2765460500000000 Au
atom 8.8950282999999999 17.3698595599999983 0.0747853300000000 Au
atom 11.7395589800000000 17.4047076899999986 -0.0519104600000000 Au
atom 14.5126319099999996 17.3809596100000014 0.0201946700000000 Au
atom 17.3857410899999998 17.3918896300000014 0.0113901600000000 Au
atom 20.1732030699999996 17.4856290899999998 -0.1272058500000000 Au
atom 23.0229323900000011 17.3955576299999990 -0.2738246300000000 Au
atom 25.9115285799999988 17.3023647800000013 -0.4058200100000000 Au
atom 0.4752511300000000 17.3664352599999994 -0.5527163700000000 Au
atom 3.3222087999999999 17.3451979200000004 -0.2298535700000000 Au
atom 6.0798588599999999 17.3418355599999998 -0.2264045600000000 Au
atom 7.4763450400000000 19.8145624399999996 0.0405004400000000 Au
atom 10.4277534999999997 19.8508259000000002 0.0411346600000000 Au
atom 13.1577432400000003 19.8105625299999986 0.2035343800000000 Au
atom 15.9844273000000001 19.7985303100000003 0.2709089600000000 Au
atom 18.7624019900000008 19.9078617999999992 -0.2861567900000000 Au
atom 21.6505055700000000 19.9047073499999989 -0.2486435400000000 Au
atom 24.4764713299999990 19.8709035599999986 -0.2560064100000000 Au
atom 27.3141584699999989 19.7801150600000000 -0.3984662900000000 Au
atom 1.9253512399999999 19.8255436600000010 -0.0502174900000000 Au
atom 4.6379605300000000 19.9073421999999987 -0.0117697500000000 Au
atom 8.9555764900000003 22.3105600499999994 -0.0324602500000000 Au
atom 11.7907013900000006 22.3739647700000006 -0.1739962200000000 Au
atom 14.4840154499999993 22.2384646400000001 0.1112321200000000 Au
atom 17.3858901800000005 22.3236667599999983 0.2523216700000000 Au
atom 20.1965845799999997 22.4248068099999998 0.0418408200000000 Au
atom 23.0230823399999984 22.3275718199999993 -0.0338870500000000 Au
atom 25.9201343999999985 22.1608730999999999 0.0122487600000000 Au
atom 0.5657907000000000 22.2118070100000011 -0.0940476100000000 Au
atom 3.3192186000000001 22.3711881099999985 -0.1263169600000000 Au
atom 6.1405145799999996 22.2618757100000018 -0.0553376200000000 Au
atom 7.4369166800000004 24.6507549499999996 0.4189873500000000 Au
atom 10.2766745700000008 24.7947164099999995 -0.0242439400000000 Au
atom 13.0978400500000003 24.7682077700000001 0.3169015100000000 Au
atom 15.9479096200000008 24.7265518100000001 0.1859429800000000 Au
atom 18.7659930499999987 24.7661886799999991 0.1170912300000000 Au
atom 21.5788476200000012 24.8400287400000011 0.2334845900000000 Au
atom 24.4333600500000010 24.7487999800000011 0.0779477600000000 Au
atom 27.2685028799999998 24.6470827700000008 -0.1731354200000000 Au
atom 1.8920344099999999 24.6904459699999990 -0.1789587300000000 Au
atom 4.6387549999999997 24.8553192299999992 0.0202084600000000 Au
atom 8.8805878499999995 27.2366929099999986 0.2123491400000000 Au
atom 11.8317472099999996 27.1593017100000012 -0.0094666200000000 Au
atom 14.5927415499999995 27.2078851600000000 0.3666872700000000 Au
atom 17.3345432899999992 27.1434793499999998 0.0307674800000000 Au
atom 20.1986276899999986 27.2452974200000000 0.0621651100000000 Au
atom 23.0429103700000013 27.2400129600000014 -0.0867890800000000 Au
atom 25.9088146700000017 27.1121859600000015 -0.0914706800000000 Au
atom 0.4821257600000000 27.2867529299999987 -0.0385293100000000 Au
atom 3.1877443599999999 27.2487095600000018 0.1441979700000000 Au
atom 6.0732690199999997 27.1894255300000012 0.2228842800000000 Au
atom 7.4723581699999997 29.7064256700000016 0.2867345100000000 Au
atom 10.2583898500000004 29.6526391899999986 0.0325885400000000 Au
atom 13.0413289700000004 29.7022483400000006 -0.0099947800000000 Au
atom 15.9109221200000004 29.6302218099999983 0.0787979400000000 Au
atom 18.8094851799999994 29.6669197099999984 0.0964805300000000 Au
atom 21.5959577500000002 29.6575612699999986 -0.2514342800000000 Au
atom 24.5406079599999991 29.7030760600000008 -0.1830378400000000 Au
atom 27.2951185999999986 29.6606002400000008 0.0097925000000000 Au
atom 1.9072479499999999 29.7913238000000007 -0.2175207300000000 Au
atom 4.6692301000000000 29.6309423599999988 0.1464428900000000 Au
atom 8.9506534799999997 32.1790981199999990 0.1232473500000000 Au
atom 11.7046299699999992 32.1988266899999971 -0.2503349700000000 Au
atom 14.5045177699999996 32.0980495399999981 -0.1271050900000000 Au
atom 17.3492707000000017 32.1155825199999967 -0.2270321400000000 Au
atom 20.3452780199999985 32.0950346899999985 -0.4415406400000000 Au
atom 23.1509263300000008 32.1734697199999999 -0.1392455800000000 Au
atom 25.9812788999999995 32.1246874899999995 -0.3396218000000000 Au
atom 0.4450705300000000 32.1954125399999995 -0.1850181300000000 Au
atom 3.2596203799999999 32.2156213000000022 0.0539856100000000 Au
atom 6.1025753700000003 32.1532807800000029 -0.0375356900000000 Au
atom 7.4607774400000002 34.5586796600000028 -0.2730552600000000 Au
atom 10.3764949499999997 34.7030995200000021 0.0248347500000000 Au
atom 13.1725495400000003 34.6588714600000003 -0.0228450100000000 Au
atom 15.9136038899999992 34.5723021499999987 -0.3226085600000000 Au
atom 18.6845962000000014 34.6194808300000005 -0.2945613000000000 Au
atom 21.5669374299999994 34.6487304699999967 -0.4727334600000000 Au
atom 24.5142991300000013 34.5980241800000030 -0.3956558700000000 Au
atom 27.2822537099999991 34.6509057800000022 -0.3702088200000000 Au
atom 1.8940387999999999 34.6293699200000020 -0.2018559500000000 Au
atom 4.6498531900000000 34.5646800900000031 -0.0780723000000000 Au
atom 8.9368107099999996 37.0097938600000020 -0.1849774400000000 Au
atom 11.9024533100000003 37.0644415699999996 -0.1993892200000000 Au
atom 14.6811777800000005 37.0872384299999993 -0.1464268500000000 Au
atom 17.3390331499999988 37.0162689599999979 -0.0070274100000000 Au
atom 20.1745156500000000 37.0126768900000016 -0.1517369400000000 Au
atom 22.9698934199999982 37.0819637999999969 -0.3818689000000000 Au
atom 25.8451238799999992 37.0499559399999967 -0.2357704200000000 Au
atom 0.5721419000000000 37.0696909199999993 -0.2956103300000000 Au
atom 3.2856721200000001 37.0291439599999990 0.0077223000000000 Au
atom 6.1044000299999999 37.1059499200000005 -0.1045049300000000 Au
atom 7.4783579199999997 0.0443737100000000 0.1444652800000000 Au
atom 10.2658951599999995 -0.0364185900000000 0.0200622400000000 Au
atom 13.2157057200000008 0.0281378200000000 0.0639735000000000 Au
atom 16.1125925499999987 0.0110275300000000 0.1233281100000000 Au
atom 18.9083287599999998 0.0460149400000000 0.1251762000000000 Au
atom 21.6735788499999984 -0.0298495900000000 -0.0219564000000000 Au
atom 24.5649381200000008 0.1088827100000000 -0.0631614900000000 Au
atom 27.3482233100000016 0.1349217000000000 0.0606644600000000 Au
atom 1.8815975899999999 0.0795576200000000 0.2549821500000000 Au
atom 4.6605587399999999 -0.0108159200000000 0.2014942800000000 Au
atom 8.9917952900000007 2.4062437900000000 0.3237770700000000 Au
atom 11.8142197899999992 2.4835443200000000 0.1488790600000000 Au
atom 14.5861617300000006 2.5047831000000000 0.2989090800000000 Au
atom 17.4636920400000015 2.5187519699999998 -0.0023859600000000 Au
atom 20.4124226399999991 2.4470342600000001 0.0756542200000000 Au
atom 23.0854276600000006 2.4937443500000001 0.0849916600000000 Au
atom 25.8504578800000004 2.5709765600000001 0.2560038700000000 Au
atom 0.4963122200000000 2.6024178899999999 0.0314159000000000 Au
atom 3.3834194000000002 2.5263234400000001 0.1284851000000000 Au
atom 6.0746336100000002 2.5384493500000000 0.2710381900000000 Au
atom 7.6007482800000004 4.9057401699999996 0.1493340700000000 Au
atom 10.4283911600000003 4.8411876100000004 0.3632739400000000 Au
atom 13.1646120700000004 4.9232026099999997 0.3349370200000000 Au
atom 15.9927813299999997 4.9428180199999998 0.2546834200000000 Au
atom 18.7656119200000013 5.0743343400000001 -0.0755331100000000 Au
atom 21.5498277000000016 4.9848432699999998 0.2968840800000000 Au
atom 24.3537110800000001 5.0088938199999999 0.4789880200000000 Au
atom 27.1994572599999991 4.9362171100000003 0.3036901600000000 Au
atom 1.8213306400000000 5.1031446200000001 0.0943878700000000 Au
atom 4.6284852000000001 4.9633941799999999 0.4651622300000000 Au
atom 9.0919384500000007 7.3585685700000001 0.0204833900000000 Au
atom 11.8633682500000006 7.4681870699999999 0.2858684700000000 Au
atom 14.6151033199999993 7.4094066200000004 0.2241987500000000 Au
atom 17.4298259500000015 7.5283982700000003 0.2096099900000000 Au
atom 20.1258370900000010 7.5322234699999999 0.3400862800000000 Au
atom 22.9841421399999994 7.4440345800000003 0.1703426600000000 Au
atom 25.7781416599999993 7.5245621900000002 0.3758395300000000 Au
atom 0.4160232900000000 7.4794262900000001 0.1703757100000000 Au
atom 3.3034607500000002 7.4805243600000004 0.0104516400000000 Au
atom 6.1778125199999998 7.4520283999999997 -0.0206181600000000 Au
atom 7.5709945200000002 9.8752903599999993 0.0328904200000000 Au
atom 10.3318487300000008 9.9176178499999992 0.1197215600000000 Au
atom 13.1066749799999993 9.9358296900000003 0.4140753800000000 Au
atom 15.9162805499999997 10.0750285399999999 0.2211276600000000 Au
atom 18.8231604899999994 9.9825322100000005 0.3564130600000000 Au
atom 21.4861414500000016 10.0633311699999997 0.1240392200000000 Au
atom 24.2921980799999986 9.9256801899999996 0.0925221600000000 Au
atom 27.1868144100000002 9.9603232300000002 0.1009573700000000 Au
atom 1.7561654600000001 9.9700899300000003 0.1714764700000000 Au
atom 4.6652218699999999 9.8734599099999993 -0.0113801000000000 Au
atom 8.8731203099999991 12.3802363500000006 0.0400328600000000 Au
atom 11.7439942300000002 12.4327396100000005 0.2052743500000000 Au
atom 14.4882573899999993 12.4862816300000006 0.6029640400000000 Au
atom 17.2613857700000004 12.5044338499999999 0.1778629900000000 Au
atom 20.1384120799999984 12.4705890700000008 0.0605491000000000 Au
atom 23.0074949300000000 12.4081305700000009 0.0723907700000000 Au
atom 25.7804436800000012 12.3921405199999999 -0.0951354500000000 Au
atom 0.4355553200000000 12.3996143799999992 -0.1312327800000000 Au
atom 3.2270729299999998 12.2974964700000005 -0.0983208700000000 Au
atom 6.0653299100000000 12.3571608299999998 0.1798780600000000 Au
atom 7.4043800600000003 13.3194813300000003 2.8007189100000001 Au
atom 10.3104264899999993 13.2643492100000007 2.6466305100000000 Au
atom 13.0796568700000009 13.4489565899999999 3.0785008899999999 Au
atom 15.9346152100000005 13.3518925199999998 2.9722961600000000 Au
atom 18.7123457699999989 13.3470150800000003 2.4966600200000002 Au
atom 21.5661403500000013 13.3353555700000008 2.5354815999999998 Au
atom 24.3960169700000016 13.2223451200000000 2.5697901399999998 Au
atom 27.1778146300000003 13.3821703799999998 2.4991519000000002 Au
atom 1.7576650300000001 13.3732298800000002 2.4847722100000000 Au
atom 4.5330195900000003 13.2138171500000006 2.4925057399999999 Au
atom 8.8927160399999998 15.7706371700000005 2.7024536200000000 Au
atom 11.7199330499999999 15.8187256600000001 2.5832145500000001 Au
atom 14.5224675899999998 15.7635155200000003 2.4655192600000002 Au
atom 17.3744673100000000 15.7310572000000004 2.5787250799999999 Au
atom 20.2021433700000017 15.7529507199999994 2.4219422499999999 Au
atom 23.0934873100000004 15.6987877000000005 2.2161175599999998 Au
atom 25.8146658299999991 15.7993728600000001 2.4721828600000002 Au
atom 0.4099914400000000 15.7440145699999992 2.0894490999999999 Au
atom 3.2512997000000001 15.7329957500000006 2.1829179299999999 Au
atom 6.0060361799999997 15.6671967199999997 2.4359490400000001 Au
atom 7.4566261100000002 18.1809063199999983 2.6210199500000000 Au
atom 10.3160268399999993 18.2876264400000004 2.5368677599999998 Au
atom 13.1287058400000003 18.2360015500000010 2.6444950000000000 Au
atom 16.0398994899999998 18.1615992499999983 2.5635626399999998 Au
atom 18.8605536899999997 18.1585937100000017 2.6917499199999999 Au
atom 21.6979074899999986 18.1763628600000011 2.3804375400000000 Au
atom 24.3921782900000004 18.2184512699999992 2.2829241400000000 Au
atom 27.2782860099999986 18.1710605100000002 2.2350772700000001 Au
atom 1.8187828699999999 18.1420411500000007 2.3121620599999999 Au
atom 4.6261763100000000 18.1772569299999986 2.3997600900000000 Au
atom 8.9918260500000002 20.6319900199999999 2.4946539799999998 Au
atom 11.8185030100000006 20.7240588899999985 2.7065477400000000 Au
atom 14.6496049300000006 20.5618775400000011 2.7800897899999999 Au
atom 17.5158419300000006 20.6384605199999989 2.7301749499999999 Au
atom 20.2038060900000005 20.5729587100000018 2.3966673300000001 Au
atom 23.0519812799999997 20.6161408199999983 2.4776252099999998 Au
atom 25.8966776400000001 20.6181538800000013 2.5386972499999998 Au
atom 0.4793030900000000 20.6505849599999998 2.4680986400000000 Au
atom 3.2307259500000001 20.6416470899999993 2.6465188899999998 Au
atom 6.1254259199999996 20.6509809000000004 2.5411916699999999 Au
atom 7.4678570300000002 23.1072525400000011 2.8245370699999999 Au
atom 10.3184078600000007 23.2204127199999988 2.5310258700000001 Au
atom 13.0996767700000003 23.1717702599999988 2.7761977500000001 Au
atom 15.8928150200000005 23.0563223899999983 2.6838418599999998 Au
atom 18.7184686099999986 23.1192208400000005 2.8342437299999999 Au
atom 21.5925163799999993 23.0966227900000014 2.6660441499999998 Au
atom 24.4176469300000001 23.0821040999999987 2.6414081999999999 Au
atom 27.2470742600000015 23.0806800999999986 2.5000395000000002 Au
atom 1.9255013999999999 23.1395171899999994 2.5600814600000001 Au
atom 4.7325756999999999 23.0801554099999997 2.4569612400000000 Au
atom 8.8625800899999998 25.5811715200000016 2.8263711900000001 Au
atom 11.6678250099999996 25.7097279100000016 2.7691830999999998 Au
atom 14.4870728199999999 25.5928032499999993 3.0135310400000002 Au
atom 17.2824587100000002 25.5175989500000000 2.8124309699999999 Au
atom 20.0817804100000004 25.6092514199999997 2.7814029599999999 Au
atom 23.0382790600000007 25.6636053500000010 2.8040041400000000 Au
atom 25.8576160600000016 25.5843894799999987 2.6138402799999998 Au
atom 0.4036334500000000 25.6220294399999986 2.4624056799999998 Au
atom 3.2073972199999998 25.5786393399999987 2.6723895799999999 Au
atom 6.0540613700000003 25.6077081299999989 2.9424814499999998 Au
atom 7.3507875499999997 27.9858679099999996 2.7250001500000001 Au
atom 10.2178428500000003 28.1954439400000005 2.8179241600000000 Au
atom 13.0874558800000003 28.0280182300000007 2.6950178199999999 Au
atom 15.9967463999999993 28.1832482700000000 2.8983445799999998 Au
atom 18.7666897000000006 28.0582474499999996 2.6732103800000000 Au
atom 21.5920173499999990 28.0391225199999994 2.5328893699999999 Au
atom 24.3882568699999993 28.0381293300000003 2.4154091000000002 Au
atom 27.1594049400000017 28.0282553199999995 2.5173192900000001 Au
atom 1.7824789700000001 28.1329255499999995 2.5645444099999999 Au
atom 4.5521906400000001 28.0447362700000014 2.8638356300000001 Au
atom 8.8037814700000006 30.6008494400000011 2.7757168999999999 Au
atom 11.6584354200000000 30.5463772800000015 2.5233232999999999 Au
atom 14.5586632799999993 30.4435594899999984 2.6297409200000001 Au
atom 17.4339257100000005 30.5804364699999986 2.6088807500000000 Au
atom 20.3022720300000010 30.5804744200000016 2.4967925399999999 Au
atom 23.0655409999999996 30.5663454399999992 2.3187197500000001 Au
atom 25.7856136999999990 30.4992269299999990 2.5234213099999998 Au
atom 0.3828093700000000 30.5675549400000008 2.4125321400000002 Au
atom 3.2083475899999998 30.5483039000000005 2.7631484500000001 Au
atom 5.9524660599999999 30.4960923599999987 2.6694983300000001 Au
atom 7.4103215100000002 32.9456838999999988 2.5832804899999999 Au
atom 10.2868413499999996 33.0183962600000029 2.5704231800000001 Au
atom 13.1397022900000007 32.9079692299999991 2.4711333899999999 Au
atom 16.0105676999999993 32.9572098499999981 2.3248278600000001 Au
atom 18.8280718900000004 32.9220160500000034 2.2289000099999998 Au
atom 21.6617140699999986 33.0658226199999987 2.2061186300000002 Au
atom 24.4296938600000004 33.0447327299999998 2.3667176200000002 Au
atom 27.1485417399999989 33.0270405199999999 2.2334290399999999 Au
atom 1.7546167500000001 33.0588590999999994 2.5033571399999999 Au
atom 4.5902421100000002 32.9911551399999965 2.5595819400000002 Au
atom 8.8295746600000005 35.4776926799999970 2.6053203200000001 Au
atom 11.7963140299999996 35.3637509499999965 2.6499013100000002 Au
atom 14.6574184699999996 35.4143177300000005 2.4551086799999999 Au
atom 17.3971467400000002 35.3310165799999965 2.4093251300000000 Au
atom 20.2075165699999992 35.4191504599999973 2.2844200099999998 Au
atom 22.9913352599999996 35.4948573100000004 2.0083627399999999 Au
atom 25.7581591900000006 35.5315819500000032 2.6062360199999999 Au
atom 0.2451425300000000 35.4307927600000028 2.3907726100000000 Au
atom 3.1227303000000002 35.4703007000000028 2.5616821999999999 Au
atom 5.9433701900000004 35.4744974099999979 2.4801051599999999 Au
atom 7.4383226699999998 37.8036860699999977 2.6171761500000001 Au
atom 10.3492255699999998 37.7186472699999982 2.4958933800000001 Au
atom 13.2081397000000003 37.7948301200000003 2.5120444200000001 Au
atom 16.0295753300000001 38.0341888999999966 2.6615095100000001 Au
atom 18.7214664900000010 37.8783411499999971 2.5728632199999999 Au
atom 21.6067317900000013 37.8191688300000024 2.5568000299999998 Au
atom 24.3945400200000009 37.8499876400000019 2.3160220100000002 Au
atom 27.2106491699999999 37.9022904400000016 2.4330538499999999 Au
atom 1.7375403400000000 37.8771047700000025 2.5867350299999998 Au
atom 4.5701830399999999 37.8410945799999965 2.6830753600000001 Au
atom 8.8659346400000008 0.7482515600000000 2.6651358200000002 Au
atom 11.6878856399999993 0.7221875000000000 2.6808805699999998 Au
atom 14.7431135900000001 0.8597389000000000 2.7231538300000002 Au
atom 17.5900791599999984 0.9045312700000000 2.7753505000000001 Au
atom 20.3554334200000007 0.8942159600000000 2.6941568899999999 Au
atom 23.0261894399999996 0.8278351500000000 2.5131406699999999 Au
atom 25.8076782099999988 0.7620748400000000 2.8548839899999998 Au
atom 0.3412320600000000 0.9816706800000000 2.7642215900000000 Au
atom 3.1902207599999999 0.8239393600000000 2.8118151100000000 Au
atom 6.0497275100000003 0.7908609200000000 2.8558552100000001 Au
atom 7.4718909599999996 3.2779434599999999 2.8207973100000001 Au
atom 10.3779739800000002 3.2435157700000001 2.8559630999999999 Au
atom 13.3456074699999991 3.1766564499999999 2.8823714699999998 Au
atom 16.1775606399999994 3.4239470000000001 2.8704035499999998 Au
atom 18.8690586600000003 3.4856916099999999 2.4074811800000000 Au
atom 21.6666026100000018 3.3012218700000000 2.7293351499999998 Au
atom 24.4623165200000017 3.2359036900000002 2.9545753700000001 Au
atom 27.2613014599999985 3.3887453399999998 2.8074906300000002 Au
atom 1.8387245699999999 3.5322804699999999 2.7221595299999999 Au
atom 4.6430835600000000 3.3956830099999999 3.0129983800000000 Au
atom 9.0235244100000003 5.7758225999999997 2.6799339999999998 Au
atom 11.8232590200000001 5.8094642500000004 2.9313232700000000 Au
atom 14.6583891200000007 5.7661458799999998 2.9713893499999999 Au
atom 17.4734559699999998 5.9160302500000004 2.7854116300000000 Au
atom 20.2830055099999988 5.8672143900000000 2.9572412199999998 Au
atom 23.0375898899999996 5.8113584700000001 2.9739440899999998 Au
atom 25.7065402499999998 5.8703478799999997 2.9600677000000002 Au
atom 0.3867469900000000 5.9212481600000002 2.8587791800000000 Au
atom 3.2097013699999999 5.9775260000000001 2.9395724599999999 Au
atom 6.1520381500000001 5.8709932499999997 2.7388946600000001 Au
atom 7.5975530600000001 8.2800130200000002 2.6445139800000002 Au
atom 10.3354650100000001 8.3144650799999997 2.7640838300000001 Au
atom 13.1295888800000000 8.2319788700000007 2.8615788900000001 Au
atom 15.9330210300000008 8.3741192200000008 2.6862081600000001 Au
atom 18.8057582100000005 8.4185610200000003 2.9875850000000002 Au
atom 21.5628350500000003 8.3689139200000007 2.8266919300000000 Au
atom 24.3768114199999992 8.3819211199999994 2.8108703099999999 Au
atom 27.2526158100000018 8.3973098900000007 2.7515963499999998 Au
atom 1.9101444999999999 8.4365448000000001 2.5980758399999999 Au
atom 4.7384122399999997 8.2282884099999993 2.6911011399999998 Au
atom 8.9544844900000005 10.8305343100000009 2.6322329000000000 Au
atom 11.7782962399999995 10.8356978900000005 2.8579083100000000 Au
atom 14.5539198800000005 10.7960667699999995 3.1146336300000002 Au
atom 17.3994523699999988 10.9326778600000001 2.8340396900000000 Au
atom 20.1830913999999986 10.8783303000000000 2.8364901300000001 Au
atom 22.9467369999999988 10.8027142000000005 2.7329039499999999 Au
atom 25.7542068899999990 10.8364665700000007 2.5345901400000002 Au
atom 0.3338882100000000 10.9598614500000000 2.7213956200000000 Au
atom 3.2156639600000001 10.7431576100000008 2.6095214100000002 Au
atom 6.0311483800000003 10.7326120300000003 2.5600608100000000 Au
atom 7.5918441699999999 12.6628667700000008 5.7031896000000000 Cl
atom 7.5242490200000001 15.6828769300000008 8.3565757600000001 Cl
atom 7.6229657099999999 12.8299234500000008 8.4978107999999999 Na
atom 7.5141558599999998 15.6244678300000004 5.6448366200000004 Na
atom 7.6293247700000002 18.6427583400000003 5.5211622800000004 Cl
atom 7.5118833000000000 21.2159664200000009 8.6232930499999991 Cl
atom 7.4691898400000003 18.5662312500000013 8.2702752099999994 Na
atom 7.7584948300000001 21.4701613500000015 5.7090807100000003 Na
atom 7.7971691099999996 24.1268369599999986 5.6620593100000001 Cl
atom 7.7204804400000002 26.8892360400000001 8.5847381800000004 Cl
atom 7.6099461399999999 24.0726894700000003 8.4485970800000008 Na
atom 7.6402134200000003 26.9404706400000009 5.8557949000000002 Na
atom 7.5217004100000002 29.6134385400000006 5.8002534099999998 Cl
atom 7.6651758499999998 32.6085934099999974 8.6091597600000007 Cl
atom 7.5235803399999996 29.6250715999999983 8.4701026099999996 Na
atom 7.6192299400000003 32.4630015299999997 5.7885562600000000 Na
atom 7.7147641100000000 35.4065829800000031 5.4907216900000000 Cl
atom 7.5432692399999999 38.2437298299999995 8.5711256099999993 Cl
atom 7.4720893999999998 35.4601976800000003 8.2030396099999994 Na
atom 7.7066647200000000 38.2973722400000014 5.7816655199999998 Na
atom 7.4686946299999999 1.7823658200000001 5.8433035799999997 Cl
atom 7.5446230500000002 4.3656678800000002 8.6409824600000000 Cl
atom 7.6066922400000001 1.5825297400000000 8.4310844500000002 Na
atom 7.5641439699999999 4.5697080300000001 5.9551027100000002 Na
atom 7.6461845100000003 7.3882969200000002 5.7706844100000003 Cl
atom 7.5547889599999998 10.1447257299999993 8.6732637100000005 Cl
atom 7.5726187899999999 7.3341669500000002 8.4889757299999999 Na
atom 7.6310471599999996 9.9710486899999999 5.8172330399999996 Na
atom 10.5163279099999993 12.8247024100000004 5.8241724200000000 Na
atom 13.2820687700000004 12.8439159699999994 5.8254448500000002 Cl
atom 10.3459621500000001 15.7431838899999992 8.2029618499999994 Na
atom 13.1136147100000002 15.7036629300000001 8.5713256300000005 Cl
atom 13.1886621000000002 12.8808592500000003 8.6553503799999998 Na
atom 10.4688928899999993 12.9698581599999994 8.4263297300000009 Cl
atom 13.1860055599999999 15.6759865600000001 5.7415231499999999 Na
atom 10.2935146799999995 15.6793264000000008 5.5233879000000004 Cl
atom 10.5027153400000000 18.5052011999999984 5.5766947099999999 Na
atom 13.3454072499999992 18.4561458700000003 5.7500076599999996 Cl
atom 10.4295837200000001 21.1225179400000016 8.0963617600000006 Na
atom 13.1664858099999993 21.2389201099999987 8.4231908099999995 Cl
atom 13.2622483500000001 18.3550385799999987 8.3881749899999996 Na
atom 10.3096302699999995 18.4268286500000009 8.3299837199999995 Cl
atom 13.2511251699999999 21.2005685899999996 5.7514914800000003 Na
atom 10.5642962300000001 21.2443407700000009 5.5421643600000001 Cl
atom 10.4862032099999993 24.1930122999999995 5.6696393499999997 Na
atom 13.4106334000000000 24.1177248099999986 5.6406476400000001 Cl
atom 10.3376771299999994 26.8773901600000009 8.4511424300000009 Na
atom 12.9964062100000000 26.9737596699999997 8.7871336499999995 Cl
atom 13.1448173799999992 24.1457982199999996 8.3396960599999996 Na
atom 10.4817356200000003 23.9484008099999990 8.3208208399999997 Cl
atom 13.2078417300000002 26.8781108300000007 5.8983691100000000 Na
atom 10.3744277100000009 26.8821038700000017 5.6109690399999996 Cl
atom 10.4626844600000002 29.6626759299999989 5.8305715400000002 Na
atom 13.1271463799999992 29.6154603700000010 5.7599340600000000 Cl
atom 10.4804202199999992 32.5566603099999980 8.2981305800000005 Na
atom 13.1799490299999995 32.6347652600000018 8.4912172500000000 Cl
atom 13.1790986199999995 29.6801357099999983 8.5572599199999999 Na
atom 10.3983366000000004 29.7482090499999998 8.6730446099999998 Cl
atom 13.2009540600000008 32.5020390299999988 5.6948167400000003 Na
atom 10.4116885000000003 32.5209476899999999 5.5147415600000000 Cl
atom 10.3903330399999998 35.4338243300000002 5.6033692700000000 Na
atom 13.3744424899999999 35.4081335899999985 5.6024491599999999 Cl
atom 10.3274593499999998 38.1729873800000021 8.3640949300000003 Na
atom 13.1545550200000001 38.3136074800000017 8.5257987699999997 Cl
atom 13.1483704100000001 35.5371199200000021 8.1985195300000004 Na
atom 10.2856741399999994 35.4438931299999993 8.4344200600000008 Cl
atom 13.3410958100000006 38.3320977600000035 5.7972033700000001 Na
atom 10.4907542800000009 38.1797745200000023 5.5926079800000004 Cl
atom 10.4091465799999998 1.5166324900000001 5.7030255099999998 Na
atom 13.2333894700000005 1.7451915700000000 5.8169059599999997 Cl
atom 10.2977916700000005 4.3880591000000004 8.5242547799999997 Na
atom 13.2055696800000000 4.3479678499999999 8.8404448599999998 Cl
atom 13.1750806100000002 1.5923751300000000 8.4786120500000006 Na
atom 10.3018810199999997 1.5270869000000000 8.6853836399999995 Cl
atom 13.1714781399999996 4.4808272100000002 5.9832444599999999 Na
atom 10.4376698700000006 4.3546673699999996 5.6850312100000000 Cl
atom 10.5642559200000008 7.2308386300000000 5.9802325099999996 Na
atom 13.2946802900000005 7.3203574500000004 5.9676001599999999 Cl
atom 10.3732879300000000 10.2558484799999992 8.5385813899999992 Na
atom 13.1653462599999997 9.7920035999999993 8.6803337500000008 Cl
atom 13.4257105600000006 7.1475758000000003 8.5374311600000006 Na
atom 10.3570286599999992 7.2481876099999996 8.6887842200000005 Cl
atom 13.3154201800000003 10.1264605900000006 6.0320357400000004 Na
atom 10.4161412000000002 9.9770439199999998 5.8764399300000001 Cl
atom 16.0685491800000015 12.8235948900000007 5.8150542500000002 Na
atom 18.9194501899999992 12.8068097400000003 5.6468993899999997 Cl
atom 16.1025017599999991 15.6398436800000002 8.6780093699999998 Na
atom 18.9753650200000017 15.6818570000000008 8.3804131900000005 Cl
atom 19.0136537200000006 12.8147819100000007 8.3881831400000006 Na
atom 16.3384315800000017 12.7919727999999999 8.5490688400000003 Cl
atom 18.8941648399999984 15.5423684099999999 5.7691090699999998 Na
atom 15.9648413999999992 15.7123235000000001 5.7238273499999996 Cl
atom 16.1060905599999984 18.3092332700000000 5.9615469100000000 Na
atom 18.7489986900000005 18.4464832899999998 5.8288659500000000 Cl
atom 15.9564145899999996 21.2894174499999984 8.3500562200000008 Na
atom 18.7994112400000013 21.3609802699999989 8.6128034600000003 Cl
atom 18.9011604800000015 18.4955584299999991 8.5709271900000008 Na
atom 16.0883897400000002 18.3541329500000003 8.6889571100000005 Cl
atom 18.8967321000000013 21.3008757700000011 5.8407153699999999 Na
atom 16.1828094500000006 21.0499730499999984 5.5492315200000002 Cl
atom 16.0609980999999991 23.9360464999999998 5.8999598500000001 Na
atom 18.7366554799999996 24.0171515100000015 5.7976542400000000 Cl
atom 15.8444697500000000 26.8843627299999994 8.4837357600000001 Na
atom 18.7626486099999994 26.9607090199999995 8.6503371799999993 Cl
atom 18.8535992800000010 24.0317267100000009 8.5751586000000000 Na
atom 16.1513611799999985 24.0188920900000014 8.8261737300000007 Cl
atom 18.7338534699999997 26.7201830600000001 5.9466847200000004 Na
atom 15.9670199000000004 26.7850740099999989 5.7961740900000001 Cl
atom 15.9642621800000004 29.5303633099999985 5.7891936599999996 Na
atom 18.7162731700000009 29.8223458900000011 5.7291897299999999 Cl
atom 15.9851542500000008 32.5738368900000026 8.1981821700000008 Na
atom 18.7516130700000012 32.5519533900000013 8.4003015199999993 Cl
atom 18.8336780899999994 29.8883433099999998 8.2489356199999992 Na
atom 15.9666810800000007 29.7900416399999983 8.5052249100000008 Cl
atom 18.7130556800000001 32.6065908699999980 5.6295077899999999 Na
atom 16.0472074900000017 32.4576583300000010 5.4052712900000000 Cl
atom 16.2194038700000007 35.5266425800000007 5.6025024300000004 Na
atom 18.8266993000000014 35.5235608500000026 5.4093103999999999 Cl
atom 16.0627573599999991 38.2254333200000005 8.3472089399999998 Na
atom 18.7196672200000016 38.1544475700000021 8.5004621900000004 Cl
atom 18.7608553399999991 35.4625930799999978 8.2289619199999997 Na
atom 15.9551191899999996 35.3914188999999979 8.3677936600000002 Cl
atom 18.6463398500000004 38.4559589400000021 5.8175648300000002 Na