#===============================================================================
# Created using the Atomic Simulation Environment (ASE)

# Tue Dec 23 22:26:44 2025

#=======================================================
lattice_vector 28.1999999999999993 0.0000000000000000 0.0000000000000000 
lattice_vector 0.0000000000000000 39.4799999999999969 0.0000000000000000 
lattice_vector 0.0000000000000000 0.0000000000000000 62.3296083400000001 
atom 7.2051243999999999 14.8215201800000003 -0.1318283500000000 Au
atom 10.3288399299999991 15.1051009100000009 -0.6149554800000000 Au
atom 13.2153566100000006 14.6387064099999993 -0.2013712300000000 Au
atom 15.9349537399999992 14.7339727000000007 -0.4145359500000000 Au
atom 18.8301301000000016 14.5503123399999996 -0.3167069700000000 Au
atom 21.7049035100000012 14.5437372099999997 -0.2190442900000000 Au
atom 24.4185205799999991 14.7792908999999995 -0.0036266300000000 Au
atom 27.4052999399999990 14.6966955099999996 -0.1662177300000000 Au
atom 1.8685497099999999 14.8272335700000006 -0.2304725800000000 Au
atom 4.6544868800000003 14.6708949499999992 -0.5350129900000000 Au
atom 8.8180794000000002 17.2824177100000007 -0.2003116400000000 Au
atom 11.6513434100000008 17.1641183800000015 -0.2397511700000000 Au
atom 14.4275523900000007 17.2965574000000011 -0.2479720800000000 Au
atom 17.3478909700000017 17.3265854200000007 -0.1176870500000000 Au
atom 20.0961393699999995 17.3799129400000005 -0.5252711600000000 Au
atom 22.6807649200000014 17.4017562999999988 0.0566316700000000 Au
atom 25.6968906500000003 17.2460066099999985 0.0540321900000000 Au
atom 0.4117861100000000 17.2101205999999998 -0.3126637100000000 Au
atom 3.2193103700000001 17.5022184299999992 -0.2038782300000000 Au
atom 5.9927078399999996 17.3080875100000000 -0.2204970500000000 Au
atom 7.4227404000000003 19.7341076499999986 -0.0784198300000000 Au
atom 10.3815043100000004 19.7613410199999997 -0.4615089900000000 Au
atom 13.1863175399999992 19.8562446100000010 -0.1579063900000000 Au
atom 15.9407809300000007 19.8225867800000017 -0.1782080200000000 Au
atom 18.8809931900000016 19.9763160299999996 -0.1602037400000000 Au
atom 21.4796995799999983 19.7732689499999985 0.1245548600000000 Au
atom 24.3625131500000016 19.8466621900000000 -0.1417161400000000 Au
atom 27.3026120299999988 19.8232308000000010 -0.1076919300000000 Au
atom 1.9731689800000001 19.6783619300000012 -0.1027321000000000 Au
atom 4.4402906900000003 19.8365966100000009 -0.0048093100000000 Au
atom 8.9546250700000005 22.2870307600000004 0.1979859700000000 Au
atom 12.0255725400000006 22.0658668200000001 -0.0647287400000000 Au
atom 14.8717719600000002 22.1971503800000001 0.0581040700000000 Au
atom 17.4197157400000009 22.2697177999999987 -0.0151826400000000 Au
atom 20.1996825999999992 22.2520027999999996 -0.2226887200000000 Au
atom 22.8742379699999994 22.3182158599999987 0.2210821400000000 Au
atom 25.6772780000000012 21.9904515499999995 0.1585871200000000 Au
atom 0.4161864800000000 22.1984750400000017 -0.1022858900000000 Au
atom 3.4026949000000002 22.3579532000000007 0.0705650000000000 Au
atom 6.1693439400000001 22.2789116000000007 0.1178394400000000 Au
atom 7.5948874499999999 24.5855346499999996 -0.2392551600000000 Au
atom 10.5340040100000003 24.7363668300000015 0.0902427000000000 Au
atom 13.2414437599999992 24.7183074900000008 0.0107129400000000 Au
atom 16.0445267800000018 24.6691715800000004 0.2840439600000000 Au
atom 18.8483817400000007 24.8075904999999999 0.2585122400000000 Au
atom 21.3739524100000011 24.7621527599999993 -0.0451288000000000 Au
atom 24.5034610099999988 24.7018150500000004 0.0812365000000000 Au
atom 27.1516037200000007 24.6304733200000001 0.0622635300000000 Au
atom 1.8535512000000001 24.8259794000000014 -0.0175403000000000 Au
atom 4.7139198699999998 24.7349522800000017 -0.1374031600000000 Au
atom 9.0581321999999993 27.2400990599999986 -0.2161429100000000 Au
atom 11.8591364699999993 27.1731433100000004 0.0436492300000000 Au
atom 14.5834115999999998 27.4556694700000001 -0.0959193100000000 Au
atom 17.4391265699999991 27.0808634200000000 0.1470456700000000 Au
atom 20.1550167999999985 27.0511375100000002 -0.0678518000000000 Au
atom 23.0266068900000000 26.9415475200000003 -0.0227250700000000 Au
atom 25.6914631500000006 27.1980753399999990 0.3738513000000000 Au
atom 0.4193459200000000 27.2818061500000013 0.0330434300000000 Au
atom 3.3271120399999998 27.0762418899999986 -0.1968456700000000 Au
atom 6.1098047299999996 27.4260171300000017 -0.0616540200000000 Au
atom 7.6611262699999996 29.7272591199999994 -0.1240567000000000 Au
atom 10.4779060000000008 29.6985276899999988 -0.2537857900000000 Au
atom 13.1929584999999996 29.7842386099999992 0.0829766100000000 Au
atom 15.8960009400000004 29.5076682900000016 0.1407624200000000 Au
atom 18.7600653599999987 29.4742826300000011 0.0409064600000000 Au
atom 21.8686733400000008 29.6265899399999988 0.2642664600000000 Au
atom 24.3510820499999987 29.5693894200000003 0.1501514900000000 Au
atom 27.3253873399999989 29.5338180699999988 0.0190734200000000 Au
atom 1.8044329699999999 29.8799299299999994 -0.3005334000000000 Au
atom 4.7482210199999999 29.7208139299999985 -0.0124840900000000 Au
atom 8.8578402399999998 32.2421920700000015 0.1353538900000000 Au
atom 11.5680170199999992 32.2142728500000004 -0.0458628400000000 Au
atom 14.3976673399999999 32.0695096700000022 -0.0698893600000000 Au
atom 17.5159398899999985 32.1315175300000035 -0.3277367600000000 Au
atom 19.9996219000000011 31.9838558699999993 0.0586650300000000 Au
atom 23.2295756900000008 31.8940199600000014 -0.2278867300000000 Au
atom 25.8821166900000001 32.2080304500000025 0.3388140900000000 Au
atom 0.3123777400000000 32.2585805800000003 0.0623011000000000 Au
atom 3.2508099000000001 32.3309343499999997 -0.1915807700000000 Au
atom 6.0331623800000003 32.0152841800000019 0.0920484600000000 Au
atom 7.4224979199999996 35.0342085899999987 -0.0804673400000000 Au
atom 10.3065918799999992 34.7072616800000020 0.1275021500000000 Au
atom 13.1920939199999996 34.3853128000000012 -0.1424832100000000 Au
atom 15.9081573499999998 34.5954582800000026 -0.1675797000000000 Au
atom 18.6483333699999996 34.4420021899999966 0.0255900700000000 Au
atom 21.8348174300000011 34.3556457999999978 0.0387850500000000 Au
atom 24.5095076499999998 34.5698412500000032 0.0092007000000000 Au
atom 27.2066753400000003 34.5358852700000014 0.1459879500000000 Au
atom 2.0042520599999998 34.6328575499999971 -0.0642964900000000 Au
atom 4.8803553700000002 34.6034531800000025 0.0555254400000000 Au
atom 8.7761162200000005 37.0853347999999983 0.1216212600000000 Au
atom 11.5778001300000000 36.9995586699999990 0.1111636400000000 Au
atom 14.5442507499999998 37.1687473900000001 -0.2059422400000000 Au
atom 17.1434412800000011 37.1969509299999999 -0.1822581500000000 Au
atom 20.0988228199999988 36.8818928499999998 0.0840209300000000 Au
atom 23.0001372800000006 36.9038031899999979 -0.0400364000000000 Au
atom 26.0016950000000016 37.0677060699999998 0.3689235300000000 Au
atom 0.4206409300000000 36.9479016399999978 0.1766632600000000 Au
atom 3.4294748899999998 37.1349316100000024 0.2103937700000000 Au
atom 6.1666524799999998 37.1696721699999983 0.3701318600000000 Au
atom 7.5874139899999999 0.0222687900000000 -0.0328084400000000 Au
atom 10.3069448799999996 -0.0025040200000000 0.4057310500000000 Au
atom 13.1711176999999999 0.0430564300000000 0.4479874100000000 Au
atom 15.9552968199999992 -0.1191462700000000 0.3057676200000000 Au
atom 18.7450835500000004 0.0154324200000000 0.1359245300000000 Au
atom 21.4386983899999990 -0.0587212100000000 -0.0098974200000000 Au
atom 24.3923833399999985 0.0706651500000000 0.2146399800000000 Au
atom 27.0126100899999990 0.2537763400000000 0.4359543200000000 Au
atom 1.8638969200000000 -0.0134113200000000 0.1360045100000000 Au
atom 4.5898615500000002 0.2333521100000000 0.2697492100000000 Au
atom 9.0863086400000004 2.3766046900000002 0.1836911000000000 Au
atom 11.7303360300000001 2.5590300400000001 0.1796661300000000 Au
atom 14.7920205199999995 2.5406938900000000 0.0687341100000000 Au
atom 17.4432657300000002 2.2856382700000002 -0.0791222700000000 Au
atom 20.3029818700000000 2.4015968399999998 0.2253001000000000 Au
atom 23.2077735700000005 2.3463964300000000 0.1276961300000000 Au
atom 25.5103689200000012 2.7228745900000000 -0.0390995400000000 Au
atom 0.4019779000000000 2.3262928999999999 0.3267936700000000 Au
atom 3.2120534900000002 2.4603216699999999 0.3299510100000000 Au
atom 6.2802436100000003 2.4537021299999999 0.1905479900000000 Au
atom 7.5491117799999996 5.0732339800000004 0.3655309100000000 Au
atom 10.2436987399999992 4.9043726799999998 0.3861740300000000 Au
atom 13.4140995099999998 5.1265495599999999 -0.0726170400000000 Au
atom 15.9707934900000001 5.0353510400000001 0.0718709700000000 Au
atom 18.9828340699999991 4.9264814299999999 0.1005925500000000 Au
atom 21.6933386599999984 4.8592291999999997 0.3037686200000000 Au
atom 24.4726907599999990 4.8688461199999997 0.1589601600000000 Au
atom 27.2479181200000014 5.2430995800000000 -0.1794747000000000 Au
atom 1.8400052800000000 5.0456972599999999 0.0304001700000000 Au
atom 4.8526789700000004 4.9807484999999998 0.3189320800000000 Au
atom 8.9438486099999999 7.3214202100000003 0.3070933300000000 Au
atom 11.6302077799999992 7.3034662900000002 0.3936032100000000 Au
atom 14.6428865100000003 7.4307236100000003 0.2694739000000000 Au
atom 17.4131052400000002 7.3969736499999996 0.1601474200000000 Au
atom 20.2484636999999985 7.5354358499999998 0.2985252300000000 Au
atom 23.0016108899999985 7.4130279100000003 0.0597554000000000 Au
atom 25.7654153999999984 7.5496868700000004 0.0321148700000000 Au
atom 0.6801688299999999 7.4715577199999998 0.0600926100000000 Au
atom 3.0543455100000001 7.5246681899999999 0.0807907900000000 Au
atom 6.0137873500000003 7.3769844999999998 0.0765468800000000 Au
atom 7.6388944499999996 10.0978828699999994 0.0251358600000000 Au
atom 10.1836991999999995 10.0035161400000003 0.0033727900000000 Au
atom 13.2878409499999997 10.1509101499999996 0.3972003800000000 Au
atom 15.7941811100000002 9.8075991600000005 0.2655335800000000 Au
atom 18.8440028899999987 9.9073795100000002 -0.0610526900000000 Au
atom 21.6506795200000006 9.9216685200000008 0.0837208500000000 Au
atom 24.6216822899999990 9.8728525299999994 0.1587764600000000 Au
atom 27.4748363900000001 9.8792665399999997 -0.1380875900000000 Au
atom 1.9763454300000001 10.0773188900000008 -0.0880444100000000 Au
atom 4.5570526899999999 10.0053579399999997 -0.0483803200000000 Au
atom 9.0847939400000008 12.6475679900000006 -0.3144960100000000 Au
atom 11.9269835499999992 12.3846229200000000 -0.2773580600000000 Au
atom 14.5975458899999992 12.2485690599999995 -0.1797708100000000 Au
atom 17.5193835600000014 12.0985825800000004 0.0020469200000000 Au
atom 20.2046999599999992 12.4676190400000007 0.1386087500000000 Au
atom 23.0663808299999999 12.4029691500000006 0.2680842900000000 Au
atom 25.8817589300000002 12.3410883800000004 0.1885187200000000 Au
atom 0.3929914700000000 12.3309692900000005 -0.1049067700000000 Au
atom 3.4222877000000000 12.2853105599999992 -0.1868674300000000 Au
atom 6.0316784500000002 12.3210464799999997 -0.1874924500000000 Au
atom 7.6549350100000000 13.0075178200000003 2.6635142799999998 Au
atom 10.3516149100000003 13.2882452799999999 2.2401616799999999 Au
atom 13.3200146099999994 13.1889930700000004 2.4893228299999999 Au
atom 15.8305646499999995 13.4211306900000000 2.2806782399999999 Au
atom 18.5907353700000009 13.1163574999999994 2.4283497600000001 Au
atom 21.5186445699999993 13.2662979700000001 2.8133082599999999 Au
atom 24.5079723200000004 13.3793730899999996 2.7788931799999999 Au
atom 27.2351642299999988 13.3959455799999994 2.6105406599999998 Au
atom 2.0050522200000001 13.2216628000000007 2.2818034100000002 Au
atom 4.5166544499999999 13.3004739900000004 2.1193721900000000 Au
atom 8.8775052399999996 15.5990425500000001 2.3623561999999998 Au
atom 11.7047213800000005 15.6420866600000004 2.2771479299999999 Au
atom 14.5042071200000002 15.5862801900000001 2.3793741800000001 Au
atom 17.2998751000000013 15.5975669499999992 2.3217153100000001 Au
atom 20.3154884100000004 15.6818020100000002 2.3134773800000001 Au
atom 23.2303538900000000 15.7850262299999997 2.4768033800000002 Au
atom 25.8368834099999987 15.7570020399999997 2.5015621499999998 Au
atom 0.6181765600000000 15.6752851700000004 2.3234898799999999 Au
atom 3.2317844500000001 15.7724072100000008 2.2518723500000002 Au
atom 6.0633565100000002 15.4880060299999993 2.4036856700000002 Au
atom 7.4247906900000000 18.0306461499999990 2.4896159199999999 Au
atom 10.2785341999999993 18.0795579800000006 2.2695646100000002 Au
atom 12.9964870999999995 18.2588908500000002 2.5184059799999998 Au
atom 16.0039246000000013 18.0465984699999993 2.6134789199999999 Au
atom 18.8511940799999991 17.9784524599999997 2.3625965600000001 Au
atom 21.6148474999999998 17.8923904500000006 2.6458228799999999 Au
atom 24.5627698999999993 18.1632668300000013 2.6860184000000000 Au
atom 27.2520451399999999 18.0550672699999986 2.5341279100000000 Au
atom 1.6045390399999999 18.1988717999999992 2.4351983900000000 Au
atom 4.6400990799999997 18.4754623299999992 2.4321047899999999 Au
atom 9.0010380500000000 20.5278056500000012 2.7788977199999998 Au
atom 11.6467855900000004 20.7447407400000010 2.4136133399999999 Au
atom 14.4712374500000003 20.7311957100000015 2.3197147899999999 Au
atom 17.2216639100000002 20.4935245200000011 2.5604151599999998 Au
atom 20.2609721399999998 20.4987759199999999 2.5001037899999998 Au
atom 22.9833968900000016 20.6076730200000000 2.7762052000000002 Au
atom 25.7589939500000007 20.4944642899999998 2.7683879100000000 Au
atom 0.6782204300000000 20.5372214299999989 2.3599720099999999 Au
atom 3.2420188500000000 20.7413218800000010 2.5144913999999998 Au
atom 6.1454948099999998 20.6672639700000005 2.6524185800000000 Au
atom 7.4882470699999999 23.1706110599999988 2.6609568700000001 Au
atom 10.5502243399999998 23.0887098699999989 2.9841684100000001 Au
atom 13.1570658999999992 23.0899590299999993 2.6425825999999999 Au
atom 16.0499154799999992 23.0026645599999995 2.6427328900000000 Au
atom 18.7873253300000016 22.9513552700000005 2.6050013700000001 Au
atom 21.5411421700000005 23.1593315100000012 2.5339882399999998 Au
atom 24.3931228699999991 23.0438602999999986 2.9067062300000002 Au
atom 27.1706708500000005 23.1643728799999984 2.8380507599999998 Au
atom 1.8704464900000000 23.0891340199999995 2.7076566400000002 Au
atom 4.7217295799999999 23.0438953799999986 2.3073104199999999 Au
atom 8.9406979700000004 25.4912880999999985 2.5453919599999999 Au
atom 11.8959393200000001 25.4140539700000012 2.7757332300000002 Au
atom 14.6544843399999998 25.7136410799999986 2.4750698700000000 Au
atom 17.3185332299999999 25.6456750500000012 2.6708915499999999 Au
atom 20.2287178099999991 25.5443830900000002 2.6246512000000002 Au
atom 22.9992228999999995 25.3261702900000003 2.6811337499999999 Au
atom 25.7502086400000003 25.4024200200000010 2.7859097400000001 Au
atom 0.3373991100000000 25.4298427499999988 2.5446658499999999 Au
atom 3.4840465400000000 25.5547837899999983 2.5659235499999999 Au
atom 6.0684323700000000 25.6089738000000011 2.2478516000000002 Au
atom 7.5406648499999998 27.7843959699999985 2.4332258499999999 Au
atom 10.5711600299999997 27.9445430600000009 2.5583949100000001 Au
atom 13.1759904700000003 27.8616679199999986 2.7426550999999999 Au
atom 15.9534759600000005 28.0860769899999987 2.8152723700000002 Au
atom 18.9788927899999997 28.0439963600000013 2.5540603399999999 Au
atom 21.6056655999999982 27.9789593399999994 2.8039643700000001 Au
atom 24.4248651099999989 28.0760423000000010 2.3005736200000002 Au
atom 27.3925054000000010 27.8651972999999984 2.8415225099999999 Au
atom 2.0398177000000000 28.1363838699999995 2.4679875600000001 Au
atom 4.7350078499999997 27.9674559100000018 2.4943018600000002 Au
atom 8.8352006299999992 30.2542310699999994 2.3598237599999998 Au
atom 11.8546439800000005 30.4270139700000009 3.1608616899999999 Au
atom 14.7436301800000003 30.4821094099999996 2.8372027700000002 Au
atom 17.4365534900000014 30.4759490000000000 2.3928342200000001 Au
atom 20.1891675399999997 30.4298414199999989 2.8843303100000002 Au
atom 23.0924061400000014 30.5806616200000008 2.9174338199999998 Au
atom 25.8016396099999987 30.3379560999999995 2.5482037900000001 Au
atom 0.6164357499999999 30.4504683900000011 2.5543446599999999 Au
atom 3.4343243600000002 30.0608205200000000 2.4063476000000001 Au
atom 6.0626144699999998 30.3356353600000013 2.6069245400000001 Au
atom 7.3272097000000000 33.1081242699999976 2.6288545499999998 Au
atom 10.4410328900000007 32.8546764399999986 2.6916358400000000 Au
atom 13.2560917600000003 32.8468366500000002 2.4692818499999998 Au
atom 15.9177783599999998 32.9520533900000032 2.1199816299999998 Au
atom 18.7322525499999983 33.0128784099999990 2.5804397099999998 Au
atom 21.5502861599999989 33.0854247199999989 2.7061931499999998 Au
atom 24.3651326300000015 32.9324784300000033 2.4526725200000001 Au
atom 27.4967445899999987 32.8072697899999994 2.4830850600000001 Au
atom 2.0556732700000002 32.8238791200000009 2.5845692800000002 Au
atom 4.5584575799999998 32.5745393899999982 2.4120148800000001 Au
atom 9.1270215300000004 35.3807484499999987 2.5954099500000001 Au
atom 11.9559442699999998 35.2474447499999997 2.9945421099999998 Au
atom 14.5932288999999997 35.2869088699999978 2.4448367499999999 Au
atom 17.4110530099999998 35.2943496400000001 2.7657858300000000 Au
atom 19.9062210499999992 35.4632896500000001 2.4966145300000000 Au
atom 22.8820968100000002 35.5132909599999991 2.6624623399999998 Au
atom 25.6384111099999998 35.5142174300000022 2.5675798200000002 Au
atom 0.5661244900000000 35.3147426499999995 2.5160489899999998 Au
atom 3.4203501599999999 35.4441851500000027 2.5703892700000002 Au
atom 6.1249319699999996 35.6780005099999968 2.8140429199999999 Au
atom 7.5777801399999998 37.9028674600000031 2.7134704400000000 Au
atom 10.4782855099999992 37.9301284599999988 2.9190844399999998 Au
atom 13.0226050099999995 37.7842523999999997 2.5186592200000000 Au
atom 15.7499134099999996 37.6951976000000002 2.8161285600000001 Au
atom 18.7897900900000003 37.7062570100000016 2.4980830400000000 Au
atom 21.4859292000000011 37.7197497700000000 2.6515464199999998 Au
atom 24.3478120599999990 38.0280338299999983 2.8037535299999998 Au
atom 27.1741330999999988 37.8386488800000009 2.9407657899999999 Au
atom 1.6757556700000000 37.8538146599999976 2.7265356299999999 Au
atom 4.5893499200000001 37.8965912600000010 2.7970461400000000 Au
atom 8.9272047899999993 0.5368736200000001 3.0138708900000002 Au
atom 11.7482691399999997 1.0156397500000001 2.9633693600000002 Au
atom 14.2388429799999994 0.8748499000000000 2.9387505100000002 Au
atom 17.1965871399999983 1.0238281000000000 2.8794748499999998 Au
atom 19.9964766400000009 0.7006890600000000 2.5615677799999998 Au
atom 22.8993820300000017 0.7444516400000000 2.9890572299999998 Au
atom 26.0087834099999995 0.9648378000000000 2.8699191399999999 Au
atom 0.4346452900000000 0.8370736000000000 2.8980844299999999 Au
atom 3.2281282500000001 0.7742375600000000 2.8196399200000002 Au
atom 6.1025929000000003 0.8560189000000000 2.7465172500000001 Au
atom 7.6091573700000001 3.3782104600000000 2.7892934399999998 Au
atom 10.2506115599999994 3.3150278200000001 2.9774500200000000 Au
atom 13.2132008200000008 3.5709725400000001 2.8674574000000002 Au
atom 15.8667596500000005 3.4450551400000000 2.8348615800000001 Au
atom 18.6433927200000014 3.3482362600000002 2.7433807799999999 Au
atom 21.4770620399999999 3.2238105099999999 2.8316278700000002 Au
atom 24.3844204799999993 3.4249106899999999 2.6488322599999998 Au
atom 27.1553376200000010 3.2484877800000000 2.4181695900000002 Au
atom 1.7255971699999999 3.3829611700000002 2.8088218600000001 Au
atom 4.6472237800000000 3.3098299700000000 3.0008854500000002 Au
atom 8.8892075199999994 5.7755581400000002 2.7385232700000000 Au
atom 11.6164459400000002 5.7967883599999999 2.8775719799999999 Au
atom 14.5986456800000006 5.8387229600000001 3.0969976400000001 Au
atom 17.4202095800000016 5.8383932200000004 2.8783895099999999 Au
atom 20.1712044500000012 5.6389837800000002 2.8882985600000000 Au
atom 23.0489791699999991 5.6016451399999996 2.9961973000000000 Au
atom 25.7798079899999983 5.7041206100000004 2.6709778599999998 Au
atom 0.3032673700000000 5.6804427799999999 2.6645206300000002 Au
atom 3.2013749400000000 5.9441934099999996 2.7563431500000002 Au
atom 6.2255666600000001 5.8967042599999999 2.7780532099999999 Au
atom 7.4568943200000000 8.2949289000000004 2.8085871700000000 Au
atom 10.2995102200000002 8.3782463299999996 2.8692024599999999 Au
atom 13.1828189600000005 8.4094560000000005 3.1536368000000001 Au
atom 15.8552374000000000 8.3255006199999997 2.8312181999999999 Au
atom 18.8821001899999992 8.2568005600000003 2.5351166699999998 Au
atom 21.8021610899999985 8.2070286899999996 2.6419413899999999 Au
atom 24.4932907700000015 8.3057486800000007 2.8325011199999999 Au
atom 27.2640222899999998 8.3499113000000005 2.5452933400000002 Au
atom 1.6961881400000001 8.3977443100000002 2.7712940700000002 Au
atom 4.7486387299999997 8.2767737900000000 2.6449674900000000 Au
atom 8.8214551500000002 10.8067893799999997 2.7037152500000001 Au
atom 11.8505053399999998 10.9389460199999995 2.6919474700000001 Au
atom 14.5720112200000003 10.9232694000000006 2.8035883300000002 Au
atom 17.4723400399999989 10.5508590099999999 2.7002698999999999 Au
atom 20.3721231399999994 10.8475286900000008 2.6290114600000001 Au
atom 23.1112599400000001 10.7810636100000004 2.7583388200000001 Au
atom 25.6743042099999990 10.7126610099999997 2.3998891599999999 Au
atom 0.4192636000000000 10.8354546900000006 2.4690649200000001 Au
atom 3.4810080000000001 10.5088127999999994 2.4483292099999998 Au
atom 6.1210577700000002 10.8351346999999993 2.7521783700000002 Au
atom 7.3138081200000000 13.0622138700000008 5.3062506000000003 Cl
atom 7.3280447799999999 15.7438392599999997 8.5199360300000002 Cl
atom 7.2374454400000001 13.1864659500000005 8.1323262700000001 Na
atom 7.1473276900000000 15.9619260199999999 5.5356026600000003 Na
atom 7.2611341899999999 18.8235559499999994 5.6252283800000003 Cl
atom 7.2972034299999997 21.8809770999999991 8.3256887600000002 Cl
atom 7.4637637300000002 18.8215800500000014 8.3074033400000005 Na
atom 7.3644350799999998 21.7233356999999998 5.7842181600000000 Na
atom 7.3482719100000002 24.5029171599999991 5.3591879699999998 Cl
atom 7.2355142700000004 27.3253159299999986 8.4347610399999997 Cl
atom 7.3149457699999996 24.7758765399999987 8.4280777800000006 Na
atom 7.3556379099999996 27.2568477099999988 5.8421241200000003 Na
atom 7.4172458600000004 30.2272922100000017 5.7411302099999997 Cl
atom 7.4839915200000000 32.8149063299999995 8.4068117900000008 Cl
atom 7.4180195099999997 30.1432936399999996 8.2868038599999991 Na
atom 7.4566784100000003 32.7800375500000030 5.8294227699999999 Na
atom 7.4387501299999998 35.6727034700000019 5.6660680499999998 Cl
atom 7.0969046300000000 38.3654561000000029 8.8321522500000000 Cl
atom 7.4478141500000001 35.5258734499999989 8.4104755099999995 Na
atom 7.3361728199999998 38.4212116200000011 6.0695148400000001 Na
atom 7.2948789900000000 1.9454471900000001 5.8154623200000000 Cl
atom 7.1986834000000002 4.7589610699999998 8.7791948699999995 Cl
atom 7.5253353499999998 1.8804795000000001 8.6813047300000008 Na
atom 7.0331878100000003 4.5626114700000002 5.9742295600000004 Na
atom 7.3168793699999997 7.6723147200000001 5.8032465999999996 Cl
atom 7.2981953099999997 10.4339879599999996 8.6312559199999992 Cl
atom 7.2778542899999996 7.6156972100000004 8.3805313500000000 Na
atom 7.3443276800000001 10.2634634499999997 5.9073636799999996 Na
atom 9.9804985399999993 13.2776140799999993 5.1745261100000004 Na
atom 13.0858012600000002 13.1145741099999995 5.7073668900000003 Cl
atom 10.0505303300000008 15.8855796999999992 8.2058148699999993 Na
atom 12.9785818499999994 16.2049833499999991 8.7402866699999997 Cl
atom 13.0923998600000004 13.2040925100000006 8.4260907799999991 Na
atom 10.1364279800000006 13.4154459100000008 8.1241250399999991 Cl
atom 12.9600522700000003 16.1163917099999985 5.7804392000000000 Na
atom 9.9068027999999995 15.8538853500000005 5.5701450499999998 Cl
atom 10.2215728400000003 19.1510889599999992 5.5898785499999999 Na
atom 12.6820103599999996 18.7451450299999998 5.7258979200000004 Cl
atom 10.2350670200000007 21.9261324500000008 8.4900390699999999 Na
atom 12.9838754999999999 21.3102660700000008 8.4012352299999993 Cl
atom 13.0714614400000002 18.6154848699999995 8.3016793500000006 Na
atom 10.1092054299999994 18.7540812700000004 8.4110156000000007 Cl
atom 12.9861379100000001 21.8360072000000009 5.8646291399999999 Na
atom 10.0248386499999995 21.7873890999999986 5.7267628799999999 Cl
atom 10.1712390999999993 24.4609480300000008 5.7114399899999997 Na
atom 13.0371784099999992 24.4545672200000013 5.8913933800000002 Cl
atom 10.2262925599999992 27.1698331999999994 8.1982962700000002 Na
atom 12.8479069100000007 27.1557610999999994 8.6089133100000002 Cl
atom 12.8915279999999992 24.3227143499999983 8.2735301700000008 Na
atom 10.3999739899999994 24.4943473300000001 8.6113650199999991 Cl
atom 13.0418076099999993 27.4506851500000018 5.9592556800000001 Na
atom 10.0308576299999999 27.3211928999999998 5.7603214800000000 Cl
atom 10.2991590199999994 30.2051036199999992 5.8449762900000000 Na
atom 13.1407810099999995 30.0743969500000006 5.8959276200000001 Cl
atom 10.1747155700000000 32.6171355600000012 8.5445498400000002 Na
atom 13.1273202700000002 32.7166401200000010 8.8105387999999998 Cl
atom 13.3002125099999997 29.9340195000000016 8.2243809700000003 Na
atom 10.2527341599999993 30.0137064400000000 8.4473254200000003 Cl
atom 12.8974077900000008 32.8179386699999966 5.7520642100000003 Na
atom 10.4004147000000007 33.0085538499999984 5.7330425299999996 Cl
atom 10.4751060500000008 35.5895346699999990 5.9158287999999999 Na
atom 13.0905856800000002 35.7334302699999995 5.8678685399999999 Cl
atom 10.1918738599999994 38.4218390999999997 8.5248012499999994 Na
atom 13.2000201500000003 38.4618919999999989 8.7340694800000005 Cl
atom 13.0455901799999996 35.6720226600000032 8.5419492300000002 Na
atom 10.4733592400000006 35.6243324599999980 8.6528640800000005 Cl
atom 12.9255921899999997 38.3281816699999993 5.8985330800000000 Na
atom 10.2539210300000008 38.4924215899999993 5.8297428499999997 Cl
atom 10.0429904499999996 1.5779113499999999 6.0123726700000004 Na
atom 12.9656316000000000 1.7198877100000001 5.8920412000000004 Cl
atom 9.7435439600000002 4.6100854299999998 8.4982666200000008 Na
atom 12.9180223099999996 4.6144108800000003 8.5701827700000006 Cl
atom 13.1955803899999999 1.8745687499999999 8.4885899499999997 Na
atom 9.8240283700000006 1.7645736700000001 8.7895959700000006 Cl
atom 12.9686010300000003 4.8078248900000000 5.9238299999999997 Na
atom 10.2096085700000003 4.6029387699999997 5.8518966399999996 Cl
atom 10.1997071699999999 7.6020055800000002 5.8943097399999997 Na
atom 12.9375726600000007 7.5314099199999998 6.0835089900000003 Cl
atom 10.3754000600000005 10.4925178399999997 8.2785904600000002 Na
atom 12.9206909299999992 10.2992752700000008 8.5337978700000008 Cl
atom 12.8241292999999992 7.2865499199999997 8.3136695899999999 Na
atom 10.0244895399999994 7.6537418800000001 8.5438261499999992 Cl
atom 13.0956217299999995 10.2620446199999993 5.7575678000000003 Na
atom 10.0305618800000005 10.0700520299999994 5.5387740200000000 Cl
atom 15.8431419899999995 13.0918899500000006 5.5584966299999996 Na
atom 18.8726823999999986 13.0608694700000001 5.7496335299999997 Cl
atom 15.9061409299999994 16.0220760999999996 8.4677508300000000 Na
atom 18.5009762199999983 15.7882097600000009 8.6238232600000000 Cl
atom 18.5233421699999994 13.0861353299999994 8.3192422199999996 Na
atom 15.8483283999999998 13.2071005299999999 8.3369753299999996 Cl
atom 18.5678255400000012 15.8758606100000002 5.7979790299999996 Na
atom 15.4890172600000007 15.9817483500000002 5.6650920899999999 Cl
atom 15.8024001700000003 18.8402250500000008 5.8521192400000004 Na
atom 18.4425546900000015 18.5129337199999995 5.8385020599999997 Cl
atom 15.7297490599999996 21.5599861600000011 8.3377329899999992 Na
atom 18.3156116599999983 21.5067978500000017 8.7608690500000002 Cl
atom 18.8617170499999993 18.4782491499999999 8.5096498300000007 Na
atom 15.8625538299999995 18.6109211099999996 8.5478454199999998 Cl
atom 18.4965986300000012 21.8683697499999994 5.8418391900000000 Na
atom 15.9139707000000001 21.4368499399999983 5.7612092800000001 Cl
atom 15.9734710100000008 24.5381329400000006 5.7386154200000004 Na
atom 18.8026517099999992 24.3409068700000013 6.0296018800000004 Cl
atom 16.0065171600000014 27.0518533900000016 8.6128746300000003 Na
atom 18.7642441899999994 27.1394278900000003 8.7298346299999992 Cl
atom 18.8113242099999987 24.4758025100000012 8.4304931100000005 Na
atom 15.9399155300000004 24.4938045600000009 8.5362119300000003 Cl
atom 18.5743688200000001 27.1211198300000014 5.9462969699999997 Na
atom 15.7617265500000006 27.3202386900000000 6.1215185300000003 Cl
atom 15.9121802900000002 30.0709163500000010 5.8267254199999998 Na
atom 18.5913626500000007 30.1739057399999986 5.7575324999999999 Cl
atom 15.9298160499999994 32.5129116100000033 8.5430875000000004 Na
atom 18.5801362099999992 32.9221667400000015 8.8344790900000003 Cl
atom 18.8392092099999999 29.9386503200000007 8.3908358599999993 Na
atom 15.8487807299999997 29.8290076500000012 8.8068303100000005 Cl
atom 18.7780816100000010 32.8345075100000017 5.9909411400000003 Na
atom 15.7680549100000000 32.7787889000000021 5.7391731500000001 Cl
atom 15.6016995900000008 35.6778509900000032 5.9812775699999996 Na
atom 18.4173261500000010 35.7527273299999990 6.0537102400000000 Cl
atom 15.9641831399999994 38.3863109600000030 8.4916558200000001 Na
atom 18.6133404400000018 38.6146607499999988 8.6546146099999994 Cl
atom 18.8379086899999990 35.7530441299999993 8.2511477800000002 Na
atom 15.6726510999999995 35.8024794499999999 8.5709874700000004 Cl
atom 18.9036698700000017 38.5112523900000028 5.9524492799999997 Na