#===============================================================================
# Created using the Atomic Simulation Environment (ASE)

# Tue Dec 23 21:42:58 2025

#=======================================================
lattice_vector 28.1999999999999993 0.0000000000000000 0.0000000000000000 
lattice_vector 0.0000000000000000 39.4799999999999969 0.0000000000000000 
lattice_vector 0.0000000000000000 0.0000000000000000 62.3296083400000001 
atom 7.4873018699999996 14.7933592300000001 0.0017952300000000 Au
atom 10.3416902999999998 14.8246239899999992 0.0120692400000000 Au
atom 13.1068206000000007 14.7362192800000003 -0.0464626700000000 Au
atom 15.9764672500000007 14.7440413800000005 -0.0165289500000000 Au
atom 18.8184082199999985 14.7401786599999998 -0.0537416700000000 Au
atom 21.6183959200000011 14.7800720699999992 -0.0272689400000000 Au
atom 24.4611467400000002 14.7457382599999995 -0.0586129800000000 Au
atom 27.2352373099999987 14.7904825399999993 0.0112459100000000 Au
atom 1.8255334299999999 14.8194876200000003 0.0335229000000000 Au
atom 4.6825536500000000 14.8195344999999996 -0.0165018700000000 Au
atom 8.9405400400000001 17.2491097800000013 -0.0846857500000000 Au
atom 11.7958485500000005 17.2204225899999983 -0.0874723800000000 Au
atom 14.5734020199999996 17.2291019200000015 0.0033459800000000 Au
atom 17.3454394100000009 17.1889266200000002 -0.1130590200000000 Au
atom 20.1394051099999984 17.2762105099999985 0.1193811900000000 Au
atom 22.9906557800000009 17.2318156500000015 0.1327858800000000 Au
atom 25.7836554500000013 17.2460049700000013 -0.0321684800000000 Au
atom 0.3667688800000000 17.2479109900000012 -0.0188035800000000 Au
atom 3.1698570799999999 17.2569223399999991 0.0529661600000000 Au
atom 6.0173852600000002 17.2561803199999986 -0.1573848100000000 Au
atom 7.5447224799999999 19.7303846900000011 -0.0705259800000000 Au
atom 10.3629769500000002 19.7510228400000010 -0.1357690300000000 Au
atom 13.1784864600000002 19.7455933299999984 -0.0119618900000000 Au
atom 15.9479237200000004 19.7302822800000008 -0.0078727900000000 Au
atom 18.7371621099999999 19.6968108899999983 0.1063410600000000 Au
atom 21.5710589400000003 19.7193793299999989 0.0791954400000000 Au
atom 24.3869521899999988 19.6798651400000004 0.0796373100000000 Au
atom 27.1929398999999989 19.6793039400000005 0.0778137500000000 Au
atom 1.8956912800000001 19.6889365199999986 0.0495177900000000 Au
atom 4.6762272600000001 19.7219023600000014 -0.2160250500000000 Au
atom 8.9250664900000007 22.2503393400000000 -0.0010906600000000 Au
atom 11.7391689499999998 22.2319607400000017 -0.0278302200000000 Au
atom 14.5509615900000000 22.2075205199999992 -0.1047962100000000 Au
atom 17.3337250599999990 22.1274194199999990 0.0799640300000000 Au
atom 20.2168419700000008 22.2144134000000015 0.0532653800000000 Au
atom 23.0582802499999993 22.1938335100000010 0.1212756600000000 Au
atom 25.8159079799999986 22.1778452699999988 0.1286181100000000 Au
atom 0.3925787200000000 22.1508568500000003 -0.0160485200000000 Au
atom 3.2640921899999999 22.1759395400000017 -0.2091523300000000 Au
atom 6.1233832599999998 22.1983424900000017 -0.2838450600000000 Au
atom 7.4981716299999999 24.7709074200000003 0.0184294600000000 Au
atom 10.3370307399999994 24.7440496199999984 0.0436683800000000 Au
atom 13.1906622099999993 24.6412988999999989 0.1736964900000000 Au
atom 16.0041339899999997 24.6379738999999987 0.1184552600000000 Au
atom 18.7998078799999995 24.6777441000000017 0.0117157800000000 Au
atom 21.6224599700000013 24.6335198400000017 0.0238070200000000 Au
atom 24.4563300900000016 24.7001693600000003 0.1454148500000000 Au
atom 27.2424845900000001 24.6362220200000017 0.1383803600000000 Au
atom 1.8781926700000000 24.6398474599999986 -0.0734283900000000 Au
atom 4.6996322099999999 24.7120858400000003 -0.0896219500000000 Au
atom 8.8998659300000007 27.2029195699999988 -0.0083933200000000 Au
atom 11.7403534599999997 27.1408511499999996 0.0287595200000000 Au
atom 14.5772373300000009 27.1536077099999993 0.0544648700000000 Au
atom 17.3759635199999991 27.1238945300000012 0.1650490800000000 Au
atom 20.2296976099999988 27.1815996800000015 0.0274191500000000 Au
atom 23.0320889700000002 27.1345438500000000 0.0821566400000000 Au
atom 25.8446348899999983 27.1211263400000000 0.0438200100000000 Au
atom 0.4389934100000000 27.1175083699999995 0.0361110200000000 Au
atom 3.2515933499999998 27.1689396000000016 -0.0031208500000000 Au
atom 6.0897025999999999 27.1890630599999987 0.2161792200000000 Au
atom 7.5244388700000000 29.6633057200000003 -0.0203030900000000 Au
atom 10.3367127399999994 29.6100271299999989 -0.0129714800000000 Au
atom 13.1428899900000005 29.6591565199999998 -0.0196724700000000 Au
atom 15.9759792100000002 29.6912141799999993 0.0280520700000000 Au
atom 18.7616022300000012 29.6209224800000008 0.0665720200000000 Au
atom 21.6127759700000013 29.6016490800000014 0.1033456900000000 Au
atom 24.4419720100000006 29.6182401800000008 0.0508126600000000 Au
atom 27.2563593200000014 29.5940461399999997 0.0100675600000000 Au
atom 1.8724445900000000 29.6130386399999992 -0.0190757600000000 Au
atom 4.6808560200000002 29.6005599000000004 0.0594010500000000 Au
atom 8.9542631099999994 32.1191596000000033 -0.0167483500000000 Au
atom 11.7452129700000008 32.0554749400000034 -0.0109479500000000 Au
atom 14.5970409500000002 32.1300755899999970 -0.0162908600000000 Au
atom 17.3480818100000000 32.1447901900000019 -0.0541851800000000 Au
atom 20.2183577200000002 32.0828183699999983 0.0197009700000000 Au
atom 23.0210502400000010 32.1007264699999979 -0.0158446200000000 Au
atom 25.8748616399999989 32.0413907100000017 -0.0749194300000000 Au
atom 0.4624236500000000 32.0624177799999970 -0.0881694200000000 Au
atom 3.2653832000000000 32.0644833599999970 0.0999676500000000 Au
atom 6.0882279900000000 32.0289785399999971 0.1057696400000000 Au
atom 7.5021599700000001 34.5161415600000012 0.0019193900000000 Au
atom 10.3516828000000007 34.5352109399999989 -0.0087791400000000 Au
atom 13.1642789899999997 34.5474869499999997 -0.0084587200000000 Au
atom 15.9491125000000000 34.6546853400000003 -0.0000020900000000 Au
atom 18.7908024400000002 34.6065828600000032 0.0092041100000000 Au
atom 21.6333413999999991 34.5723014800000001 0.0934150400000000 Au
atom 24.5201650200000003 34.5278879800000027 -0.0470641400000000 Au
atom 27.3125851600000011 34.5434025200000008 0.0171217200000000 Au
atom 1.9089633200000000 34.5464153300000021 -0.1370252200000000 Au
atom 4.7213202000000001 34.5105971099999991 0.0685340500000000 Au
atom 8.9301774999999992 36.9770921300000026 -0.0594298800000000 Au
atom 11.8010900700000008 36.9887701399999997 0.0454160900000000 Au
atom 14.5763877599999994 37.0884187600000033 0.0339352600000000 Au
atom 17.4128609400000016 37.0380129899999986 -0.0288869600000000 Au
atom 20.2193408099999985 37.0282653100000019 -0.0438638200000000 Au
atom 23.0338847899999983 36.9940728099999987 0.0132550500000000 Au
atom 25.8900350099999983 36.9561733199999978 -0.0068540000000000 Au
atom 0.5110340700000000 37.0197381099999987 0.0933358300000000 Au
atom 3.3151161099999999 37.0036510500000020 0.0205195100000000 Au
atom 6.1125093799999997 36.9563214699999989 0.0960258800000000 Au
atom 7.5240811399999998 -0.0347435700000000 0.0529231300000000 Au
atom 10.3354474500000002 -0.0434880000000000 0.0939188600000000 Au
atom 13.1492080999999992 0.0471117800000000 0.1905490800000000 Au
atom 15.9967132099999993 -0.0346463100000000 0.1780504700000000 Au
atom 18.7882625999999995 0.0056727100000000 0.1273542800000000 Au
atom 21.6217508999999986 -0.0153641000000000 0.1147216800000000 Au
atom 24.4751353000000016 -0.0340985000000000 0.0675640500000000 Au
atom 27.2618721000000015 -0.0288376100000000 -0.0054674600000000 Au
atom 1.9122522200000001 0.0666529600000000 0.1055384000000000 Au
atom 4.7086930799999998 -0.0196060800000000 0.1369609600000000 Au
atom 8.9029151399999993 2.4154859599999998 0.1480814000000000 Au
atom 11.6783437699999997 2.4148451600000000 -0.0631718000000000 Au
atom 14.5511394299999992 2.4957077100000000 -0.0370996700000000 Au
atom 17.3355996400000016 2.4035229500000002 0.1465395100000000 Au
atom 20.1989855600000006 2.4629610099999999 0.0157084900000000 Au
atom 23.0560522699999986 2.4351432200000001 0.1649613100000000 Au
atom 25.8323562100000004 2.4502080899999998 0.1835522100000000 Au
atom 0.4301788700000000 2.5011671500000001 0.0945342100000000 Au
atom 3.2648934000000001 2.4811740300000000 0.1368676400000000 Au
atom 6.0908508200000000 2.4394699399999999 0.0601425600000000 Au
atom 7.4929030599999997 4.8995472600000003 0.0665196700000000 Au
atom 10.2957544900000002 4.9274456700000000 0.1430498500000000 Au
atom 13.1162371199999992 4.9343429199999997 -0.0687627300000000 Au
atom 15.9537321900000002 4.9361878600000004 0.1098525800000000 Au
atom 18.8094051600000007 4.9039272599999997 0.0047005000000000 Au
atom 21.6245955199999997 4.8984241300000004 0.0836380000000000 Au
atom 24.4225172400000012 4.9401304499999998 0.1131421500000000 Au
atom 27.2415155499999990 4.9637582900000004 0.0541776100000000 Au
atom 1.8772141800000000 4.9247598699999999 0.1520471000000000 Au
atom 4.6750583499999996 4.9594325200000000 0.0913074100000000 Au
atom 8.8983593299999999 7.3897227699999997 0.0939934700000000 Au
atom 11.7359500600000004 7.4502340000000000 0.0896665500000000 Au
atom 14.5610602000000000 7.3911561199999998 0.0301697300000000 Au
atom 17.4294225099999984 7.3430757099999999 0.0702498900000000 Au
atom 20.2276167700000009 7.3948823399999997 0.1227480100000000 Au
atom 22.9950913700000008 7.4348388500000002 0.1001047800000000 Au
atom 25.7835493500000013 7.4029190399999996 0.1315971200000000 Au
atom 0.4201488400000000 7.3612919100000003 0.1220557800000000 Au
atom 3.2451260400000002 7.3956251999999996 0.0485257000000000 Au
atom 6.0636100199999996 7.3842688200000000 0.0735401500000000 Au
atom 7.4295070599999997 9.8479392200000007 0.0050200400000000 Au
atom 10.3231738899999996 9.8770379399999992 -0.0344608900000000 Au
atom 13.1954615299999993 9.8567165699999997 -0.0144593100000000 Au
atom 15.9668739700000000 9.8635339700000007 0.0394737400000000 Au
atom 18.7714382200000003 9.8744393499999994 -0.0243955100000000 Au
atom 21.6179090000000009 9.9093389799999994 0.1174724200000000 Au
atom 24.4122313599999998 9.8772407599999994 0.1318546000000000 Au
atom 27.2397018399999986 9.8436813399999998 0.1121213800000000 Au
atom 1.8511001899999999 9.8636395399999994 -0.0332207900000000 Au
atom 4.6437530899999997 9.8660672700000003 -0.0177643300000000 Au
atom 8.8699559400000005 12.3522770899999994 -0.0256101200000000 Au
atom 11.7090808499999994 12.3086317199999993 -0.0774586600000000 Au
atom 14.5443184500000005 12.2931495000000002 0.0314406800000000 Au
atom 17.3949906600000013 12.3343899799999992 0.0086738700000000 Au
atom 20.2280070000000016 12.3206769000000005 0.0019413300000000 Au
atom 23.0596082100000004 12.3079105299999991 -0.0412099500000000 Au
atom 25.8213135800000018 12.3014436099999998 -0.0197298400000000 Au
atom 0.4880862400000000 12.3599315300000008 -0.1090732700000000 Au
atom 3.2870825300000002 12.3259632200000002 0.0035193900000000 Au
atom 6.1105754799999996 12.3354288000000007 0.1010275600000000 Au
atom 7.5228793999999999 13.1824812799999993 2.6967342799999998 Au
atom 10.3562036400000004 13.1817661899999994 2.5272297600000000 Au
atom 13.1444620299999997 13.1394978200000008 2.6653916700000000 Au
atom 15.9825987299999994 13.1962530699999991 2.5507715300000000 Au
atom 18.8231671600000006 13.1854770899999991 2.6332657600000000 Au
atom 21.6300074000000002 13.1690615999999991 2.5482956300000001 Au
atom 24.4315385899999988 13.2364531499999991 2.5605797500000000 Au
atom 27.2937213099999987 13.2428809300000001 2.5891820000000001 Au
atom 1.8868984000000000 13.2561478000000008 2.6299808499999999 Au
atom 4.6876651300000001 13.2087319099999991 2.5951252500000002 Au
atom 8.9038903299999994 15.6563842900000001 2.6546465399999999 Au
atom 11.7675414000000007 15.6478773499999999 2.6296865500000002 Au
atom 14.5560479500000000 15.6314025200000000 2.5062139900000000 Au
atom 17.3955336699999989 15.6357414499999994 2.5310345700000001 Au
atom 20.1972488500000011 15.6318951899999998 2.6221028600000000 Au
atom 23.0027653399999998 15.6073877000000003 2.5852728800000002 Au
atom 25.7674268799999986 15.6550210900000000 2.5622880200000000 Au
atom 0.4402643800000000 15.6780515499999993 2.5925565100000001 Au
atom 3.2741889500000001 15.6532553199999995 2.6860491400000002 Au
atom 6.0840025200000003 15.5990994000000001 2.5553424699999998 Au
atom 7.5077980200000001 18.1172545700000001 2.4809030299999999 Au
atom 10.3977747600000008 18.1381865100000006 2.4673572600000000 Au
atom 13.1958058999999999 18.1078276699999989 2.6609914899999998 Au
atom 15.9313921599999997 18.1321200500000010 2.4828595800000000 Au
atom 18.7088911799999984 18.1295088100000008 2.6490776000000000 Au
atom 21.5334213299999995 18.1266143600000014 2.6904245699999998 Au
atom 24.3604951199999995 18.1225369200000017 2.7736445100000000 Au
atom 27.2642221099999986 18.0921648899999994 2.6442843900000002 Au
atom 1.8674816400000001 18.1615530800000009 2.8718791100000001 Au
atom 4.6567068699999998 18.1459773999999996 2.4086876799999999 Au
atom 8.8536696900000003 20.6329229500000011 2.6443087400000000 Au
atom 11.7118924000000000 20.6318126900000003 2.5693387400000001 Au
atom 14.5697052599999992 20.6332585900000005 2.5428633700000001 Au
atom 17.3522227600000001 20.5862439700000017 2.7859493400000002 Au
atom 20.1009286600000010 20.5994384299999993 2.6169557499999998 Au
atom 22.9818521400000009 20.6035102099999996 2.7254381900000002 Au
atom 25.8142916900000010 20.5376425100000013 2.6684879900000000 Au
atom 0.4180541200000000 20.5738503600000016 2.6006964899999998 Au
atom 3.2800175500000002 20.6038379599999999 2.6508982699999999 Au
atom 6.0492368100000000 20.6592019600000008 2.5863065299999999 Au
atom 7.4758538999999997 23.0467016200000003 2.5327824300000001 Au
atom 10.2871869300000007 23.1570486799999991 2.5890270599999998 Au
atom 13.1237772699999997 23.0624203700000017 2.6157345300000001 Au
atom 15.8834764800000006 23.0775966799999992 2.6815779900000001 Au
atom 18.7325123399999995 23.1003251200000008 2.5874323299999999 Au
atom 21.5592875500000005 23.0915184999999994 2.6863417699999999 Au
atom 24.4109971100000003 23.0373787599999993 2.7697981500000002 Au
atom 27.2372517599999995 23.0880366899999991 2.7118868200000001 Au
atom 1.8703037300000001 23.0590614000000009 2.4761619200000000 Au
atom 4.6990518699999999 23.0780947300000001 2.5178592399999999 Au
atom 8.8501929599999993 25.5873837199999983 2.6255047000000000 Au
atom 11.7396375600000002 25.5891923299999995 2.6933301300000001 Au
atom 14.5931937400000002 25.5779704800000012 2.7619270199999999 Au
atom 17.3989441000000014 25.5503563999999983 2.7700451199999998 Au
atom 20.1911402399999993 25.5320269599999996 2.5704137999999999 Au
atom 23.0461949500000003 25.4895639900000006 2.7145299000000001 Au
atom 25.8712754599999997 25.5536407799999985 2.7679273000000002 Au
atom 0.4303140100000000 25.5976310500000004 2.6538636000000002 Au
atom 3.2700151000000002 25.5288250199999993 2.5680071600000001 Au
atom 6.0488461400000002 25.5403161800000014 2.8071425799999998 Au
atom 7.5455083500000004 28.0722413700000004 2.5975830300000000 Au
atom 10.3544163499999993 28.0233440499999986 2.6823633199999999 Au
atom 13.1089665499999999 28.0231931799999998 2.5373798800000000 Au
atom 16.0070885899999986 28.0700014499999995 2.6832603200000000 Au
atom 18.8453802599999989 28.0613958200000013 2.6336787899999998 Au
atom 21.6336473299999987 27.9703763099999989 2.7913366700000002 Au
atom 24.4469092799999999 27.9855258900000017 2.6254814099999999 Au
atom 27.2524451799999987 28.1334723699999998 2.7041879799999999 Au
atom 1.8641232200000000 28.0531900199999988 2.6082748499999999 Au
atom 4.6349238300000000 28.0646485500000011 2.6656384800000001 Au
atom 8.9500635400000004 30.4809991999999994 2.6061463599999999 Au
atom 11.7251894300000004 30.5095641300000011 2.5635070899999999 Au
atom 14.5379170500000008 30.4569651199999996 2.5382721199999998 Au
atom 17.3690263700000003 30.5203561199999989 2.6259202899999998 Au
atom 20.1881056299999990 30.4726804400000013 2.6669826099999998 Au
atom 23.0434589500000016 30.4702416400000011 2.5714996299999999 Au
atom 25.8978006699999987 30.5326694299999986 2.6308755200000000 Au
atom 0.5399811400000000 30.5413814499999994 2.6334372099999999 Au
atom 3.2919815799999999 30.4948871500000003 2.6448798099999999 Au
atom 6.1083507299999997 30.4792652000000004 2.7052808100000001 Au
atom 7.5166899999999996 32.9335850399999970 2.5456244200000002 Au
atom 10.3142049500000006 32.9467950900000019 2.6657439200000002 Au
atom 13.1460811599999996 32.9711188899999996 2.5528349499999998 Au
atom 15.8739911300000003 32.9514297699999972 2.6344386399999999 Au
atom 18.7711881200000015 32.9192307200000016 2.5674939200000000 Au
atom 21.6197423600000000 32.8941737700000019 2.6255042300000002 Au
atom 24.4389296199999997 32.9316852999999981 2.4727050400000001 Au
atom 27.2820818799999998 32.9577840700000024 2.6416282799999999 Au
atom 1.8895676800000001 32.9744022699999988 2.5083064600000000 Au
atom 4.6804693300000002 32.9567325200000028 2.7323324000000002 Au
atom 8.9338673800000006 35.4192136300000016 2.5525093000000001 Au
atom 11.7085814900000003 35.3840039899999965 2.6188440700000002 Au
atom 14.5471134600000003 35.4102934800000000 2.5597768200000002 Au
atom 17.3494111300000000 35.3551945500000002 2.6396144000000001 Au
atom 20.1397616100000008 35.3624114300000016 2.6150460799999999 Au
atom 23.0522543800000008 35.3568660500000007 2.6971484900000000 Au
atom 25.9218262099999990 35.4274150899999967 2.5938682900000001 Au
atom 0.4745619000000000 35.4042671999999996 2.6592771800000001 Au
atom 3.2953113900000002 35.4134213399999993 2.5520830700000001 Au
atom 6.1137488099999997 35.3857502199999985 2.7112931300000001 Au
atom 7.5239756900000003 37.8669677800000031 2.5852180200000001 Au
atom 10.3573193400000001 37.8255146300000007 2.7111404800000001 Au
atom 13.1233332199999992 37.8789015899999981 2.7025805799999998 Au
atom 15.9395992000000000 37.8142412899999982 2.7544057199999998 Au
atom 18.7867194799999986 37.8308001199999993 2.6140897800000000 Au
atom 21.6093448300000013 37.7656395799999984 2.6632927000000000 Au
atom 24.4105768900000015 37.8037290999999982 2.6293937100000000 Au
atom 27.2559668299999984 37.8836219700000001 2.6005590600000001 Au
atom 1.9051183100000000 37.9136136699999966 2.6552495500000002 Au
atom 4.6819317900000001 37.8407232500000035 2.7056439100000000 Au
atom 8.9193539200000007 0.8671772700000000 2.7250421000000000 Au
atom 11.6883019499999996 0.8479165000000000 2.6293231300000000 Au
atom 14.5222863499999999 0.8675653600000000 2.7572739500000001 Au
atom 17.3705723100000000 0.8231726200000000 2.8332448800000001 Au
atom 20.1862805200000004 0.8548152600000000 2.6625845300000002 Au
atom 22.9874723100000011 0.8173105200000000 2.7650306800000002 Au
atom 25.8111612199999989 0.8682419200000000 2.6903612899999998 Au
atom 0.4292665300000000 0.9138687700000000 2.6440831800000000 Au
atom 3.2992004900000000 0.8787115200000000 2.7737156399999998 Au
atom 6.0986427100000000 0.8765478200000000 2.7446267400000002 Au
atom 7.5359240500000002 3.3937405699999998 2.6614614900000002 Au
atom 10.3713933600000008 3.3469865099999998 2.6864166799999998 Au
atom 13.1585438900000007 3.3390709300000001 2.5088827199999999 Au
atom 15.9553808000000004 3.3300024100000001 2.6699224199999998 Au
atom 18.7506007299999986 3.3253433499999998 2.6598107199999999 Au
atom 21.5959521199999998 3.3324566999999998 2.7221338799999999 Au
atom 24.4193797199999985 3.3684355799999999 2.7490341599999999 Au
atom 27.2426107000000002 3.3575105299999999 2.7690366200000001 Au
atom 1.8533935500000001 3.3480825699999999 2.7592581599999999 Au
atom 4.6691054300000001 3.3654009100000000 2.6033736699999999 Au
atom 8.9329583499999998 5.8409157799999996 2.7003683500000002 Au
atom 11.7816793400000002 5.7944866199999998 2.7194160200000002 Au
atom 14.5944669099999995 5.8347589400000004 2.6145443099999999 Au
atom 17.4072342099999986 5.8460915000000000 2.6844160900000000 Au
atom 20.2000685900000008 5.7946266000000000 2.7173063700000002 Au
atom 22.9928734000000006 5.7719537399999998 2.7736657500000002 Au
atom 25.8796763399999996 5.8134012000000004 2.7616091400000000 Au
atom 0.5003796900000000 5.8215474599999997 2.7432407200000002 Au
atom 3.3070278399999999 5.8308396699999996 2.7660455200000000 Au
atom 6.1250988700000004 5.8252301500000003 2.7438362100000000 Au
atom 7.5233739499999999 8.3150499999999994 2.7785028899999999 Au
atom 10.2893172499999999 8.2711130900000001 2.6449806499999999 Au
atom 13.1189475499999997 8.2947778099999994 2.7308651400000001 Au
atom 15.9359372799999992 8.2727062900000004 2.6596687299999999 Au
atom 18.7690906200000001 8.2894529400000003 2.7178140800000001 Au
atom 21.5920828900000004 8.2446659699999998 2.6838031700000000 Au
atom 24.4170334699999998 8.2785999599999993 2.7424717500000000 Au
atom 27.2920972199999987 8.2762158600000006 2.6793791200000001 Au
atom 1.9219974799999999 8.3221384300000008 2.7067915600000001 Au
atom 4.7172268300000004 8.3124378599999993 2.6353112099999998 Au
atom 8.9332789100000003 10.7703869999999995 2.5610718700000001 Au
atom 11.7390811399999997 10.6844399699999997 2.5493887399999999 Au
atom 14.5428097899999997 10.7682331700000002 2.6263480499999998 Au
atom 17.3645839200000012 10.7686606999999999 2.5938563000000001 Au
atom 20.1969452800000013 10.7370117399999998 2.6433002100000000 Au
atom 23.0839377799999994 10.7388187399999993 2.7345020799999999 Au
atom 25.8247678399999998 10.7104008299999993 2.6285798300000001 Au
atom 0.4580055200000000 10.7613807700000006 2.5432248500000001 Au
atom 3.2656411799999998 10.7580583500000007 2.5909080100000002 Au
atom 6.1169498400000002 10.7298994299999997 2.5900896000000002 Au
atom 7.4497982599999997 12.8682149700000004 5.5077927500000001 Cl
atom 7.5191996600000000 15.7216243200000001 8.2037655899999997 Cl
atom 7.4833921800000001 13.0550277799999996 8.1191162000000006 Na
atom 7.4523637500000000 15.9924019400000006 5.7231808199999996 Na
atom 7.6843415100000003 19.0797451900000006 5.9195061999999998 Cl
atom 7.7944277499999997 21.1732968100000001 8.9841705800000007 Cl
atom 7.5030126099999999 18.5254023200000013 8.5199254500000006 Na
atom 7.5233948599999998 21.5180516699999984 6.4475599600000004 Na
atom 7.2832933600000000 24.1347963599999993 5.8118827800000004 Cl
atom 7.2605211399999998 27.3435189799999989 8.3412614299999994 Cl
atom 7.6985230600000003 24.4017525800000001 8.3211546599999995 Na
atom 7.3812421500000003 27.0937117500000006 5.8132323899999996 Na
atom 7.4400755500000004 30.2634632799999999 5.5622418900000001 Cl
atom 7.4767691699999999 33.0905312000000009 8.5116283300000006 Cl
atom 7.4589097999999998 30.1132537099999986 8.2242944199999997 Na
atom 7.5329114099999996 33.1115478099999976 5.8242993399999996 Na
atom 7.5042349399999999 35.9032354900000001 5.7104770699999996 Cl
atom 7.4916941699999997 38.5192635000000010 8.6203611299999992 Cl
atom 7.4326846700000004 35.7950155400000014 8.4207629500000003 Na
atom 7.4782280300000004 38.6071933500000029 5.8509523400000001 Na
atom 7.4096126000000000 1.8657799500000001 5.8209724300000003 Cl
atom 7.4755310699999997 4.6198294600000001 8.6500689600000005 Cl
atom 7.4964383500000000 1.8397036200000001 8.4785395900000005 Na
atom 7.5019651800000000 4.6281845199999996 5.9245678499999999 Na
atom 7.4804442199999999 7.3538839899999999 5.7697667099999999 Cl
atom 7.5662615000000004 10.1633843499999994 8.6001328299999997 Cl
atom 7.5302404400000000 7.4446871799999998 8.4693333899999992 Na
atom 7.4422987300000001 10.1407293000000003 5.7058306700000001 Na
atom 10.4488078699999996 13.1352739300000003 5.7860199500000000 Na
atom 13.2369349900000000 13.1223063300000007 5.6678547000000004 Cl
atom 10.5693300200000007 15.9542780799999999 8.2195723199999993 Na
atom 13.2463870499999992 15.8707832700000004 8.5007847900000009 Cl
atom 13.1253841100000006 12.9683646299999999 8.3154637000000005 Na
atom 10.3333808999999999 12.9629351800000006 8.2987969699999997 Cl
atom 13.3600696499999998 15.9018726099999999 5.7952381500000003 Na
atom 10.6693014099999992 15.9753769400000003 5.6137577199999997 Cl
atom 10.2866510499999997 18.7185966899999983 5.8584515200000000 Na
atom 13.2471163199999999 18.7248942000000014 5.7305283700000000 Cl
atom 10.9228564800000001 21.7195131799999999 8.5355842800000001 Na
atom 13.3989467500000003 21.7156684300000009 8.3370143700000003 Cl
atom 13.1511223899999994 18.7738682300000015 8.1944755300000001 Na
atom 10.4623128199999993 18.5481545200000006 8.4348367300000007 Cl
atom 13.1257273699999999 21.5281099199999986 5.6273899399999996 Na
atom 9.9843033600000002 21.4072046900000004 5.9502475900000000 Cl
atom 10.3610664499999992 24.1569271100000016 5.7351464700000001 Na
atom 13.1867681999999995 24.4183652500000008 5.6409271399999996 Cl
atom 10.3232621899999994 27.2535361499999986 8.2778256399999997 Na
atom 13.1224820300000005 27.2655664299999998 8.5049977699999992 Cl
atom 13.1590831399999999 24.5318107999999988 8.3378731100000003 Na
atom 10.3537360500000002 24.5264526300000014 8.4314778399999994 Cl
atom 13.1364397499999992 27.2202881699999999 5.7618543700000000 Na
atom 10.0319319399999998 27.1873077199999997 5.7078366999999997 Cl
atom 10.2389526899999996 30.0582415900000015 5.6584548999999997 Na
atom 13.0938402499999995 30.2004323799999987 5.7077330399999999 Cl
atom 10.3435409800000002 32.9739616700000013 8.3589500099999992 Na
atom 13.2007257100000004 32.9465500800000015 8.5540293199999997 Cl
atom 13.1082518399999994 30.1638317499999999 8.3073697200000005 Na
atom 10.2663719400000009 30.2431214399999995 8.5308908900000002 Cl
atom 13.2136343099999998 32.9859227999999973 5.8340071000000000 Na
atom 10.3906534399999995 32.9829251499999998 5.6592825400000004 Cl
atom 10.3104404899999995 35.9037811399999995 5.6941196300000003 Na
atom 13.2977424499999994 35.8078383699999989 5.7593422199999997 Cl
atom 10.2660559800000009 38.5839966200000006 8.4263181599999992 Na
atom 13.0552384799999999 38.5728213599999989 8.6612330699999998 Cl
atom 13.1166415500000006 35.7239719000000022 8.3916283499999995 Na
atom 10.3330582999999994 35.8282521499999973 8.4637270499999993 Cl
atom 13.1267745999999992 38.5220967500000029 5.9228177500000001 Na
atom 10.3594982899999994 38.6642575799999975 5.7241856100000001 Cl
atom 10.3171496699999992 1.9166946000000000 5.8430325900000000 Na
atom 13.1568736899999994 1.8731549000000001 5.7479318499999996 Cl
atom 10.3200214999999993 4.6794337500000003 8.4205670399999999 Na
atom 13.1795470699999999 4.6332325200000000 8.6856852700000005 Cl
atom 13.1093525199999998 1.8589437600000001 8.4692103200000002 Na
atom 10.2747959200000007 1.8709020900000000 8.6785004099999998 Cl
atom 13.1257998899999997 4.6079602399999997 5.8856821899999998 Na
atom 10.3414405699999996 4.6801973099999996 5.7572473500000001 Cl
atom 10.3934150400000007 7.4106969300000003 5.7947527900000004 Na
atom 13.1872750300000003 7.4117995800000003 5.8463714099999997 Cl
atom 10.3584706600000001 10.2148885600000003 8.2977456899999993 Na
atom 13.1642148700000003 10.2916349799999995 8.5445303300000006 Cl
atom 13.1406145999999993 7.5466000099999997 8.4508978399999997 Na
atom 10.3791580900000007 7.4067999599999998 8.6093905100000008 Cl
atom 13.1954309599999995 10.2802087899999997 5.7489228499999996 Na
atom 10.4605692300000008 10.1966240199999998 5.6125057900000002 Cl
atom 16.0084120399999996 13.0487724000000007 5.7366242700000001 Na
atom 18.8617412900000012 12.8925368700000007 5.6584016899999998 Cl
atom 15.9141902399999999 16.0288078799999987 8.3508910299999997 Na
atom 18.7843166100000012 15.8425688699999991 8.5099589400000006 Cl
atom 18.7542151100000005 13.1090207099999994 8.3547267999999999 Na
atom 16.0455966699999983 13.0990309600000003 8.4808858600000008 Cl
atom 18.7597199199999984 15.8181798199999992 5.7538446499999996 Na
atom 15.9382910800000008 15.9078276100000000 5.6360914600000003 Cl
atom 15.9259929000000007 18.8337255500000005 5.8667185200000000 Na
atom 18.7248268600000003 18.8073491100000005 5.7990697800000000 Cl
atom 16.0321415099999989 21.6721752000000016 8.3549804900000009 Na
atom 18.8276246900000004 21.6414058500000017 8.7331608999999997 Cl
atom 18.7383775300000011 18.7234942199999992 8.4476206499999993 Na
atom 16.0044196499999991 18.8120009400000008 8.5011700300000008 Cl
atom 18.7795249800000015 21.6623575200000005 5.8720720599999998 Na
atom 16.0612488800000008 21.6035980700000003 5.6020110399999998 Cl
atom 16.0147758700000011 24.3969014599999987 5.8134035700000002 Na
atom 18.7701457599999983 24.5322515299999999 5.7680688699999996 Cl
atom 15.9244235799999991 27.3345826199999991 8.4751928099999994 Na
atom 18.7933514600000002 27.4400258999999984 8.6982461000000004 Cl
atom 18.7741412899999993 24.5933710900000015 8.4369707500000004 Na
atom 16.0555478299999983 24.4492139199999983 8.6003487500000002 Cl
atom 18.8172944800000010 27.3420129600000017 5.8930532099999997 Na
atom 16.0896055599999990 27.2598166199999987 5.8071907200000004 Cl
atom 15.9695501899999996 30.1244126200000011 5.8113017400000002 Na
atom 18.7145271499999986 30.1493220099999988 5.8180470099999999 Cl
atom 15.9856124200000007 32.9623957299999972 8.4227929800000005 Na
atom 18.7720684800000015 32.9703635600000027 8.6338763200000006 Cl
atom 18.6844408599999987 30.1038914700000007 8.4275656500000000 Na
atom 15.8542936900000004 30.1267838099999992 8.6221271599999998 Cl
atom 18.7776788500000009 32.9244735999999989 5.8974336899999997 Na
atom 16.0905328200000000 32.9323265399999983 5.7219252400000000 Cl
atom 16.0199136499999994 35.7086686299999982 5.8216883599999996 Na
atom 18.8130338200000011 35.7900464499999984 5.7326756300000001 Cl
atom 15.8899014500000000 38.5174763099999993 8.4915907399999995 Na
atom 18.8115771500000015 38.5005623400000019 8.6221188299999998 Cl
atom 18.8006030600000003 35.7880318799999984 8.4023220500000004 Na
atom 16.0034176300000013 35.7500635000000031 8.6072207899999995 Cl
atom 18.7769209500000009 38.5743166299999984 5.8560481199999996 Na