#===============================================================================
# Created using the Atomic Simulation Environment (ASE)

# Tue Dec 23 21:42:22 2025

#=======================================================
lattice_vector 28.1999999999999993 0.0000000000000000 0.0000000000000000 
lattice_vector 0.0000000000000000 39.4799999999999969 0.0000000000000000 
lattice_vector 0.0000000000000000 0.0000000000000000 62.3296083400000001 
atom 7.5655059199999997 14.8161473499999996 -0.3094681300000000 Au
atom 10.3961259399999992 14.8154500799999997 -0.5226581000000000 Au
atom 13.1892629100000001 14.7313813299999996 -0.3225913900000000 Au
atom 16.0421897300000005 14.7513782500000001 -0.1812768700000000 Au
atom 18.8788402399999988 14.7811157400000006 -0.1044689500000000 Au
atom 21.6767203500000001 14.8066408200000001 -0.1141709900000000 Au
atom 24.4877354999999994 14.7999647099999994 0.0849517700000000 Au
atom 27.3166005299999988 14.7687094200000004 -0.1086907600000000 Au
atom 1.8703159499999999 14.7663693800000004 0.0129387500000000 Au
atom 4.6538052199999997 14.8149050199999994 -0.0504126800000000 Au
atom 8.9620579199999995 17.2349685299999997 -0.2189314400000000 Au
atom 11.7527713899999995 17.2855256500000003 -0.1935645500000000 Au
atom 14.5630771200000009 17.2025459299999994 -0.1512073000000000 Au
atom 17.4408770199999985 17.2171012099999992 0.0229926700000000 Au
atom 20.2837422399999987 17.2743152799999997 -0.1911542900000000 Au
atom 23.0901430699999999 17.2822249100000001 0.0855261500000000 Au
atom 25.8352124100000005 17.2621986700000001 -0.0380028200000000 Au
atom 0.4731142800000000 17.2971081799999986 0.0105843200000000 Au
atom 3.2903217300000001 17.2733268399999993 0.0272381600000000 Au
atom 6.0762402399999997 17.2763948800000016 -0.1183715400000000 Au
atom 7.4669313900000001 19.6861368500000005 0.0829015500000000 Au
atom 10.2971736299999996 19.7466851599999984 -0.0857862700000000 Au
atom 13.1484507199999996 19.6894255099999995 -0.0681166800000000 Au
atom 15.9923003500000007 19.7231180799999990 -0.1505447400000000 Au
atom 18.8134402600000001 19.7026588999999994 -0.0007542800000000 Au
atom 21.6304184600000013 19.7509776200000005 -0.0423080000000000 Au
atom 24.4220970900000012 19.7427786999999988 -0.0353980800000000 Au
atom 27.2575745500000011 19.7659771299999996 -0.0106536900000000 Au
atom 1.8751667800000000 19.7380306300000008 0.0894156600000000 Au
atom 4.6901010899999998 19.7577635899999997 0.0702881100000000 Au
atom 8.8887372599999992 22.1856611100000016 0.0015299100000000 Au
atom 11.7504246000000006 22.1790700500000000 -0.0670966800000000 Au
atom 14.5830169299999994 22.1934843899999983 -0.0266915400000000 Au
atom 17.4386596599999990 22.2057372000000015 -0.1898349200000000 Au
atom 20.2480781900000011 22.2071949599999989 -0.0549584600000000 Au
atom 23.0937042699999999 22.2255473300000013 0.0757283500000000 Au
atom 25.8595540600000007 22.2332186100000015 -0.0893647200000000 Au
atom 0.4607016300000000 22.2005638599999990 0.0881762200000000 Au
atom 3.2125975300000000 22.1833105999999987 0.0182987000000000 Au
atom 6.0638459400000002 22.1877349799999983 0.0921404300000000 Au
atom 7.4636223499999996 24.6509175499999991 0.0174912500000000 Au
atom 10.3119291600000000 24.6559030099999994 -0.1456502200000000 Au
atom 13.1457228599999993 24.6878780400000011 0.0799213200000000 Au
atom 15.9637531199999998 24.7135805099999999 -0.1004223800000000 Au
atom 18.8269853400000002 24.6855679300000013 -0.0556221200000000 Au
atom 21.6390819199999989 24.6751712900000015 0.0673002100000000 Au
atom 24.4842610799999996 24.6845051700000013 0.0574478700000000 Au
atom 27.2881835700000011 24.6561788399999990 -0.0357540100000000 Au
atom 1.8757631200000000 24.7124862699999994 0.1594326500000000 Au
atom 4.6409804399999999 24.6544776900000002 0.0946200500000000 Au
atom 8.8794235300000004 27.1344319200000008 -0.0758697500000000 Au
atom 11.6913275999999993 27.1183349199999988 0.1256344600000000 Au
atom 14.5297977899999999 27.1549015800000006 -0.0439523300000000 Au
atom 17.3835257299999988 27.1073107700000016 -0.1115602700000000 Au
atom 20.2447188000000011 27.1519573299999983 0.0572245400000000 Au
atom 23.0460760200000010 27.1638346900000016 0.0166889600000000 Au
atom 25.8090792799999988 27.1291455900000003 0.0837412500000000 Au
atom 0.4339150300000000 27.0984174899999992 0.0486026900000000 Au
atom 3.2404166100000000 27.1546258899999984 0.0834735700000000 Au
atom 6.0482626399999999 27.1533600700000015 0.0832540500000000 Au
atom 7.5000180800000003 29.6444597099999996 -0.0649921500000000 Au
atom 10.3381273500000006 29.6020731200000000 -0.1081736900000000 Au
atom 13.1282662499999994 29.6218305700000002 0.0604268700000000 Au
atom 15.9477460499999992 29.5799899099999983 -0.0481724000000000 Au
atom 18.7595646800000004 29.5918335900000002 -0.0244743200000000 Au
atom 21.5863458900000005 29.6040714099999995 -0.0305033600000000 Au
atom 24.4208902899999991 29.6229468500000017 0.0571834000000000 Au
atom 27.2417992799999986 29.5577174599999992 -0.0021428000000000 Au
atom 1.8054397799999999 29.6065414300000000 0.0147679400000000 Au
atom 4.6654227099999996 29.6217082500000011 0.0175946300000000 Au
atom 8.9231699100000004 32.0981470799999968 -0.0174252500000000 Au
atom 11.6568383099999995 32.1323003700000029 0.0217112100000000 Au
atom 14.5027049600000009 32.0952116099999998 -0.0362860100000000 Au
atom 17.3255780399999999 32.0614084400000010 0.1090735100000000 Au
atom 20.0756545799999984 32.0986563399999980 -0.0403063400000000 Au
atom 22.9158799000000002 32.1006319700000020 0.0568225900000000 Au
atom 25.7846584499999985 32.1273100299999967 -0.0843599100000000 Au
atom 0.3682189100000000 32.0929888900000009 0.1048412700000000 Au
atom 3.2605598699999998 32.0875515099999973 -0.0774583500000000 Au
atom 6.1042987399999999 32.0656353299999992 0.0761215600000000 Au
atom 7.5314635000000001 34.4970226499999981 0.1074177800000000 Au
atom 10.3162243100000008 34.6125035199999971 0.1170928900000000 Au
atom 13.1298788799999997 34.5589266699999982 -0.0286226700000000 Au
atom 15.9223849800000004 34.5755186000000023 -0.0642815300000000 Au
atom 18.7374655499999996 34.5554438799999986 0.0912622900000000 Au
atom 21.5942077200000000 34.5612319199999973 0.0528914800000000 Au
atom 24.3871543200000005 34.5647362899999990 -0.0470468800000000 Au
atom 27.2233065799999991 34.6130458399999981 0.0731931700000000 Au
atom 1.8095528000000001 34.5360281600000008 -0.0639842400000000 Au
atom 4.6642070899999997 34.4984444199999984 0.0316952400000000 Au
atom 8.9235718899999998 37.0456408699999997 0.0267145400000000 Au
atom 11.7175818100000004 37.0141953500000014 0.0314678400000000 Au
atom 14.5420142600000002 37.0644730300000020 0.0045220000000000 Au
atom 17.3429244300000001 37.0351801799999976 0.1199205300000000 Au
atom 20.1459683900000002 37.0482213299999970 0.0954428200000000 Au
atom 23.0194598100000007 37.0548399799999970 0.0545576800000000 Au
atom 25.8104050200000010 37.0181883999999997 -0.0433629600000000 Au
atom 0.4784314800000000 37.0267339099999973 0.1061863200000000 Au
atom 3.2585742799999999 36.9514110499999973 0.1136282500000000 Au
atom 6.1001280099999997 37.0130458900000008 0.0300899600000000 Au
atom 7.5062707499999997 0.0008101600000000 0.0592638100000000 Au
atom 10.3248927599999991 -0.0059116800000000 0.0194275800000000 Au
atom 13.1287745000000005 0.0366823100000000 0.0762429900000000 Au
atom 16.0438330799999989 0.0315431900000000 0.2120764000000000 Au
atom 18.8422826199999989 0.0604827900000000 0.0986232400000000 Au
atom 21.5861252599999993 0.0446024500000000 0.1458130200000000 Au
atom 24.4321372600000011 0.0142342700000000 0.0612782000000000 Au
atom 27.2218995899999996 -0.0263961500000000 0.1158218300000000 Au
atom 1.8627853400000001 -0.0427253400000000 0.1036048100000000 Au
atom 4.7057434100000002 -0.0434336900000000 0.1125598600000000 Au
atom 8.9271419000000005 2.4620606399999998 -0.0043322900000000 Au
atom 11.7364497100000005 2.5232468899999998 0.0767529500000000 Au
atom 14.5731037400000005 2.4841900400000001 0.1030965900000000 Au
atom 17.3841628300000011 2.5916973300000001 0.1547226900000000 Au
atom 20.2291995200000017 2.5248317999999998 -0.0245633200000000 Au
atom 23.0711169299999987 2.4597726999999998 0.1372941900000000 Au
atom 25.8679141199999982 2.4489723799999998 0.0570613000000000 Au
atom 0.4715335000000000 2.4486206600000000 0.0333102700000000 Au
atom 3.2943841500000000 2.4395726000000000 0.0739181400000000 Au
atom 6.0811322800000003 2.4759663500000002 0.0981502500000000 Au
atom 7.4809583799999997 4.9180710699999999 0.2503596400000000 Au
atom 10.3495442000000004 4.9490956500000003 0.1220893000000000 Au
atom 13.1465730900000004 4.9911529000000003 -0.0154455500000000 Au
atom 15.9405195699999993 4.9499307300000002 0.2396859100000000 Au
atom 18.7718122399999992 4.9961589300000000 0.0794800700000000 Au
atom 21.6101451500000010 4.9168573699999998 0.1001316200000000 Au
atom 24.4118328300000016 4.9097258100000003 0.0937584400000000 Au
atom 27.2383861699999983 4.9294784500000004 0.1262668000000000 Au
atom 1.8651543200000000 4.8766296100000002 0.0011497500000000 Au
atom 4.6706413800000002 4.9174612199999999 0.1037058900000000 Au
atom 8.9256150699999992 7.3329086500000003 -0.0269539300000000 Au
atom 11.7920879099999993 7.4142374100000001 0.1304469300000000 Au
atom 14.5762260599999998 7.3955003200000000 0.0202956900000000 Au
atom 17.3452948199999994 7.3995204100000000 0.1438281500000000 Au
atom 20.2244056100000016 7.3845805999999996 0.0559266800000000 Au
atom 23.0166852800000008 7.4306264100000003 -0.0034847000000000 Au
atom 25.8234555099999987 7.3722072900000004 0.0944009700000000 Au
atom 0.4651320700000000 7.4171281100000002 0.0454489000000000 Au
atom 3.2137067500000001 7.4148854300000000 0.1396810800000000 Au
atom 6.0764851999999996 7.3845154300000004 0.0713054700000000 Au
atom 7.4975804500000001 9.8285551000000009 0.0016187000000000 Au
atom 10.2870499700000000 9.8712348999999993 -0.0288653300000000 Au
atom 13.1777878800000003 9.8234637100000004 0.0150106700000000 Au
atom 16.0005809300000017 9.8515069499999992 0.1480133400000000 Au
atom 18.8530176999999988 9.8342535800000004 -0.1269222200000000 Au
atom 21.6364103900000018 9.8456125599999993 0.0676621500000000 Au
atom 24.4223162900000013 9.8935572900000004 0.1166927700000000 Au
atom 27.1906052900000006 9.8654144200000005 -0.0685064400000000 Au
atom 1.8434543200000000 9.8726791699999996 0.1006167300000000 Au
atom 4.6470720700000001 9.8203519999999997 0.0893825900000000 Au
atom 8.8828852499999993 12.3186216700000006 -0.0724783900000000 Au
atom 11.7244961500000002 12.2860642299999991 -0.1979059100000000 Au
atom 14.6195691700000001 12.2713186699999994 0.1150813300000000 Au
atom 17.4450534499999996 12.3151358900000005 0.0937179100000000 Au
atom 20.2392945100000006 12.3593304600000007 0.0371985700000000 Au
atom 23.0553249200000003 12.3579779700000003 0.0257604500000000 Au
atom 25.8445959999999992 12.3788633899999994 0.0440584200000000 Au
atom 0.4473682800000000 12.2898023999999992 0.0081918300000000 Au
atom 3.2321192700000001 12.2670475099999994 0.0285181700000000 Au
atom 6.0457933300000004 12.3230416500000004 -0.0188960600000000 Au
atom 7.6037902900000001 13.2372277399999998 2.6034203900000001 Au
atom 10.3871123300000008 13.1592718299999998 2.3479580900000001 Au
atom 13.1678528900000007 13.1953350799999996 2.5330632600000000 Au
atom 16.0527438199999999 13.1604755200000003 2.6184060200000001 Au
atom 18.8719026800000016 13.1951283999999998 2.7285792799999999 Au
atom 21.6778260100000004 13.2214645700000002 2.5736497699999998 Au
atom 24.4498814600000003 13.2167184899999999 2.7656895300000000 Au
atom 27.2425293800000006 13.2430910500000003 2.5633390500000002 Au
atom 1.8867377400000001 13.1664073300000002 2.6689831300000000 Au
atom 4.7210758600000000 13.1963085200000005 2.4852431199999998 Au
atom 8.9626520999999997 15.6359719500000001 2.5020807299999999 Au
atom 11.7294347699999992 15.5833350199999998 2.4400263099999999 Au
atom 14.5189281099999992 15.5742629200000007 2.3460239999999999 Au
atom 17.3711565999999991 15.6147719800000004 2.5732322900000000 Au
atom 20.2743000600000016 15.6419748700000003 2.3648636399999998 Au
atom 23.0672868499999986 15.6710219899999998 2.6887215900000001 Au
atom 25.8981025100000011 15.6985930600000003 2.5693882299999999 Au
atom 0.4942060900000000 15.6105600300000003 2.5601272200000000 Au
atom 3.3100141399999998 15.5839552700000006 2.6271063899999998 Au
atom 6.1663506899999998 15.6484401500000008 2.4417201300000002 Au
atom 7.4832797600000003 18.0251939000000014 2.5873546599999999 Au
atom 10.3339831300000000 18.1199063199999983 2.4847087700000001 Au
atom 13.1300209799999994 18.0918576900000012 2.6081709700000002 Au
atom 15.9555000099999997 18.1104307200000001 2.4942461900000001 Au
atom 18.8124040100000016 18.0515958400000009 2.5763612899999999 Au
atom 21.5888913699999989 18.1190740300000002 2.6419423700000002 Au
atom 24.4337885099999994 18.1112891199999986 2.6255061400000002 Au
atom 27.2701179300000014 18.1276919800000016 2.6182072100000000 Au
atom 1.8952032500000000 18.0577652300000011 2.6909124300000000 Au
atom 4.6913929899999998 18.0963371700000017 2.5855146100000002 Au
atom 8.8977392399999999 20.5623027900000004 2.6920066800000000 Au
atom 11.7096144399999993 20.5526081500000011 2.5762015300000001 Au
atom 14.5631649400000001 20.6015193299999986 2.5733322799999998 Au
atom 17.3016872200000016 20.6530951300000005 2.5122390800000001 Au
atom 20.2018066900000015 20.5668578099999984 2.5956641800000000 Au
atom 22.9923429400000003 20.5866929600000006 2.6406895100000001 Au
atom 25.8161412699999993 20.5845066400000007 2.5203282300000001 Au
atom 0.4572792000000000 20.5659365399999992 2.6931753000000000 Au
atom 3.2574757200000000 20.5788762200000015 2.7010566800000002 Au
atom 6.1119964099999997 20.5459239400000016 2.7008829799999998 Au
atom 7.4896925899999998 23.0489605200000014 2.6552005799999998 Au
atom 10.3032806200000007 23.0909944600000010 2.5837552499999998 Au
atom 13.1570480500000002 23.0216239599999994 2.5990179900000001 Au
atom 15.9626823200000008 23.1140718400000011 2.5058913100000000 Au
atom 18.8044588499999996 23.0659973200000010 2.5145018100000001 Au
atom 21.5953270599999989 23.1258785799999984 2.6872964100000001 Au
atom 24.4283720500000001 23.0341688699999985 2.6447596500000001 Au
atom 27.2171274899999993 23.0850532199999989 2.5378595000000002 Au
atom 1.8898232800000001 23.0235539100000004 2.6957163700000000 Au
atom 4.6698138900000004 23.0351213399999999 2.6266196200000000 Au
atom 8.9032720300000001 25.6068599799999994 2.5087913600000000 Au
atom 11.7209321699999993 25.5538561199999990 2.6610971100000000 Au
atom 14.5485957100000007 25.6249830699999990 2.5521142000000001 Au
atom 17.3611860299999989 25.6098132700000001 2.5528101799999998 Au
atom 20.1826143999999985 25.5434183200000007 2.7031190299999999 Au
atom 23.0588896699999992 25.5603014799999997 2.6182106300000001 Au
atom 25.8848209300000001 25.5420323399999987 2.6688758300000002 Au
atom 0.4565229400000000 25.5573289999999993 2.6861177700000001 Au
atom 3.2520927500000001 25.5295568400000015 2.7472692900000002 Au
atom 6.0381094400000004 25.5024928700000011 2.6965758000000002 Au
atom 7.4626171100000001 28.0063074299999997 2.5457024399999999 Au
atom 10.3046127399999996 28.0401665400000013 2.6604560500000001 Au
atom 13.1349716000000001 28.0334088799999996 2.6516481199999999 Au
atom 15.9115634600000000 28.0637075600000010 2.4956567999999999 Au
atom 18.8101513599999990 28.0296103199999997 2.5789690300000001 Au
atom 21.6122878000000007 28.0453159800000016 2.6224962700000001 Au
atom 24.4103737099999982 28.0147660999999992 2.6033533000000002 Au
atom 27.2321652999999984 28.0206817900000011 2.6426098100000002 Au
atom 1.8197635000000001 27.9965965099999998 2.5679441500000002 Au
atom 4.6446434400000003 28.0141281999999983 2.7402119200000001 Au
atom 8.9265215199999997 30.4458981000000009 2.4692470200000001 Au
atom 11.7002986000000000 30.4795577900000012 2.5811512799999998 Au
atom 14.5769165899999997 30.5059362800000002 2.6622821299999999 Au
atom 17.3269040399999987 30.4962887699999996 2.7175118399999998 Au
atom 20.2018648499999998 30.5236307800000013 2.6467640900000000 Au
atom 23.0283733700000006 30.5090013599999992 2.6494092299999998 Au
atom 25.8293357099999987 30.4755533400000012 2.5170825600000000 Au
atom 0.4297508000000000 30.5033085200000009 2.7113199200000002 Au
atom 3.2376998700000001 30.4813736300000002 2.5323991600000002 Au
atom 6.0693525800000003 30.4240745799999992 2.6823416299999998 Au
atom 7.4788914000000002 32.8678795100000016 2.5946412699999999 Au
atom 10.2956953799999997 32.9449355900000000 2.6710958699999998 Au
atom 13.0911788900000001 32.8717257699999976 2.5511742700000002 Au
atom 15.9257314700000006 32.9720806099999990 2.6615611700000001 Au
atom 18.7641509800000001 32.9721579899999995 2.6935520600000000 Au
atom 21.5173868800000001 32.9623203200000034 2.6593956500000000 Au
atom 24.3950134399999996 32.9736253900000023 2.5554674199999998 Au
atom 27.1650656200000000 32.9797395499999979 2.6972205200000001 Au
atom 1.8645107900000000 32.9215668100000016 2.5492138000000000 Au
atom 4.7093541500000002 32.8942223900000030 2.7245274099999999 Au
atom 8.8980503700000000 35.3842857100000003 2.6590581800000002 Au
atom 11.7417717400000008 35.4092329799999987 2.6361260400000002 Au
atom 14.4857215999999998 35.3919131899999968 2.6313227499999998 Au
atom 17.2902276999999991 35.4067946400000011 2.6105079000000000 Au
atom 20.1516017199999986 35.4149001099999978 2.6597930200000000 Au
atom 23.0053881099999984 35.4245661100000007 2.6780529899999999 Au
atom 25.8312552099999984 35.5005102599999987 2.5738490800000000 Au
atom 0.4646727400000000 35.3449356699999981 2.7160644000000000 Au
atom 3.2714683899999999 35.3613013200000026 2.6518601899999998 Au
atom 6.0817050000000004 35.3769114600000023 2.6410816600000002 Au
atom 7.4552652899999998 37.8942538800000008 2.5961861900000001 Au
atom 10.3029716800000006 37.8455590000000015 2.6546047399999999 Au
atom 13.1400372099999991 37.8694787399999981 2.5519379899999999 Au
atom 15.9244928399999992 37.8066069300000009 2.7050086400000000 Au
atom 18.7705438399999984 37.8734689799999984 2.7382978100000002 Au
atom 21.5505170600000007 37.8610189600000027 2.6633503400000000 Au
atom 24.3876336500000015 37.9713366599999986 2.5933706299999999 Au
atom 27.2651778100000008 37.8724527299999991 2.7748324499999999 Au
atom 1.8879225900000001 37.8148964199999966 2.7541943099999999 Au
atom 4.6906585500000002 37.8601265599999977 2.7301908600000000 Au
atom 8.9613294999999997 0.8799886000000000 2.6973178500000001 Au
atom 11.7320191699999992 0.8563053100000000 2.6363278299999999 Au
atom 14.5392886000000008 0.8549689900000000 2.6794609100000000 Au
atom 17.3443769799999998 0.8498684399999999 2.8295150900000001 Au
atom 20.1962667399999987 0.8915053400000000 2.7191173599999998 Au
atom 23.0400358499999989 0.9120733200000000 2.7264941100000000 Au
atom 25.8528373999999985 0.9023535400000000 2.6682545000000002 Au
atom 0.5019950200000000 0.8155361600000000 2.7235933000000001 Au
atom 3.3039349100000002 0.8079346300000000 2.6983666799999999 Au
atom 6.1168489099999999 0.8545155400000000 2.7353290399999999 Au
atom 7.5828231099999996 3.3320678500000001 2.7131754099999998 Au
atom 10.3518788500000003 3.3598815900000001 2.6850696400000000 Au
atom 13.1215428799999998 3.3191717800000000 2.5812332699999998 Au
atom 15.9828221500000005 3.2716899399999999 2.7751498300000002 Au
atom 18.8819413599999990 3.3831520099999999 2.6431307999999998 Au
atom 21.6345021700000011 3.3804207300000000 2.7606100599999999 Au
atom 24.4719070700000003 3.3874337300000001 2.6963788499999999 Au
atom 27.2655817499999991 3.3101863300000001 2.6687293599999999 Au
atom 1.8720911400000000 3.3039826400000001 2.6296428600000001 Au
atom 4.7173954100000000 3.2982813200000001 2.7170868100000001 Au
atom 8.9256183100000008 5.7904752600000000 2.8649010100000001 Au
atom 11.7434145000000001 5.7823948700000001 2.7657617299999999 Au
atom 14.5543260300000004 5.7562797899999998 2.7955023300000001 Au
atom 17.4176791199999990 5.7690100600000003 2.8307466300000002 Au
atom 20.2087523199999985 5.8448438400000002 2.7152863400000000 Au
atom 23.0578428500000001 5.8127464700000004 2.6579064799999998 Au
atom 25.8504464899999995 5.8064435699999999 2.7499995099999999 Au
atom 0.5017727900000000 5.8045407100000004 2.6833625400000001 Au
atom 3.2582741700000000 5.7907501899999998 2.7406638299999999 Au
atom 6.0729071399999999 5.8215428899999999 2.8564070600000000 Au
atom 7.4797348399999999 8.2834040000000009 2.5599298500000001 Au
atom 10.3037204599999992 8.2824582499999995 2.5923183800000000 Au
atom 13.1923425200000004 8.2890645400000000 2.6190031000000000 Au
atom 16.0110991399999989 8.1552346799999995 2.6804913099999998 Au
atom 18.8510296400000001 8.3136633799999995 2.6652092199999999 Au
atom 21.6614717200000015 8.3321159700000003 2.6670374099999998 Au
atom 24.4499118200000005 8.2758872199999995 2.7441615200000000 Au
atom 27.2337617399999985 8.2430552499999994 2.6025176499999998 Au
atom 1.8348430499999999 8.3338668299999998 2.7543747600000001 Au
atom 4.6493777400000003 8.2427765900000001 2.7259647000000000 Au
atom 8.8995607999999997 10.7436812899999996 2.6402413400000002 Au
atom 11.7719825500000006 10.7533384900000009 2.5982702700000000 Au
atom 14.6048416700000008 10.6683637800000000 2.7846035400000000 Au
atom 17.4249494300000016 10.6810113100000006 2.6466917599999999 Au
atom 20.2514527499999986 10.7757195100000001 2.5695974499999998 Au
atom 23.0796339000000010 10.7733598599999993 2.7315204099999999 Au
atom 25.8711375699999984 10.7434315399999996 2.6360328800000001 Au
atom 0.4715807300000000 10.7124407300000009 2.6622033799999998 Au
atom 3.2933527699999998 10.7174712700000008 2.7205276999999999 Au
atom 6.0824535800000001 10.7324123700000005 2.6725032799999999 Au
atom 7.4586576300000003 13.2210254200000001 6.0162686499999998 Cl
atom 7.3400561499999997 16.1188911600000004 8.7415308799999991 Cl
atom 7.2865023600000001 13.1152301399999995 8.6413316800000004 Na
atom 7.5420704100000000 15.9713261499999994 6.0941596799999997 Na
atom 7.5062740600000000 18.5786055700000006 5.8691622099999998 Cl
atom 7.3874972699999999 21.6841151100000005 8.5949449500000004 Cl
atom 7.3272743900000004 18.8058189300000009 8.6580716500000001 Na
atom 7.5287175299999998 21.6381701500000005 5.7943068100000001 Na
atom 7.4457113399999999 24.5946115300000017 5.6984544899999996 Cl
atom 7.4258429399999999 27.3652904700000015 8.6156054399999995 Cl
atom 7.4779765700000000 24.5154987899999988 8.3528954500000001 Na
atom 7.5018450600000000 27.3361666999999997 5.7984338199999996 Na
atom 7.4746883600000000 30.1836311200000011 5.6739432399999998 Cl
atom 7.4847282699999997 33.0120472099999986 8.5927279199999997 Cl
atom 7.4403443400000002 30.1592982099999993 8.3512294899999997 Na
atom 7.4497291199999998 33.0134977700000007 5.7958987700000000 Na
atom 7.5027659699999996 35.8352489800000029 5.7237536300000000 Cl
atom 7.4824879600000003 38.6362695999999985 8.6057189699999999 Cl
atom 7.4569453299999999 35.7886846800000029 8.3544889399999995 Na
atom 7.5654670700000004 38.6549187800000027 5.8652968100000002 Na
atom 7.4599901800000001 1.8891257100000001 5.7968871000000002 Cl
atom 7.4585158900000001 4.7325117299999997 8.6986225299999997 Cl
atom 7.4090643800000002 1.8931646200000001 8.4929840100000007 Na
atom 7.5695823400000002 4.6587113400000000 5.9145075299999998 Na
atom 7.4554608199999999 7.5121870700000004 5.8173823799999997 Cl
atom 7.2987296600000002 10.2329890199999998 8.8065657399999999 Cl
atom 7.4915076899999997 7.3696311000000003 8.4731107100000003 Na
atom 7.5770933600000001 10.3406026000000004 6.0999234900000001 Na
atom 10.1440433999999993 13.0803205299999998 5.8231023100000003 Na
atom 12.8789714400000008 13.2060394500000005 6.1322626800000002 Cl
atom 10.2596424800000001 16.0946150000000010 8.0305222799999996 Na
atom 12.9603882800000001 16.0478057099999987 8.9153320100000002 Cl
atom 12.9763289200000003 13.2163763099999993 8.9364488299999998 Na
atom 10.2085866900000006 13.5923642200000003 8.6873876200000009 Cl
atom 13.0647410700000002 15.8887474199999996 6.0016578100000002 Na
atom 10.2184239500000000 16.0177329300000011 5.6054785899999997 Cl
atom 10.2037910400000005 18.6298134299999987 6.1489462699999997 Na
atom 12.7702920599999992 18.4112254200000010 5.5121242900000000 Cl
atom 10.1711314599999998 21.5664447300000006 8.3712004699999998 Na
atom 12.9493855700000005 21.5937156299999984 8.5794451800000004 Cl
atom 13.0238808699999993 18.7849225000000004 8.4395130700000003 Na
atom 10.0858173699999991 18.6378059299999990 8.7228884200000003 Cl
atom 13.0081854999999997 21.5938016600000005 5.8163093999999997 Na
atom 10.1958152999999996 21.4958479300000000 5.7322996200000000 Cl
atom 10.2516269500000003 24.4553229200000004 5.7306997700000002 Na
atom 13.1136518500000001 24.5014256300000000 5.6825833399999999 Cl
atom 10.2553977399999994 27.3453407900000016 8.3837461799999993 Na
atom 12.9481643700000006 27.3207707400000004 8.6218496099999999 Cl
atom 13.0883904300000005 24.4456275299999994 8.3350419000000002 Na
atom 10.1004474000000002 24.4520333699999988 8.4268084000000005 Cl
atom 13.1648308400000005 27.3176553099999992 5.8264272200000002 Na
atom 10.3144985699999996 27.3015734200000004 5.6292790200000002 Cl
atom 10.4072999999999993 30.0934441100000001 5.8699489099999997 Na
atom 13.3040034600000006 30.1079785000000015 5.6889734499999998 Cl
atom 10.3004631000000000 32.9311605799999967 8.3933826800000002 Na
atom 13.1890191199999993 32.9951169500000034 8.5660891400000008 Cl
atom 13.1583596099999998 30.1086500699999995 8.3576515199999992 Na
atom 10.1352415499999999 30.2332878100000002 8.6342369300000001 Cl
atom 13.2637016100000000 33.0085824000000017 5.7989275600000001 Na
atom 10.4051967199999993 32.8305767499999988 5.7405819400000002 Cl
atom 10.3250225600000007 35.6918519700000019 5.7580987400000003 Na
atom 13.2547597100000001 35.7923822099999995 5.6814483700000000 Cl
atom 10.3568450300000006 38.5119633899999982 8.4337041799999994 Na
atom 13.1998361800000001 38.5489007700000030 8.6054538199999993 Cl
atom 13.1279054899999998 35.7408188100000004 8.3686411199999995 Na
atom 10.3602588799999999 35.7175045199999985 8.4864451800000005 Cl
atom 13.2416574399999991 38.5773826499999970 5.8574631600000000 Na
atom 10.3147523099999994 38.5603067799999977 5.7684140499999996 Cl
atom 10.3901743799999995 1.8797953199999999 5.9220565900000004 Na
atom 13.2237138400000003 1.8792365200000001 5.8211142599999999 Cl
atom 10.3712775100000005 4.6643084500000001 8.5146899099999995 Na
atom 13.1696796700000007 4.7049336999999998 8.6656040799999996 Cl
atom 13.2227248799999995 1.8499773900000001 8.4435464800000002 Na
atom 10.3324338299999994 1.8980826700000000 8.6450567800000009 Cl
atom 13.2044339900000001 4.6521397300000000 5.9374409100000003 Na
atom 10.3694495100000008 4.6188220500000003 5.8313793199999999 Cl
atom 10.3006681300000000 7.4772750500000003 5.9480098200000002 Na
atom 13.1338387300000008 7.4829308599999997 5.8465517199999999 Cl
atom 10.3010994199999999 10.4555198800000007 8.9624768800000005 Na
atom 13.2571159299999994 10.2324940699999996 8.7957360199999997 Cl
atom 13.1673290600000001 7.4248443399999999 8.4550295400000000 Na
atom 10.3737441599999993 7.4756566700000002 8.6929271600000000 Cl
atom 12.8808635400000000 10.2740712999999992 6.1784139700000003 Na
atom 10.2968718399999997 10.4005017100000003 6.0077205600000001 Cl
atom 15.6879515400000003 13.0943127900000000 5.8723409100000001 Na
atom 18.8581520800000000 12.9919283100000005 5.6410407899999999 Cl
atom 15.9586288799999991 15.9615056400000004 8.2394718499999993 Na
atom 18.9575851700000015 16.0102200799999999 8.1615092699999998 Cl
atom 18.8806189300000007 13.0570289499999994 8.2448939699999997 Na
atom 15.9738023899999995 13.1476787799999997 8.5430995999999997 Cl
atom 18.8368028500000015 16.0202835199999996 5.4587871500000000 Na
atom 15.8160832700000000 15.9304973400000005 5.6193905600000003 Cl
atom 15.7906571600000003 19.0840413899999994 5.6618231300000001 Na
atom 18.7726910400000015 18.9462716700000016 5.4374419500000002 Cl
atom 15.7788207499999995 21.5464097999999993 8.4777309499999998 Na
atom 18.7390861099999988 21.4818306800000016 8.7694025000000000 Cl
atom 18.6479716499999988 18.8130932699999995 8.1274097600000008 Na
atom 15.9475476999999994 18.8690015100000004 8.4070556199999995 Cl
atom 18.5370970700000015 21.7487257900000017 5.8023599299999997 Na
atom 15.7395383100000004 21.7814897099999989 5.7767096000000002 Cl
atom 15.8238838800000003 24.4406509499999984 5.8476140499999998 Na
atom 18.5318486900000003 24.5279201100000002 5.7071955499999998 Cl
atom 16.0918176899999992 27.3248838599999999 8.7691300299999995 Na
atom 18.9381565800000011 27.3295476999999991 8.6198096100000008 Cl
atom 18.9531100200000004 24.4192051799999987 8.3320115000000001 Na
atom 15.7684417299999993 24.4590553399999990 8.6333576399999998 Cl
atom 18.7178601700000016 27.3714052599999995 5.9182868300000004 Na
atom 15.9035548099999993 27.1631001500000018 5.9360521200000003 Cl
atom 16.1174121399999990 29.9930669499999993 5.8521920800000000 Na
atom 18.8540542600000016 29.9999077999999990 5.6265741100000000 Cl
atom 16.0160591200000013 32.9526460100000023 8.4599814500000008 Na
atom 18.8653063000000003 32.8435788000000031 8.5551051499999993 Cl
atom 18.8807284200000005 30.0286596199999991 8.3713400700000005 Na
atom 16.0097180100000003 30.0875701999999983 8.6531328199999997 Cl
atom 18.8351995099999989 32.8468234899999985 5.8974364899999996 Na
atom 15.9590337800000004 32.8930989400000016 5.7781761100000004 Cl
atom 16.0831069199999988 35.6912998299999984 5.9068790099999999 Na
atom 18.8490692700000011 35.7231174200000012 5.8421896499999999 Cl
atom 16.0305050499999986 38.4519826200000026 8.4836589500000006 Na
atom 18.7551522099999985 38.4618667399999978 8.8188946399999999 Cl
atom 18.8759667299999983 35.6090699800000010 8.4819550600000007 Na
atom 15.9875801899999992 35.7336895500000011 8.6433588300000004 Cl
atom 18.8619654499999996 38.5496491800000030 6.0112655200000003 Na