#===============================================================================
# Created using the Atomic Simulation Environment (ASE)

# Tue Dec 23 22:25:57 2025

#=======================================================
lattice_vector 28.1999999999999993 0.0000000000000000 0.0000000000000000 
lattice_vector 0.0000000000000000 39.4799999999999969 0.0000000000000000 
lattice_vector 0.0000000000000000 0.0000000000000000 62.3296083400000001 
atom 7.4887085999999998 14.9827916699999992 0.1024745700000000 Au
atom 10.0621597999999999 14.6274607799999998 -0.0626724500000000 Au
atom 12.9985540999999998 14.7450988899999995 0.0859336500000000 Au
atom 16.0742756500000006 14.7922364500000008 0.1679575000000000 Au
atom 18.6377169500000015 14.8344520600000003 -0.1949871200000000 Au
atom 21.4869941100000013 14.8727705100000005 -0.1061817300000000 Au
atom 24.0779065000000010 14.9010401800000007 -0.0935633400000000 Au
atom 27.2496466099999992 14.8210975999999999 -0.1194228300000000 Au
atom 1.8428271800000000 14.7192483500000009 -0.1234827100000000 Au
atom 4.7467074800000004 14.9931344800000002 -0.1767743900000000 Au
atom 8.9234394399999992 17.2218586599999988 -0.2079715200000000 Au
atom 11.6830921900000000 17.4584816399999987 0.2157023600000000 Au
atom 14.5494240200000000 17.1612164699999994 -0.1197038100000000 Au
atom 17.2578023000000016 17.4353099100000009 -0.1015895000000000 Au
atom 19.9949796500000012 17.1987608899999991 -0.0738886000000000 Au
atom 23.0093806799999996 17.3994467700000008 -0.2484087700000000 Au
atom 25.7029690399999993 17.3109728400000016 -0.6900978900000000 Au
atom 0.4393779100000000 17.3593542999999997 -0.4391812300000000 Au
atom 3.2523247300000002 17.1631661899999983 -0.2906249700000000 Au
atom 6.0330809900000002 17.2490918800000017 0.0474433400000000 Au
atom 7.4099205799999996 19.6165181799999999 -0.1989156500000000 Au
atom 10.2436145799999991 20.1761642300000013 0.0324398800000000 Au
atom 13.0937036899999999 19.8839565100000009 -0.0352489300000000 Au
atom 15.9455766699999995 19.7248851300000005 -0.1368769200000000 Au
atom 18.8641942200000017 19.7792619999999992 0.0308214500000000 Au
atom 21.6371081700000012 19.6681469399999997 -0.3725719100000000 Au
atom 24.4095932600000012 19.9171764700000011 -0.4442182800000000 Au
atom 27.0357105100000012 19.7543368900000011 -0.2342182900000000 Au
atom 1.6645890200000000 19.6920643800000015 -0.2427218200000000 Au
atom 4.6650274100000004 20.0008862100000009 -0.1816066400000000 Au
atom 8.7283820500000004 22.3317278500000000 -0.0208599800000000 Au
atom 11.9144375000000000 22.3209372200000011 0.0590505300000000 Au
atom 14.6273480199999995 22.4041744700000010 0.3437136100000000 Au
atom 17.3045096299999983 22.4955355300000015 0.4545014800000000 Au
atom 20.3100383499999992 22.4921210000000009 -0.0835071500000000 Au
atom 23.0776033900000002 22.3033036699999982 -0.3520473600000000 Au
atom 25.9881244799999997 22.3313137600000005 -0.1997032800000000 Au
atom 0.4048552700000000 22.3836938399999994 -0.2948614900000000 Au
atom 3.1917368000000002 22.2537630200000009 0.0188612500000000 Au
atom 5.9047282399999999 22.3208986500000002 0.1170471300000000 Au
atom 7.6109630199999998 24.8811820200000007 0.1961424400000000 Au
atom 10.2261527200000000 24.9809079499999989 -0.1771047200000000 Au
atom 12.9563077100000008 24.8414557299999998 0.0453306800000000 Au
atom 16.0898692899999993 24.8061613899999998 0.1686445100000000 Au
atom 18.5315908200000017 24.9159489900000004 0.1011952000000000 Au
atom 21.5663964499999992 24.7092876399999994 -0.3087446100000000 Au
atom 24.5046603999999988 24.6270896800000010 0.0872452100000000 Au
atom 27.4102095000000006 24.8549789700000012 -0.4396815600000000 Au
atom 1.9964561199999999 24.8753774800000009 -0.2537455800000000 Au
atom 4.7039318300000001 24.7028002499999992 -0.0775404000000000 Au
atom 8.9636039699999994 27.2320361899999988 -0.0129499300000000 Au
atom 11.7252521800000000 27.2626017900000015 0.1893677300000000 Au
atom 14.3728304199999997 27.1943757400000017 0.3893205500000000 Au
atom 17.4440180500000004 27.1097559500000003 0.2313492400000000 Au
atom 20.3009779799999990 26.9769456699999992 0.1622080900000000 Au
atom 22.9619185899999998 27.2486248999999994 -0.0165546200000000 Au
atom 25.7723170300000000 27.2709807099999999 0.0807390700000000 Au
atom 0.3186193100000000 27.2016187000000009 -0.4878674300000000 Au
atom 3.1740473599999999 27.2229623700000012 -0.3806126800000000 Au
atom 5.9684423500000001 27.3177465899999987 0.4202146000000000 Au
atom 7.2742161599999999 29.5805901400000018 -0.0307665600000000 Au
atom 10.3020604299999992 29.7470095000000008 -0.0737462000000000 Au
atom 12.9648699100000009 29.7098578099999990 0.1680493500000000 Au
atom 16.3435208500000009 29.5069218100000015 0.2521351300000000 Au
atom 18.5405484999999999 29.6485039700000002 0.0224109000000000 Au
atom 21.4262532499999985 29.3839650699999986 -0.0918779300000000 Au
atom 24.2857640100000012 29.6414526400000007 -0.3070045500000000 Au
atom 27.2111533899999998 29.6525273499999997 -0.0312368200000000 Au
atom 1.7891871600000000 29.6710214999999984 0.2792759200000000 Au
atom 4.6182192799999999 29.8366061199999990 0.5305347200000000 Au
atom 8.8171832000000006 32.1150972399999972 0.0972502600000000 Au
atom 11.7978332800000008 31.9553544800000004 0.1694395100000000 Au
atom 14.3257067300000003 32.0037943000000027 -0.1059419700000000 Au
atom 17.0519982100000007 32.0333037300000001 -0.2955786000000000 Au
atom 20.0493802300000006 32.0713496999999990 -0.4135240400000000 Au
atom 22.8217399199999988 31.9173260799999987 -0.7086316100000000 Au
atom 25.7967064800000010 32.2123597699999991 -0.1209121600000000 Au
atom 0.4207879100000000 32.1125089200000033 -0.2106586600000000 Au
atom 3.3453292299999999 32.1106581299999974 0.2267562700000000 Au
atom 6.1374811600000001 32.0581413399999988 -0.0580299300000000 Au
atom 7.4849623400000000 34.6185589399999998 -0.0947130800000000 Au
atom 10.3375332100000001 34.6478637499999991 -0.1021360000000000 Au
atom 13.3316318099999993 34.4867792699999995 -0.0700437000000000 Au
atom 16.0064820899999987 34.4909537799999981 -0.1152298700000000 Au
atom 18.8151255000000006 34.5350990199999970 -0.0742915900000000 Au
atom 21.4347991700000016 34.6249488300000010 -0.2456210800000000 Au
atom 24.3324623299999985 34.5216125600000012 -0.3891324700000000 Au
atom 27.1481622700000003 34.5576587899999979 -0.1473519200000000 Au
atom 1.8672157800000000 34.7841805600000029 -0.3531926800000000 Au
atom 4.6743405899999999 34.5289108200000001 -0.1350427300000000 Au
atom 9.0134338599999992 37.1911497700000027 -0.1449583400000000 Au
atom 11.5831003900000002 36.9957292599999974 0.0965144800000000 Au
atom 14.6678135199999993 37.0523371800000021 -0.4884932000000000 Au
atom 17.4303157900000016 37.1763251900000000 -0.1277873200000000 Au
atom 20.3364498599999983 37.3149681499999986 0.4119302400000000 Au
atom 22.9184105500000008 37.1609122600000035 -0.5219533200000001 Au
atom 25.8511636200000012 37.2058905299999978 -0.2844285900000000 Au
atom 0.4787818700000000 37.1021422199999975 -0.1083757700000000 Au
atom 3.2804790800000001 37.1650396599999979 -0.2949393000000000 Au
atom 5.9442148599999998 37.1663359100000008 -0.2264247800000000 Au
atom 7.7479524900000003 0.1659864800000000 -0.0455004500000000 Au
atom 10.1469451700000004 0.0713322500000000 -0.0286113500000000 Au
atom 13.1935515700000003 0.1111098200000000 -0.0975975100000000 Au
atom 15.9447473500000001 -0.0286943900000000 -0.0385410900000000 Au
atom 18.9978340299999999 -0.0398082800000000 -0.1118032700000000 Au
atom 21.5505875200000006 0.0754208000000000 0.0321273900000000 Au
atom 24.5226790500000007 0.2423642700000000 -0.2133024500000000 Au
atom 27.0993653099999996 0.1904932000000000 -0.0357183600000000 Au
atom 1.8835465000000000 0.2425658600000000 -0.1728339400000000 Au
atom 4.7015593300000003 0.0643951300000000 0.0587746900000000 Au
atom 9.0459101600000000 2.6204845099999998 0.0922731100000000 Au
atom 11.7519711099999995 2.8638748299999999 0.2650213000000000 Au
atom 14.5327036100000004 2.6423374800000001 -0.0868279300000000 Au
atom 17.5461923900000016 2.6153752199999998 -0.0686640800000000 Au
atom 20.2940933100000009 2.5784314199999998 -0.3947560100000000 Au
atom 23.0847183700000009 2.5849930500000000 0.0128470800000000 Au
atom 25.7801200500000007 2.6480435299999998 0.3713173800000000 Au
atom 0.4773566900000000 2.5761602400000001 0.1185402300000000 Au
atom 3.2286118199999998 2.5390717700000001 0.2544908100000000 Au
atom 6.2221680499999996 2.6414881600000002 0.1471599300000000 Au
atom 7.5711497000000003 5.0842346100000002 0.2461546800000000 Au
atom 10.4694018799999995 4.9879750500000002 0.1887940900000000 Au
atom 13.3275287200000001 5.0471701800000002 0.0392620900000000 Au
atom 15.9255035800000009 4.9127338199999997 -0.0544633400000000 Au
atom 18.7512354700000010 5.2664675399999998 -0.0424385200000000 Au
atom 21.4934288100000011 4.9800291100000003 -0.0297047500000000 Au
atom 24.3947797699999995 4.6977262299999998 0.2766048500000000 Au
atom 27.1869570200000013 5.2041354699999998 0.2426864700000000 Au
atom 1.9926716099999999 5.0325685599999996 0.0630349800000000 Au
atom 4.9624974100000001 4.9832270200000002 0.1173744900000000 Au
atom 8.8844860000000008 7.5327872899999999 0.0541853500000000 Au
atom 11.7780039799999994 7.3471067100000003 0.0920576900000000 Au
atom 14.6688307200000008 7.5715244600000000 0.1389920700000000 Au
atom 17.2503503599999988 7.6992445700000003 0.0457098600000000 Au
atom 20.0183003100000008 7.7091028000000001 0.1419763500000000 Au
atom 22.9080380199999993 7.3944058100000003 0.5757155900000001 Au
atom 25.7247067499999993 7.6327947299999996 0.2369485900000000 Au
atom 0.4167532800000000 7.4103499299999998 -0.0628614400000000 Au
atom 3.4434922000000001 7.4663620599999998 0.0655145800000000 Au
atom 5.9489014500000001 7.2804088399999998 0.0113583100000000 Au
atom 7.5502744000000002 9.9165029800000006 0.3435766100000000 Au
atom 10.3508510299999994 9.6500892500000006 0.3249730100000000 Au
atom 13.0604761800000002 9.9528484899999992 0.2347393500000000 Au
atom 16.0688746900000012 10.0351025200000006 0.3107059900000000 Au
atom 18.9146342800000014 9.7819494900000006 0.3216876400000000 Au
atom 21.7632675099999986 9.9486578399999992 0.1905354600000000 Au
atom 24.3513200800000007 10.0545067699999997 0.5076468400000000 Au
atom 27.2703611799999983 9.8063001700000001 0.3977332000000000 Au
atom 1.6923758499999999 9.9669933700000009 -0.0900058600000000 Au
atom 4.9703838400000002 10.0971224999999993 0.1698272800000000 Au
atom 9.0411542899999997 12.1754627899999992 0.2014441000000000 Au
atom 11.9296130500000004 12.3281961100000004 0.3631242100000000 Au
atom 14.6798815999999999 12.3207523299999995 0.2940105600000000 Au
atom 17.3546232399999987 12.2632253000000002 0.1560945900000000 Au
atom 20.2601751400000012 12.2252237800000003 0.2231099200000000 Au
atom 23.1027105100000014 12.3994155300000006 0.1849294700000000 Au
atom 25.9175409300000013 12.2639515499999998 0.1051602700000000 Au
atom 0.4072378600000000 12.5152359000000004 -0.0520862600000000 Au
atom 3.5000105100000001 12.3726086300000002 -0.1454431500000000 Au
atom 6.3077643600000002 12.3067123499999997 0.0157602700000000 Au
atom 7.3846542399999997 13.1229592400000001 2.6576405200000002 Au
atom 10.3964751500000006 13.2079130800000009 2.6109037200000000 Au
atom 13.1304650400000007 13.2195271600000002 3.0995618000000000 Au
atom 16.0113399600000008 13.3418733100000004 2.8876160600000000 Au
atom 18.7277785600000009 13.2345915099999996 2.7800939599999999 Au
atom 21.6505530099999994 13.5120100599999997 2.8656469400000000 Au
atom 24.4142479399999992 13.1523489100000006 2.5881400499999998 Au
atom 27.4005164100000016 13.2612071700000005 2.2740200800000001 Au
atom 2.0489970999999998 13.1840044600000006 2.4078848499999999 Au
atom 4.6880718200000002 13.1654561300000008 2.5279901900000001 Au
atom 9.0951660800000003 15.6829953700000004 2.5259210300000001 Au
atom 11.6065929400000005 15.8173431699999991 2.5753802499999998 Au
atom 14.5271719400000006 15.5710714699999997 2.5530400300000000 Au
atom 17.1362929299999998 15.6178017499999999 2.6340750200000000 Au
atom 20.0495853799999999 15.8699051600000001 2.2824857299999999 Au
atom 22.8914907200000002 15.4991848599999997 2.6684187200000000 Au
atom 25.8251572100000004 15.8192727499999997 2.1502837700000001 Au
atom 0.5988203600000001 15.7472729499999993 2.3691069900000001 Au
atom 3.1160111100000001 15.6401868200000003 2.4470551800000000 Au
atom 6.0628815300000003 15.7690196399999998 2.4944772300000002 Au
atom 7.6601254499999998 18.2690527799999991 2.5029013800000000 Au
atom 10.1574536700000007 18.0660318800000006 2.5023724299999999 Au
atom 13.1490771100000003 18.1356677600000005 2.8015940700000002 Au
atom 15.6733433800000004 18.2390460899999987 2.5577518200000000 Au
atom 18.5764194899999993 18.0380486600000012 2.3197275400000001 Au
atom 21.8019885400000000 18.2637508599999983 2.3485701099999998 Au
atom 24.3424963599999984 18.3457410500000009 2.1847956800000001 Au
atom 27.0716914300000013 18.2091880800000006 2.1574195500000002 Au
atom 1.7763726000000000 18.3220460100000011 2.2538197100000001 Au
atom 4.6863534600000003 18.2218465099999989 2.4661160299999998 Au
atom 8.6913193000000000 20.6815223400000008 2.8033983600000001 Au
atom 11.8085812699999995 20.5132790400000005 2.5356070399999999 Au
atom 14.4903794300000008 20.9549466700000018 2.7355590799999998 Au
atom 17.1429367699999986 20.6093296700000010 2.6897367600000002 Au
atom 20.2081639300000013 20.6007688000000009 2.6542329200000001 Au
atom 23.0195260700000013 20.5197878600000010 2.2691495800000001 Au
atom 25.9859790599999982 20.5784978999999986 2.2860045800000002 Au
atom 0.3589851800000000 20.7888131600000001 2.7449943200000000 Au
atom 3.3205603099999998 20.5064509100000016 2.5611296100000001 Au
atom 5.9921754099999998 20.5230984700000008 2.7692290000000002 Au
atom 7.3498663799999999 23.3982407499999994 2.9006427600000002 Au
atom 9.9730351299999995 23.2395978499999991 2.4641147900000000 Au
atom 13.3095698200000001 23.1075282299999998 2.9605651000000002 Au
atom 15.8845233700000001 23.0587669899999987 3.1941538199999999 Au
atom 18.8594377500000014 23.1679716999999989 2.9746263800000001 Au
atom 21.7130432800000008 23.1010163199999994 2.3813747099999998 Au
atom 24.3543660899999992 23.1226436100000008 2.6581684299999999 Au
atom 27.1687827999999989 23.1140836299999997 2.6998505200000000 Au
atom 1.8013437600000000 23.3116821600000002 2.5793781199999999 Au
atom 4.8067527999999999 23.1939949200000015 2.4846225300000002 Au
atom 8.9230728900000003 25.5564624299999998 2.6243009200000000 Au
atom 11.7268958600000008 25.6370029099999996 2.9093668199999998 Au
atom 14.6626156200000004 25.7274954200000003 2.7731826399999999 Au
atom 17.4790274100000005 25.7603920200000012 2.8449368700000002 Au
atom 20.2728136499999998 25.5826626499999996 2.6244623599999999 Au
atom 23.1635944400000007 25.6379868000000002 2.6515858500000000 Au
atom 25.8546840600000003 25.7934588900000001 2.6561034499999998 Au
atom 0.3356668800000000 25.8055757499999991 2.4572971099999998 Au
atom 3.3226731500000000 25.6165345900000005 2.4780905999999998 Au
atom 5.9532053700000001 25.6587698899999985 2.7674254800000000 Au
atom 7.3547243499999997 28.1065849199999995 2.9500448100000001 Au
atom 10.1849628299999999 28.0569327900000012 2.6839170600000002 Au
atom 12.9576383600000007 28.0435111200000016 2.8589325799999998 Au
atom 15.9594116300000000 28.2094557500000001 2.6656435100000002 Au
atom 18.8439616200000017 27.9893070000000002 2.6771850499999998 Au
atom 21.7867216100000007 28.0400993300000003 2.8249213700000002 Au
atom 24.5368533900000010 28.1135281100000007 2.6089178400000002 Au
atom 27.2963574599999994 28.0716301199999982 2.4636795600000001 Au
atom 1.8323919099999999 28.1016587599999994 2.1941733100000000 Au
atom 4.5843251499999997 28.0068782100000000 2.9667141199999998 Au
atom 9.0727954700000009 30.3024377999999999 2.5811117600000002 Au
atom 11.7550043700000000 30.4960078800000005 2.6983802400000001 Au
atom 14.3936095700000006 30.5180280999999987 2.7151050200000002 Au
atom 17.2572652300000016 30.4393169400000012 2.8295597600000000 Au
atom 20.2444894499999997 30.7372283899999985 2.5736005000000000 Au
atom 22.8953662099999988 30.4227432899999997 2.2862148100000002 Au
atom 25.8929508000000013 30.4912360800000002 2.3094788099999999 Au
atom 0.3994018700000000 30.5981415400000003 2.6760009899999999 Au
atom 3.2586256200000001 30.2751135900000001 2.7165900000000001 Au
atom 6.0644360700000002 30.6188041499999990 2.8890248000000001 Au
atom 7.4199017200000004 32.7660993499999975 2.4143083000000001 Au
atom 10.3156128500000008 32.9960948399999978 2.9252636200000000 Au
atom 13.2476887100000003 33.1389987000000019 2.5974496500000002 Au
atom 15.7573377400000005 32.9589346699999979 2.3190815100000002 Au
atom 18.7854747899999985 32.7508677300000031 2.3843869000000000 Au
atom 21.6451261300000013 32.8585130299999975 2.1077350799999999 Au
atom 24.4721922399999983 32.9820094700000013 2.2232902399999999 Au
atom 27.0451690800000009 32.9692920900000033 2.4735707599999999 Au
atom 1.9461058800000000 33.1038838300000009 2.5947268600000002 Au
atom 4.7624795000000004 32.7195169299999975 2.7759960600000002 Au
atom 9.0544304800000006 35.3496250800000027 2.6584170500000002 Au
atom 11.7580376300000005 35.5516615900000019 2.7679601200000001 Au
atom 14.5070717600000005 35.5703020300000006 2.4917444999999998 Au
atom 17.5430222100000002 35.4073076399999991 2.3158270200000000 Au
atom 20.0566355700000010 35.3632168800000031 2.5130146600000001 Au
atom 22.9257294999999992 35.3493937900000006 2.0454762400000002 Au
atom 25.6087677800000009 35.5102737699999977 2.1061828500000002 Au
atom 0.3211829700000000 35.4998743700000006 2.2481944800000000 Au
atom 3.2674402900000001 35.5632845299999971 2.3863834599999998 Au
atom 6.1974652600000004 35.3436195299999980 2.5595536299999999 Au
atom 7.4742718200000002 37.9275191300000003 2.5172748600000001 Au
atom 10.2950415700000004 37.9311963399999996 2.5399992199999999 Au
atom 13.0820941000000008 38.0877972600000021 2.4722792000000000 Au
atom 15.9623765800000008 37.9606166100000024 2.4522809799999998 Au
atom 19.1686952599999998 37.7636211800000012 2.7488273200000002 Au
atom 21.7236802500000010 38.0306353900000005 2.5613383299999999 Au
atom 24.6552676999999996 37.8358983299999991 2.3660856699999999 Au
atom 27.2556726599999983 37.8483333499999972 2.7541191600000001 Au
atom 1.8608978000000000 37.6650015600000003 2.2794368000000000 Au
atom 4.9713605699999999 38.0755748099999991 2.4563426800000001 Au
atom 9.0401516599999994 0.9425697600000000 2.6053036600000001 Au
atom 11.6131001999999999 0.8102518900000000 2.7678295600000000 Au
atom 14.7155216800000002 1.0159445899999999 2.6799129599999998 Au
atom 17.4353399600000003 0.6567582700000000 2.4650768799999998 Au
atom 20.1935678199999984 0.9852757400000000 2.5352954300000001 Au
atom 23.0375001399999988 1.1010897700000000 2.6251533800000000 Au
atom 25.7630278900000000 0.9639956600000000 2.5840213300000001 Au
atom 0.3218474100000000 0.6063848100000000 2.4297472000000000 Au
atom 3.4386102799999998 0.4386800500000000 2.5865211900000000 Au
atom 6.2646395799999999 0.8571468200000000 2.5470050899999999 Au
atom 7.6450315099999999 3.4258910100000000 2.7029684999999999 Au
atom 10.3215501599999993 3.2045180300000000 3.0009122000000001 Au
atom 13.2269404700000006 3.2422706799999998 2.9663638600000000 Au
atom 15.7089800000000004 3.2833095399999999 2.6964177299999998 Au
atom 18.5532976400000003 3.1923023700000002 2.6131989500000001 Au
atom 21.4688115599999989 3.2888799500000001 2.6137865200000001 Au
atom 24.4959737299999993 3.3416593899999998 2.9005528500000000 Au
atom 27.2119977900000016 3.4030456400000002 3.1049903699999999 Au
atom 1.7968396099999999 3.5760315000000000 2.7249610099999999 Au
atom 4.7434668999999996 3.1146135699999999 2.5208735700000000 Au
atom 8.7732101300000007 5.6892947899999999 2.8782420100000001 Au
atom 11.7589130799999992 5.8227852999999996 2.8935909700000000 Au
atom 14.4745153099999992 5.9850248300000004 2.7635438300000001 Au
atom 17.3579914500000001 5.7571152100000003 2.7214805700000002 Au
atom 20.3041832000000007 5.8689431399999998 2.6737700100000001 Au
atom 22.9021457999999996 5.9552796900000002 3.0033093599999998 Au
atom 25.8591882499999990 6.0806121700000002 2.7733674800000001 Au
atom 0.4738326200000000 5.9143210300000000 2.7789493699999999 Au
atom 3.3905401099999999 5.5184516900000000 2.6633780400000000 Au
atom 6.1469362299999997 5.8246767500000001 2.8469926399999999 Au
atom 7.7150527999999996 8.3588878999999991 2.5667904300000002 Au
atom 10.4114969700000000 8.3279701300000006 2.8603471900000002 Au
atom 13.2001123000000007 8.0964444800000006 2.8055995299999998 Au
atom 16.0371423399999991 8.3631243899999994 2.6462873400000002 Au
atom 18.8405793400000015 8.2004014999999999 2.8495207599999999 Au
atom 21.6204843400000009 8.5131881699999994 3.1378717599999999 Au
atom 24.5854583300000016 8.4127828499999993 2.9663679799999998 Au
atom 27.3277970000000003 8.2131073499999996 2.8799335300000002 Au
atom 1.7803997199999999 8.3369794699999993 2.7478239499999999 Au
atom 4.8631904400000003 8.2135457699999996 2.5915214400000002 Au
atom 9.0110064100000002 10.9427645699999996 2.9143370300000000 Au
atom 11.5248691399999998 10.6695953499999998 3.0407410000000001 Au
atom 14.4173460000000002 10.8984729700000003 3.0835408900000001 Au
atom 17.3503909000000007 10.8854764399999997 3.1783848699999999 Au
atom 20.1542807000000010 10.7331611799999997 2.8139226399999999 Au
atom 22.7898884099999997 10.8365238900000005 2.7986578000000000 Au
atom 26.0222336900000002 10.9350086999999991 2.8424636699999999 Au
atom 0.7009100800000000 10.7407829499999998 2.8726450400000001 Au
atom 3.4112169899999998 10.6601344699999991 2.4010955100000002 Au
atom 6.2493291500000003 10.9092023299999994 2.7961364299999998 Au
atom 7.7903662699999998 13.0108386599999992 5.9018324499999997 Cl
atom 7.4304177200000003 15.4720934099999994 8.7576496899999992 Cl
atom 7.6872354600000001 12.8095867200000004 8.6565570699999999 Na
atom 7.5213262800000003 15.6370739699999994 5.9476272999999997 Na
atom 7.6692023499999999 18.5282628699999989 5.7535214699999999 Cl
atom 7.4063254299999999 21.1903450999999983 8.6551372000000004 Cl
atom 7.3309672199999998 18.4497653799999988 8.7144074000000007 Na
atom 7.6063357500000004 21.0514954500000009 6.0341858400000001 Na
atom 7.5768700999999998 23.8555775300000015 5.8895644100000002 Cl
atom 7.8001622299999998 26.9282458200000008 8.7023116599999994 Cl
atom 7.3393991600000001 24.1603123300000000 8.3932485700000008 Na
atom 7.7096129600000003 26.5154564099999988 5.8535278000000002 Na
atom 7.7740629800000001 29.8570770799999998 5.7555414400000000 Cl
atom 7.5070025100000004 32.4125326500000028 8.4483878600000004 Cl
atom 7.4303569999999999 29.7962809600000007 8.3677398899999993 Na
atom 7.6878478599999998 32.5033655100000018 5.7496593400000000 Na
atom 7.4875025300000004 35.2252142600000013 5.6237094000000001 Cl
atom 7.5837788200000000 38.3288397700000019 8.5064837400000002 Cl
atom 7.3094891600000000 35.3406224499999979 8.2192364199999997 Na
atom 7.7075232299999996 38.1058382599999987 6.2471690200000003 Na
atom 7.8730131300000004 1.5659289300000001 6.0338800900000003 Cl
atom 7.4077938200000002 4.5044506599999998 8.8671209900000001 Cl
atom 7.6111286900000001 1.7150353100000000 8.6492245899999993 Na
atom 7.7528331399999999 4.2474206199999998 5.7163874200000002 Na
atom 7.7122426900000001 7.3215118199999996 5.8911071300000000 Cl
atom 7.5041247200000001 9.8322194900000000 8.6726683399999995 Cl
atom 7.4803621299999996 7.1092039400000004 8.5574523300000003 Na
atom 7.6652219800000001 9.6831248700000003 5.9811242199999999 Na
atom 10.3907889000000004 12.5795846000000004 6.2058693700000003 Na
atom 13.2485885099999994 12.7212229200000007 5.9106243100000002 Cl
atom 10.5438550000000006 15.5874765899999996 8.5121025499999998 Na
atom 13.4117521100000001 15.7992375799999998 8.7232144799999993 Cl
atom 13.2461689200000006 12.5725489300000000 8.9015089799999991 Na
atom 10.4904218799999995 12.8210636400000002 8.9786485599999999 Cl
atom 13.3445078299999995 15.8671176700000007 6.1514002899999998 Na
atom 10.6706702900000003 15.6451479500000001 5.8729844399999998 Cl
atom 10.2853372800000002 18.4858031800000013 5.9147906600000004 Na
atom 13.0606517600000007 18.6263770700000002 5.7454813500000004 Cl
atom 10.2154013700000004 21.1405506199999991 8.5833058900000001 Na
atom 13.2079967499999995 21.5556284299999987 8.4174860099999993 Cl
atom 13.1683793500000004 18.7120297600000001 8.6400548799999992 Na
atom 10.3731089599999997 18.1996063499999998 8.4587773899999998 Cl
atom 13.1445606099999992 21.3679228999999999 5.9588377100000001 Na
atom 10.5087203999999996 21.1913448399999993 5.7194038300000001 Cl
atom 10.3528637299999993 23.9411143200000005 6.0500889999999998 Na
atom 13.1701987099999993 24.0946537999999997 6.1413209400000000 Cl
atom 10.1875721499999994 26.9049028600000000 8.3277828700000001 Na
atom 13.1806856700000008 26.9124714199999993 8.5352654999999995 Cl
atom 13.1305388999999995 24.2449463899999991 8.4691410400000002 Na
atom 10.2576918700000004 24.1006330800000015 8.6117199299999996 Cl
atom 13.0713285599999995 27.0247385199999997 5.7641298100000000 Na
atom 10.2920899699999993 26.8769517600000007 5.7690884599999999 Cl
atom 10.1985194900000007 29.8234335199999983 5.6919251700000002 Na
atom 12.9913045100000009 29.9789229299999995 5.7380378900000002 Cl
atom 10.3375239299999997 32.4764704800000032 8.5739223899999999 Na
atom 13.1385338699999998 32.7020955899999990 8.6327619200000001 Cl
atom 13.0929296599999994 29.8575719200000016 8.5171828900000008 Na
atom 10.3144301699999996 29.9362966200000002 8.5312781900000001 Cl
atom 13.1325149799999998 32.7006028999999998 5.8069929599999996 Na
atom 10.4647940899999998 32.6803448499999973 5.8963772199999998 Cl
atom 10.4990029299999996 35.3347515700000017 5.7618249099999996 Na
atom 13.2619874600000003 35.3659017900000023 5.7262003000000004 Cl
atom 10.3599604200000002 38.1063961400000011 8.5112042599999995 Na
atom 13.3387254500000001 38.1763320900000025 8.6078036200000003 Cl
atom 13.4446987799999995 35.4793548199999975 8.4070913899999997 Na
atom 10.3718567900000007 35.4968368199999986 8.4924950999999993 Cl
atom 13.3275022700000001 38.3801696499999991 5.9326156599999997 Na
atom 10.3693743200000004 38.1346524200000019 5.6955925499999998 Cl
atom 10.5225419900000006 1.1661850600000001 5.8112972000000003 Na
atom 13.5326669200000005 1.6107945500000000 5.9507027600000004 Cl
atom 10.4373621700000001 4.3497257100000004 8.5075887100000003 Na
atom 13.3504077900000002 4.2398769500000002 8.8932197599999991 Cl
atom 13.3818201400000003 1.6024425799999999 8.4788675100000006 Na
atom 10.5243600799999992 1.2268114900000000 8.3914027800000000 Cl
atom 13.2839075999999991 4.4001717999999999 5.9562516099999998 Na
atom 10.5098120799999997 4.5631999399999996 5.9545476099999997 Cl
atom 10.5306242500000007 7.0018375900000001 5.8465664899999998 Na
atom 13.5286818100000001 7.0573591499999999 6.0902782400000000 Cl
atom 10.1863155100000000 9.9671722000000003 8.6235303800000001 Na
atom 13.1350661500000001 9.9103543399999996 9.0994831000000005 Cl
atom 13.4218554000000001 6.9299837300000000 8.7233297099999998 Na
atom 10.2361883099999993 6.8670151199999996 8.7687320999999994 Cl
atom 13.3049227400000003 9.8518771699999999 6.0470061800000003 Na
atom 10.6222576800000006 9.9073948000000005 6.0420009700000001 Cl
atom 16.0756578800000014 12.8997618200000002 6.0477233400000001 Na
atom 18.7408825700000001 12.6112508400000003 5.7943439899999998 Cl
atom 16.1645610300000016 15.8330240100000008 8.3544708799999992 Na
atom 19.1181044200000017 15.7509029900000002 8.4461926399999996 Cl
atom 18.8835307000000014 12.7470919499999997 8.2526790000000005 Na
atom 16.1147991899999994 12.9321857500000004 8.5233116599999992 Cl
atom 18.8793966799999993 15.7034103999999992 5.7760121199999999 Na
atom 15.8211842699999998 15.8028729200000004 5.7899116499999996 Cl
atom 16.0814545699999982 18.2794151999999990 5.6141030399999998 Na
atom 18.7785227399999997 18.5607961599999989 5.5095885999999998 Cl
atom 16.2516284700000000 21.4143308999999995 8.2995730800000000 Na
atom 18.9894064600000014 21.4856803999999997 8.3392625599999999 Cl
atom 18.8830253600000013 18.6111345499999992 8.1097188199999994 Na
atom 16.2158024599999990 18.7445111199999985 8.5986567699999998 Cl
atom 18.8975477400000003 21.5580211800000008 5.4888356399999996 Na
atom 15.9101629399999993 21.3452649000000001 5.4934486800000002 Cl
atom 16.3090831399999985 24.1564862299999987 5.8778911100000002 Na
atom 18.9906867699999999 24.2863150300000008 5.6763778900000004 Cl
atom 15.6069852800000000 26.9850462799999988 8.7845766899999997 Na
atom 19.0040851199999992 27.1376728699999994 8.4102520199999997 Cl
atom 18.9908360899999984 24.2632271800000012 8.3419793000000002 Na
atom 16.2982516599999983 24.0477421100000015 8.7389351400000006 Cl
atom 18.8830947599999988 27.0664462499999985 5.7666225000000004 Na
atom 15.7992398800000000 27.0783897300000014 5.7670812099999997 Cl
atom 16.0383353900000003 29.7225163499999994 5.8127365299999996 Na
atom 19.0551857899999995 29.8820559699999997 5.7760916099999999 Cl
atom 16.1092691200000004 32.5403542900000033 8.3207711999999994 Na
atom 19.1859166399999985 32.7034611200000001 8.5252321299999991 Cl
atom 18.7577340899999996 29.8176667699999989 8.1731909500000004 Na
atom 15.7343107199999999 29.7792806100000007 8.4122445399999997 Cl
atom 18.9249117200000008 32.5009062399999991 5.8865605399999996 Na
atom 15.9921407999999996 32.3867552199999977 5.7765281399999999 Cl
atom 16.0057896900000003 35.3536793999999972 5.6575690500000002 Na
atom 18.9396821799999984 35.3026654000000022 5.6439969799999998 Cl
atom 16.2229014499999984 38.2365650400000021 8.4981226900000006 Na
atom 19.1085309099999989 38.0324188100000029 8.4536693100000004 Cl
atom 19.0028499500000017 35.4837684600000003 8.3756384900000000 Na
atom 16.1115171699999991 35.4296391000000028 8.4023025600000008 Cl
atom 18.9729908400000014 38.4768648499999983 5.9875124399999997 Na