#===============================================================================
# Created using the Atomic Simulation Environment (ASE)

# Sat Nov  1 21:48:29 2025

#=======================================================
lattice_vector 28.1999999999999993 0.0000000000000000 0.0000000000000000 
lattice_vector 0.0000000000000000 39.4799999999999969 0.0000000000000000 
lattice_vector 0.0000000000000000 0.0000000000000000 62.3296083400000001 
atom 7.4976739500000003 14.8025042199999994 0.0794350000000000 Au
atom 10.3310418599999991 14.7966055099999991 -0.0169665200000000 Au
atom 13.1224738999999992 14.8109308700000000 0.0781627200000000 Au
atom 15.9881563999999994 14.8479186599999995 0.0075675200000000 Au
atom 18.8097940600000015 14.8104599500000003 0.0743207000000000 Au
atom 21.6179624299999986 14.8336895700000007 0.0050309200000000 Au
atom 24.4117817600000002 14.8173596300000003 0.0632494600000000 Au
atom 27.2495516699999989 14.7416521899999999 0.0067784000000000 Au
atom 1.8680760700000001 14.8063691599999991 0.0582267700000000 Au
atom 4.6993700399999998 14.8085656700000001 -0.0145353300000000 Au
atom 8.9367170100000006 17.2489130300000006 0.0908192600000000 Au
atom 11.7373496799999995 17.2897942700000016 0.0006497200000000 Au
atom 14.5583089900000004 17.3119541699999999 0.0367863000000000 Au
atom 17.4174920499999999 17.2988389200000015 0.0289882000000000 Au
atom 20.1976510599999983 17.2734667900000005 0.0210098100000000 Au
atom 23.0349584999999983 17.2858339000000001 0.0318133400000000 Au
atom 25.8134111399999995 17.2809890300000006 -0.0294588600000000 Au
atom 0.4523727000000000 17.3886878899999999 0.0572466400000000 Au
atom 3.2672800000000000 17.2886295200000006 0.0291540000000000 Au
atom 6.0894049099999998 17.2992316899999992 0.0511878100000000 Au
atom 7.5184118299999998 19.7834983499999986 0.0932657400000000 Au
atom 10.3239928200000008 19.7805222500000006 0.0412845000000000 Au
atom 13.1338806899999998 19.7559761599999995 0.1148494600000000 Au
atom 15.9743998499999993 19.7562697599999986 0.0407639800000000 Au
atom 18.7484439000000016 19.7737540000000003 0.1110475200000000 Au
atom 21.6349488399999998 19.7646354500000001 0.0710778500000000 Au
atom 24.4185565500000017 19.7833229300000006 0.1176439400000000 Au
atom 27.2360899699999983 19.6913099299999992 0.0669724300000000 Au
atom 1.8672752200000000 19.7883164399999991 0.1388480600000000 Au
atom 4.6799900200000000 19.7796936700000003 0.0770778800000000 Au
atom 8.9223296399999992 22.2123672399999990 0.1239146500000000 Au
atom 11.7714383399999996 22.2142712099999997 0.0535657000000000 Au
atom 14.5789708900000008 22.2307565199999999 0.0740424800000000 Au
atom 17.3665813799999995 22.2109009099999994 0.0829696800000000 Au
atom 20.1833620700000012 22.2101892099999993 0.0816611400000000 Au
atom 22.9851528099999989 22.2445910799999993 0.0546066600000000 Au
atom 25.8302828200000008 22.1538389400000000 0.1383583000000000 Au
atom 0.4463159100000000 22.2321388000000013 0.1693603100000000 Au
atom 3.2617033100000001 22.2423356400000003 0.0830990000000000 Au
atom 6.1038538800000000 22.2315903000000006 0.0698565800000000 Au
atom 7.5202435300000001 24.6880664199999984 0.0801808500000000 Au
atom 10.3366630500000003 24.6731181900000003 0.1214096200000000 Au
atom 13.1274985599999994 24.6929173000000013 0.0910785100000000 Au
atom 16.0010446299999991 24.7276090400000008 0.1047746200000000 Au
atom 18.8152634600000006 24.7049186600000006 0.0646434500000000 Au
atom 21.5794267899999994 24.7212846500000012 0.0869047200000000 Au
atom 24.4060396600000011 24.6892673000000009 0.1056437300000000 Au
atom 27.2537773299999984 24.7495169200000014 0.0108650700000000 Au
atom 1.8592241700000001 24.6653675200000002 0.0700171600000000 Au
atom 4.6628981600000001 24.7076149700000016 0.1110196900000000 Au
atom 8.9246118699999997 27.1310181099999994 0.0602995400000000 Au
atom 11.7040477299999992 27.1551208200000005 0.0806339300000000 Au
atom 14.5697729000000002 27.1893333400000010 0.0624076400000000 Au
atom 17.3850828200000009 27.1702285299999993 0.0951669300000000 Au
atom 20.1827316699999990 27.1537407699999989 0.0427585600000000 Au
atom 23.0054240099999987 27.1844227700000012 0.0597790100000000 Au
atom 25.8166315799999992 27.1511987099999992 -0.0227836900000000 Au
atom 0.4261451100000000 27.1479678200000016 0.1013077200000000 Au
atom 3.2615208800000000 27.1419439599999990 0.0429350500000000 Au
atom 6.0916050100000003 27.1213863300000000 0.0869977700000000 Au
atom 7.4946090800000000 29.6296605600000014 0.0171093100000000 Au
atom 10.3566707699999991 29.6271504199999995 0.0691899700000000 Au
atom 13.1259076100000005 29.6320082400000011 0.0364759500000000 Au
atom 15.9895242700000004 29.6320812800000013 0.0518174500000000 Au
atom 18.7692095999999999 29.6281127300000016 0.0039155100000000 Au
atom 21.6021178899999988 29.5981912800000018 0.0746797900000000 Au
atom 24.4086949100000012 29.6129907800000005 0.0231866800000000 Au
atom 27.2289853800000010 29.5694307000000016 0.2640599700000000 Au
atom 1.8667875599999999 29.6209382499999982 0.0704540800000000 Au
atom 4.6753673100000004 29.6137069900000007 0.0589382100000000 Au
atom 8.9112095500000006 32.1045428199999989 0.0003547700000000 Au
atom 11.7406436299999992 32.1073456600000000 0.0109106300000000 Au
atom 14.5626736999999995 32.0955350699999968 0.0153056800000000 Au
atom 17.3864261700000000 32.1061070499999985 0.0284950500000000 Au
atom 20.1854583800000000 32.0837153900000018 0.0304218300000000 Au
atom 23.0356345400000002 32.0804109099999977 -0.0000296100000000 Au
atom 25.8555269000000010 32.1073930399999981 0.0262879600000000 Au
atom 0.4491638300000000 32.0658966199999966 -0.0538323200000000 Au
atom 3.2909334200000000 32.1020321800000019 0.0114373000000000 Au
atom 6.1157645199999999 32.0837373600000006 -0.0156213300000000 Au
atom 7.4965837400000002 34.5788971899999993 0.0058568800000000 Au
atom 10.2864143400000003 34.5563207499999976 0.0695014200000000 Au
atom 13.1560999699999996 34.5228674399999989 -0.0138067400000000 Au
atom 15.9553173099999999 34.5648550499999985 0.0655764100000000 Au
atom 18.7838007199999986 34.5780492399999986 -0.0170513800000000 Au
atom 21.5891959299999989 34.5785092100000000 0.0516482900000000 Au
atom 24.4292009999999991 34.5486958199999989 0.0175352900000000 Au
atom 27.2249814199999989 34.4629940199999965 0.1318871700000000 Au
atom 1.8414116300000001 34.5407538799999969 0.0203771400000000 Au
atom 4.6811542499999996 34.5547125800000003 0.0585516100000000 Au
atom 8.8199518700000006 37.0334243799999996 0.1223752100000000 Au
atom 11.9842552199999997 37.0135284799999980 0.0965771300000000 Au
atom 14.6703442899999992 37.0455724700000033 0.0766987500000000 Au
atom 17.4133478000000004 37.0304098000000010 0.0036327000000000 Au
atom 20.1878323799999997 37.0274163300000012 0.1192979000000000 Au
atom 22.8867826200000017 37.0330918200000028 -0.0203039300000000 Au
atom 25.7265653400000005 37.0033048000000022 0.1482603900000000 Au
atom 0.4240768000000000 37.0746043700000030 -0.0218543800000000 Au
atom 3.1981891800000000 37.0239465800000005 -0.1036164200000000 Au
atom 5.8973027399999998 37.0310244300000022 0.0901627500000000 Au
atom 7.6172173100000000 -0.0218275600000000 0.1137067500000000 Au
atom 10.2183576899999995 0.0192340500000000 0.1375569800000000 Au
atom 13.0768159900000001 0.0193146600000000 0.2791476300000000 Au
atom 15.9897297599999995 0.0060920400000000 0.1456688300000000 Au
atom 18.7348920899999989 -0.0094854900000000 -0.0407483100000000 Au
atom 21.6597289999999987 0.0238062900000000 -0.0246415200000000 Au
atom 24.3284613900000011 0.0164839600000000 0.1827915300000000 Au
atom 27.3194845999999991 -0.0254808700000000 0.3121922200000000 Au
atom 2.1346733699999998 -0.0237414800000000 0.1229925400000000 Au
atom 4.6238063199999999 0.0098302600000000 0.1160068800000000 Au
atom 8.9328847899999992 2.4796634700000002 0.0974531700000000 Au
atom 11.7571928400000001 2.4919257899999998 0.0967125500000000 Au
atom 14.5606994200000006 2.4570964900000001 0.0904798700000000 Au
atom 17.3925016300000017 2.4741176899999999 0.0870131400000000 Au
atom 20.2089249399999993 2.4967684299999999 0.0965178200000000 Au
atom 22.9990570699999992 2.5082319700000002 0.0586903500000000 Au
atom 25.8280608100000002 2.5288641599999999 0.0962264600000000 Au
atom 0.4378926100000000 2.4273797699999999 0.1746347200000000 Au
atom 3.2584450299999999 2.4832959400000001 0.0702642200000000 Au
atom 6.1137801800000000 2.4650210299999999 0.0803966400000000 Au
atom 7.5268075000000003 4.9417509800000001 0.1090246900000000 Au
atom 10.3045024999999999 4.9622628000000004 0.1108949100000000 Au
atom 13.1551879899999999 4.9317849100000002 0.1255225800000000 Au
atom 15.9723804999999999 4.9885388099999997 0.0963173100000000 Au
atom 18.8062514500000013 4.9576506100000000 0.0869535800000000 Au
atom 21.5943179699999988 4.9462016899999997 0.1200739700000000 Au
atom 24.4209152500000002 4.9617567500000002 0.0712232800000000 Au
atom 27.2354646900000006 4.9608280300000001 0.0508957000000000 Au
atom 1.8471732700000001 4.9032314299999999 0.1285436800000000 Au
atom 4.6914385999999997 4.9637880900000004 0.1006281300000000 Au
atom 8.9044677199999995 7.4179598200000001 0.0504472900000000 Au
atom 11.7406999899999995 7.4078671800000002 0.0834854600000000 Au
atom 14.5502959500000006 7.4168215599999998 0.0648011300000000 Au
atom 17.3722632799999985 7.4137611200000002 0.0870462800000000 Au
atom 20.2047148800000009 7.3853340599999999 0.0699199200000000 Au
atom 23.0310008900000014 7.4087437100000004 0.0872440400000000 Au
atom 25.8133193799999994 7.4773148500000000 -0.0065076100000000 Au
atom 0.4264225800000000 7.4349609900000004 0.0302795000000000 Au
atom 3.2804256600000001 7.3800543500000000 0.0619998700000000 Au
atom 6.1367684999999996 7.4011958000000000 0.0824999200000000 Au
atom 7.5224235300000002 9.8827816300000002 0.0529475500000000 Au
atom 10.3534275299999994 9.9017439899999999 -0.0172071600000000 Au
atom 13.1282859500000004 9.8968374400000005 0.0519139100000000 Au
atom 15.9608116599999992 9.8565106500000006 -0.0050482400000000 Au
atom 18.7964651499999995 9.8807697599999997 0.0838150200000000 Au
atom 21.5959131900000010 9.8523869499999996 -0.0045917500000000 Au
atom 24.4268337500000001 9.8718682500000003 0.0678145800000000 Au
atom 27.2467250300000003 9.9066531999999992 0.1775164600000000 Au
atom 1.8430433799999999 9.8503541299999995 0.0913513800000000 Au
atom 4.6771495600000002 9.8874944599999992 -0.0084855400000000 Au
atom 8.8890628399999994 12.3289869599999999 0.0075659800000000 Au
atom 11.7532205399999992 12.3734882000000006 0.0237707500000000 Au
atom 14.5569039999999994 12.3683289500000004 0.0286531200000000 Au
atom 17.4031925100000002 12.3562384099999996 0.0133810200000000 Au
atom 20.1862101199999984 12.3582263300000008 0.0100683300000000 Au
atom 23.0345875699999993 12.3340167800000007 0.0243574900000000 Au
atom 25.8430150000000012 12.4020934900000004 0.0267368100000000 Au
atom 0.4542923900000000 12.2258749800000004 0.1254899000000000 Au
atom 3.2714836300000001 12.3411202099999997 0.0189736700000000 Au
atom 6.0699633600000000 12.3514914000000005 0.0111283600000000 Au
atom 7.4920140799999997 13.1780509299999995 2.6747770399999999 Au
atom 10.3333346299999995 13.1804373899999998 2.5669563200000001 Au
atom 13.1418164599999994 13.1909341199999997 2.6563321900000001 Au
atom 15.9924566499999994 13.2062872299999992 2.5826467900000001 Au
atom 18.7912104599999985 13.1717840000000006 2.6881204099999998 Au
atom 21.6312407799999988 13.1979511299999999 2.5551682599999999 Au
atom 24.4187388500000004 13.1733142599999997 2.6471146999999999 Au
atom 27.2703394699999997 13.2729720400000009 2.5632074700000000 Au
atom 1.8574885600000000 13.1554341600000004 2.6393353600000000 Au
atom 4.6691187300000001 13.1791698400000001 2.5355786899999999 Au
atom 8.9335301299999994 15.6476056499999991 2.6582421100000002 Au
atom 11.7550365299999999 15.5904447299999998 2.6208739400000001 Au
atom 14.5887448200000005 15.6496282099999995 2.6486197599999999 Au
atom 17.3900587100000017 15.6079750300000004 2.6261465500000001 Au
atom 20.1856823600000013 15.6676630299999999 2.6539252300000000 Au
atom 22.9983452799999988 15.6286665199999995 2.6580577299999999 Au
atom 25.8274420400000011 15.6307241099999992 2.6196262300000002 Au
atom 0.4444847400000000 15.7079110600000007 2.6630585800000000 Au
atom 3.2528653599999999 15.6387146200000000 2.6371161800000000 Au
atom 6.0832529299999996 15.6388515100000003 2.6535577899999998 Au
atom 7.5070479299999997 18.0853727100000015 2.6762131400000002 Au
atom 10.3303338399999998 18.0841328300000015 2.6041303199999999 Au
atom 13.1552454300000008 18.0896118100000010 2.6841557900000002 Au
atom 15.9722260600000006 18.0948522099999991 2.5777020600000000 Au
atom 18.7853966899999989 18.0946155200000014 2.6605574500000002 Au
atom 21.6196434800000006 18.1169956100000000 2.6321412400000002 Au
atom 24.4202366700000013 18.0836042600000013 2.6911559899999999 Au
atom 27.2366300499999987 18.1050581500000014 2.3956368100000001 Au
atom 1.8808233100000000 18.0310265200000011 2.6030031199999999 Au
atom 4.6857010499999996 18.1043318000000006 2.6393480399999998 Au
atom 8.9428127100000001 20.5649493899999989 2.7265189500000000 Au
atom 11.7513843199999997 20.5965980100000010 2.7222073400000002 Au
atom 14.5773279799999997 20.5604104800000016 2.7272014499999999 Au
atom 17.3549405800000009 20.5655794500000013 2.7014521899999999 Au
atom 20.2065060599999988 20.5771021400000009 2.7101524399999999 Au
atom 23.0332517099999983 20.5448926299999997 2.7370491800000001 Au
atom 25.8455079300000001 20.5609941200000002 2.7226680800000000 Au
atom 0.4434382000000000 20.6402320400000008 2.8563664400000000 Au
atom 3.2767928300000002 20.5819845599999987 2.7559217299999998 Au
atom 6.1176444999999999 20.5771560200000003 2.7239181200000000 Au
atom 7.4699322700000002 23.0508326600000011 2.6780568599999999 Au
atom 10.3266006400000006 23.0504715500000010 2.6650960200000000 Au
atom 13.1473344000000001 23.0349790699999986 2.7034775799999999 Au
atom 15.9888712200000001 23.0700812500000012 2.6430397499999998 Au
atom 18.7729805399999989 23.0255773200000000 2.6991805599999998 Au
atom 21.5826391300000004 23.0830685299999985 2.6523837200000000 Au
atom 24.4439319399999988 23.0441423800000003 2.6790079300000000 Au
atom 27.2280034600000000 23.1358629200000010 2.9130743400000001 Au
atom 1.8629507400000000 23.0491391099999987 2.6641794000000001 Au
atom 4.6945014299999999 23.0838293700000001 2.7114993599999999 Au
atom 8.9509547200000004 25.4954004699999999 2.6626992800000000 Au
atom 11.7626175400000008 25.5262386499999998 2.6838566199999998 Au
atom 14.5817222700000002 25.5068059600000012 2.7224480600000001 Au
atom 17.3876603400000000 25.5363368400000006 2.7013201300000000 Au
atom 20.1579154199999984 25.5083669800000017 2.7141565299999999 Au
atom 23.0361744799999997 25.5191280800000015 2.7393125600000001 Au
atom 25.8398532600000017 25.5315726599999984 2.6788061500000002 Au
atom 0.4696468300000000 25.5917141800000003 2.7274666999999999 Au
atom 3.2774792100000001 25.5392184399999991 2.7387345800000000 Au
atom 6.1027981100000002 25.5094670100000016 2.7233112700000000 Au
atom 7.5003667299999996 27.9604628700000006 2.6032846300000001 Au
atom 10.3247756099999997 28.0217280200000012 2.6958838799999998 Au
atom 13.1308332100000005 27.9901791700000011 2.6206897400000000 Au
atom 15.9743911000000001 28.0037553499999987 2.6860704900000001 Au
atom 18.7926868599999999 27.9911295799999991 2.6100187699999999 Au
atom 21.5883225900000006 28.0218919500000005 2.6841394500000000 Au
atom 24.4152720199999997 28.0078584399999997 2.5936249000000000 Au
atom 27.2394192199999985 27.9055019599999987 2.6208635800000000 Au
atom 1.8551098699999999 27.9946883600000014 2.5899474200000001 Au
atom 4.7037835100000001 28.0114743299999986 2.6713555300000000 Au
atom 8.9228962200000002 30.4479976500000014 2.6446803000000001 Au
atom 11.7383724899999997 30.4608126199999987 2.6436341500000000 Au
atom 14.5271726700000006 30.4488628100000014 2.6526237199999998 Au
atom 17.3907139400000013 30.4561232699999991 2.6538567000000000 Au
atom 20.1374429699999986 30.4442997800000015 2.6406934600000000 Au
atom 23.0296859100000013 30.4956715000000003 2.6492700700000000 Au
atom 25.8435289300000015 30.5072052999999990 2.7112242200000001 Au
atom 0.4759861700000000 30.6613683899999998 2.7090661300000001 Au
atom 3.2724481399999998 30.4794617700000003 2.6623279599999998 Au
atom 6.0805117800000001 30.4709322100000009 2.6473827900000000 Au
atom 7.5149863699999999 32.9530740100000017 2.5793637700000001 Au
atom 10.3130065500000008 32.9053212399999992 2.6527710700000000 Au
atom 13.1160352600000003 32.9171389799999972 2.5677798100000002 Au
atom 15.9601010900000002 32.9231676899999997 2.6583568000000000 Au
atom 18.8250576800000005 32.9422763800000027 2.5504738400000000 Au
atom 21.6049059499999991 32.8981252600000005 2.6314422300000002 Au
atom 24.4124747400000004 32.9373290999999995 2.5623328500000002 Au
atom 27.2330510799999992 32.9213591700000023 2.7299447799999998 Au
atom 1.8612728500000000 32.9680087400000019 2.5904770199999998 Au
atom 4.7183013000000003 32.9103576600000025 2.6541192100000002 Au
atom 8.8818219000000003 35.4235120700000010 2.6267738500000002 Au
atom 11.7377980700000002 35.3924642400000025 2.6493455199999998 Au
atom 14.5490140599999993 35.3793790699999988 2.6474780600000001 Au
atom 17.3488917600000008 35.3859550999999968 2.6249057100000002 Au
atom 20.1911562899999986 35.3931239500000032 2.6513465200000002 Au
atom 23.0083397500000011 35.3841299899999981 2.6475871899999999 Au
atom 25.8399884399999991 35.4345888300000027 2.6524535400000002 Au
atom 0.4431961300000000 35.5024917200000019 2.6736772499999999 Au
atom 3.2400522399999998 35.3802757300000010 2.6479408599999998 Au
atom 6.0801349800000004 35.3883130500000007 2.6345332500000000 Au
atom 7.4960164799999998 37.8419170000000022 2.5703601400000000 Au
atom 9.9385758499999994 37.8107526800000002 2.6141135700000002 Au
atom 12.8657185500000004 37.8381504399999997 2.9046999300000000 Au
atom 15.9151941699999995 37.8290653299999988 2.8368201599999998 Au
atom 18.6417276399999992 37.8322353100000015 2.7275971200000000 Au
atom 21.7570947299999986 37.8602210999999969 2.6973589300000000 Au
atom 24.4698236199999997 37.8604414799999986 2.7479460400000000 Au
atom 27.3605171799999987 37.8014926500000001 2.8016047500000001 Au
atom 1.7677191100000000 37.8601761500000009 2.5555564600000000 Au
atom 4.6878964700000001 37.8397872399999997 2.8373215500000000 Au
atom 8.8785783600000006 0.8047225400000000 2.7353801099999999 Au
atom 11.8060861799999994 0.8278400900000000 2.7560734299999998 Au
atom 14.5853005099999997 0.8173257100000000 2.7586101200000002 Au
atom 17.4512364200000007 0.8160762700000000 2.7457142200000000 Au
atom 20.2310716900000003 0.8457172700000000 2.6878223900000000 Au
atom 22.9483938599999995 0.8506861100000001 2.6669643500000002 Au
atom 25.8081306300000008 0.8384946100000000 2.6016585499999998 Au
atom 0.3648032900000000 0.9016516600000000 2.6589334000000000 Au
atom 3.2953363300000000 0.8369168500000000 2.6421413600000001 Au
atom 5.9110023600000003 0.9141647000000001 2.7775000599999999 Au
atom 7.5311036800000002 3.3021119400000001 2.6932014600000000 Au
atom 10.3436764100000005 3.2476244300000001 2.7008489099999999 Au
atom 13.1375875400000002 3.3256551399999998 2.7166235599999999 Au
atom 15.9666690300000003 3.2742728500000000 2.7143767400000001 Au
atom 18.7969836400000005 3.3167205700000002 2.7041670899999999 Au
atom 21.6254769899999992 3.3484073699999999 2.6848083599999999 Au
atom 24.4025175599999997 3.3374135200000001 2.6799507999999999 Au
atom 27.2446568800000009 3.3976552600000001 2.6399339400000001 Au
atom 1.8605954000000000 3.2719892399999999 2.7098711899999999 Au
atom 4.6996394300000004 3.2916263099999998 2.6847526700000000 Au
atom 8.9435894000000005 5.7768707700000004 2.7369325099999999 Au
atom 11.7053674999999995 5.7809422599999998 2.7301595200000000 Au
atom 14.5960881100000002 5.7853650800000000 2.7307102500000000 Au
atom 17.3635315100000014 5.7921535899999999 2.7438768499999999 Au
atom 20.1805212400000009 5.7827473600000001 2.7291048800000000 Au
atom 22.9900507400000009 5.8129508899999998 2.7301799800000000 Au
atom 25.8428739299999997 5.8047430300000000 2.7159796200000001 Au
atom 0.4751330700000000 5.8477173799999997 2.6729907300000000 Au
atom 3.2959427600000000 5.8086979300000001 2.7247115000000002 Au
atom 6.0638955599999997 5.7907073999999996 2.7178362599999999 Au
atom 7.5044922600000001 8.2514611500000008 2.7044653699999999 Au
atom 10.3656495799999995 8.2536140000000007 2.6031603900000002 Au
atom 13.1441664100000004 8.2507661199999998 2.7031170400000000 Au
atom 15.9699265700000002 8.2106783500000002 2.5845349099999999 Au
atom 18.7819945299999986 8.2475061899999993 2.7141833499999999 Au
atom 21.6119634000000005 8.2514142300000000 2.6499005599999998 Au
atom 24.4351268099999999 8.2841186600000007 2.7018453199999999 Au
atom 27.2474350299999983 8.0859613199999991 2.7301988100000001 Au
atom 1.9023499500000001 8.2812109500000002 2.6393443599999999 Au
atom 4.6861837399999997 8.2549290800000001 2.5950989899999999 Au
atom 8.9082321300000000 10.6974811400000007 2.6597273800000001 Au
atom 11.7021834499999997 10.7329094099999995 2.6577448299999999 Au
atom 14.5527151299999993 10.7382588699999992 2.6497256800000000 Au
atom 17.3592529199999994 10.7212885300000007 2.6493223299999999 Au
atom 20.1919174099999985 10.7132614700000008 2.6420779699999999 Au
atom 23.0509227199999991 10.7268111099999999 2.6320564700000002 Au
atom 25.8053336199999990 10.7339320100000002 2.5559882100000002 Au
atom 0.4955589600000000 10.6678574099999999 2.5498115800000001 Au
atom 3.2731712900000001 10.7236498099999995 2.6630207600000002 Au
atom 6.0995357500000003 10.7133694100000003 2.6196801199999999 Au
atom 7.5065352100000000 13.1857665799999992 5.6818764799999997 Cl
atom 7.4941500599999999 15.9893251900000006 8.5879762799999995 Cl
atom 7.5353447999999998 13.1262516399999996 8.3630494199999994 Na
atom 7.5325178900000003 16.0377902900000002 5.7772165700000002 Na
atom 7.4978066700000001 18.8190509400000003 5.7364000900000001 Cl
atom 7.5044723099999997 21.6187650200000014 8.5779517799999994 Cl
atom 7.4751510200000002 18.8124581400000004 8.3898340400000002 Na
atom 7.5268540799999997 21.6319574900000013 5.8075806200000004 Na
atom 7.5061423200000004 24.4343384099999987 5.7641610300000004 Cl
atom 7.4918385399999998 27.2632700499999991 8.5511911999999999 Cl
atom 7.4816284900000003 24.4498019000000006 8.3971769999999992 Na
atom 7.4927243099999998 27.2565937200000015 5.8222696000000003 Na
atom 7.5052156900000000 30.0637095000000016 5.7498311800000002 Cl
atom 7.4882498100000001 32.9336675999999997 8.5682951000000003 Cl
atom 7.4952967399999997 30.0932680700000006 8.3574726600000009 Na
atom 7.4895899200000002 32.9188517500000017 5.8271757700000002 Na
atom 7.4845182599999998 35.7378212899999994 5.7173431800000003 Cl
atom 7.4081585700000003 38.5658049199999979 8.5645088499999993 Cl
atom 7.4542783600000000 35.7396259900000004 8.3654395899999994 Na
atom 7.3011004699999997 38.5739098100000035 5.8402365600000001 Na
atom 7.5107349900000004 1.8790701299999999 5.8210603799999996 Cl
atom 7.4942725899999996 4.7263474299999997 8.5724661700000002 Cl
atom 7.7170920199999999 1.8975172700000000 8.4547685200000000 Na
atom 7.4772770099999999 4.6811885499999999 5.8269479000000004 Na
atom 7.5061501000000002 7.5107512200000004 5.7669775999999997 Cl
atom 7.5000719100000000 10.3656010599999995 8.5185348899999997 Cl
atom 7.4959026499999997 7.5138801800000001 8.3761751600000007 Na
atom 7.4939089499999998 10.3453673700000000 5.8084169000000001 Na
atom 10.3190217000000004 13.1397165900000008 5.8289846900000004 Na
atom 13.1443107799999996 13.1691240900000004 5.7090017199999998 Cl
atom 10.3186031699999994 15.9985850099999993 8.3686679300000009 Na
atom 13.1045015199999995 16.0116582299999983 8.5531201200000009 Cl
atom 13.1893506600000006 13.1536668199999998 8.3941420699999991 Na
atom 10.3140022200000008 13.1708863199999993 8.5634098800000000 Cl
atom 13.1460010300000008 16.0298836199999997 5.7536174700000000 Na
atom 10.3163227400000004 16.0049318000000014 5.7348187499999996 Cl
atom 10.3118995600000005 18.8230105600000002 5.8454981699999999 Na
atom 13.1419201900000004 18.8232234200000015 5.6997178999999996 Cl
atom 10.3129478599999995 21.6202341199999992 8.3825536100000004 Na
atom 13.1394357500000005 21.6066521400000013 8.5924299000000008 Cl
atom 13.1170285900000003 18.8125119500000011 8.3649231900000007 Na
atom 10.3300367099999999 18.8081613400000016 8.5923036499999998 Cl
atom 13.1026248699999996 21.6355849400000011 5.8145021799999999 Na
atom 10.3287857899999995 21.6328389899999998 5.7487985400000001 Cl
atom 10.3174332100000008 24.4387085999999982 5.8087550800000001 Na
atom 13.1460393000000000 24.4517485199999989 5.7149464800000001 Cl
atom 10.3238047399999999 27.2526416199999986 8.3737601999999995 Na
atom 13.1385609700000003 27.2388415500000001 8.5761664599999996 Cl
atom 13.1459398699999994 24.4581981500000012 8.3923913999999993 Na
atom 10.3244164000000005 24.4457268499999998 8.5783355500000003 Cl
atom 13.1281561999999994 27.2256218300000015 5.8498414199999997 Na
atom 10.3203722700000000 27.2659112899999982 5.7371578200000002 Cl
atom 10.2836771700000007 30.1145281900000015 5.8026011700000000 Na
atom 13.1398014500000002 30.0713465500000012 5.7288802600000004 Cl
atom 10.3078744400000009 32.9454886099999982 8.3707638899999992 Na
atom 13.1323351299999995 32.8987332299999977 8.6072004100000008 Cl
atom 13.1159054499999996 30.0934260999999985 8.3739971499999992 Na
atom 10.3186209499999997 30.0834031899999985 8.5658712999999995 Cl
atom 13.1539268499999995 32.9193303599999965 5.8377730200000002 Na
atom 10.3113031999999993 32.9083879800000005 5.6932660100000003 Cl
atom 10.3015548700000004 35.7469444299999992 5.7967527299999997 Na
atom 13.1302968199999999 35.7278522100000018 5.7507276400000000 Cl
atom 10.2862018499999994 38.5370264399999982 8.4747031400000008 Na
atom 13.0133395200000006 38.5650564299999985 8.6152785299999994 Cl
atom 13.1651430200000004 35.7334241499999976 8.3821637899999999 Na
atom 10.2933124599999992 35.7296250799999981 8.5586799199999994 Cl
atom 13.1081365800000000 38.5973272000000023 5.8551029100000003 Na
atom 10.3288794199999998 38.5575644199999985 5.7325623400000003 Cl
atom 10.2963268899999996 1.9134075100000001 5.8098441799999998 Na
atom 13.0828422199999999 1.8872383800000001 5.7225240199999998 Cl
atom 10.3072435000000002 4.7134030600000001 8.4093114100000008 Na
atom 13.1295566000000008 4.7244765900000001 8.5478149099999996 Cl
atom 13.1498711799999999 1.8635470700000001 8.4595331599999994 Na
atom 10.3309900500000005 1.8881250400000000 8.5919786699999996 Cl
atom 13.1316973600000004 4.7053040900000003 5.8441995999999996 Na
atom 10.3045764299999991 4.6969493299999998 5.7629374699999998 Cl
atom 10.3229386400000003 7.5118050600000004 5.8074314500000002 Na
atom 13.1359244299999993 7.5178136699999998 5.7445207399999996 Cl
atom 10.3089915800000007 10.3384188300000002 8.3567663000000003 Na
atom 13.1350752199999992 10.3658452600000004 8.5476235299999992 Cl
atom 13.1306450100000003 7.5210417500000002 8.3871359600000002 Na
atom 10.3233031999999998 7.5335635800000000 8.5608719200000003 Cl
atom 13.1600209800000005 10.3209848799999993 5.7729520799999996 Na
atom 10.3292067700000008 10.3395235900000007 5.7558824599999996 Cl
atom 15.9193483300000000 13.2050429000000005 5.8324058499999998 Na
atom 18.7851457000000011 13.1557665000000004 5.7392108899999998 Cl
atom 15.9808016199999994 16.0243175700000009 8.3729875600000003 Na
atom 18.7805718199999987 15.9800966399999993 8.5248446900000001 Cl
atom 18.7689645700000014 13.1531917099999998 8.3753063900000004 Na
atom 15.9734816599999991 13.1668475199999992 8.5636381999999998 Cl
atom 18.7553534299999995 15.9922719200000003 5.8376685899999998 Na
atom 15.9614354699999996 15.9814683399999993 5.7592090100000002 Cl
atom 15.9695304599999996 18.8316189099999995 5.8300511100000003 Na
atom 18.7725990699999983 18.8089800999999994 5.7074040400000001 Cl
atom 15.9741757900000003 21.6550552600000010 8.3672665700000000 Na
atom 18.7791407399999990 21.6133989399999997 8.5589014199999998 Cl
atom 18.7943686499999991 18.8104261199999989 8.4126660399999995 Na
atom 15.9585682299999991 18.8164565699999997 8.5734340000000007 Cl
atom 18.7783973700000004 21.6242230699999993 5.8215316499999998 Na
atom 15.9678693000000003 21.6193804599999986 5.7283838500000002 Cl
atom 15.9495548399999993 24.4905852700000004 5.7985970000000000 Na
atom 18.7827276000000012 24.4343755899999984 5.7220526300000003 Cl
atom 15.9138449800000004 27.2774371799999997 8.3816947899999992 Na
atom 18.7625480899999992 27.2597614399999983 8.5824954400000006 Cl
atom 18.7507648600000003 24.4177583899999995 8.3610664999999997 Na
atom 15.9621517100000005 24.4430809099999991 8.6001449799999996 Cl
atom 18.7792748600000010 27.2253766199999987 5.8307320599999999 Na
atom 15.9475744299999995 27.2501358899999993 5.7191864600000004 Cl
atom 15.9499180099999993 30.0557172900000005 5.8349466699999999 Na
atom 18.7671372900000009 30.0778517200000017 5.7313509800000002 Cl
atom 15.9286624799999998 32.8706810799999971 8.3580954100000007 Na
atom 18.7852930899999997 32.9209225000000032 8.5750848299999998 Cl
atom 18.7487693700000015 30.0714432000000009 8.3512969600000009 Na
atom 15.9590106899999995 30.0844528400000009 8.5780893700000007 Cl
atom 18.7598100400000014 32.9062715199999971 5.8461701200000000 Na
atom 15.9456819999999997 32.9168680399999971 5.7187072800000003 Cl
atom 15.9563066599999992 35.7442818700000018 5.8055684899999997 Na
atom 18.7645308799999988 35.7396642000000000 5.7365433899999996 Cl
atom 15.6676538799999996 38.5341156900000001 8.3417317000000004 Na
atom 18.8160417600000009 38.5469207200000028 8.5806475599999992 Cl
atom 18.8125887300000016 35.7170081200000027 8.4191672000000004 Na
atom 15.9608211400000002 35.7167911900000021 8.5549133000000008 Cl
atom 18.6930319699999998 38.5873714399999983 5.7088422200000002 Na
atom 16.1415763100000014 38.5520720800000021 5.8425459599999998 Cl