#===============================================================================
# Created using the Atomic Simulation Environment (ASE)

# Tue Dec 23 22:26:24 2025

#=======================================================
lattice_vector 28.1999999999999993 0.0000000000000000 0.0000000000000000 
lattice_vector 0.0000000000000000 39.4799999999999969 0.0000000000000000 
lattice_vector 0.0000000000000000 0.0000000000000000 62.3296083400000001 
atom 7.5967394800000001 14.7430498599999993 -0.2468170700000000 Au
atom 10.4479654800000006 14.7296844599999996 -0.2518880400000000 Au
atom 13.2576525200000006 14.6711299000000004 -0.0945655900000000 Au
atom 16.2519696799999984 14.7058313500000004 -0.5613107899999999 Au
atom 18.8630775300000018 14.7892935300000001 -0.2082663300000000 Au
atom 21.5656796300000018 14.8124593999999998 -0.1900979600000000 Au
atom 24.2129063400000000 14.8022823199999998 -0.0794469600000000 Au
atom 27.2997912800000009 14.8108253899999998 -0.1884590700000000 Au
atom 1.7571806000000001 14.8019319800000009 0.2661562000000000 Au
atom 4.8250306800000002 14.7164902600000005 -0.0876478400000000 Au
atom 8.7855970400000007 17.3697803300000011 -0.2715148100000000 Au
atom 11.6871850899999998 17.1838037700000008 -0.5398615300000000 Au
atom 14.6850556200000000 17.2383881199999998 -0.3435276900000000 Au
atom 17.5113232600000011 17.1177107600000014 -0.4721612000000000 Au
atom 20.0287011700000015 17.3857294099999997 -0.2305239000000000 Au
atom 23.0947660200000016 17.2749574599999995 -0.0306957400000000 Au
atom 25.8756510300000002 17.1679291499999991 -0.0885415200000000 Au
atom 0.4311693800000000 17.2549562200000004 0.1264114100000000 Au
atom 3.1022911400000002 17.0325586800000011 -0.1867067200000000 Au
atom 5.9691036300000002 17.0041241099999993 0.0418002100000000 Au
atom 7.2563249699999997 19.7122244500000008 -0.2060723400000000 Au
atom 10.1188829499999997 19.8987186600000001 -0.2767149900000000 Au
atom 12.9704700299999995 19.7292160599999988 -0.1102546400000000 Au
atom 16.0871218899999988 19.8979089000000009 -0.2034897400000000 Au
atom 18.6552228100000015 19.7957439899999983 -0.1455978300000000 Au
atom 21.6887102600000006 19.8105194100000013 -0.2296734500000000 Au
atom 24.5069363699999982 19.8918621299999998 0.0874029100000000 Au
atom 27.3426681599999988 19.9190202800000016 0.2301024700000000 Au
atom 1.7119394100000001 19.6363731299999991 0.0863500900000000 Au
atom 4.4701558099999996 19.5739604100000015 -0.0227564900000000 Au
atom 8.7610744199999999 22.4482867199999987 -0.2340982700000000 Au
atom 11.7183591099999997 22.0815836599999997 -0.3571891900000000 Au
atom 14.2818895399999999 22.1439495700000002 -0.1221185300000000 Au
atom 17.4649090200000003 22.3087850000000003 0.1100456500000000 Au
atom 20.0204713400000003 22.4320136599999991 0.0658979500000000 Au
atom 23.0421512799999988 22.2948550400000016 0.3914045100000000 Au
atom 25.6579826599999983 22.3059726199999986 0.1979063000000000 Au
atom 0.4884598500000000 22.0645582900000008 0.0751422600000000 Au
atom 3.2178962200000001 22.1157587500000012 -0.2714232300000000 Au
atom 6.0202368200000000 22.1699792799999997 -0.2757732300000000 Au
atom 7.4103013700000000 24.7125189300000017 -0.4154446800000000 Au
atom 10.2081892599999993 24.6617482300000006 0.0746932800000000 Au
atom 12.9848929700000006 24.5130883600000011 -0.3402620200000000 Au
atom 15.8922258900000006 24.6318665599999989 0.0143758800000000 Au
atom 18.6671060500000010 24.6615321099999996 0.4826215500000000 Au
atom 21.4464645099999984 24.5450132500000002 0.4963362200000000 Au
atom 24.5052409800000000 24.6137657400000016 0.2367379500000000 Au
atom 27.2639989199999988 24.4102597900000013 0.1109614300000000 Au
atom 1.8631844500000001 24.7257336499999987 -0.1821197100000000 Au
atom 4.6286695099999999 24.6424804799999997 -0.3422943000000000 Au
atom 8.6496365199999996 27.2920979000000017 -0.1350801800000000 Au
atom 11.5403428199999993 27.0403969400000008 -0.3447216900000000 Au
atom 14.4901303600000002 27.2482128199999991 0.0219769300000000 Au
atom 17.3336826799999990 27.1338242100000002 -0.0791849900000000 Au
atom 20.1458084699999986 27.0042903599999988 0.2292588500000000 Au
atom 22.9708128400000007 26.9959815200000008 0.1698196600000000 Au
atom 25.5941453500000016 27.2618318500000001 -0.1029345300000000 Au
atom 0.3628019900000000 27.0877854199999994 0.0639490200000000 Au
atom 3.3138516600000001 26.8680990699999995 -0.0826833800000000 Au
atom 6.3260165099999996 27.3284755600000011 -0.3264673900000000 Au
atom 7.4520917300000002 29.5197609999999990 -0.2713522800000000 Au
atom 10.2210927900000002 29.5046302300000001 -0.3999289600000000 Au
atom 13.1659483999999996 29.5422987399999997 -0.0464901200000000 Au
atom 15.9448034100000005 29.4696051899999993 0.1178453100000000 Au
atom 18.6898349099999983 29.3315854999999992 0.0945990400000000 Au
atom 21.5255414999999992 29.7144562000000008 0.2546070200000000 Au
atom 24.4210078099999990 29.6610102200000014 0.0291550300000000 Au
atom 27.1520516399999998 29.5147064899999982 0.1104599100000000 Au
atom 1.7727728500000000 29.6831334300000016 -0.0986474800000000 Au
atom 4.7684343900000004 29.6332762099999982 -0.2027949600000000 Au
atom 9.0669517099999997 32.1158135800000011 -0.2543093200000000 Au
atom 11.8055660699999994 32.1361965600000019 -0.1959664200000000 Au
atom 14.6112617300000007 32.1297689700000006 -0.0171655900000000 Au
atom 17.3366704600000006 32.0583378400000001 0.0155934700000000 Au
atom 20.2276992100000008 32.2089895599999991 0.2771728900000000 Au
atom 22.8834136599999987 31.9682676999999984 -0.0591137500000000 Au
atom 25.5344297900000008 31.9127590199999993 -0.1819783300000000 Au
atom 0.2854778600000000 32.0088604399999994 -0.0924497600000000 Au
atom 3.1500126800000001 32.2546772000000033 -0.0346523500000000 Au
atom 6.1899139300000003 32.3847427999999979 -0.2097222400000000 Au
atom 7.3521595000000000 34.7910876299999998 -0.3637365100000000 Au
atom 10.2640609299999994 34.4060310500000028 0.0946056300000000 Au
atom 13.2106247099999994 34.4814662499999969 -0.1828553700000000 Au
atom 15.7477383199999998 34.5518143400000000 0.0252893500000000 Au
atom 18.8182294500000005 34.6714721299999979 -0.0361487500000000 Au
atom 21.5092939600000008 34.2339662799999971 0.0531708000000000 Au
atom 24.4090577899999985 34.3612377899999970 0.1152206700000000 Au
atom 27.3027059799999989 34.5289571400000028 0.0751351900000000 Au
atom 1.7315273499999999 34.6055037200000015 -0.0011399300000000 Au
atom 4.5115274400000001 34.5937091799999976 -0.1215047800000000 Au
atom 8.7397056200000005 37.0984037699999973 0.0717581800000000 Au
atom 11.5129355199999992 37.1679100400000024 0.1170048200000000 Au
atom 14.6574319000000006 37.0253152200000031 -0.0195346500000000 Au
atom 17.4544986699999995 37.2186341999999968 0.1108086900000000 Au
atom 20.2692270699999995 37.0019302299999993 0.2087475300000000 Au
atom 23.0512330399999996 37.0779244200000022 0.1475019900000000 Au
atom 25.7187700700000015 36.8838664299999976 0.2127335900000000 Au
atom 0.2880656000000000 37.0869572399999967 0.2010464700000000 Au
atom 3.2558219600000000 37.1311115900000033 -0.1254424600000000 Au
atom 5.9272518999999999 37.1612162500000025 0.0809752500000000 Au
atom 7.4648865300000002 0.2311667100000000 0.2260061500000000 Au
atom 10.3192903800000000 -0.1450715400000000 0.1563480100000000 Au
atom 13.0578494400000000 0.0393966500000000 0.1515542500000000 Au
atom 16.0929521800000011 0.1348517300000000 0.0615442800000000 Au
atom 18.8635244100000001 -0.0884939200000000 0.2150415100000000 Au
atom 21.6115818399999995 -0.0068702400000000 0.2938044700000000 Au
atom 24.4689320600000002 0.0990275900000000 0.4641004800000000 Au
atom 27.2179008200000006 0.0623381900000000 0.0086649800000000 Au
atom 1.6952131900000000 0.0853391100000000 0.3722425600000000 Au
atom 4.5511172899999996 0.0656751000000000 0.2432496700000000 Au
atom 8.9603605799999997 2.4942733200000000 0.2874317000000000 Au
atom 11.8108166499999996 2.4993708899999998 0.2278462000000000 Au
atom 14.6119374400000002 2.4443585099999998 0.1193248800000000 Au
atom 17.3049023300000009 2.4421805600000002 0.2773023500000000 Au
atom 20.0636835699999985 2.5406447499999998 0.1520201400000000 Au
atom 23.0633071100000002 2.6420010000000000 0.2557428000000000 Au
atom 25.8260448400000016 2.4376939200000001 0.4921849700000000 Au
atom 0.5179037200000000 2.4778639500000001 0.2716039000000000 Au
atom 3.1415014800000001 2.4666806399999999 0.2464791700000000 Au
atom 5.9704300100000003 2.4578229700000001 0.2317358600000000 Au
atom 7.3964876600000000 4.9771020899999998 0.1776007400000000 Au
atom 10.2870568999999996 4.7998064600000001 0.2809711200000000 Au
atom 13.3114726099999992 4.7920283200000000 0.1758974800000000 Au
atom 16.1637957800000009 4.8699370999999996 0.0279562400000000 Au
atom 18.7233676500000001 4.8910412299999999 0.2661217000000000 Au
atom 21.4299626299999986 4.8207772699999998 0.1997378800000000 Au
atom 24.3432246899999996 4.7215724799999998 0.1915149600000000 Au
atom 27.0204764699999984 5.0167384500000001 0.6743457300000000 Au
atom 1.9623403800000001 5.0551889100000000 0.4090460000000000 Au
atom 4.7874068400000001 5.0557378499999999 0.3734657100000000 Au
atom 8.9260464000000006 7.3441175300000001 -0.1405260300000000 Au
atom 11.9871951499999998 7.2679049300000003 0.0174299200000000 Au
atom 14.6848920500000002 7.2932810699999999 -0.1798599900000000 Au
atom 17.4870235600000008 7.2787683000000003 -0.0014508100000000 Au
atom 20.3045857400000003 7.4545157299999998 0.1014731900000000 Au
atom 23.0158284600000016 7.2885149199999999 0.3567859400000000 Au
atom 25.8065177599999984 7.4614414000000000 0.2434431200000000 Au
atom 0.4411124800000000 7.4580087700000002 0.3638916600000000 Au
atom 3.1301391399999998 7.2245145600000003 0.2681090900000000 Au
atom 6.0839935100000000 7.5219898100000000 0.2341703900000000 Au
atom 7.4469765800000003 9.7582823800000007 -0.2178821500000000 Au
atom 10.5876102200000002 9.6972876899999996 -0.2939497200000000 Au
atom 13.1998841500000008 9.7782888999999997 -0.2581511500000000 Au
atom 16.2206513299999990 9.9218643800000006 -0.0160443200000000 Au
atom 18.9003137899999984 10.0353716500000001 -0.0837873600000000 Au
atom 21.4622510999999996 9.9195177500000007 0.1157741000000000 Au
atom 24.3350510799999995 9.8386526199999995 0.2015902500000000 Au
atom 27.2895024299999989 9.8534545399999995 0.2966091100000000 Au
atom 2.0857968100000002 9.6662406399999998 0.0009212800000000 Au
atom 4.6351223099999999 9.8396866500000009 0.0751964900000000 Au
atom 9.0687161399999994 12.2317624800000004 -0.2208228500000000 Au
atom 11.7352752700000007 12.4476806900000003 -0.1572784000000000 Au
atom 14.6935055800000001 12.2940177100000003 -0.4422801700000000 Au
atom 17.4076029000000005 12.4619926900000006 -0.1796816900000000 Au
atom 20.2003279000000013 12.3513509900000003 -0.3350514100000000 Au
atom 23.2526457099999995 12.4735941399999994 0.0083704800000000 Au
atom 25.8470187399999993 12.3339690700000002 -0.1180008200000000 Au
atom 0.5339785900000000 12.3685979100000001 0.0456392500000000 Au
atom 3.3719833900000000 12.2550156099999992 0.1034258200000000 Au
atom 6.0801597000000003 12.1884648200000001 -0.4416277200000000 Au
atom 7.4067394799999997 13.0527632199999992 1.8571047899999999 Au
atom 10.1835705700000005 13.1422276799999995 2.5317572799999999 Au
atom 13.3154582300000008 13.2151970500000004 2.6747187100000001 Au
atom 15.9347283799999992 13.2914074200000005 2.3225081400000001 Au
atom 18.7981635199999992 13.2176908900000001 2.4292955400000000 Au
atom 21.4632303399999991 13.4109063400000004 2.4143816700000000 Au
atom 24.3407684300000007 13.2298494499999997 2.4220505499999998 Au
atom 27.3560139000000007 13.3137590899999996 2.5110150199999999 Au
atom 2.0362017600000000 13.1689979600000004 2.4213366000000001 Au
atom 4.7994850700000002 13.1948793400000000 2.7000116799999998 Au
atom 9.0759971700000008 15.7767959599999994 2.4020303400000000 Au
atom 11.7911940200000007 15.5813430299999993 2.2642307100000001 Au
atom 14.4941164199999992 15.6890014600000001 2.2953653699999998 Au
atom 17.3535980700000003 15.7194670700000003 2.1433378900000002 Au
atom 20.0529459199999991 15.6872963900000002 2.1321075299999999 Au
atom 22.9778040700000012 15.7063411899999998 2.5154704799999998 Au
atom 25.8740322599999999 15.5875328100000008 2.4261013899999999 Au
atom 0.4454487800000000 15.5128693999999996 2.5533433300000001 Au
atom 3.3326028399999998 15.5239256999999995 2.4659330100000001 Au
atom 6.2731072699999997 15.6313402600000000 2.4511506199999999 Au
atom 7.6587152200000004 18.1019422799999994 2.6003835700000000 Au
atom 10.3211381200000005 18.1813555899999990 2.1126419099999998 Au
atom 13.2033388299999999 18.2908537299999985 1.9795173900000000 Au
atom 15.9731870600000008 18.2356889200000012 2.3107016900000001 Au
atom 18.7488163000000014 18.0464361699999998 2.1280649100000000 Au
atom 21.4573020099999994 18.3167144999999998 2.4719018400000001 Au
atom 24.4338430100000004 18.1573916199999985 2.5373548800000001 Au
atom 27.2755353199999995 18.1551869100000012 2.5957183300000000 Au
atom 1.8832045200000000 18.2796311899999999 2.8024585200000001 Au
atom 4.6594077299999999 18.2333158500000003 2.2942481199999998 Au
atom 8.9095770699999992 20.4905283900000015 2.4926529199999998 Au
atom 11.6843434800000008 20.5620443000000002 2.3325767100000001 Au
atom 14.4950528100000007 20.7700194399999987 2.5989886699999998 Au
atom 17.2778187199999991 20.7286482300000010 2.6706010099999999 Au
atom 20.0765937699999988 20.3382609599999995 2.6731746300000001 Au
atom 22.8552035899999986 20.6120045900000015 2.9274610900000000 Au
atom 26.0326816200000017 20.4537116400000016 2.7316160400000000 Au
atom 0.4522904200000000 20.7493880500000003 2.8550416300000001 Au
atom 3.2959138299999999 20.4449313199999985 2.4849772500000000 Au
atom 6.2201832300000000 20.4838069999999988 2.4014250000000001 Au
atom 7.5378379600000001 23.2418660899999985 2.2485366600000001 Au
atom 10.2578845399999992 22.8101391900000010 2.4644813800000001 Au
atom 13.3768356500000003 22.8684444199999994 2.3056501200000001 Au
atom 15.8660777100000008 23.1719729299999990 2.5587571900000001 Au
atom 18.7360564499999995 23.1277578099999985 2.6070160100000002 Au
atom 21.4960372900000003 23.0987504100000010 3.2876051600000000 Au
atom 24.5908652799999992 23.2267553199999988 2.6020490500000002 Au
atom 27.2776173399999990 23.0195881200000017 2.7034370000000001 Au
atom 1.9171663299999999 22.9689691399999987 2.3911654400000000 Au
atom 4.5414712799999997 23.1932502099999986 2.3866950500000002 Au
atom 8.6724182800000005 25.4964502400000015 2.6162563300000001 Au
atom 11.6288649199999998 25.4588967400000001 2.1197617300000000 Au
atom 14.3766190100000006 25.4043528599999995 2.6085642199999999 Au
atom 17.1791940899999993 25.5766388000000013 2.5795138099999999 Au
atom 19.9284197499999998 25.7087949000000009 2.9319257799999998 Au
atom 23.0555763200000001 25.5302441900000012 2.8844222099999999 Au
atom 25.7755450400000008 25.5354833200000009 2.6799347500000001 Au
atom 0.6289558100000000 25.6237212499999991 2.6948131499999999 Au
atom 3.1426245300000000 25.7396532700000016 2.5505170300000000 Au
atom 5.8966593999999999 25.4939574399999991 2.4542276400000000 Au
atom 7.5727358699999998 28.1356660699999992 2.4755884600000000 Au
atom 10.2114159799999999 28.0413673000000010 2.1968418500000002 Au
atom 12.8261322700000004 28.1571507799999985 2.4964505500000000 Au
atom 15.9962103100000004 27.9567225400000012 2.5788853199999999 Au
atom 18.6400311599999995 27.8968666399999989 2.7884371400000001 Au
atom 21.7620703400000011 27.9140657700000006 2.7845607399999999 Au
atom 24.4724849099999986 27.9355307000000010 2.4132683300000002 Au
atom 27.2238452299999985 28.1625356300000007 2.5960790500000002 Au
atom 1.9842499400000000 28.0977635600000006 2.6593083900000001 Au
atom 4.6780149299999998 27.9808833099999994 2.5037296800000002 Au
atom 8.7049907799999993 30.5122071900000016 2.5625801699999999 Au
atom 11.6090484400000005 30.4241666899999998 2.2763296799999999 Au
atom 14.4231437400000004 30.4044830499999996 2.7915748200000001 Au
atom 17.3717157600000007 30.6037976699999987 2.7014856500000000 Au
atom 20.2105601300000011 30.3517401699999994 3.0546421200000000 Au
atom 23.0386539900000002 30.5425210500000013 2.8413119000000000 Au
atom 25.6982342300000006 30.3447559799999986 2.8750686399999998 Au
atom 0.3679846800000000 30.5357646000000003 2.6643769900000001 Au
atom 3.3586270900000001 30.5790595900000000 2.4257316300000000 Au
atom 5.7918905799999996 30.4849122500000007 2.5332031000000002 Au
atom 7.4028381599999999 32.6543881099999993 2.0097878699999998 Au
atom 10.0878902799999999 33.0732637500000024 2.4643442800000002 Au
atom 13.1539122800000001 32.9286628400000012 2.2820686200000000 Au
atom 15.9502656100000006 32.6127586200000010 2.7311479500000000 Au
atom 18.8304183599999995 32.7558303400000028 2.4452496500000001 Au
atom 21.5519973699999987 33.0666561900000033 2.6403268799999999 Au
atom 24.3291368699999992 32.8037766400000024 2.6232709900000000 Au
atom 27.2117941799999983 32.8852561799999989 2.4741896300000001 Au
atom 1.8094804099999999 32.8407372699999982 2.6725138099999999 Au
atom 4.5347891599999999 32.9458463699999982 2.5352498899999998 Au
atom 8.9148032700000002 35.4459675499999989 2.4683431499999999 Au
atom 11.6812552200000006 35.3842999000000020 2.4099290299999998 Au
atom 14.4694941299999993 35.2425178599999995 2.5826456499999999 Au
atom 17.1079297200000013 35.2005520900000022 2.2991871900000000 Au
atom 20.0051847100000018 35.2875951700000030 2.6652298499999998 Au
atom 22.8535680799999987 35.5033144200000024 2.7417943400000002 Au
atom 25.9056958799999997 35.4860441200000025 2.8488528700000000 Au
atom 0.5121324800000000 35.2544853899999993 2.5796498699999999 Au
atom 3.2964980200000000 35.4051230600000011 2.8164125200000001 Au
atom 6.1511663800000003 35.3476158499999968 2.6955933800000000 Au
atom 7.3932793999999999 38.1342838599999965 2.5253284100000002 Au
atom 10.3078873899999994 37.8499760699999968 2.8290206400000000 Au
atom 13.0740583299999997 37.7668478200000024 2.6608298600000002 Au
atom 15.7213634300000002 37.7546356799999998 2.6902557699999998 Au
atom 18.6879849500000006 37.9875368100000017 2.6885224999999999 Au
atom 21.5084184699999987 37.8932722099999992 2.7043092099999999 Au
atom 24.2621104299999999 37.7432525799999965 2.9473136700000002 Au
atom 27.0954818300000007 37.9262578299999973 2.7910060300000001 Au
atom 1.7790849200000001 37.7469865500000026 2.9479242499999998 Au
atom 4.6814999999999998 37.8430189099999978 2.9658067899999998 Au
atom 8.7821731599999993 0.9470023800000000 2.6882442000000002 Au
atom 11.6924016599999998 0.6729174900000000 2.6635951800000002 Au
atom 14.2829573399999994 0.9640673800000000 2.7627489399999998 Au
atom 17.2244445599999985 0.8718046900000000 2.9740206800000002 Au
atom 20.1887904399999982 0.8627209800000000 2.6827901000000001 Au
atom 22.9656293900000001 0.9473558200000000 2.9771628400000001 Au
atom 25.8390583400000011 0.8826396900000000 3.1137816100000002 Au
atom 0.4243908600000000 0.9328087200000000 2.6695169800000000 Au
atom 3.1859604899999998 0.7507341900000000 3.0249481000000000 Au
atom 6.2204710800000003 0.8340846200000001 2.9006525200000000 Au
atom 7.6470661900000003 3.3375668799999998 2.7566323499999998 Au
atom 10.4629378499999994 3.2797686399999999 2.6481414700000001 Au
atom 13.1653989500000002 3.2310121600000001 2.7051988699999998 Au
atom 15.9048723600000006 3.3588320199999999 2.7660676500000001 Au
atom 18.7610168299999991 3.5473805199999999 3.0391822899999998 Au
atom 21.5601588900000003 3.3465975000000001 2.7766904299999999 Au
atom 24.3173626899999995 3.3824826699999999 2.9430962500000000 Au
atom 27.3173521699999995 3.1279189800000000 3.0801432599999998 Au
atom 1.9483874500000000 3.2933115599999998 2.9494381100000000 Au
atom 4.8946166399999997 3.3510768400000002 2.7491448100000002 Au
atom 8.8171453000000000 5.8445426700000001 2.9043256600000000 Au
atom 11.9924789999999994 5.7773484699999997 2.6726802200000002 Au
atom 14.5244740900000000 5.6917756900000001 2.7309454000000000 Au
atom 17.3525056500000012 5.8579930400000002 2.5669047900000002 Au
atom 20.0542477699999999 5.8173667900000003 2.7956276199999999 Au
atom 22.8610953700000010 5.9075223299999999 2.8791011499999999 Au
atom 25.6151781400000012 6.0602050199999997 3.0444832700000002 Au
atom 0.5375916600000000 5.7215218900000000 3.0790112299999999 Au
atom 3.3290842899999999 5.7504495799999997 2.8842144900000002 Au
atom 6.1365414100000004 5.8142977599999996 2.8314945400000000 Au
atom 7.7230899800000001 8.2254368299999996 2.5144134400000002 Au
atom 10.5405552300000007 8.3830028100000007 2.4420136399999999 Au
atom 13.1399196699999994 8.3745354100000000 2.4394715800000002 Au
atom 15.8460332299999997 8.2852723899999994 2.2816203000000002 Au
atom 18.9087408600000018 8.2604684400000004 2.4454110199999999 Au
atom 21.5261557500000009 8.3087143999999995 3.1361426099999998 Au
atom 24.5261468899999997 8.2762892499999996 2.8412262300000002 Au
atom 27.3857504799999987 8.3037327500000000 2.8415464899999998 Au
atom 1.6639922700000001 8.3337400299999995 2.8883848200000002 Au
atom 4.6996973799999999 8.3559082599999996 3.1622745900000000 Au
atom 9.0778242700000007 10.8938768699999997 2.1440381199999998 Au
atom 11.8084282199999997 10.8982900199999992 2.8600251700000001 Au
atom 14.7343841599999994 10.8021467399999995 2.2168015699999999 Au
atom 17.3617613499999983 10.7441762199999999 2.3261895899999998 Au
atom 20.2689886000000001 10.9192781399999994 2.4488927999999999 Au
atom 23.0590366600000003 10.7183154100000007 2.7051786500000001 Au
atom 25.7064583000000013 10.8089415800000008 2.9466168300000000 Au
atom 0.2762702300000000 10.7764727400000009 2.6505724200000000 Au
atom 3.3062697399999998 10.8089101500000009 2.7439433400000000 Au
atom 6.1235110199999996 10.7271428699999998 2.2859755100000001 Au
atom 7.9930212599999999 13.4026559100000000 5.2581175000000000 Cl
atom 7.8963143300000000 16.1210873399999990 8.2971578699999995 Cl
atom 7.9027416099999996 13.1600854399999996 8.2718165599999995 Na
atom 7.7312428000000004 15.9301859500000003 5.5872811999999996 Na
atom 7.8650499500000004 18.8962306600000005 5.6355866700000004 Cl
atom 7.6327453600000004 21.8170208000000017 8.3823599200000007 Cl
atom 7.8638360000000000 19.0760417999999987 8.0560165999999995 Na
atom 7.7372157899999996 21.7055331900000006 5.7245272099999998 Na
atom 7.8514632400000002 24.5865839900000012 5.4246061799999996 Cl
atom 7.9087064199999997 27.4847218899999994 8.5007210999999998 Cl
atom 7.6778355300000003 24.5594490000000008 8.1748904299999996 Na
atom 7.5516271100000001 27.3075650400000001 5.9033485199999998 Na
atom 7.6577362899999999 30.2557739099999985 5.4675256200000000 Cl
atom 7.5023932400000000 32.8712782500000031 8.6742141900000007 Cl
atom 7.6046701499999996 30.1709886300000001 8.2316301000000003 Na
atom 7.8285969000000000 33.2407404599999978 5.5493935900000002 Na
atom 7.6741597199999996 35.8449619299999966 5.7404351800000004 Cl
atom 7.5474612299999997 38.5278444100000002 8.7540036000000008 Cl
atom 7.7348335199999996 35.6621969099999987 8.3410860600000003 Na
atom 7.5854475700000004 38.7235937499999991 5.8502312800000000 Na
atom 7.6945734899999998 1.9292134999999999 6.0067212500000000 Cl
atom 7.8330410700000002 4.7552098899999997 8.8202125400000000 Cl
atom 7.5291860300000000 1.6641839199999999 8.4733114100000009 Na
atom 7.2535771100000002 4.6466564000000004 5.9720348799999998 Na
atom 7.6049479299999998 7.4958397500000000 5.8743019600000004 Cl
atom 7.8439237899999998 10.4263895000000009 8.2954653300000007 Cl
atom 7.8876109899999998 7.6429524899999999 8.3153081300000000 Na
atom 7.8017231799999998 10.3514703600000004 5.4608406799999996 Na
atom 10.6832622199999996 13.1490244500000006 5.6444867700000003 Na
atom 13.4936732799999994 13.3520796300000004 5.6306291599999998 Cl
atom 10.3598297200000005 15.9556018500000008 8.3626487800000007 Na
atom 13.2128371399999995 16.1292035899999995 8.4699811500000006 Cl
atom 13.2924003400000004 13.1507055600000005 8.5470384199999998 Na
atom 10.8493554499999991 13.1798008200000005 8.4867230399999993 Cl
atom 13.3453732400000007 16.2121703199999985 5.7844969199999996 Na
atom 10.2944816400000008 16.3558472899999998 5.5776946399999998 Cl
atom 10.3988227400000000 18.8096304299999986 5.5005454699999996 Na
atom 13.4341087600000009 18.9390132899999983 5.6936595299999997 Cl
atom 10.5978164699999997 21.8467933599999995 8.3463351699999997 Na
atom 13.4136056400000001 21.6528297000000016 8.6387397400000001 Cl
atom 13.4545535399999991 18.9057867900000005 8.5068106300000004 Na
atom 10.3313100900000006 19.0238006400000010 8.2309075200000006 Cl
atom 13.2972086899999997 21.8594456000000008 5.9024540200000004 Na
atom 10.7644787799999992 22.0120085900000007 5.4565448999999999 Cl
atom 10.3137421400000004 24.4300619400000016 5.8092901599999998 Na
atom 13.3535387500000002 24.5318567999999999 5.6071784400000002 Cl
atom 10.4495693099999993 27.3180301700000001 8.4024934899999995 Na
atom 13.2653496099999995 27.1882678499999990 8.5858037100000004 Cl
atom 13.3311072599999996 24.6094073000000009 8.2392976699999991 Na
atom 10.5489858299999995 24.6593643000000000 8.4206508000000007 Cl
atom 13.3355522700000009 27.6172560599999990 5.6811125499999999 Na
atom 10.4930330400000003 27.4195607099999989 5.6735785600000002 Cl
atom 10.2587749200000005 30.0159208699999986 5.5985553599999998 Na
atom 13.3441235900000006 30.2018339500000010 5.7265300200000002 Cl
atom 10.3914963700000005 32.9402143000000009 8.1315649299999997 Na
atom 13.1326513299999998 32.8279784500000034 8.6080383600000001 Cl
atom 13.4374085500000007 30.1520899000000000 8.3454944399999995 Na
atom 10.6165207299999995 30.0260925500000013 8.5633844400000001 Cl
atom 13.3452452699999995 33.0146715099999994 5.8495216100000000 Na
atom 10.5373608700000005 33.0918196300000034 5.4944656099999998 Cl
atom 10.4726240900000001 35.8020932000000016 5.7733302399999999 Na
atom 13.2165327200000000 35.8271093099999973 5.9468635499999998 Cl
atom 10.5492489799999998 38.6363810599999979 8.2658530100000007 Na
atom 13.0463939500000006 38.6766186799999971 8.5543854100000001 Cl
atom 13.0019961300000002 36.0200044199999994 8.3929290000000005 Na
atom 10.4877089600000009 35.7857081200000025 8.7132705999999995 Cl
atom 13.5590380400000008 38.7553522099999981 5.7429254600000004 Na
atom 10.4177063000000008 38.6213362800000013 5.9655725100000003 Cl
atom 10.3555528199999998 1.8852735800000000 5.8666150899999998 Na
atom 13.3194689000000004 1.9895643700000001 5.6463953699999996 Cl
atom 10.6702545099999995 4.5079645099999999 8.4137933700000005 Na
atom 13.3910168299999999 4.8200180200000000 8.6562191100000003 Cl
atom 13.3537812400000000 2.0660919400000002 8.4683774300000003 Na
atom 10.5046821700000006 2.1004232200000001 8.4816026000000004 Cl
atom 13.2676959500000002 4.7675459099999999 5.9308985900000000 Na
atom 10.3885857999999995 4.6855840700000000 5.7798196199999996 Cl
atom 10.6227567300000008 7.5544472000000003 5.5453534600000003 Na
atom 13.3576700099999996 7.5051738900000000 5.5250849700000000 Cl
atom 10.5431567499999996 10.5427566000000006 8.1467448299999994 Na
atom 13.2397958500000001 10.5155762399999997 8.2046164200000007 Cl
atom 13.3547078700000004 7.5951544799999997 8.1257221000000008 Na
atom 10.4463118300000009 7.7084226600000001 8.5740976999999994 Cl
atom 13.5106811800000006 10.3191321800000004 5.5654341799999996 Na
atom 10.4404438699999993 10.4202526100000004 5.5584526900000002 Cl
atom 16.4430118699999994 13.2959110700000007 5.7161959500000004 Na
atom 19.1345749100000013 13.2173469000000008 5.5719352999999998 Cl
atom 16.2602918400000007 16.0276358600000002 8.4389952299999997 Na
atom 18.8969429700000013 15.9715814399999996 8.3343745899999995 Cl
atom 19.0908410199999992 12.9498332099999995 8.1328530400000005 Na
atom 15.9913013700000004 13.3485942400000006 8.4571118799999994 Cl
atom 19.0000118700000016 16.0568427599999985 5.5120684799999999 Na
atom 16.1385742800000003 16.0803573200000010 5.6768127300000000 Cl
atom 16.1375469100000011 18.8621717400000009 5.9719760400000004 Na
atom 19.0534876799999999 18.7747782600000015 5.6589757100000000 Cl
atom 16.2806391499999989 21.9123224299999997 8.5625769500000004 Na
atom 19.0678001399999992 21.6846736500000006 8.4294569599999996 Cl
atom 19.1131645299999988 18.6722876900000010 8.1935050100000009 Na
atom 16.1671970899999984 18.7578462799999990 8.6557020300000005 Cl
atom 18.8819585799999992 21.6013072999999984 5.8683635599999997 Na
atom 16.1607418799999998 21.9597149599999995 5.7224315399999997 Cl
atom 16.2645869000000012 24.6183599700000002 5.8130720699999996 Na
atom 18.9353291500000012 24.7084346799999999 5.9293939000000000 Cl
atom 15.9935539500000008 27.2644442200000015 8.2631885500000006 Na
atom 18.9137571700000002 27.3376620999999993 8.7481868800000004 Cl
atom 19.0510778099999989 24.4231608700000002 8.5523844499999999 Na
atom 16.1651430299999994 24.6149025600000009 8.7188420000000004 Cl
atom 19.0831373500000012 27.3336289000000008 5.9187461600000004 Na
atom 16.1376763399999987 27.4096936599999985 5.8150460099999997 Cl
atom 16.0514841299999986 30.0720394099999986 5.9157469899999997 Na
atom 19.1758814499999986 30.2116390599999995 6.0427313800000002 Cl
atom 16.2360205600000000 32.9211613000000014 8.4306835499999995 Na
atom 18.9451730900000008 32.9779946399999986 8.7810258300000008 Cl
atom 18.9818296400000008 30.0532661200000000 8.6350049900000005 Na
atom 16.2454624299999999 30.2105333800000011 8.6823596199999997 Cl
atom 18.9799309799999989 33.0123102200000034 6.1665941000000002 Na
atom 16.1754754299999988 32.8012603499999997 5.6772509600000003 Cl
atom 16.1186104499999985 35.7738706700000009 5.7320297599999996 Na
atom 18.9578254800000003 35.8923987200000028 5.8494232000000004 Cl
atom 16.1082341299999996 38.8153663300000034 8.6406463299999992 Na
atom 19.2218934499999996 38.4928606699999989 8.7411615099999995 Cl
atom 18.9597919799999985 35.6740581000000034 8.6039322699999996 Na
atom 16.1692326199999989 35.5208088700000033 8.5355116100000004 Cl
atom 18.8200367399999990 38.3285936199999995 5.8935890000000004 Na