#===============================================================================
# Created using the Atomic Simulation Environment (ASE)

# Tue Dec 23 21:43:03 2025

#=======================================================
lattice_vector 28.1999999999999993 0.0000000000000000 0.0000000000000000 
lattice_vector 0.0000000000000000 39.4799999999999969 0.0000000000000000 
lattice_vector 0.0000000000000000 0.0000000000000000 62.3296083400000001 
atom 7.5119240600000001 14.8226547499999999 -0.2616806900000000 Au
atom 10.3795544100000008 14.8060723299999992 -0.3930220600000000 Au
atom 13.1843477100000008 14.8391179999999991 -0.3624132300000000 Au
atom 16.0068434999999987 14.8180313300000002 -0.2010440800000000 Au
atom 18.8293043299999994 14.8330869100000005 -0.1511878600000000 Au
atom 21.6451465300000017 14.8190392800000001 -0.1542429700000000 Au
atom 24.3798935700000001 14.8126554800000001 0.0202935700000000 Au
atom 27.1598815599999988 14.7652182199999995 -0.0135926100000000 Au
atom 1.8915732100000000 14.7899057500000009 -0.0810340600000000 Au
atom 4.7438785699999997 14.8375840700000001 -0.3248683000000000 Au
atom 8.8473012000000004 17.3197713499999999 -0.4074913400000000 Au
atom 11.6961750999999996 17.3168827299999997 -0.3624347300000000 Au
atom 14.5526371700000006 17.3375380499999991 -0.2360600700000000 Au
atom 17.3866006800000008 17.2602030100000015 -0.1291773400000000 Au
atom 20.2128973099999989 17.3055758200000014 -0.1565708700000000 Au
atom 23.0203607199999993 17.3187141000000011 -0.0395727000000000 Au
atom 25.9324436700000014 17.2349395100000002 0.1774542000000000 Au
atom 0.4859671700000000 17.1919215899999998 -0.0871114900000000 Au
atom 3.2743732500000000 17.2055855999999991 -0.1028652300000000 Au
atom 6.0850514100000002 17.3210062299999983 -0.1660834100000000 Au
atom 7.5070473399999997 19.7447493600000001 -0.0516440100000000 Au
atom 10.2860515199999991 19.7402243000000013 -0.0363439700000000 Au
atom 13.0841547499999997 19.8340300200000001 -0.0543486300000000 Au
atom 15.9275742000000005 19.6934983899999985 -0.0961720300000000 Au
atom 18.7885231300000015 19.7911191899999999 -0.0994970700000000 Au
atom 21.6204828000000013 19.7200520499999996 -0.0184559500000000 Au
atom 24.5232042700000008 19.6535542999999997 -0.0037027500000000 Au
atom 27.3189416700000010 19.7314460099999991 -0.0032976700000000 Au
atom 1.8472986899999999 19.7999728499999996 0.0365463100000000 Au
atom 4.7313352499999999 19.7954087299999983 -0.1221128000000000 Au
atom 8.9477368399999992 22.1193795400000006 0.1158226600000000 Au
atom 11.7627260600000003 22.2052245100000007 0.1235157300000000 Au
atom 14.5187843900000004 22.2381554500000007 -0.0242629100000000 Au
atom 17.3848643100000011 22.1370456599999983 0.0116556700000000 Au
atom 20.2483943900000014 22.1725777000000015 -0.0227905000000000 Au
atom 23.0624171000000011 22.1627092599999997 0.0546835900000000 Au
atom 25.8640779599999995 22.1782793200000015 0.2293097500000000 Au
atom 0.4563179700000000 22.2575167900000004 -0.0644110500000000 Au
atom 3.3184597199999999 22.2536259200000011 0.0839075500000000 Au
atom 6.1597810099999997 22.1703862600000008 -0.0427156300000000 Au
atom 7.5761277099999997 24.5550309300000009 0.1217300900000000 Au
atom 10.3153941200000006 24.6104520499999992 0.0334970200000000 Au
atom 13.1360638900000009 24.7454074099999985 -0.0555157400000000 Au
atom 16.0324284100000014 24.7100248200000010 0.0528460200000000 Au
atom 18.8412635900000005 24.7507196600000015 0.1306839000000000 Au
atom 21.7119833500000006 24.6727462799999984 0.1511609200000000 Au
atom 24.4438700500000010 24.6425754999999995 0.2627544000000000 Au
atom 27.2317723399999991 24.7469572199999988 0.1785589500000000 Au
atom 1.8854544499999999 24.6630819300000006 -0.0307171600000000 Au
atom 4.6858420799999996 24.6949020099999998 -0.2191119800000000 Au
atom 8.9264863400000003 27.0829906200000003 0.0027480900000000 Au
atom 11.6804562399999998 27.1082059199999996 0.0296205000000000 Au
atom 14.5861010600000007 27.0882011700000014 -0.0721643700000000 Au
atom 17.2925725499999992 27.2685141400000006 0.0208024300000000 Au
atom 20.2251533999999999 27.1178108000000009 -0.0263043400000000 Au
atom 23.0702537700000008 27.2272546200000001 0.1569408100000000 Au
atom 25.8786106700000005 27.2167892000000009 0.0233415100000000 Au
atom 0.4701769200000000 27.1371275300000008 -0.3301355600000000 Au
atom 3.3321386300000002 27.1454086600000011 0.0327186600000000 Au
atom 6.1364576700000004 27.1198355900000010 -0.1357893900000000 Au
atom 7.4773689900000004 29.6130105000000015 -0.1110216200000000 Au
atom 10.3313848499999992 29.5867943800000006 -0.0285324300000000 Au
atom 13.0835955199999994 29.6761298899999986 0.0708448600000000 Au
atom 15.9295153799999998 29.6647516300000014 0.3129256000000000 Au
atom 18.7973537800000017 29.6101549499999983 0.1160277800000000 Au
atom 21.6630501399999993 29.5647147600000011 0.3662644300000000 Au
atom 24.4506929299999989 29.6657178200000011 0.1312831700000000 Au
atom 27.3191959500000010 29.6261387300000010 0.1039671300000000 Au
atom 1.8640220900000000 29.6312889199999994 -0.0569456400000000 Au
atom 4.7028279800000004 29.5851373200000012 -0.1101818000000000 Au
atom 8.9833544300000003 32.0195630099999988 -0.0194828100000000 Au
atom 11.7692336900000001 32.0315654500000022 0.0471659300000000 Au
atom 14.5592302700000005 32.0636758400000019 -0.2186736800000000 Au
atom 17.4620376800000017 32.1200395999999984 -0.1186278800000000 Au
atom 20.2241054899999995 32.0622616699999980 0.1122557800000000 Au
atom 22.9921069100000004 32.0520567800000009 0.1219633600000000 Au
atom 25.8536961599999984 32.0911977600000000 0.1503367000000000 Au
atom 0.4632529900000000 32.1573731200000026 -0.0643654700000000 Au
atom 3.2878665400000000 32.1441312400000001 -0.0076887800000000 Au
atom 6.0970225700000000 32.1291767900000025 -0.0837028500000000 Au
atom 7.5335697599999998 34.5693251699999990 -0.0578835800000000 Au
atom 10.3368673700000002 34.5571329400000025 -0.0226732900000000 Au
atom 13.1384807099999996 34.5247473000000014 -0.1385351300000000 Au
atom 16.0197724299999997 34.5399697900000007 -0.3174405200000000 Au
atom 18.8530958300000009 34.5355711699999972 0.0111336600000000 Au
atom 21.5663370900000011 34.6321825599999968 -0.0653225800000000 Au
atom 24.4247514199999998 34.5769512999999975 0.0331181900000000 Au
atom 27.1850519999999989 34.6314252800000020 -0.0217936900000000 Au
atom 1.7890710900000000 34.6361012599999967 -0.1304915800000000 Au
atom 4.5830558300000002 34.5668022500000021 -0.0001902500000000 Au
atom 8.9068950499999993 37.0297547600000030 0.2539149900000000 Au
atom 11.7281001299999996 37.0570747800000007 0.2366017400000000 Au
atom 14.5510539100000003 37.0553470799999971 -0.1337312700000000 Au
atom 17.3381603599999998 37.0981452799999971 0.0119665700000000 Au
atom 20.1693051799999985 37.0223971799999987 0.1083842300000000 Au
atom 22.9651051499999994 37.0279210599999971 0.0833687600000000 Au
atom 25.8221426100000002 37.0727726699999991 0.0847562800000000 Au
atom 0.3913603700000000 37.1470071999999973 -0.0473487900000000 Au
atom 3.2190093599999998 37.0790879400000009 0.0800476700000000 Au
atom 6.1150088399999998 37.0211445300000008 0.1345501500000000 Au
atom 7.3982374100000001 0.0924030800000000 0.2907188800000000 Au
atom 10.3580588099999993 -0.0115735800000000 0.5065345200000000 Au
atom 13.1536836499999996 0.0276862700000000 0.1943187900000000 Au
atom 15.8738773500000008 0.0722431600000000 0.0890908700000000 Au
atom 18.8078729799999991 0.0300700300000000 -0.0162064500000000 Au
atom 21.6109442300000012 0.0780888000000000 0.1966026900000000 Au
atom 24.3522882299999992 0.0245095500000000 0.2457420500000000 Au
atom 27.2019703799999988 0.0844571600000000 0.4750553200000000 Au
atom 1.8002182600000001 0.1185403400000000 0.1655622600000000 Au
atom 4.6710103800000002 -0.0149061100000000 0.1522232400000000 Au
atom 8.9392740300000000 2.4082433299999999 0.1293103700000000 Au
atom 11.7735843899999999 2.4480218400000000 0.3599902000000000 Au
atom 14.5586984299999997 2.5171519299999998 0.1097591400000000 Au
atom 17.3884471800000000 2.4989361300000001 0.0142712400000000 Au
atom 20.1663554800000000 2.5237218100000001 0.3139142400000000 Au
atom 22.9973677999999992 2.4589229200000000 0.1459441700000000 Au
atom 25.7668712500000012 2.4263578899999998 -0.0045699300000000 Au
atom 0.4999820800000000 2.5389081500000001 -0.0167779700000000 Au
atom 3.2920059799999999 2.4703956499999999 0.1061707100000000 Au
atom 6.0762471299999996 2.5289626300000001 0.1992512200000000 Au
atom 7.5702316700000001 4.9414419399999998 0.1725060800000000 Au
atom 10.3214304000000006 4.9471550899999999 0.2590532000000000 Au
atom 13.2207556700000008 5.0544829900000003 0.2814322200000000 Au
atom 16.0442198800000000 4.9457979300000003 0.1771872300000000 Au
atom 18.9020240999999984 4.9418377700000002 0.1326904200000000 Au
atom 21.6815314400000005 4.9640353499999996 0.2591761500000000 Au
atom 24.4755610700000013 4.8912212200000003 0.2688436300000000 Au
atom 27.2461136000000010 4.8825504899999999 -0.0209623300000000 Au
atom 1.8658020300000000 5.0599809599999999 0.0486259500000000 Au
atom 4.7338338400000000 4.9849427600000000 0.0325744100000000 Au
atom 8.9999764199999994 7.4651142899999998 0.2240898800000000 Au
atom 11.7907171300000009 7.4509088999999999 0.1463090600000000 Au
atom 14.6836524399999995 7.3859087800000003 0.3087426600000000 Au
atom 17.4877581999999983 7.3720083799999996 0.2071085300000000 Au
atom 20.2795074600000014 7.3719633699999996 -0.0097699100000000 Au
atom 23.0923736700000006 7.4135389299999996 0.0585672500000000 Au
atom 25.8262660299999993 7.3944577799999998 0.1117183400000000 Au
atom 0.4626704200000000 7.5287161500000002 -0.0611840600000000 Au
atom 3.3719982499999999 7.4567214399999999 0.0878449000000000 Au
atom 6.1680701100000004 7.4296269900000000 0.1095601300000000 Au
atom 7.5385720799999998 9.8893999800000003 0.1092873000000000 Au
atom 10.3878741899999998 9.9274833499999993 -0.0255899600000000 Au
atom 13.2302602399999998 9.9139152799999994 0.2373085100000000 Au
atom 15.9825489899999997 9.9280510300000007 0.0386232900000000 Au
atom 18.8388910900000006 9.8241790600000005 0.1911144300000000 Au
atom 21.5848480199999990 9.8219486000000007 0.0713551400000000 Au
atom 24.3563768500000002 9.8912997699999998 0.1334254300000000 Au
atom 27.0767243200000003 9.9535177800000003 0.0812153800000000 Au
atom 1.8913316300000000 9.8687113899999996 -0.0230778900000000 Au
atom 4.7421696200000003 9.9179859300000004 0.0754750200000000 Au
atom 8.9124090999999996 12.3078878199999995 -0.1698489300000000 Au
atom 11.7424527699999999 12.3269685399999993 -0.2451203400000000 Au
atom 14.6201775600000001 12.3687726500000004 -0.0646321000000000 Au
atom 17.4469005499999987 12.3577607000000000 0.0776468100000000 Au
atom 20.1460719300000015 12.3901122800000003 0.0912580200000000 Au
atom 23.0150594300000009 12.4015979200000004 0.1459274200000000 Au
atom 25.7453968099999990 12.3898808700000007 0.0657151100000000 Au
atom 0.3998869600000000 12.3172145000000004 -0.0716337000000000 Au
atom 3.2836632400000001 12.3264574800000002 -0.0778268000000000 Au
atom 6.1299340600000001 12.3740127900000001 -0.2172510100000000 Au
atom 7.4800962300000000 13.1792472600000004 2.3610537599999999 Au
atom 10.3826724600000002 13.1924664299999996 2.3432151200000000 Au
atom 13.1324821000000007 13.2054545700000006 2.4834440999999998 Au
atom 15.9661678400000007 13.2777690300000000 2.4796520800000001 Au
atom 18.7828201999999997 13.2745792399999996 2.6291140300000002 Au
atom 21.5969000199999996 13.1362645899999997 2.6402798399999998 Au
atom 24.3769494699999996 13.1631387100000001 2.7988102000000001 Au
atom 27.2514539000000013 13.1851161300000008 2.5482668099999999 Au
atom 1.8559112900000001 13.1613606500000007 2.4556071899999998 Au
atom 4.6895574499999997 13.2604015400000002 2.3197051399999999 Au
atom 8.9334886800000000 15.5944562399999995 2.2410952100000001 Au
atom 11.7636901700000003 15.6642393999999996 2.1042567299999999 Au
atom 14.5674619300000003 15.6051985200000001 2.3493042499999999 Au
atom 17.3701575800000008 15.7383574300000006 2.4583104400000000 Au
atom 20.1612936500000011 15.6374715099999992 2.4448793000000002 Au
atom 22.9120899599999994 15.6197554099999998 2.4193615799999999 Au
atom 25.7132555499999995 15.6047193800000006 2.6669372299999998 Au
atom 0.4816853200000000 15.6663317499999994 2.6099136000000001 Au
atom 3.2301354500000001 15.6143485200000001 2.5311930000000000 Au
atom 6.0195608500000004 15.6996264500000002 2.4843391200000000 Au
atom 7.5471338699999997 18.0292241500000010 2.4021649900000002 Au
atom 10.3566360900000003 18.1093986800000017 2.2839885400000002 Au
atom 13.1287109700000002 18.0305972300000015 2.4542325100000002 Au
atom 15.9008629500000005 18.1356303099999998 2.4600306700000001 Au
atom 18.7391026399999987 18.1572500699999999 2.4585631700000001 Au
atom 21.5266345900000005 18.0563299899999983 2.5791686999999999 Au
atom 24.2985216100000017 18.0534812600000016 2.6356835500000000 Au
atom 27.2566564699999994 18.1382213099999987 2.6357731700000002 Au
atom 1.8809197799999999 18.1295253699999996 2.5079898599999999 Au
atom 4.6886258999999999 18.0728657800000008 2.4732030599999999 Au
atom 8.9083518399999999 20.4709143500000010 2.6750565399999999 Au
atom 11.7326090500000007 20.5660088799999983 2.6930121699999998 Au
atom 14.5136955899999993 20.5373428699999998 2.5570082699999999 Au
atom 17.3852252599999986 20.6001014699999985 2.5299388899999999 Au
atom 20.1164424900000007 20.5178339299999983 2.6047113700000000 Au
atom 22.9806536199999982 20.4815811500000002 2.6804349500000000 Au
atom 25.7211707400000016 20.5413050000000013 2.6686278699999999 Au
atom 0.4074019300000000 20.5969363100000002 2.5327588900000002 Au
atom 3.2685775700000002 20.5078630400000002 2.6743504800000002 Au
atom 6.0864969400000000 20.4698711200000005 2.5975500700000000 Au
atom 7.5506913000000004 22.9553298300000002 2.6524957599999999 Au
atom 10.3496551300000004 23.0644182600000001 2.6914848800000000 Au
atom 13.1895823500000002 23.0625874700000004 2.6741146300000000 Au
atom 16.0254897999999990 23.0026049999999991 2.5786454600000002 Au
atom 18.8239833599999997 23.0244810899999983 2.5179841999999999 Au
atom 21.5261674899999988 23.0055257500000003 2.5708668000000001 Au
atom 24.3120155999999987 23.0639064299999994 2.8379892299999998 Au
atom 27.2229223599999983 23.1483033200000001 2.6034359800000000 Au
atom 1.8521988500000000 23.0525212900000014 2.6943053899999998 Au
atom 4.6662449099999996 22.9894205499999984 2.5481955799999998 Au
atom 8.9693611999999998 25.5205558600000018 2.6904770299999998 Au
atom 11.7611729799999996 25.5799877199999983 2.6247433500000001 Au
atom 14.6445495000000001 25.5106330899999989 2.5818574000000001 Au
atom 17.3926111100000007 25.5400917800000009 2.7873412900000001 Au
atom 20.2450704399999992 25.5625085399999996 2.7102263899999999 Au
atom 23.0225501399999999 25.5632432700000010 2.7383966000000002 Au
atom 25.9108430200000015 25.6498617899999992 2.8605563900000002 Au
atom 0.5270808500000000 25.6304332799999983 2.6806629200000001 Au
atom 3.3976544000000000 25.4683492499999993 2.4340430300000002 Au
atom 6.1769292800000004 25.5133367399999997 2.5874773499999999 Au
atom 7.5620953399999999 28.0319770199999994 2.5635746400000001 Au
atom 10.3646030299999996 28.0211828800000013 2.5116163999999999 Au
atom 13.2161400899999997 27.9981998400000016 2.5379515800000001 Au
atom 16.0121214899999984 27.9819195000000001 2.8335732800000000 Au
atom 18.7860352100000014 28.0098054099999985 2.5969232299999998 Au
atom 21.5732370200000005 28.0454071800000015 2.8964536000000001 Au
atom 24.3824656900000001 27.9072000500000001 2.7422860899999999 Au
atom 27.3651797099999996 28.0139211000000010 2.6035235900000000 Au
atom 1.9779767300000000 27.9902442700000016 2.3842625499999999 Au
atom 4.7952832299999999 28.0730800199999990 2.4546099199999998 Au
atom 8.9514347300000008 30.4838518399999998 2.5754155900000000 Au
atom 11.7573101700000002 30.5091357300000006 2.6183966700000001 Au
atom 14.5684029800000001 30.5355419400000017 2.6643873999999999 Au
atom 17.4175487000000011 30.5003744800000014 2.7727786900000000 Au
atom 20.2078580999999993 30.5478801299999994 2.8148695600000000 Au
atom 23.1501176400000013 30.4285859700000003 2.8151103200000001 Au
atom 25.9568091999999986 30.3910989899999997 2.7946144500000001 Au
atom 0.4840529800000000 30.5283452199999985 2.6523560700000002 Au
atom 3.2998947400000000 30.4933864200000002 2.4375110699999998 Au
atom 6.1107104500000000 30.5035687099999997 2.4304016000000002 Au
atom 7.6233758399999996 32.8703024900000003 2.5171215999999998 Au
atom 10.3450932299999998 32.9381200899999982 2.7263532100000001 Au
atom 13.1466732900000007 32.9333284100000014 2.5461933900000000 Au
atom 15.9935332399999997 32.8726860200000033 2.3485395699999998 Au
atom 18.8315694799999989 32.9262171199999969 2.5637877100000002 Au
atom 21.6289771399999999 32.9541088200000019 2.7237305900000002 Au
atom 24.4109074799999988 32.9135718400000030 2.6512756000000000 Au
atom 27.2261197499999987 32.8937079700000012 2.7491754400000001 Au
atom 1.8925152599999999 32.9332177300000026 2.4648836200000002 Au
atom 4.7656961799999999 32.9727716700000002 2.7482642300000002 Au
atom 8.9150926399999992 35.3379646100000002 2.5291237799999999 Au
atom 11.7113226200000007 35.2836307800000029 2.6196331399999999 Au
atom 14.5825752499999997 35.3769769000000025 2.3457456600000000 Au
atom 17.3312318500000018 35.3712993199999985 2.4667364300000001 Au
atom 20.2076315599999994 35.3654559699999993 2.6650651299999999 Au
atom 22.9596483400000011 35.3693905700000002 2.6929026800000000 Au
atom 25.8152682400000018 35.2921591799999987 2.6609254500000001 Au
atom 0.4904430600000000 35.3053354600000020 2.5545604100000001 Au
atom 3.2707926500000002 35.3940570199999982 2.5965197999999998 Au
atom 6.1758733200000000 35.3038136699999967 2.8045469500000002 Au
atom 7.5305281800000001 37.8609031900000019 2.7300133999999998 Au
atom 10.3385488900000002 37.7438757099999975 2.9623074500000000 Au
atom 13.1404862700000002 37.7816702200000023 2.7582190500000001 Au
atom 15.9824574199999994 37.8518132199999968 2.6686240099999998 Au
atom 18.7533493900000003 37.8738721200000015 2.5459230700000002 Au
atom 21.5895080300000011 37.9085119000000006 2.8378116100000002 Au
atom 24.4189854500000010 37.7789111900000023 2.7376632900000000 Au
atom 27.2657302799999997 37.7069502399999976 2.8185132700000000 Au
atom 1.8604032900000000 37.7973312399999983 2.7028051000000000 Au
atom 4.7555442299999999 37.8297140000000027 2.8919561699999998 Au
atom 8.9719947100000006 0.8536047700000000 2.8882650999999999 Au
atom 11.7756843799999995 0.8043950900000000 2.9177547000000001 Au
atom 14.5365506500000006 0.8695523800000000 2.7148428400000002 Au
atom 17.3934643099999988 0.8512324200000000 2.6485383699999998 Au
atom 20.1342597199999993 0.8698340700000000 2.8145770300000001 Au
atom 22.9243651899999996 0.8571836100000000 2.8079408500000000 Au
atom 25.7555414899999988 0.8736274500000000 2.8372836700000001 Au
atom 0.5476736600000000 0.7681683100000000 2.8774726199999998 Au
atom 3.3083455900000001 0.8914171400000001 2.7665474799999998 Au
atom 6.1029602399999998 0.8712215300000000 2.7788662000000000 Au
atom 7.4597918500000002 3.3674414399999999 2.7151525400000001 Au
atom 10.2996676300000001 3.3349677199999999 2.9465580400000002 Au
atom 13.1117277500000000 3.3274845300000000 2.7416225100000000 Au
atom 15.9700138900000006 3.2796609499999998 2.8006986500000002 Au
atom 18.8621696599999993 3.3425355600000000 2.7135271699999999 Au
atom 21.6176097499999997 3.4045450200000000 2.9261140900000000 Au
atom 24.3362753500000011 3.3419239300000001 2.7150283599999998 Au
atom 27.2698102999999996 3.2348586600000000 2.4914504800000001 Au
atom 1.9473279299999999 3.2926578599999998 2.7040787800000001 Au
atom 4.7268995000000000 3.4202626899999999 2.8143163000000002 Au
atom 8.9129120000000004 5.8068128400000001 2.7972976799999998 Au
atom 11.8421796300000004 5.8928183000000001 2.7810418499999998 Au
atom 14.6419352200000006 5.7755279100000001 2.8316364100000002 Au
atom 17.3664422899999984 5.7959246499999999 2.8674583199999999 Au
atom 20.1248462000000004 5.8657037299999999 2.7704594199999999 Au
atom 23.0019762800000009 5.8092085200000003 2.9216216600000000 Au
atom 25.8896276500000013 5.8004615700000004 2.9472498300000001 Au
atom 0.4606628200000000 5.7966092199999997 2.5645613699999998 Au
atom 3.2836921999999999 5.8488710099999999 2.6475642900000000 Au
atom 6.0941616200000004 5.9191500399999999 2.7947792499999999 Au
atom 7.5411176099999997 8.3467126999999994 2.7715237899999998 Au
atom 10.3719352699999998 8.2713651200000005 2.7333008799999998 Au
atom 13.3038996500000000 8.3861301000000008 2.8778489600000001 Au
atom 15.9816190999999996 8.3188308800000001 2.6758396000000002 Au
atom 18.7407557199999992 8.3177650300000003 2.9365583800000001 Au
atom 21.6727946100000004 8.2195386500000005 2.6040664900000001 Au
atom 24.4961422000000013 8.2439419699999998 2.8045911000000001 Au
atom 27.3174108099999984 8.2217085799999996 2.5805320100000002 Au
atom 1.8721057299999999 8.2920823299999995 2.7177383599999998 Au
atom 4.7185948599999996 8.3523817400000002 2.6052372300000002 Au
atom 8.9964316199999992 10.7995444500000009 2.5518534100000001 Au
atom 11.7446629700000003 10.7716973800000009 2.6772192399999999 Au
atom 14.6201138499999992 10.8306789400000003 2.6424362200000000 Au
atom 17.4420627999999986 10.7465483400000004 2.7620531300000000 Au
atom 20.2523759500000011 10.7533834099999996 2.6892760899999999 Au
atom 23.0769468199999999 10.7111970599999999 2.7114792500000000 Au
atom 25.8510981700000002 10.6802707100000003 2.8351976600000000 Au
atom 0.4568694400000000 10.6998175599999996 2.5589978499999999 Au
atom 3.1980156399999999 10.6856355000000001 2.6135523599999999 Au
atom 6.0621757399999998 10.8344432099999999 2.6648358800000000 Au
atom 7.4025527999999996 13.0544643600000008 5.5518963799999996 Cl
atom 7.3558404900000003 16.0863037999999996 8.2992703500000005 Cl
atom 7.3243831000000004 13.0696927699999996 8.0694429799999998 Na
atom 7.3099941099999999 16.1651895199999984 5.5465511200000002 Na
atom 7.3380579800000003 18.9268743300000004 5.5942769099999996 Cl
atom 7.2752164099999996 21.5967087900000010 8.6664198500000005 Cl
atom 7.3739211700000000 18.7569777199999983 8.3681259899999993 Na
atom 7.2385711700000002 21.6586704800000014 5.8928564600000000 Na
atom 7.4001568000000004 24.3516256300000009 5.6730472900000004 Cl
atom 7.2570251499999996 27.3827583799999985 8.3851156899999992 Cl
atom 7.3546603599999996 24.5194665100000009 8.3721853599999996 Na
atom 7.5275699400000002 27.1930684900000017 5.7982016900000000 Na
atom 7.2165543799999998 30.1825587400000011 5.6628542399999997 Cl
atom 7.4212879899999997 32.9581252300000003 8.5376937500000007 Cl
atom 7.3284688200000003 30.0975202800000012 8.2349679800000004 Na
atom 7.3878103399999997 32.9728240700000015 5.7918244600000000 Na
atom 7.3355131499999997 35.7321110099999970 5.8475972499999997 Cl
atom 7.3808737500000001 38.6447445000000016 8.5713180599999994 Cl
atom 7.3805853199999998 35.7058143599999980 8.3906859600000008 Na
atom 7.3514523000000001 38.6609572899999989 5.9025816000000004 Na
atom 7.4109958699999998 1.9416423599999999 5.8023314800000003 Cl
atom 7.4376566899999998 4.6716672900000002 8.7614362600000000 Cl
atom 7.4851796000000004 2.0459226199999998 8.5110471499999996 Na
atom 7.2400743199999997 4.5865055799999999 5.9111088199999999 Na
atom 7.3736881900000002 7.3354843499999998 5.6800892500000000 Cl
atom 7.4539263599999996 10.2667066600000005 8.3202879500000009 Cl
atom 7.4667851399999998 7.4292479399999998 8.2420420199999995 Na
atom 7.5162508800000003 10.2039674300000005 5.6879530699999998 Na
atom 10.2410969099999996 13.1571037900000007 5.4721641999999999 Na
atom 13.0637364399999996 13.0305444200000000 5.3755898100000001 Cl
atom 10.0922181000000002 15.9924949900000009 8.1706638500000004 Na
atom 12.9772586299999997 16.0342020500000011 8.0753432499999995 Cl
atom 13.0507562600000000 13.3139210800000001 7.9606175800000001 Na
atom 10.1425322500000004 13.2080159899999998 8.2955443599999992 Cl
atom 13.0286782799999994 16.2195715800000002 5.3575455500000002 Na
atom 10.0883525200000008 15.9928901799999998 5.3391722899999996 Cl
atom 10.1460369999999998 18.9123250399999989 5.5019507100000000 Na
atom 12.9716421200000003 19.0264282899999984 5.6860023100000001 Cl
atom 10.1024104399999999 21.5888856000000011 8.3593792899999997 Na
atom 12.8820341500000008 21.7058168800000004 8.4680658500000003 Cl
atom 12.8765228700000005 18.7464084699999987 8.3091980599999999 Na
atom 10.1357872499999999 18.7891218299999991 8.3522801100000006 Cl
atom 13.0393412800000004 21.7374896900000003 5.7821280499999999 Na
atom 10.0304727800000002 21.6480961799999996 5.7635892000000002 Cl
atom 10.2074403599999997 24.4501194800000015 5.6871430800000002 Na
atom 13.0315760600000008 24.4031610199999989 5.7170906300000004 Cl
atom 10.2479831600000004 27.2292106300000007 8.3706966400000002 Na
atom 12.8480325299999993 27.3001122199999990 8.4591497600000007 Cl
atom 12.8949123100000005 24.5668347999999988 8.5167009799999995 Na
atom 10.1243450700000004 24.3906224199999997 8.5433358800000008 Cl
atom 13.0491567800000006 27.2419377699999998 5.7472955499999996 Na
atom 10.1906369199999993 27.2377986000000014 5.7376188299999997 Cl
atom 10.1720901599999998 30.1340484199999992 5.6800751700000003 Na
atom 13.0712840499999992 30.1933751000000008 5.7119635200000003 Cl
atom 10.1930388199999999 32.9264168899999987 8.3710476200000006 Na
atom 12.8770477799999998 33.0468662299999991 8.5152436199999997 Cl
atom 12.9519978499999997 30.1244329499999992 8.3992115700000003 Na
atom 10.0927251800000004 30.0566810999999987 8.4664352800000007 Cl
atom 12.8964636000000006 32.9488655199999982 5.8276204099999998 Na
atom 10.0548083399999992 32.9869028399999991 5.6477513000000004 Cl
atom 10.1183952200000000 35.7584770899999995 5.8640645800000000 Na
atom 13.0494896100000002 35.8085645700000015 5.7489141000000004 Cl
atom 10.2320112000000005 38.5952994000000018 8.4499464199999998 Na
atom 13.1095190200000005 38.5601656300000002 8.6210932099999997 Cl
atom 13.1271815200000006 35.7059874799999974 8.4969847400000003 Na
atom 10.2629791800000003 35.8392465700000002 8.5855841500000007 Cl
atom 12.9581127200000008 38.4939892399999977 5.9175236699999996 Na
atom 10.3011102399999999 38.5071917599999978 5.6326518600000002 Cl
atom 10.2407828100000007 1.9241222200000001 5.8719608200000000 Na
atom 13.0575323700000006 1.9571945200000000 5.9826955100000001 Cl
atom 10.2517759200000000 4.6924444599999999 8.4120538699999994 Na
atom 13.0754588199999997 4.6219156200000002 8.8525742100000002 Cl
atom 13.0498052700000002 1.7903384600000001 8.4854364300000000 Na
atom 10.2491416500000003 1.9280860600000000 8.6736659700000001 Cl
atom 13.2470845599999993 4.5630644599999997 5.9103724599999996 Na
atom 10.2717861399999997 4.5612083400000003 5.8551305300000003 Cl
atom 10.2835703699999996 7.3330509199999998 5.6913328700000001 Na
atom 13.2258649199999994 7.1702241300000003 5.6584730499999996 Cl
atom 10.3710730400000006 10.4648458099999999 8.3693828000000003 Na
atom 13.0884949699999993 10.2294385200000004 8.3948468700000003 Cl
atom 12.9784173700000007 7.4156550399999999 8.2938818300000001 Na
atom 10.4266494999999999 7.4179834600000003 8.5188238999999992 Cl
atom 13.1138377199999994 10.3453811499999997 5.6305986199999998 Na
atom 10.2482308199999999 10.0431899300000005 5.7510527400000004 Cl
atom 15.7509952500000008 13.1044091300000005 5.5430796899999999 Na
atom 18.6213997599999992 13.1510676899999996 5.6272638199999996 Cl
atom 15.7568423299999996 16.0117426999999992 8.1044342999999994 Na
atom 18.5729128299999999 15.9823088200000001 8.4001297699999995 Cl
atom 18.4492606499999994 13.2366085200000008 8.2958686799999999 Na
atom 15.7449008199999998 13.2665006600000002 8.3162664300000007 Cl
atom 18.6107971700000014 16.0224309100000006 5.4295882799999999 Na
atom 15.8438386799999993 16.0611443399999985 5.4538603300000004 Cl
atom 15.9472109999999994 18.9265462299999996 5.5919958699999999 Na
atom 18.7288441500000005 18.6578719600000014 5.6520924800000003 Cl
atom 15.6771789199999994 21.6143885599999983 8.2537306699999995 Na
atom 18.6265623900000001 21.4284288499999995 8.5192595600000001 Cl
atom 18.6282031199999984 18.8303265999999994 8.3346981000000007 Na
atom 15.7223318299999999 18.8039034799999989 8.3625530300000008 Cl
atom 18.6215646499999998 21.5918287900000010 5.6624155399999996 Na
atom 15.9033713199999998 21.5659750300000006 5.5201608100000001 Cl
atom 15.8186939899999999 24.4346100200000009 5.7260762100000004 Na
atom 18.6440187900000005 24.2492698199999985 5.7296114999999999 Cl
atom 15.7464706700000008 27.1549251399999996 8.4603626399999996 Na
atom 18.5825360000000011 27.1457900899999984 8.5578129999999994 Cl
atom 18.7343398800000003 24.3636978599999985 8.4110148400000000 Na
atom 15.6808122099999991 24.2133176100000007 8.6275527099999998 Cl
atom 18.6846419600000004 27.0861155800000013 5.7102788300000000 Na
atom 15.6990384499999998 27.0584883800000000 5.7911680900000002 Cl
atom 15.9296173499999991 30.1449858599999985 5.7297916600000001 Na
atom 18.6487792900000002 30.0014475000000012 5.6944677600000002 Cl
atom 15.7182893999999997 32.9269671300000013 8.2521496299999999 Na
atom 18.5746280100000014 32.9444957500000015 8.5023282699999996 Cl
atom 18.5662723800000009 30.0916422600000004 8.3779776399999992 Na
atom 15.7038401299999997 30.0804547800000002 8.4734721999999998 Cl
atom 18.6932182400000002 32.8141056699999965 5.8641418800000000 Na
atom 15.8043657799999995 32.7809182600000000 5.5806834299999997 Cl
atom 15.7320224100000008 35.7355344799999983 5.7996733799999998 Na
atom 18.6227252000000014 35.7054623800000002 5.6800919099999998 Cl
atom 15.8784884200000000 38.4640392800000015 8.4854982700000008 Na
atom 18.6178350399999992 38.3395372299999977 8.6401630899999997 Cl
atom 18.6359977199999989 35.6228540800000033 8.3605284900000001 Na
atom 15.7822988500000001 35.6659232200000034 8.6003412600000004 Cl
atom 18.6810139600000014 38.4709251700000010 5.9629121600000001 Na