#===============================================================================
# Created using the Atomic Simulation Environment (ASE)

# Tue Dec 23 22:26:01 2025

#=======================================================
lattice_vector 28.1999999999999993 0.0000000000000000 0.0000000000000000 
lattice_vector 0.0000000000000000 39.4799999999999969 0.0000000000000000 
lattice_vector 0.0000000000000000 0.0000000000000000 62.3296083400000001 
atom 7.3847289099999998 15.0294323399999996 -0.3229279000000000 Au
atom 10.3101937299999999 15.0193250299999992 -0.4399825200000000 Au
atom 13.2903761399999993 14.8330330099999994 -0.1643088900000000 Au
atom 16.0003487600000014 14.6475392499999995 0.1199620700000000 Au
atom 18.9075644899999986 14.6345300999999992 -0.4296405600000000 Au
atom 21.5409519399999994 14.6696007999999996 -0.0434027500000000 Au
atom 24.3250972700000005 14.9394897600000007 0.0312553200000000 Au
atom 27.1990817900000010 14.7788868400000002 -0.3979726800000000 Au
atom 1.6687312100000000 14.9503819199999999 -0.3046637100000000 Au
atom 4.5744461599999999 14.6459672399999992 -0.4738741200000000 Au
atom 9.0041469999999997 17.3170476899999990 -0.2136179300000000 Au
atom 11.6194147900000004 17.3965623299999983 -0.1870064400000000 Au
atom 14.3573406899999991 17.1986249399999984 0.2450262900000000 Au
atom 17.5042017399999992 17.2338919799999992 -0.1361816900000000 Au
atom 20.1885780399999994 17.4169252999999991 -0.1925248500000000 Au
atom 23.0230427599999992 17.4110143400000013 -0.1730075400000000 Au
atom 25.7150913999999986 17.3633801500000011 -0.1911342000000000 Au
atom 0.3350383500000000 17.2974998699999993 -0.5916506200000000 Au
atom 2.9773125399999998 17.0876653099999984 -0.4233452400000000 Au
atom 5.9360862499999998 17.4753745299999999 -0.2611655900000000 Au
atom 7.3045712600000003 19.8496470800000004 0.0946525500000000 Au
atom 10.2471628399999997 19.7760500000000015 -0.0183971500000000 Au
atom 13.0505146100000005 19.8102479100000011 0.1326918100000000 Au
atom 16.1029422000000011 19.8584010800000001 0.0727727500000000 Au
atom 18.7896437499999998 19.6959781000000014 -0.1220810900000000 Au
atom 21.7171658600000015 19.7040256400000011 -0.0342928500000000 Au
atom 24.4257864900000001 19.7790971499999984 0.1876457600000000 Au
atom 27.1523908600000006 19.8608767800000017 -0.2110719900000000 Au
atom 1.5803594100000000 19.8701633400000013 -0.4146871400000000 Au
atom 4.4651509699999998 19.7185726800000012 -0.4397750200000000 Au
atom 8.8789166799999997 21.9806273999999995 -0.1197858600000000 Au
atom 11.8247919300000000 22.1143734400000014 -0.2820473600000000 Au
atom 14.7107951600000000 22.0648296600000009 -0.1067702600000000 Au
atom 17.3551135899999984 22.1948714799999998 -0.0829951300000000 Au
atom 20.1137565900000013 22.1919402300000002 -0.0026353100000000 Au
atom 23.0010420400000015 22.2782396899999995 -0.0141184400000000 Au
atom 25.6504186999999995 22.2158835600000018 -0.2644223000000000 Au
atom 0.4706257700000000 22.3860813699999994 -0.2122119000000000 Au
atom 3.1782945400000000 22.4049360799999988 -0.1539994000000000 Au
atom 5.9541404000000000 22.2995809800000018 -0.1598841700000000 Au
atom 7.5980400599999998 24.6772613999999990 0.1446883800000000 Au
atom 10.1368545599999997 24.5108602299999987 -0.0153577300000000 Au
atom 13.2163763299999992 24.6387343299999984 -0.1475102400000000 Au
atom 15.9830117900000008 24.4173834599999999 0.2655251400000000 Au
atom 18.5440310599999982 24.6979789700000012 -0.1359535400000000 Au
atom 21.7400573600000016 24.6597152699999995 -0.0477934600000000 Au
atom 24.2433976999999992 24.9766264699999994 -0.0875414900000000 Au
atom 27.3114113100000004 24.6235023899999987 -0.0393529100000000 Au
atom 1.9131508200000000 24.8010225999999996 -0.4578989000000000 Au
atom 4.5742098000000002 24.6020569000000009 -0.2673994300000000 Au
atom 9.0204666899999992 27.2888784300000005 -0.0387422500000000 Au
atom 11.7983608100000001 26.9616834800000014 0.0818680100000000 Au
atom 14.6172278799999997 27.0948988100000001 -0.0110038500000000 Au
atom 17.3315342299999990 27.1102169400000008 0.0352839900000000 Au
atom 20.1704596100000018 27.2045203200000003 -0.0254977800000000 Au
atom 23.0669195800000004 27.0888964700000017 0.1097321200000000 Au
atom 26.0894384399999986 27.1749669400000009 0.3241771000000000 Au
atom 0.3167903200000000 27.0537737900000010 -0.0718664100000000 Au
atom 3.4312418600000001 27.2286734800000012 -0.0441020200000000 Au
atom 6.1399210599999998 27.0765478699999989 0.1019877800000000 Au
atom 7.5538997800000001 29.6058820099999984 -0.0053226900000000 Au
atom 10.3601777199999994 29.6960631900000003 -0.0687652500000000 Au
atom 13.1924698199999995 29.5723240099999991 0.1519483200000000 Au
atom 16.0365815500000011 29.6634765400000013 -0.2801439100000000 Au
atom 18.7440023199999999 29.7666741600000009 -0.0249063600000000 Au
atom 21.3887702399999995 29.8245866100000008 0.0330606700000000 Au
atom 24.4046282800000007 29.5333764800000012 0.2405957400000000 Au
atom 27.2504831000000003 29.7593294600000000 0.0509505100000000 Au
atom 2.1970854000000002 29.5397233399999983 -0.1452659500000000 Au
atom 4.6783155699999996 29.6344984099999991 -0.1186778900000000 Au
atom 8.9627045800000005 31.8952143399999990 0.0327866700000000 Au
atom 11.8423601200000004 32.0662620000000018 -0.0834233500000000 Au
atom 14.5897562599999997 32.0437832200000017 0.2666668600000000 Au
atom 17.1637869099999989 32.1080440200000012 0.0763857900000000 Au
atom 20.1243541800000010 31.9953486100000006 -0.0785477400000000 Au
atom 22.9476845900000015 32.0908885200000000 -0.1686839100000000 Au
atom 25.7926477600000013 32.0176188200000027 -0.2149305400000000 Au
atom 0.7312628700000000 32.1189186699999993 -0.0864712200000000 Au
atom 3.3342479400000000 31.9590553899999996 -0.0074548400000000 Au
atom 6.2647374300000003 32.1413159800000017 0.2121373800000000 Au
atom 7.4186613499999998 34.4359082900000004 0.0015270800000000 Au
atom 10.4135462499999996 34.7712258299999988 0.4024115000000000 Au
atom 13.3366438100000000 34.5032897899999966 0.0285124900000000 Au
atom 15.9553796800000001 34.5365958800000001 0.1428866600000000 Au
atom 18.9868855100000005 34.6651893100000024 0.0215577700000000 Au
atom 21.7444667100000011 34.4506373199999985 0.1859169300000000 Au
atom 24.3455480699999995 34.6721540400000023 -0.0542700300000000 Au
atom 27.3023047800000001 34.4682082400000027 -0.1516855700000000 Au
atom 1.8721149500000001 34.6524980399999976 -0.1444500500000000 Au
atom 4.5547231300000002 34.4209046200000017 0.3995052000000000 Au
atom 8.9149198799999994 37.3314542000000031 0.3148277800000000 Au
atom 12.0554237000000004 37.1593297000000007 0.3068359600000000 Au
atom 14.7630730999999997 37.0851319000000004 0.0803104200000000 Au
atom 17.3748618800000010 37.1847545999999980 0.0802777200000000 Au
atom 20.4110440000000004 37.0739007999999970 -0.1917586000000000 Au
atom 23.2107041199999991 37.0035402700000020 0.2544235000000000 Au
atom 25.9973773500000007 37.1400559300000026 -0.0898568400000000 Au
atom 0.3528933400000000 37.1001430499999998 0.3056497300000000 Au
atom 3.3493745200000000 37.0025602799999973 0.2282973600000000 Au
atom 6.3426741900000003 36.9999993200000006 0.4471009900000000 Au
atom 7.4751600099999997 0.1089401000000000 0.4192230500000000 Au
atom 10.5862158700000002 -0.1719879900000000 0.4738099300000000 Au
atom 13.1014850999999997 -0.1263771500000000 0.4394875600000000 Au
atom 16.0693072900000011 0.2738367600000000 0.1779576100000000 Au
atom 18.9632958299999999 0.0095534600000000 0.0841566800000000 Au
atom 21.5222511499999989 0.1583995500000000 0.4991394400000000 Au
atom 24.3840683100000000 0.0783791800000000 0.1092940100000000 Au
atom 27.1107013899999991 0.0197294600000000 0.2450831300000000 Au
atom 1.9037054300000000 0.1163518200000000 0.2092410800000000 Au
atom 4.7218930500000003 0.0560565000000000 0.3202434400000000 Au
atom 8.9251032400000003 2.4602655300000000 0.3690315700000000 Au
atom 11.4779778100000005 2.3965522099999998 0.7568384800000000 Au
atom 14.5567823000000001 2.4084099700000001 0.4295719400000000 Au
atom 17.2467847899999995 2.5025941399999998 0.1142603300000000 Au
atom 20.1386533900000018 2.6346856399999998 0.3474179400000000 Au
atom 23.1420763700000016 2.4161225499999999 0.3773733300000000 Au
atom 25.9774172599999993 2.5574540200000002 0.0064935800000000 Au
atom 0.4675851900000000 2.4413548700000001 0.0934378700000000 Au
atom 3.2533289100000000 2.5758677600000000 0.0229026100000000 Au
atom 6.3724941800000003 2.3680315200000002 0.5342884700000000 Au
atom 7.5742549600000002 4.8454710199999997 0.1369052300000000 Au
atom 10.2883244400000002 4.9883585500000001 0.2969578300000000 Au
atom 13.1897820899999996 5.0268861500000002 0.2880510700000000 Au
atom 15.9766686100000008 4.9020253499999997 0.3713429900000000 Au
atom 18.5540431999999988 4.9910712899999998 0.4816162300000000 Au
atom 21.5629201299999984 4.8670902700000003 0.3499685200000000 Au
atom 24.4340727700000002 5.0430433800000003 -0.1739986400000000 Au
atom 27.2201807600000016 5.0589881700000001 0.2281922300000000 Au
atom 1.7415208600000001 4.9831937000000002 0.2842194500000000 Au
atom 4.6948148500000002 4.8247596200000000 0.2265810000000000 Au
atom 8.9148989299999997 7.4208297300000003 0.0366764400000000 Au
atom 11.6761949299999994 7.3295890899999998 0.0669374000000000 Au
atom 14.3993399300000000 7.3746015099999997 0.4580454100000000 Au
atom 17.1624174300000014 7.3371453799999999 0.3688984100000000 Au
atom 20.0920848899999989 7.5953063299999997 0.2493382000000000 Au
atom 22.9388904199999999 7.3866504900000001 0.1986147300000000 Au
atom 25.9100218799999986 7.4623431599999996 0.0549117300000000 Au
atom 0.5483246100000000 7.2791413499999997 0.0228390800000000 Au
atom 3.2077739400000000 7.3287827300000004 -0.0695978300000000 Au
atom 6.0260527200000000 7.4704495900000003 0.0163713900000000 Au
atom 7.4771314899999997 9.9819745799999993 0.3917712000000000 Au
atom 10.4721747399999998 9.9093979399999998 0.1185421800000000 Au
atom 13.1826794199999995 9.7874405400000004 0.1409239000000000 Au
atom 16.0295780699999995 9.8136647799999999 0.1556928400000000 Au
atom 18.6370214899999986 9.8627802599999992 0.0438392100000000 Au
atom 21.7300080400000013 9.7660026999999996 0.1396388400000000 Au
atom 24.3441899799999995 9.8304120499999996 -0.0688249300000000 Au
atom 27.1352181100000003 9.7037107400000000 -0.5343394600000000 Au
atom 1.7219949999999999 9.8341315399999996 -0.3525208000000000 Au
atom 4.6588247000000003 9.9176865799999998 -0.3788940200000000 Au
atom 8.8438187999999993 12.4356930800000001 0.0796197600000000 Au
atom 11.9693521300000008 12.2202145000000009 -0.1645796400000000 Au
atom 14.6262336200000007 12.2131197100000009 -0.0276440800000000 Au
atom 17.2774861299999998 12.2526804899999995 0.0347808700000000 Au
atom 20.2105725300000003 12.3713255300000000 -0.1751003100000000 Au
atom 23.0080875999999996 12.4307878299999999 -0.1508044900000000 Au
atom 25.8030439099999995 12.2285032400000002 -0.3359397700000000 Au
atom 0.3098742500000000 12.4015076799999999 -0.3099286900000000 Au
atom 3.1789372400000002 12.2982815300000006 -0.4553805000000000 Au
atom 6.0836742399999997 12.3739101199999997 -0.1363095500000000 Au
atom 7.6365086299999998 13.1592780800000000 2.3391600499999998 Au
atom 10.2563923900000002 13.1219547700000003 2.5609024900000001 Au
atom 13.2846456800000006 13.2175788300000008 2.5779991099999999 Au
atom 15.9653660399999993 13.0817507200000005 2.6438141000000002 Au
atom 18.7782668800000003 13.2696564200000005 2.3503134600000002 Au
atom 21.7175985699999998 13.1276417300000006 2.4925892100000002 Au
atom 24.4527788000000008 13.0080342699999996 2.3227331400000000 Au
atom 27.1659524099999992 13.3048060199999991 2.5412054799999999 Au
atom 1.8981246700000001 13.3315410500000002 2.6013904999999999 Au
atom 4.7602420499999996 13.2438859900000008 2.1787877400000002 Au
atom 9.2351697000000001 15.6432520700000008 2.1581627100000000 Au
atom 11.6521416500000008 15.8614861499999993 2.2710871199999998 Au
atom 14.4477442499999995 15.7006831499999997 2.9312604900000001 Au
atom 17.5247288899999987 15.5548902400000006 2.6209807399999998 Au
atom 20.1842284700000008 15.4381257400000003 2.5418126499999998 Au
atom 23.0020551900000001 15.7606639499999996 2.7187636999999998 Au
atom 26.0685374000000003 15.7186843700000001 2.4976381900000000 Au
atom 0.4742509700000000 15.8497323600000009 2.5278955200000000 Au
atom 3.2272507899999998 15.7640210100000004 2.4821835499999998 Au
atom 6.1072435000000000 15.5554673799999996 2.4095242899999998 Au
atom 7.5064962499999996 18.0212563900000013 2.6733878299999998 Au
atom 10.2943766100000005 18.4337040399999985 2.3462805800000002 Au
atom 13.0851166299999999 18.1185104999999993 2.5681206599999999 Au
atom 15.8257714499999995 18.1504228699999999 2.5945963800000000 Au
atom 18.8003881200000009 18.1478075099999998 2.3768950599999998 Au
atom 21.7117724199999991 17.9851653899999988 2.5599746400000001 Au
atom 24.3214316900000007 17.9311697000000017 2.6051524499999998 Au
atom 27.1525990499999992 18.3895249599999993 2.2880546900000001 Au
atom 1.7493134500000000 18.1966728400000015 2.3216447100000002 Au
atom 4.5166600299999997 18.2217451500000003 2.3589160800000002 Au
atom 8.7751183299999997 20.5351940699999993 2.8278920400000001 Au
atom 11.7824524900000007 20.8137319800000000 2.5061584099999998 Au
atom 14.6303118600000008 20.5171968100000015 2.7536163000000000 Au
atom 17.4136728100000013 20.5754372200000013 2.5673684899999998 Au
atom 20.2146015100000014 20.5638855300000003 2.5449093800000000 Au
atom 22.9597515500000000 20.5861998100000001 2.6630194700000001 Au
atom 25.9723417199999993 20.5241419399999998 2.3718351300000000 Au
atom 0.5132899200000000 20.4493149999999986 2.6153856800000002 Au
atom 3.1275707300000000 20.7198319099999999 2.0601310599999998 Au
atom 6.0566053699999998 20.3491914300000012 2.5998274499999998 Au
atom 7.5587235000000002 23.1090604100000014 2.7265951700000000 Au
atom 10.0227475899999998 23.0303217400000015 2.3095311299999999 Au
atom 13.0696845800000006 22.9315546800000014 2.2945138100000002 Au
atom 16.0398728400000010 23.0044187200000003 2.9163175099999998 Au
atom 18.7721271499999993 23.2256129999999992 2.6948537300000002 Au
atom 21.7959294499999992 23.1862593299999986 2.5006688900000000 Au
atom 24.4437797000000003 22.9320547899999987 2.4625402599999999 Au
atom 27.3220704999999988 23.0465235600000007 2.5687535100000001 Au
atom 1.7797267200000000 23.1764117799999987 2.2560607899999998 Au
atom 4.5243364599999998 22.9806038400000006 2.4116574499999999 Au
atom 8.8112032700000000 25.5594880899999986 2.5660103900000002 Au
atom 11.8666891999999997 25.6004926899999994 2.3084426100000002 Au
atom 14.4954437699999996 25.2933046099999999 2.6833863800000000 Au
atom 17.2844064199999998 25.5973338599999991 2.7329261200000001 Au
atom 20.3883315299999985 25.6493673099999988 2.8499769499999998 Au
atom 23.1404842700000017 25.4118494599999991 2.7570272800000000 Au
atom 25.9759532499999999 25.4599165700000007 2.9145254299999999 Au
atom 0.3620884400000000 25.3992790799999995 2.7323947500000001 Au
atom 3.2471476199999998 25.5396895499999985 2.1850916400000000 Au
atom 6.0500797200000003 25.8790506700000016 2.3470236299999998 Au
atom 7.5655750700000004 27.9727635399999990 2.5642319400000000 Au
atom 10.4313936500000004 27.8843126099999985 2.4132157699999999 Au
atom 13.1678578300000009 28.0927193899999992 2.7231149299999999 Au
atom 15.7899542900000007 28.2097594399999991 2.7136589600000001 Au
atom 18.7854288400000016 28.1337061300000002 2.5277527800000001 Au
atom 21.6545493600000007 27.9951280800000006 2.7515142099999998 Au
atom 24.2503565899999991 27.9801010900000016 2.4485889699999999 Au
atom 27.4013930399999985 27.9244173400000015 2.6765402500000000 Au
atom 2.1315161800000002 27.9653642500000004 2.5067877599999999 Au
atom 4.7025976900000002 28.0513691200000004 2.6490331000000000 Au
atom 9.1429732000000001 30.3574998500000000 2.5085009600000001 Au
atom 11.8681264700000000 30.4009418800000013 2.7524178300000002 Au
atom 14.6156165399999995 30.4710550399999995 2.7086440800000000 Au
atom 17.3914482600000007 30.2940277199999990 2.4064347900000000 Au
atom 20.0896559900000007 30.2713658700000003 2.6515984499999998 Au
atom 23.0909864099999993 30.4022143800000002 2.3707796900000000 Au
atom 25.8014769900000012 30.4318655900000010 2.7567935800000001 Au
atom 0.4941821500000000 30.2673413099999991 2.6028558999999998 Au
atom 3.2288260900000001 30.5275771099999993 2.4014886500000001 Au
atom 6.2585203399999996 30.6565464200000015 2.7976190000000001 Au
atom 7.4762402100000003 33.1183776600000002 2.4773506799999998 Au
atom 10.5729121599999996 32.6859261099999969 2.7064601499999998 Au
atom 13.2068807699999997 32.9177208999999991 2.4285395799999998 Au
atom 16.0541125300000012 32.7856770300000022 2.8652138599999999 Au
atom 18.8430150199999993 32.8554061199999978 2.7337005799999998 Au
atom 21.6210780500000013 32.9134646799999970 2.7305191199999999 Au
atom 24.4681524900000014 32.9477332900000022 2.3396804100000002 Au
atom 27.1963212799999994 32.9420121100000003 2.3624906100000000 Au
atom 1.8395643399999999 32.7486203699999976 2.6127481100000001 Au
atom 4.6709704299999997 32.7738299999999967 2.5304325200000002 Au
atom 8.9179001000000007 35.3027462299999968 2.6052006699999999 Au
atom 11.9041868199999996 35.2709886600000004 2.8041948500000000 Au
atom 14.5602426999999999 35.4317246399999988 2.6095781400000000 Au
atom 17.3363491500000002 35.4381432200000006 2.5380930899999998 Au
atom 20.3424405800000017 35.3451440999999988 2.5638097900000001 Au
atom 23.0840387500000013 35.2749007399999996 3.0314152299999999 Au
atom 25.9614040899999985 35.1876386300000021 2.4488203099999999 Au
atom 0.5014723400000000 35.1593179300000003 2.4717025399999999 Au
atom 3.3418792100000001 35.4095855899999989 2.5964766400000001 Au
atom 6.3861443099999997 35.3230375699999968 3.0239377500000000 Au
atom 7.6760431699999998 37.8075038100000000 2.9648084500000000 Au
atom 10.3851332000000003 37.8060097400000004 3.0830895300000001 Au
atom 13.1968960000000006 37.8254549400000002 3.1546388699999999 Au
atom 15.9769436500000008 37.9903270300000031 2.6628416800000001 Au
atom 18.9931770700000015 37.9445813099999967 2.5727737099999999 Au
atom 21.7935731600000011 37.7520834999999977 2.9301056499999998 Au
atom 24.7192825499999991 37.9016281099999972 2.7987523200000002 Au
atom 27.5219667600000015 37.5917246200000008 2.9051614200000002 Au
atom 2.1088464500000002 37.9577430300000032 2.5925536100000000 Au
atom 4.7553368899999997 37.7329591600000001 2.8146024900000000 Au
atom 8.9649908499999995 0.7231251700000000 2.7559443500000000 Au
atom 11.7374863499999993 1.0007528299999999 3.3048240400000002 Au
atom 14.7156825799999993 1.0341027899999999 2.7075169500000000 Au
atom 17.3070745600000002 0.6485046000000000 2.6952634999999998 Au
atom 20.2626322200000004 1.0289671400000000 3.0199233400000001 Au
atom 23.3145080200000017 0.6374350000000000 3.0192153899999998 Au
atom 26.0701940800000003 1.0127205399999999 2.5667972899999998 Au
atom 0.5778135599999999 0.7824570700000000 2.6983084499999999 Au
atom 3.4306131500000001 0.8742302100000000 2.7605639000000002 Au
atom 6.2531476599999998 0.6653559900000000 2.9595986999999999 Au
atom 7.7113319699999998 3.4394804799999998 3.1019582699999999 Au
atom 10.3826945599999991 3.5200518500000002 2.9378678900000001 Au
atom 13.1282376299999992 3.3867036000000001 2.9437190100000001 Au
atom 15.9635668899999992 3.4580832600000000 2.8557273699999999 Au
atom 18.8716252799999999 3.2245691000000001 2.9886492300000000 Au
atom 21.7564286399999993 3.3914724800000000 2.6698866200000002 Au
atom 24.5255459100000017 3.4316407799999999 2.4743530300000001 Au
atom 27.4961037899999994 3.1887279799999999 2.7442859300000002 Au
atom 1.8839352199999999 3.3221822500000000 2.8486838900000002 Au
atom 4.5379007600000003 3.4937898800000000 3.0701567100000000 Au
atom 9.0039189400000001 5.8089245900000002 2.6893841200000002 Au
atom 11.7310272599999994 6.0612895699999996 2.7723169300000001 Au
atom 14.3996828099999998 5.8718665100000003 3.0352304499999998 Au
atom 17.4456896700000001 5.8472300199999996 3.0056477099999999 Au
atom 20.2299848000000004 5.9941284899999996 2.7774593099999998 Au
atom 23.1469783100000015 5.8896641599999997 2.7032431899999998 Au
atom 25.8919445400000008 5.6408440899999999 2.6993280899999998 Au
atom 0.4103220600000000 5.9215266299999998 2.5888220199999998 Au
atom 3.4269790100000002 5.6905354900000003 2.6174876500000002 Au
atom 6.2724175600000001 5.9508410600000001 2.7078967899999999 Au
atom 7.3737528299999999 8.4645829700000004 2.7835002700000002 Au
atom 10.3164673400000009 8.2913371700000003 2.5332667799999999 Au
atom 13.3412516399999994 8.4058155400000008 2.8024998100000000 Au
atom 16.0821560999999988 8.1791907100000003 2.6389084100000000 Au
atom 18.9634728199999998 8.3942988900000000 3.0323648699999999 Au
atom 21.6703012900000012 8.2737120199999996 3.0186127699999998 Au
atom 24.7333830200000016 8.5387091599999998 2.7130054200000000 Au
atom 27.4753640799999985 8.3648311599999996 2.4054908699999999 Au
atom 1.9625206700000000 8.4479878999999993 2.5142704700000000 Au
atom 4.6434513199999996 8.4370988600000008 2.4736912200000001 Au
atom 9.1157878199999995 10.5754249599999994 2.8107923300000000 Au
atom 11.9788842700000000 10.6494932900000006 2.7371253900000001 Au
atom 14.6005103100000007 10.7222969700000004 2.7894177199999999 Au
atom 17.3606469799999985 10.6044505499999993 2.5248651500000001 Au
atom 20.1427738500000011 10.5580500500000003 2.5825215799999999 Au
atom 22.9089117000000009 10.5583048999999995 2.4711351499999998 Au
atom 25.9294182699999993 10.9168350000000007 2.3590734000000002 Au
atom 0.5358042500000000 10.9614136000000002 2.2597496900000000 Au
atom 3.3101636399999999 10.7986318200000007 2.2100895500000002 Au
atom 6.1636814299999996 10.9005666800000007 2.8721163000000001 Au
atom 7.2623280100000001 13.0074250500000002 5.4933091500000000 Cl
atom 6.9996094099999997 15.7359266099999999 8.3500242500000006 Cl
atom 7.1016574900000000 13.0599615900000003 8.0839459300000005 Na
atom 7.2879831499999996 15.7977994000000006 5.5595083900000004 Na
atom 7.4520546000000003 18.8152085299999996 5.5930724200000004 Cl
atom 7.2305288599999997 21.3693338500000003 8.4823326199999993 Cl
atom 6.8526770099999998 18.7279365499999990 8.0803317299999993 Na
atom 7.1482091600000004 21.6061334100000018 5.6632903700000004 Na
atom 7.3144907000000003 24.3631387000000004 5.5607891100000000 Cl
atom 7.2583194000000004 27.1549983600000004 8.4308945899999994 Cl
atom 7.1714190799999997 24.3261980499999986 8.3558004599999993 Na
atom 7.3681000699999997 27.1040091799999985 5.7910786700000001 Na
atom 7.3231761600000000 29.8746274900000017 5.5422154299999997 Cl
atom 7.1016956799999997 32.8643308300000001 8.7112016200000006 Cl
atom 7.3967100800000001 29.9021679399999982 8.3191721100000002 Na
atom 7.1271381600000003 32.7410298599999976 5.5948150099999996 Na
atom 7.4528899099999997 35.6119018899999986 5.7773768600000004 Cl
atom 7.3153482800000003 38.4143938899999995 8.4974123000000006 Cl
atom 7.2512191699999997 35.7879378499999987 8.1143942700000000 Na
atom 7.1740497999999997 38.8121124500000008 5.9967678299999996 Na
atom 7.1450002000000001 1.9985937400000000 6.0080568000000003 Cl
atom 6.8726412899999998 4.5764552600000004 8.8128243099999999 Cl
atom 7.1513487700000002 1.7303279899999999 8.7894814100000005 Na
atom 7.0541137799999998 4.8481812900000003 6.0566356199999998 Na
atom 6.9496685899999999 7.3458730599999997 5.5256817199999997 Cl
atom 7.2549301599999998 9.9043042600000000 8.6074639099999999 Cl
atom 7.4426692399999999 7.5305230999999999 8.4522734600000007 Na
atom 7.1106047700000001 10.1152172799999995 5.6399213399999999 Na
atom 9.9697963200000004 12.9294627000000002 5.7849500599999999 Na
atom 12.7179021500000005 13.0958305300000006 5.3260517399999996 Cl
atom 9.8084416099999991 15.9724345900000007 8.2328331499999994 Na
atom 12.8412412200000006 16.0454752099999993 8.7273528799999998 Cl
atom 12.6935670999999992 13.1307299799999999 8.1711558800000006 Na
atom 9.6215673699999993 12.9567336100000006 8.2980268099999996 Cl
atom 12.6981102499999992 15.9220013199999997 5.9068204099999999 Na
atom 10.0292461199999998 15.9571440599999992 5.6947434699999997 Cl
atom 9.9855275100000007 18.7654453200000013 5.6824041200000002 Na
atom 13.3126123599999993 18.6858259699999998 5.5969382999999997 Cl
atom 10.1513195700000001 21.5377431699999988 8.1988104899999996 Na
atom 12.6717414500000007 21.5444056599999989 8.6034901700000006 Cl
atom 12.8138103300000008 18.6283030899999993 8.3745841999999993 Na
atom 9.8000052699999998 18.7293264499999985 8.3875182699999993 Cl
atom 12.9107059300000007 21.3540466400000000 5.7234572999999997 Na
atom 10.1997452899999992 21.4403830000000006 5.6273695400000001 Cl
atom 9.9840521399999993 24.2682535799999997 5.8373622300000001 Na
atom 12.6621005300000000 24.5004986299999992 5.5804405399999997 Cl
atom 10.0906286099999996 27.3705913699999996 8.4599412800000007 Na
atom 12.9617165799999992 27.1997855000000008 8.2529187600000000 Cl
atom 12.7886410300000009 24.3441080499999991 8.1679110000000001 Na
atom 9.9295997699999994 24.3093727199999989 8.5887248500000002 Cl
atom 12.7177629700000008 27.2591263300000008 5.9666483200000000 Na
atom 9.7347495800000008 27.2740398699999993 5.9212738900000002 Cl
atom 10.0601029799999999 30.1009082899999996 5.6154561000000003 Na
atom 12.7964093900000009 30.0798651799999988 5.5126844600000000 Cl
atom 10.1387518500000002 33.2113905300000027 8.1651286899999995 Na
atom 12.8329946899999996 32.6976946699999971 8.5114519499999997 Cl
atom 13.2176778200000005 30.1760827800000015 8.4567119399999999 Na
atom 10.3203593199999997 29.9467522899999992 8.3986525899999993 Cl
atom 12.9739793999999993 32.7731773900000007 5.7124057099999996 Na
atom 9.9684915499999995 32.8917919599999991 5.6797437600000000 Cl
atom 10.1219352699999998 35.7179149600000017 5.8389281799999999 Na
atom 12.8623909600000008 35.7960933800000021 5.7434878500000002 Cl
atom 10.0996114000000006 38.5047908499999991 8.5805719499999995 Na
atom 12.8012583600000003 38.6196916500000000 8.8431813899999998 Cl
atom 13.0734789399999993 35.5600249900000023 8.2119543799999999 Na
atom 10.0568311999999995 35.6040948500000027 8.5566895699999996 Cl
atom 13.0013100500000007 38.6607242700000029 5.9848663699999998 Na
atom 9.9328696500000007 38.6520579700000013 6.1462138399999997 Cl
atom 10.2971828500000004 1.8266566900000001 6.0312108300000000 Na
atom 13.0253098299999994 1.9946408000000000 6.0871828399999997 Cl
atom 9.9426753100000003 4.5304239199999996 8.4963768000000002 Na
atom 12.9307301100000007 4.6687286400000003 8.8438850299999991 Cl
atom 12.9131136800000004 1.9866918899999999 8.8498320400000008 Na
atom 9.7544668500000000 1.7152922700000000 8.7422966700000000 Cl
atom 12.8773017900000006 4.6493693299999999 6.2448388100000001 Na
atom 9.9952287700000007 4.5526200499999998 6.1147923999999998 Cl
atom 10.0338313699999997 7.3260386700000000 5.8099334499999999 Na
atom 12.9918663900000002 7.1938889599999998 5.9325026999999997 Cl
atom 10.0566007200000005 10.3944390299999991 8.4281638200000000 Na
atom 12.8710406200000005 10.4072998600000002 8.5881784000000003 Cl
atom 13.0902859399999993 7.4231969800000002 8.5709095000000008 Na
atom 10.1756875200000003 7.5252125999999997 8.4811587799999995 Cl
atom 13.0061541300000005 10.1891471899999999 5.8127078299999999 Na
atom 10.0063771599999995 10.2853134500000003 5.5072868599999998 Cl
atom 15.6557231699999999 12.8399681200000000 5.8391205099999999 Na
atom 18.4488337099999988 13.0200460699999994 6.0647616500000003 Cl
atom 15.9677626600000000 16.0030994500000006 8.0380975899999996 Na
atom 18.7606891100000013 15.8880168000000008 8.4127212799999995 Cl
atom 18.7097026299999989 13.0905193099999995 8.3426511899999998 Na
atom 15.6673557999999993 13.1845470900000006 8.4856570599999994 Cl
atom 18.7719049200000008 15.6852870299999996 5.7862459800000003 Na
atom 15.7470396099999999 15.7942653800000006 5.6370360799999997 Cl
atom 15.8139401900000003 18.6093189000000017 5.9135541900000002 Na
atom 18.6767280800000002 18.6870086999999998 5.3111439300000001 Cl
atom 15.5746932299999994 21.4690838500000005 8.1387420099999996 Na
atom 18.6601545199999990 21.1857927299999993 8.2810756199999993 Cl
atom 18.6535516000000001 18.4592153299999993 8.4236298200000004 Na
atom 16.0292662399999983 18.9119174000000001 8.6747579300000002 Cl
atom 18.3008264199999999 21.7318123000000014 5.5929457300000003 Na
atom 15.8059784299999997 21.7246877400000002 5.7775102299999999 Cl
atom 15.8007393799999996 24.4665070200000017 5.6221693100000003 Na
atom 18.3871856099999995 24.3574916399999992 5.8782256600000000 Cl
atom 15.5928429600000005 27.2908747100000006 8.1081991299999991 Na
atom 18.4964546600000013 27.2692084500000007 8.7381856100000004 Cl
atom 18.6049322400000001 24.2964050799999995 8.5819244399999999 Na
atom 15.8408797700000008 24.3851805699999993 8.2030156499999993 Cl
atom 18.3351736400000007 27.0478711300000008 6.0730730700000004 Na
atom 15.6355968500000007 27.3159489399999984 5.5655472200000000 Cl
atom 15.8435071500000006 29.8619726300000004 5.8232038599999996 Na
atom 18.4275573100000010 29.7288807300000002 5.8690289499999997 Cl
atom 15.7062258999999997 32.6646719399999981 8.6049542900000002 Na
atom 18.5110084599999993 32.8882904800000020 8.9220653900000002 Cl
atom 18.5000383399999997 30.0075318899999992 8.4470380299999999 Na
atom 15.8849346499999999 30.1314758000000005 8.7410724700000006 Cl
atom 18.5444609800000002 32.7031507700000006 6.0109916700000001 Na
atom 16.1125062300000010 32.7459134300000017 5.9693906700000001 Cl
atom 15.8187293899999997 35.8703343899999965 5.9405152699999997 Na
atom 18.5072934899999986 35.4468090299999972 5.8771308600000003 Cl
atom 15.9643711600000007 38.3792696000000007 8.5978033600000003 Na
atom 18.5151420800000004 38.4006883599999966 9.0345640500000002 Cl
atom 18.4295975100000007 35.8104194100000015 8.5383040700000006 Na
atom 15.7198847300000004 35.7072394400000022 8.6084121299999996 Cl
atom 18.4856989499999997 38.5024129600000009 6.1931015499999997 Na