#===============================================================================
# Created using the Atomic Simulation Environment (ASE)

# Tue Dec 23 21:42:21 2025

#=======================================================
lattice_vector 28.1999999999999993 0.0000000000000000 0.0000000000000000 
lattice_vector 0.0000000000000000 39.4799999999999969 0.0000000000000000 
lattice_vector 0.0000000000000000 0.0000000000000000 62.3296083400000001 
atom 7.6427044600000000 14.7830675300000003 -0.2856694600000000 Au
atom 10.5001654299999991 14.7974697099999997 -0.4292940800000000 Au
atom 13.4045665300000003 14.9014104500000002 -0.3034702300000000 Au
atom 16.1294465299999992 14.8360348599999998 -0.2056917900000000 Au
atom 19.0066847599999988 14.9127869400000002 -0.1128107000000000 Au
atom 21.7213354999999986 14.7947129400000001 -0.0013211300000000 Au
atom 24.5280545799999992 14.7175246299999998 -0.3033509300000000 Au
atom 27.4085524099999986 14.8761788300000006 -0.1368125100000000 Au
atom 2.0531444900000002 14.8264886699999998 -0.0025156300000000 Au
atom 4.8848076400000000 14.8027425499999996 -0.0337019600000000 Au
atom 9.1177632000000006 17.2498443799999990 -0.5520429300000000 Au
atom 11.9646571900000005 17.4272539500000008 -0.3474612100000000 Au
atom 14.7275607599999994 17.4043233400000013 -0.1566475900000000 Au
atom 17.5471137000000006 17.2800781900000011 -0.2390870100000000 Au
atom 20.3326564999999988 17.3036850300000005 -0.0579587100000000 Au
atom 23.0633049899999989 17.2990990499999988 -0.2284802100000000 Au
atom 25.8314267899999983 17.3679867600000009 -0.3420538800000000 Au
atom 0.6004590200000000 17.2801345499999996 -0.2529214300000000 Au
atom 3.5833389000000002 17.2597315999999985 0.0275760400000000 Au
atom 6.4026588899999997 17.2832308899999987 -0.0392016300000000 Au
atom 7.6614340800000003 19.8580147599999997 -0.1933233700000000 Au
atom 10.3884843000000000 19.8166880399999989 -0.4113291500000000 Au
atom 13.3129495099999993 19.8789453400000014 -0.1528822900000000 Au
atom 16.1474462199999991 19.7626530100000011 -0.1302672800000000 Au
atom 18.9405007300000001 19.7224482600000002 0.2025583900000000 Au
atom 21.6276287099999998 19.8138445599999997 -0.0208760000000000 Au
atom 24.4124361000000007 19.8897873499999989 -0.1923288000000000 Au
atom 27.2360971599999999 19.8601882200000013 -0.3462754400000000 Au
atom 1.9462331900000001 19.6950581900000010 -0.2068182900000000 Au
atom 4.7699081500000000 19.7535510199999997 -0.3582199700000000 Au
atom 8.8909836400000000 22.3142642199999983 -0.1173227800000000 Au
atom 11.8540632899999991 22.3033364799999987 -0.1792454100000000 Au
atom 14.7037521000000009 22.2199176999999999 0.1255939800000000 Au
atom 17.4458044000000001 22.1902873700000001 -0.2428576900000000 Au
atom 20.2357153799999985 22.2991436299999997 0.0654993200000000 Au
atom 23.0532935899999991 22.3132474700000003 -0.3499687800000000 Au
atom 25.9133594599999988 22.2555395800000007 -0.0446685800000000 Au
atom 0.5816567900000000 22.3387995000000004 -0.1792569700000000 Au
atom 3.3689425000000002 22.1770548800000000 -0.2390211400000000 Au
atom 6.1299097900000001 22.2859143999999993 -0.2135004000000000 Au
atom 7.4810683899999999 24.7890177899999991 -0.2011600400000000 Au
atom 10.3755588099999994 24.8963973400000000 -0.3180305900000000 Au
atom 13.2128800700000006 24.6427766900000016 -0.0086509000000000 Au
atom 15.9871750899999991 24.7127784599999991 0.2199032700000000 Au
atom 18.8596273100000005 24.7771692700000017 0.0742159000000000 Au
atom 21.6954579800000005 24.7736348500000005 -0.2602190400000000 Au
atom 24.4746625800000004 24.6953595600000000 -0.0460136900000000 Au
atom 27.3093862799999982 24.7616846600000002 0.0069472100000000 Au
atom 1.8783859100000000 24.7776951399999987 -0.0817201000000000 Au
atom 4.7227350399999999 24.7595568800000017 -0.2341498500000000 Au
atom 8.9076819199999999 27.3921251000000012 -0.1239522700000000 Au
atom 11.8027286399999998 27.2402473200000017 -0.0133069700000000 Au
atom 14.5157404900000007 27.1736167100000010 0.1249950500000000 Au
atom 17.3966917400000014 27.2471832399999982 0.1401035900000000 Au
atom 20.2906715800000015 27.2414905699999998 0.1121085600000000 Au
atom 23.0360762399999999 27.2963032800000001 -0.0621498600000000 Au
atom 25.8865721999999998 27.2581400699999996 0.1504696300000000 Au
atom 0.4457320000000000 27.2099969500000007 0.0896069800000000 Au
atom 3.3166314899999998 27.2703595900000018 -0.0242704100000000 Au
atom 6.1499602600000003 27.1747108299999987 0.2358869300000000 Au
atom 7.4495806099999999 29.6994492600000015 0.1009250000000000 Au
atom 10.4720554400000001 29.6603034900000004 0.1812027300000000 Au
atom 13.1893627799999997 29.7672024399999984 0.3307606500000000 Au
atom 16.0169224200000002 29.7466742699999998 0.0010012500000000 Au
atom 18.7542549700000016 29.6805478700000016 -0.1145091500000000 Au
atom 21.6301679900000003 29.6796677299999985 -0.0015531600000000 Au
atom 24.4529071199999990 29.7139426600000007 0.0112927200000000 Au
atom 27.1969305299999995 29.6850919399999995 0.2321829800000000 Au
atom 1.8988160000000001 29.6153348100000002 0.1987137800000000 Au
atom 4.7284902300000002 29.6584731999999995 0.3996323200000000 Au
atom 8.9253843100000001 32.1130436600000024 -0.0380596400000000 Au
atom 11.7489416299999991 32.2161075599999975 0.1583787900000000 Au
atom 14.5743434300000008 32.1942627500000000 0.0737002100000000 Au
atom 17.3891258399999984 32.2574640899999991 -0.2789875500000000 Au
atom 20.2975323000000003 32.1033934299999970 -0.2115994900000000 Au
atom 23.0240298900000013 32.1049268200000029 -0.0576759900000000 Au
atom 25.8844617499999998 32.1002801300000016 -0.0695503900000000 Au
atom 0.5372920300000000 32.0863586600000019 0.2050854200000000 Au
atom 3.2768486200000000 32.2473472799999996 0.0542668800000000 Au
atom 6.1149470199999998 32.1259620599999991 0.1588640900000000 Au
atom 7.5140217199999997 34.4954890100000000 -0.0757148400000000 Au
atom 10.3097871800000007 34.5713909400000006 -0.0804730500000000 Au
atom 13.1407335399999994 34.6578467000000003 0.1333988300000000 Au
atom 16.0075913999999990 34.6916429699999966 0.2106171600000000 Au
atom 18.8020801199999994 34.7316483299999987 -0.1893143400000000 Au
atom 21.6165175299999994 34.5964016499999971 -0.0794646900000000 Au
atom 24.5036565800000012 34.5893440999999981 -0.3290945200000000 Au
atom 27.2579259600000015 34.4469449500000024 0.0066708100000000 Au
atom 1.7651751000000000 34.6145770899999974 -0.1279267200000000 Au
atom 4.6492692299999998 34.5544364499999972 -0.2834393200000000 Au
atom 8.9115507800000007 37.0176204699999971 -0.2100520300000000 Au
atom 11.6736300699999997 37.0281930900000020 0.2012690400000000 Au
atom 14.5582644699999992 37.0921001999999973 -0.0872230500000000 Au
atom 17.3809413100000008 37.1509972099999999 -0.1818848200000000 Au
atom 20.3452299200000013 37.0439945800000032 -0.3728770500000000 Au
atom 23.1476254700000013 36.9698527999999982 -0.3608394900000000 Au
atom 25.9424513700000006 37.0365115000000031 -0.1077652000000000 Au
atom 0.4538068000000000 37.0905397300000033 0.2626693200000000 Au
atom 3.2878992199999999 37.0687294600000001 0.0030478800000000 Au
atom 6.0865188100000003 36.9360978200000005 0.1514985300000000 Au
atom 7.6573344399999996 -0.0512695700000000 0.1941628400000000 Au
atom 10.3316376099999996 0.0068383900000000 0.3785825700000000 Au
atom 13.1621089100000006 -0.0250853800000000 0.0119147900000000 Au
atom 16.0172605700000013 0.0367653700000000 -0.0328223900000000 Au
atom 18.9536455199999985 0.1292682900000000 -0.2718028700000000 Au
atom 21.6924665800000014 0.0830194500000000 -0.1330925300000000 Au
atom 24.4783021199999986 -0.1007285000000000 -0.1281594600000000 Au
atom 27.3074904600000004 -0.0094486300000000 0.0323323000000000 Au
atom 1.8774192700000001 -0.0344758700000000 -0.0192956200000000 Au
atom 4.8041105000000002 -0.0507383000000000 0.1458948000000000 Au
atom 8.8924295299999994 2.4435271799999998 -0.0090759200000000 Au
atom 11.7819289299999994 2.3841198299999999 0.1044365200000000 Au
atom 14.5467932999999991 2.4560624099999999 -0.0051815400000000 Au
atom 17.3689401399999994 2.4711998500000001 0.0970995300000000 Au
atom 20.2591797100000015 2.5920635800000000 0.0415325500000000 Au
atom 23.0967143200000002 2.5168502699999999 -0.1534325500000000 Au
atom 25.9338633700000010 2.6881445600000000 -0.0153473200000000 Au
atom 0.3730721300000000 2.5445913700000000 0.2164921100000000 Au
atom 3.4514200700000002 2.4631761100000000 0.2725116600000000 Au
atom 6.1594679299999999 2.3710919100000001 0.5557754000000000 Au
atom 7.5996830900000001 4.8947117000000002 0.3338108100000000 Au
atom 10.4539182600000000 4.8538744700000001 0.2011862700000000 Au
atom 13.2643529499999993 4.9277775300000002 0.0497696800000000 Au
atom 16.0429144400000006 4.8610965200000003 0.2809271300000000 Au
atom 18.7636293499999987 5.0628863300000004 0.2058182000000000 Au
atom 21.6553524599999996 5.0697286200000002 0.2279495300000000 Au
atom 24.5213860600000011 5.0702391000000002 0.1742646800000000 Au
atom 27.3227374400000009 5.1132633099999998 0.3235911700000000 Au
atom 1.8828093699999999 4.9171760400000002 0.3285619100000000 Au
atom 4.8538634500000004 4.9189478800000002 0.3999443600000000 Au
atom 8.9866716300000000 7.4005751000000002 0.2577066300000000 Au
atom 11.7500222399999998 7.4063624499999996 -0.0093532000000000 Au
atom 14.5729314199999997 7.3951296299999996 0.1045178900000000 Au
atom 17.3684711000000007 7.4823097299999999 0.0442192400000000 Au
atom 20.2943195799999998 7.5162418999999998 0.1316354900000000 Au
atom 23.0508299000000001 7.5421133100000004 0.1783781100000000 Au
atom 25.8572303599999991 7.4904243900000003 0.2790367500000000 Au
atom 0.5102330300000000 7.4260780000000004 0.0833052500000000 Au
atom 3.3444214200000002 7.2811150199999997 0.0813472200000000 Au
atom 6.1762450400000004 7.4633491599999999 0.4089182300000000 Au
atom 7.5921903700000000 9.9419290799999995 0.1471608200000000 Au
atom 10.3314637000000005 9.9529439699999998 -0.2345621200000000 Au
atom 13.1661936900000001 9.9849903100000006 -0.2971414500000000 Au
atom 16.0223979800000009 9.8675419600000005 0.1665012500000000 Au
atom 18.9017742599999998 9.9388182999999994 -0.0259312100000000 Au
atom 21.7091181199999994 9.9004826599999998 0.0388038100000000 Au
atom 24.6301346599999995 10.0144649000000001 0.1081582700000000 Au
atom 27.4064036500000014 9.9525838699999998 0.1391895700000000 Au
atom 1.9841158800000001 9.8473023600000005 0.2336738300000000 Au
atom 4.8141918600000002 9.8970884699999999 0.0869744300000000 Au
atom 9.0850853499999999 12.3951952700000003 -0.0767768200000000 Au
atom 11.7858655799999994 12.4228388299999999 -0.3788301700000000 Au
atom 14.5576281299999994 12.3101246300000007 0.0419892900000000 Au
atom 17.4861221700000016 12.4278416099999998 -0.0067848900000000 Au
atom 20.3287910700000012 12.3964271900000007 -0.1720627800000000 Au
atom 23.1140939799999998 12.3061909000000007 0.0640040700000000 Au
atom 26.0035697600000013 12.3763801900000008 0.0155543800000000 Au
atom 0.6680432700000000 12.3894889900000003 0.2462439000000000 Au
atom 3.4438972900000002 12.3495312500000001 0.1207382000000000 Au
atom 6.1817424799999996 12.3708771300000002 0.1514895400000000 Au
atom 7.6305427100000003 13.2772975300000002 2.5757196699999998 Au
atom 10.4284313399999995 13.3213698899999997 2.4807581600000002 Au
atom 13.2014470399999997 13.3239831800000008 2.4649543199999999 Au
atom 16.0207581899999987 13.3739321699999998 2.4454417500000001 Au
atom 18.8184014300000015 13.2608548699999993 2.6356282000000002 Au
atom 21.6661068099999987 13.0540021999999993 2.6023438200000002 Au
atom 24.5333780499999996 13.2302440600000004 2.5765370100000000 Au
atom 27.2819034800000004 13.2776178599999994 2.5178557600000002 Au
atom 1.9812481600000000 13.2368731099999994 2.7575105199999999 Au
atom 4.7975843300000003 13.1812054100000005 2.8092536699999999 Au
atom 9.0076882600000001 15.7805550500000003 2.0440360499999999 Au
atom 11.8531618699999992 15.8116807000000001 2.2613835799999999 Au
atom 14.6178827600000005 15.6536132600000002 2.3423763000000002 Au
atom 17.6203788099999983 15.7169492000000002 2.3821965100000000 Au
atom 20.4360829899999992 15.6147743299999995 2.4643147800000000 Au
atom 23.2393249200000014 15.6689664999999998 2.3521132499999999 Au
atom 26.0152118299999984 15.7381577299999993 2.2199194300000000 Au
atom 0.5982009200000000 15.6580651599999996 2.3465653400000002 Au
atom 3.5037286000000001 15.6968354500000000 2.7065214900000001 Au
atom 6.2166781699999998 15.7426252099999999 2.3914309600000001 Au
atom 7.6948579900000000 18.2108074799999997 2.6155004100000001 Au
atom 10.4549055699999993 18.1972213399999987 2.1307849000000001 Au
atom 13.3123437700000000 18.0787977499999997 2.4492119699999999 Au
atom 16.0925085699999997 18.2255653200000012 2.3497578500000000 Au
atom 18.9178561300000005 18.1720806300000000 2.8101488699999999 Au
atom 21.7300942900000003 18.2189281899999997 2.4748186400000001 Au
atom 24.6198473699999987 18.1925062400000002 2.3709697900000002 Au
atom 27.3670734300000014 18.1847547399999989 2.2177452500000001 Au
atom 1.9178189600000000 18.0805648400000010 2.4900531300000002 Au
atom 4.8304016799999996 18.1858852800000008 2.5446245599999999 Au
atom 9.0446080400000000 20.5256073299999997 2.7021412900000001 Au
atom 11.8261262100000000 20.6417353400000003 2.2926687399999999 Au
atom 14.5648721699999992 20.5573591899999997 2.7151299000000000 Au
atom 17.3841569100000015 20.6890752000000013 2.5409383999999999 Au
atom 20.2362581800000001 20.6756011400000013 2.7420949100000001 Au
atom 23.1127380100000011 20.6437849799999995 2.4299948300000001 Au
atom 26.0324617700000012 20.6246234900000012 2.6065117500000001 Au
atom 0.5560092400000000 20.6435807599999990 2.1481717499999999 Au
atom 3.3349147499999998 20.6197388500000010 2.3372702699999999 Au
atom 6.2088921399999997 20.5898555200000004 2.2088334500000002 Au
atom 7.6199600500000004 22.9984598200000008 2.3956760699999999 Au
atom 10.3793157500000000 23.0787809599999996 2.2884453200000001 Au
atom 13.1585392799999994 23.0843999500000017 2.6372338200000001 Au
atom 16.0094938300000003 23.1582579099999997 2.6059994099999999 Au
atom 18.9672006700000004 23.1794007499999992 2.6006335100000002 Au
atom 21.8578464600000011 23.0848546299999988 2.4345664600000001 Au
atom 24.5843699800000017 23.0157098799999993 2.5899594900000000 Au
atom 27.3983402799999993 23.1966976799999998 2.5535826899999998 Au
atom 2.0438846499999999 23.0052078199999990 2.7425601799999999 Au
atom 4.7299412700000003 23.0752311799999994 2.2576278699999999 Au
atom 8.8932527500000003 25.5378420000000013 2.2496704300000001 Au
atom 11.6697202999999998 25.5036587300000015 2.5766730500000001 Au
atom 14.4986733500000007 25.6109249599999984 2.7168729300000001 Au
atom 17.4251150800000012 25.5197214700000004 2.8129601399999999 Au
atom 20.3037853699999999 25.4823032599999983 2.4541299599999999 Au
atom 23.1161582299999999 25.6328429600000014 2.4723320000000002 Au
atom 25.8997010400000001 25.6308888900000014 2.6942238600000001 Au
atom 0.5639664800000000 25.5566692300000007 2.7591389600000000 Au
atom 3.3659463000000001 25.6267361300000012 2.5787819000000001 Au
atom 6.1629264600000004 25.3673414299999997 2.4304048800000002 Au
atom 7.4576848499999997 28.0655351800000012 2.7364834999999998 Au
atom 10.3160430699999992 27.9896944199999993 2.5485187100000002 Au
atom 13.0720653599999999 27.9396332799999989 2.7039555700000002 Au
atom 16.0271742500000016 27.9453615699999993 2.7601045000000002 Au
atom 18.8987586999999984 27.9622965900000011 2.5536184999999998 Au
atom 21.6330616400000011 28.2419221900000004 2.7568420599999999 Au
atom 24.4303250600000013 28.1137210300000007 2.8458813900000002 Au
atom 27.2631800300000009 28.0638744600000010 2.8145478599999998 Au
atom 1.8422514200000000 28.1032037499999987 2.6347946499999999 Au
atom 4.7059464200000001 28.1243236900000007 2.8531141999999998 Au
atom 8.9383546799999998 30.5756097400000009 2.6091434300000000 Au
atom 11.7112452200000003 30.4240716900000017 2.9644428999999999 Au
atom 14.6139511199999994 30.4271121899999990 2.7747275299999998 Au
atom 17.3601447499999999 30.5818184600000009 2.4414152100000002 Au
atom 20.1849131899999996 30.5293482999999988 2.5384454200000000 Au
atom 23.1158627999999986 30.6518564699999985 2.5132721400000002 Au
atom 25.9142866100000013 30.5514139900000004 2.7947327999999998 Au
atom 0.5278667900000000 30.5193779999999997 2.9246311800000000 Au
atom 3.2946262399999999 30.6284850999999989 2.7835806700000001 Au
atom 6.1947708600000002 30.6641469899999990 2.8812613400000000 Au
atom 7.5761884799999999 33.0439250299999969 2.5955746000000000 Au
atom 10.4039869199999995 32.9595353400000022 2.6806596200000001 Au
atom 13.2010203700000002 32.9991433900000004 2.6634219500000000 Au
atom 15.9591151300000007 32.9696982199999979 2.5892574900000001 Au
atom 18.7735584200000005 33.0403902600000023 2.3341961499999999 Au
atom 21.5842437700000005 32.9814388899999997 2.5141301399999998 Au
atom 24.3930745699999996 33.0920315999999985 2.2609648899999999 Au
atom 27.2414808700000002 32.9941223000000008 2.7553415499999998 Au
atom 1.7655700000000001 33.0390334000000010 2.5614601000000001 Au
atom 4.6834813300000002 33.0332836799999967 2.6102538100000001 Au
atom 8.9421858899999993 35.4166534299999967 2.5550349899999998 Au
atom 11.7127380500000005 35.3761189299999970 2.7045501700000001 Au
atom 14.5600886099999993 35.4932930100000021 2.7540247700000000 Au
atom 17.4115375499999985 35.4305238199999977 2.7266987500000002 Au
atom 20.2355953600000014 35.4590531500000026 2.3534213700000000 Au
atom 23.0370770000000000 35.5029028100000019 2.5744300999999998 Au
atom 25.7910711200000016 35.5011355199999983 2.5172955199999998 Au
atom 0.3676793300000000 35.4271764900000008 2.6561283100000002 Au
atom 3.3443931700000000 35.3777696699999993 2.2746823400000000 Au
atom 6.0750801900000004 35.3872151099999996 2.7845858300000002 Au
atom 7.6199649100000002 37.8108101099999985 2.4982565800000001 Au
atom 10.3345542899999998 37.8300213099999993 2.9458598000000000 Au
atom 13.1366923799999995 37.8280425199999968 2.6123026700000000 Au
atom 16.0181743499999989 37.8545082799999975 2.6716943400000002 Au
atom 18.8929859200000010 37.9210995700000026 2.2924576900000000 Au
atom 21.6767404500000005 37.8320709300000004 2.3060286799999998 Au
atom 24.4309456800000007 37.9188980699999973 2.4232695899999999 Au
atom 27.1988540900000011 37.7714898400000010 2.8310421200000002 Au
atom 1.9262602400000000 37.8266454700000025 2.7580261500000001 Au
atom 4.7512544600000002 37.8642727699999995 2.7744687200000002 Au
atom 8.9444935399999999 0.8406919200000000 2.7402939800000001 Au
atom 11.8486130799999998 0.8604668900000000 2.8934175199999999 Au
atom 14.6902450699999996 0.9185476400000000 2.5251778200000001 Au
atom 17.4852081800000008 0.7825510900000000 2.5857914399999999 Au
atom 20.2596091600000001 0.7599842400000000 2.5013027499999998 Au
atom 23.1428072900000004 0.8074020200000001 2.5342447799999999 Au
atom 25.9895109099999999 0.9072762100000000 2.3772238400000001 Au
atom 0.4962331700000000 0.7442167200000001 2.6900714600000000 Au
atom 3.3023874100000001 0.8645628600000000 2.6710078300000002 Au
atom 6.1439847800000003 0.7322539400000000 2.9052784500000000 Au
atom 7.6386991599999998 3.3626745499999999 3.0172519300000000 Au
atom 10.5033779099999993 3.2985436799999999 2.7212518499999998 Au
atom 13.3204782200000000 3.4197239499999998 2.4204088300000000 Au
atom 16.1005697999999988 3.3274291200000001 2.8238469500000001 Au
atom 18.8147172900000008 3.3029090600000002 2.5932430399999999 Au
atom 21.6430171300000005 3.1759438000000002 2.5899614400000002 Au
atom 24.3847810000000003 3.2286661799999998 2.6528420100000001 Au
atom 27.2876505000000016 3.3258730900000000 2.7299462900000000 Au
atom 1.8444608600000001 3.2648297999999998 2.7778392799999998 Au
atom 4.7246330600000004 3.2666509800000001 3.0565956600000002 Au
atom 9.1046996199999999 5.7863176999999997 2.8871844400000000 Au
atom 11.8431347700000007 5.8202079400000004 2.6362172600000000 Au
atom 14.6282299400000007 5.9063555399999998 2.6768884300000000 Au
atom 17.4021427300000013 5.8411539599999998 2.7602523899999998 Au
atom 20.2850463300000001 5.6956287100000003 2.8401397600000000 Au
atom 22.9757372099999984 5.7980337999999998 2.7578447000000001 Au
atom 25.9419991699999990 5.8828583900000000 2.8875182700000002 Au
atom 0.5223149400000000 5.8276861999999996 2.8563493300000000 Au
atom 3.3598217099999999 5.8088257299999997 2.6497169899999999 Au
atom 6.2097987699999999 5.7128373899999998 2.9273223700000002 Au
atom 7.7199402600000004 8.2124670999999996 2.9354775200000001 Au
atom 10.4514432599999996 8.3176899199999994 2.6315139300000001 Au
atom 13.1683153500000003 8.4257299000000003 2.5496117900000002 Au
atom 16.0813362700000013 8.4412917699999994 2.9309831499999999 Au
atom 18.8166228000000011 8.3232774299999992 2.6799166300000001 Au
atom 21.6384021199999985 8.3019949299999993 2.7850305199999998 Au
atom 24.5046828999999988 8.3212791900000003 2.9502041399999999 Au
atom 27.3794133399999993 8.2447989300000000 2.7436041100000002 Au
atom 2.0009523800000002 8.1801850999999992 2.8760105399999998 Au
atom 4.7785599699999999 8.2082944100000006 2.7436379700000000 Au
atom 9.1034132000000003 10.7787062700000007 2.6821507300000000 Au
atom 11.8356703099999994 10.8742471100000007 2.2717649600000001 Au
atom 14.6608925299999999 10.8668816800000005 2.5851023700000000 Au
atom 17.4090279099999989 10.8506197499999999 2.7158187699999998 Au
atom 20.2219715499999992 10.7217238600000009 2.7215556500000000 Au
atom 23.0940878299999994 10.6860445100000003 2.7073172699999999 Au
atom 25.8960900299999999 10.7615486499999999 2.7105176800000002 Au
atom 0.5314185200000000 10.7540344099999992 2.7806935400000001 Au
atom 3.3710728200000002 10.7361330899999992 2.7391461700000002 Au
atom 6.2607899099999997 10.7226209699999995 2.7174082700000000 Au
atom 7.0010741000000003 12.6491381599999997 5.7168326199999999 Cl
atom 7.0515478800000002 15.5561335700000001 8.2507209300000000 Cl
atom 6.9756259500000004 12.6380292399999998 8.3479505599999992 Na
atom 6.8859294999999996 15.4953197399999993 5.5833991699999999 Na
atom 7.0366464999999998 18.3230871899999990 5.4861801699999999 Cl
atom 7.0476519199999998 21.2001402399999996 8.2579911700000004 Cl
atom 6.8821985400000001 18.3846182800000015 8.1716996900000005 Na
atom 6.8264863599999996 21.1359843800000000 5.4632356499999997 Na
atom 6.9011759599999998 23.9538985999999987 5.3498771400000003 Cl
atom 6.8114919599999997 26.8195141499999998 8.6509339099999991 Cl
atom 6.9536777399999998 23.9697283299999988 8.1645981800000005 Na
atom 7.0709612799999997 26.6137838400000000 5.8442037100000004 Na
atom 6.8547342200000001 29.2744040100000014 5.7296530700000003 Cl
atom 6.8428427200000002 32.3041384599999972 8.8127833300000002 Cl
atom 6.8601757499999998 29.5879817400000000 8.4550069099999998 Na
atom 6.8654141900000001 32.3564802200000017 6.0330330700000001 Na
atom 7.0375797699999998 35.1298556899999994 5.8405323500000002 Cl
atom 6.9854474900000003 37.7921177699999973 8.9008218699999997 Cl
atom 6.9953023200000004 35.1745091599999995 8.4995858399999999 Na
atom 7.0341904599999996 37.9381127999999990 5.9294733500000003 Na
atom 6.9880204900000003 1.3845496500000001 5.9260013899999997 Cl
atom 7.0161703600000003 4.1265291299999998 8.6904985400000001 Cl
atom 7.0964700299999999 1.2662452000000000 8.5462856200000008 Na
atom 6.9533889999999996 4.0927729700000004 5.9064041200000004 Na
atom 7.1358839700000001 7.1446730599999997 5.7320737099999999 Cl
atom 7.0279460299999998 9.6751090000000008 8.7339342799999997 Cl
atom 7.0165751900000002 6.9487876100000001 8.3625493300000002 Na
atom 7.0587996700000000 9.7741004399999998 5.8225402600000002 Na
atom 9.8335385700000000 12.7692875800000003 5.9357793599999997 Na
atom 12.6499333699999994 12.8289304899999994 5.6342846099999999 Cl
atom 9.7857090299999996 15.5428212899999991 8.2474621399999997 Na
atom 12.5782096299999999 15.5454580000000000 8.4813678800000005 Cl
atom 12.6553239800000004 12.9461244099999995 8.5484388100000004 Na
atom 9.8419866400000000 12.7782100100000005 8.6992788599999997 Cl
atom 12.5565301500000004 15.5156109499999992 5.6536832199999996 Na
atom 9.9246403999999995 15.5775213099999998 5.5932659600000001 Cl
atom 9.8094402100000000 18.3934361300000013 5.6920337700000001 Na
atom 12.6533596999999993 18.2504512100000014 5.8296134600000000 Cl
atom 9.8100425900000001 21.0243275999999994 8.2730435500000006 Na
atom 12.4999413700000002 21.0948343700000009 8.2667309899999992 Cl
atom 12.4814138200000002 18.2573579700000010 8.4566140300000008 Na
atom 9.8491478099999998 18.3832669099999997 8.4284992299999999 Cl
atom 12.5474840200000006 21.0577145799999990 5.6099063500000002 Na
atom 9.8557158499999993 21.3676129099999983 5.5761541899999996 Cl
atom 9.9659986400000005 24.1194941500000013 5.4519865200000002 Na
atom 12.6176867999999995 24.0449243899999985 5.6283842899999996 Cl
atom 9.6784203899999994 26.7204426599999998 8.3307082999999995 Na
atom 12.3965794400000000 26.7786338599999993 8.5635207900000001 Cl
atom 12.5797588900000008 23.9121010799999993 8.4205904100000009 Na
atom 9.7957001300000002 24.0210438099999983 8.4722673900000007 Cl
atom 12.5550405000000005 26.7548120500000017 5.7633612100000002 Na
atom 9.7747063099999991 26.7740924900000010 5.5401742199999999 Cl
atom 9.5674107700000004 29.5833998499999993 5.8345443200000000 Na
atom 12.4622346600000000 29.5495485699999989 5.7269058299999998 Cl
atom 9.6778542600000002 32.4114422000000033 8.4560522599999999 Na
atom 12.6640652800000009 32.3553971899999979 8.4069109300000004 Cl
atom 12.4921140299999998 29.5103437799999995 8.3936651799999993 Na
atom 9.5450113099999996 29.6072797399999992 8.5446132699999993 Cl
atom 12.5127473800000004 32.2913470200000035 5.7930133699999997 Na
atom 9.6277988899999993 32.1637536400000030 5.9452341500000001 Cl
atom 9.8118916699999996 35.1833959599999986 5.9769087399999998 Na
atom 12.4891837999999993 35.0450861300000014 5.8496465300000002 Cl
atom 9.8218849800000001 37.9689794700000007 8.5505041100000003 Na
atom 12.5788209700000007 37.9702316400000015 8.7075059499999998 Cl
atom 12.7204011300000008 35.1784713600000032 8.5431420500000002 Na
atom 9.8273564300000000 35.0769029300000028 8.8339455600000001 Cl
atom 12.5581087399999998 38.0812888099999967 5.9407150399999997 Na
atom 9.7130263499999998 38.0070834400000024 5.8269770300000001 Cl
atom 9.8060092399999998 1.4898748900000001 5.9441243500000001 Na
atom 12.5378836899999992 1.3025156499999999 5.7881470999999998 Cl
atom 9.8668090500000005 4.3292287600000003 8.6114442699999998 Na
atom 12.5753105900000008 4.2337595099999996 8.5399645300000007 Cl
atom 12.5301939099999995 1.4191295900000001 8.6383063500000006 Na
atom 9.8834984000000006 1.4780832500000001 8.6625426999999995 Cl
atom 12.6004278299999992 4.1862454600000003 5.8170957200000002 Na
atom 9.7388253000000002 4.2042960400000000 5.8609313299999997 Cl
atom 9.7851715099999996 7.0080139499999996 6.0282575800000000 Na
atom 12.7549179299999995 7.1776702500000003 6.0157032499999996 Cl
atom 9.9981898400000002 9.8941119200000003 8.6081307400000000 Na
atom 12.7380092200000004 10.1598543299999999 8.8060630799999995 Cl
atom 12.8851104400000001 7.1445694900000003 8.6048037999999991 Na
atom 9.8180437299999994 7.0185395599999998 8.7926592200000009 Cl
atom 12.5707157299999999 9.9105430800000001 5.9337550400000003 Na
atom 9.8717571799999995 9.6735013999999993 6.0441122199999997 Cl
atom 15.3207558000000006 12.6924572100000006 5.8258348599999996 Na
atom 18.2110332399999990 12.7190085199999992 5.7766328900000001 Cl
atom 15.3759414400000001 15.5289076500000007 8.4181646499999996 Na
atom 18.1048592900000003 15.5038582300000005 8.4344834300000002 Cl
atom 18.2469646499999989 12.6638164999999994 8.3361792700000006 Na
atom 15.4109247299999996 12.8705248900000004 8.7222812699999999 Cl
atom 17.9601324099999999 15.5000141100000004 5.7499509599999996 Na
atom 15.1863060399999998 15.5308960200000001 5.6481669900000000 Cl
atom 15.2344417599999993 18.3167315200000012 5.6401960899999999 Na
atom 18.2153451900000007 18.5205868400000000 5.4759415899999997 Cl
atom 15.2713652199999999 21.1645419399999994 8.2468305799999992 Na
atom 18.0308040900000002 21.2750798600000017 8.3281893199999999 Cl
atom 18.1750171800000011 18.3220004299999992 8.2205348800000007 Na
atom 15.4867114299999997 18.4326695899999997 8.4799613300000001 Cl
atom 17.9838672399999986 21.2238079699999993 5.5595469099999999 Na
atom 15.3385158700000002 21.1736972600000009 5.5770189400000003 Cl
atom 15.3469446699999992 23.9685168100000006 5.8886354000000001 Na
atom 18.1155477000000005 23.9534810299999990 5.6496005499999997 Cl
atom 15.6555149500000006 26.8580556199999982 8.8302742300000006 Na
atom 18.4364041100000016 26.8683038299999986 8.7065307000000001 Cl
atom 18.1634003399999990 23.8657673700000004 8.4457703199999994 Na
atom 15.3058368999999992 23.9560398100000000 8.7171645699999996 Cl
atom 18.1044118900000015 26.7809050500000012 5.9345598900000001 Na
atom 15.3823844500000000 26.6639308300000017 5.9709172099999996 Cl
atom 15.3620359700000009 29.5620110999999994 5.8567762200000004 Na
atom 18.1477588700000005 29.6019199300000011 5.7713860800000001 Cl
atom 15.4338182400000008 32.4611862599999981 8.2075074600000004 Na
atom 18.2819786099999995 32.3498953300000025 8.4934625300000004 Cl
atom 18.3734940400000006 29.7282627200000000 8.4339617400000009 Na
atom 15.3693546100000002 29.6152869299999999 8.5584030000000002 Cl
atom 18.1827625099999999 32.3425670999999966 5.6814486000000004 Na
atom 15.3914060500000005 32.4736799300000030 5.5159191200000004 Cl
atom 15.2437444600000003 35.3138322599999981 5.9487748700000003 Na
atom 18.0532072100000001 35.2123447999999968 5.6327090699999998 Cl
atom 15.4178425899999993 37.9403489299999990 8.4470961399999993 Na
atom 18.2071689799999987 38.0301991099999981 8.3610253700000001 Cl
atom 18.3799763499999997 35.2068548900000025 8.2232782300000000 Na
atom 15.4089239800000009 35.2198523599999973 8.6371683499999996 Cl
atom 18.2508422599999989 38.0356872199999998 5.6266281800000000 Na