#===============================================================================
# Created using the Atomic Simulation Environment (ASE)

# Tue Dec 23 22:26:50 2025

#=======================================================
lattice_vector 28.1999999999999993 0.0000000000000000 0.0000000000000000 
lattice_vector 0.0000000000000000 39.4799999999999969 0.0000000000000000 
lattice_vector 0.0000000000000000 0.0000000000000000 62.3296083400000001 
atom 7.6134419299999996 14.8248411499999992 -0.1171807200000000 Au
atom 10.3617291500000004 14.8510769299999996 -0.0777010300000000 Au
atom 13.2017522399999994 14.7636626599999996 -0.1360538200000000 Au
atom 15.9181510500000005 14.8249518800000004 -0.3030573000000000 Au
atom 18.8319492900000007 14.7597100700000006 -0.2187139100000000 Au
atom 21.6212740699999983 14.7811134200000005 -0.1801663100000000 Au
atom 24.4811488100000005 14.7617535100000001 -0.0958191700000000 Au
atom 27.2285330799999983 14.8257702600000005 -0.2022940900000000 Au
atom 1.8349264999999999 14.7541041199999992 -0.0150667100000000 Au
atom 4.7299043100000002 14.7874013600000005 -0.0836405500000000 Au
atom 8.9175126999999996 17.2750544200000000 -0.2389920400000000 Au
atom 11.8020723699999994 17.2516877000000015 -0.2004254500000000 Au
atom 14.5718727000000001 17.3144817400000015 -0.1458488500000000 Au
atom 17.3636641699999998 17.3220548299999990 -0.0282710900000000 Au
atom 20.1958924300000007 17.1868093699999989 -0.1132162400000000 Au
atom 23.0230150199999990 17.3873537300000010 -0.2732219600000000 Au
atom 25.8178907600000009 17.3009202399999999 -0.0808149900000000 Au
atom 0.3911932100000000 17.3727693000000016 -0.0905579400000000 Au
atom 3.1984401999999998 17.1984019699999990 -0.0620686400000000 Au
atom 6.0680037499999999 17.3055173899999986 -0.1045382300000000 Au
atom 7.5400290999999999 19.7524571999999985 0.0730633100000000 Au
atom 10.3224067000000002 19.7718682600000015 -0.2492736900000000 Au
atom 13.1025860299999994 19.7040554400000012 -0.1494682100000000 Au
atom 16.0195817100000006 19.7677061700000003 -0.3417036300000000 Au
atom 18.8279948099999999 19.7274209499999991 -0.2437965000000000 Au
atom 21.5868720799999991 19.8266040299999986 -0.0297510500000000 Au
atom 24.3561937499999992 19.7536416899999985 0.1967964700000000 Au
atom 27.1979572800000007 19.7963344700000015 0.1181369700000000 Au
atom 1.8868740900000001 19.7225162300000001 0.0167783500000000 Au
atom 4.7236261300000004 19.8178244600000006 0.0011400300000000 Au
atom 8.9834303200000001 22.1960122499999990 0.0658851900000000 Au
atom 11.7614933799999992 22.2271604200000006 0.0362247700000000 Au
atom 14.5742198799999993 22.2406006900000008 -0.1427996500000000 Au
atom 17.4188516500000006 22.2971128999999983 -0.1641462400000000 Au
atom 20.2157677400000004 22.3014849499999990 -0.0451350400000000 Au
atom 23.0039243800000008 22.2429772399999983 0.1006194400000000 Au
atom 25.8178714700000000 22.1541208500000018 0.1994120700000000 Au
atom 0.5687148900000000 22.1768722700000005 -0.0153327400000000 Au
atom 3.3577578799999999 22.2409484800000001 -0.1253967900000000 Au
atom 6.2089275900000001 22.2403520899999982 0.0230729900000000 Au
atom 7.6179790299999999 24.6391436900000009 0.1917441500000000 Au
atom 10.4601049199999991 24.7494195099999992 0.1678108900000000 Au
atom 13.2762906100000002 24.7133560299999999 0.0426733200000000 Au
atom 16.0618435999999996 24.6846212499999993 -0.1139859400000000 Au
atom 18.8462450900000000 24.7406977300000008 0.0545555300000000 Au
atom 21.4898822799999998 25.0669324300000014 0.1070636200000000 Au
atom 24.4513822800000007 24.6764380699999997 0.4596349900000000 Au
atom 27.2873210099999994 24.5947912200000012 0.1552756400000000 Au
atom 1.9096356800000001 24.6242857499999985 0.1309904600000000 Au
atom 4.8436383599999999 24.6791353399999984 -0.0779351600000000 Au
atom 8.9808807599999998 27.0859082999999998 -0.0533930900000000 Au
atom 11.8313511600000005 27.1463655099999990 0.0566236600000000 Au
atom 14.7172356799999999 27.1679208199999991 -0.1257237200000000 Au
atom 17.4983815100000015 27.1923581100000007 -0.1379388900000000 Au
atom 20.4826412100000006 26.8134893400000003 0.2998095900000000 Au
atom 23.1009473900000017 27.1135149700000007 0.4701950400000000 Au
atom 25.8890466500000009 27.1239134399999990 0.4077115700000000 Au
atom 0.4691017300000000 27.0675886299999995 -0.0841996100000000 Au
atom 3.3311474200000002 27.0595662300000015 -0.0658522400000000 Au
atom 6.1941013500000004 27.1467690899999994 0.1241104700000000 Au
atom 7.6553974000000000 29.5565906299999988 0.0149491200000000 Au
atom 10.4299722900000003 29.5738269100000011 -0.2053744100000000 Au
atom 13.2509548299999995 29.6576698100000016 -0.0629010600000000 Au
atom 16.0764052900000003 29.6130111199999995 0.0230387200000000 Au
atom 18.8936396799999997 29.5635782200000001 0.1779470600000000 Au
atom 21.6588308800000000 29.5657361999999999 0.0805166400000000 Au
atom 24.4675966799999998 29.5736489700000007 0.0487687900000000 Au
atom 27.2735871900000006 29.5597780899999982 0.1246856000000000 Au
atom 1.8693965299999999 29.5809564599999995 0.0302570200000000 Au
atom 4.7438044699999997 29.5265541499999991 -0.2262676900000000 Au
atom 8.9902244200000005 32.0160206799999969 -0.0914579500000000 Au
atom 11.7569979799999995 32.0813319000000021 -0.1763685300000000 Au
atom 14.6421978700000004 32.1580829299999991 0.0106085800000000 Au
atom 17.3827754900000002 32.0745982600000019 0.0249522900000000 Au
atom 20.2636329400000008 32.0166134999999983 0.1282922900000000 Au
atom 23.0520627100000013 32.0828226400000034 0.1456868900000000 Au
atom 25.8991833199999988 32.0521115499999993 -0.1283049000000000 Au
atom 0.5107822600000000 32.1016588100000035 -0.1714932000000000 Au
atom 3.3730085000000001 32.0271838900000034 -0.1869055400000000 Au
atom 6.1921195200000003 32.0363645700000035 -0.1837974300000000 Au
atom 7.5820835600000001 34.5457651400000003 -0.0959705700000000 Au
atom 10.3478997400000008 34.5599740299999993 -0.0942059200000000 Au
atom 13.1555980500000000 34.6575032000000007 0.0371034800000000 Au
atom 15.9774560000000001 34.6011800100000002 0.0764003900000000 Au
atom 18.8345267800000009 34.5332625599999972 0.0661920500000000 Au
atom 21.6934283100000016 34.4936931100000024 0.0055130400000000 Au
atom 24.5487818799999999 34.5563252000000034 -0.1188629400000000 Au
atom 27.3449588900000009 34.5743374600000024 -0.2054382300000000 Au
atom 1.9478177200000000 34.5150615800000011 -0.0224551100000000 Au
atom 4.8118673999999997 34.4413222200000035 0.0168689900000000 Au
atom 8.9724582999999996 37.1091008000000002 0.0881456600000000 Au
atom 11.7798134300000008 37.0418836600000034 0.2511869300000000 Au
atom 14.6180250699999998 37.1094924200000023 0.0858121400000000 Au
atom 17.4150360699999993 36.9843718600000031 0.0799683000000000 Au
atom 20.2534728299999998 36.9773086499999977 -0.0004983800000000 Au
atom 23.1562946499999995 37.0341467499999979 -0.0477213800000000 Au
atom 26.0047885900000004 37.0794310200000012 -0.0734104500000000 Au
atom 0.5254723800000000 37.0202114000000009 -0.0110351500000000 Au
atom 3.3393061799999999 37.0178307400000008 0.1089879300000000 Au
atom 6.1831822799999996 37.0098063699999997 0.1506873400000000 Au
atom 7.5188615600000004 0.0291973700000000 0.1980284600000000 Au
atom 10.3514733099999994 0.0812208400000000 0.1385322300000000 Au
atom 13.0806237400000001 0.0492755000000000 0.0718853200000000 Au
atom 16.0293720800000017 0.0082052000000000 0.0359680700000000 Au
atom 18.8442365100000018 -0.0251234800000000 -0.0094399200000000 Au
atom 21.6372025000000008 -0.0261860500000000 0.1001371300000000 Au
atom 24.5018669200000012 0.0566550800000000 0.1423898500000000 Au
atom 27.3132717499999984 0.0695224600000000 -0.0003098200000000 Au
atom 1.8855906000000000 -0.0279645300000000 0.2483880600000000 Au
atom 4.7092823900000003 0.0100197400000000 0.2315904600000000 Au
atom 8.9324843900000008 2.5491805099999998 0.3062057200000000 Au
atom 11.7771451099999993 2.5428218999999999 0.1435356600000000 Au
atom 14.3447554900000007 2.2019682199999999 0.0640161300000000 Au
atom 17.3602910500000007 2.4294946199999998 0.1461465400000000 Au
atom 20.1544139899999983 2.4949142000000002 -0.0267929600000000 Au
atom 22.9992118300000001 2.4869119099999999 -0.0786507700000000 Au
atom 25.9647866699999987 2.4972633499999999 -0.0768724800000000 Au
atom 0.6154378300000000 2.5200233299999999 0.0033473000000000 Au
atom 3.3327608500000001 2.3839058000000000 0.1465722200000000 Au
atom 6.0877780000000001 2.4999919600000000 0.1988169500000000 Au
atom 7.5268639799999999 4.9909097200000003 0.1729798100000000 Au
atom 10.2717338300000005 5.0083305600000001 0.1764213800000000 Au
atom 13.1466033000000007 5.0387350700000004 0.1900392700000000 Au
atom 16.1243601000000005 5.1746477300000002 0.1433937400000000 Au
atom 18.7188323700000012 4.8712618299999999 -0.0799784900000000 Au
atom 21.5957086400000016 4.8816300999999998 0.1686415200000000 Au
atom 24.4319987699999999 4.9210633300000000 0.0749328600000000 Au
atom 27.2805295299999990 4.9892204700000002 0.1433830400000000 Au
atom 1.9147593900000000 4.9814566600000001 0.3505271000000000 Au
atom 4.7414413399999997 4.9140736800000004 0.2349351600000000 Au
atom 8.9253107400000005 7.5092215700000002 0.0691859200000000 Au
atom 11.7912746899999998 7.4267695299999996 0.0590617200000000 Au
atom 14.5821022399999993 7.4392862600000003 0.1349985200000000 Au
atom 17.3451346999999991 7.3071171100000001 0.2539967100000000 Au
atom 20.1603528200000000 7.3067211099999998 0.0061979300000000 Au
atom 22.9905370399999995 7.3836659600000001 -0.1751594300000000 Au
atom 25.8645011899999986 7.3721428800000002 -0.0305441900000000 Au
atom 0.4864213900000000 7.4077931799999996 0.2095158000000000 Au
atom 3.3550290399999998 7.2931096200000001 0.1982882000000000 Au
atom 6.0608170000000001 7.5180774599999998 0.0012520800000000 Au
atom 7.4791680999999999 9.9775324300000001 -0.0000272000000000 Au
atom 10.2687050099999997 9.9177814099999999 -0.0940085200000000 Au
atom 13.1913564300000008 9.8877770900000002 0.0450918300000000 Au
atom 16.0317701499999998 9.8696197699999999 -0.0201199700000000 Au
atom 18.7715694400000004 9.7424119200000003 0.1349203000000000 Au
atom 21.5966509600000016 9.8290140000000008 -0.0004646100000000 Au
atom 24.3860190199999991 9.8761169700000000 -0.0212511500000000 Au
atom 27.2180330599999998 9.8892371800000003 -0.0314363400000000 Au
atom 1.8886204000000000 9.7618649299999998 0.0068762200000000 Au
atom 4.6810244900000004 9.8822736100000004 -0.1198148700000000 Au
atom 8.9407151900000006 12.3583261400000008 -0.3286677600000000 Au
atom 11.7354906299999993 12.3271193900000000 -0.3363492400000000 Au
atom 14.5536065699999995 12.2991098099999991 -0.0078929100000000 Au
atom 17.4129172899999993 12.3019294499999994 0.0110707600000000 Au
atom 20.1856988900000012 12.2363689299999994 0.0589581400000000 Au
atom 23.0024409200000015 12.3574906500000008 -0.1424548400000000 Au
atom 25.9005468100000016 12.3200447099999995 -0.1571335700000000 Au
atom 0.5189909100000000 12.3299481400000008 -0.2749552100000000 Au
atom 3.2459574600000001 12.2589486300000008 -0.2463824500000000 Au
atom 6.1316740100000002 12.3347139899999991 -0.1907325200000000 Au
atom 7.5548461099999997 13.1363120599999998 2.3026835900000000 Au
atom 10.3954472100000004 13.1018860499999992 2.2360972900000000 Au
atom 13.1075965900000000 13.2616635800000005 2.4362231699999999 Au
atom 15.7938948799999999 12.9575874800000008 2.4248376100000000 Au
atom 18.7974836299999986 13.1055340499999993 2.5750861199999999 Au
atom 21.6264516200000010 13.1995607899999996 2.4491205500000000 Au
atom 24.4098564399999987 13.1736279100000004 2.4711771300000001 Au
atom 27.2599259799999984 13.1699076900000005 2.3882084099999998 Au
atom 1.8611756800000001 13.0787822200000008 2.5204564700000001 Au
atom 4.6285903800000003 13.2487716500000001 2.3338356700000000 Au
atom 8.8486546900000000 15.6481034200000000 2.4494242200000000 Au
atom 11.6804822599999998 15.6471558300000009 2.4401208699999999 Au
atom 14.5324686300000003 15.6161358099999994 2.3170668800000001 Au
atom 17.5648747599999986 15.8911038399999995 2.2678599300000002 Au
atom 20.1936875600000008 15.5356686100000001 2.5395478200000001 Au
atom 23.0361524799999984 15.6340574500000002 2.5172245400000000 Au
atom 25.8225041200000014 15.6285162100000008 2.5915478599999999 Au
atom 0.4585871400000000 15.6172147199999998 2.4547274899999998 Au
atom 3.3161237200000002 15.5096177300000004 2.6649897400000002 Au
atom 6.1175442200000001 15.6211224899999994 2.5015965100000002 Au
atom 7.4603363700000003 18.0837631399999985 2.4367811700000002 Au
atom 10.2693720400000004 18.0818030199999988 2.1899943500000001 Au
atom 13.1064287499999992 18.0558810100000002 2.4618793700000001 Au
atom 15.9331533400000005 18.1006624400000007 2.3384263199999999 Au
atom 18.8027046899999988 17.9469708899999993 2.4692802600000001 Au
atom 21.6215097500000013 18.0389128200000002 2.3948170300000000 Au
atom 24.4192235400000008 18.0097291000000013 2.7574454099999999 Au
atom 27.2129271099999990 18.0334593199999986 2.5144237299999999 Au
atom 1.8772755900000000 18.0636419199999985 2.6179649500000002 Au
atom 4.6775369500000004 18.0603439899999998 2.4577225600000001 Au
atom 8.9380083300000006 20.5593767700000001 2.5473547200000000 Au
atom 11.7510480200000007 20.4431514599999993 2.3815462300000001 Au
atom 14.4973604399999996 20.5340312800000007 2.1921990299999998 Au
atom 17.3329836600000000 20.5883972899999996 2.3545740999999998 Au
atom 20.1309325299999990 20.4893851500000004 2.4264238900000001 Au
atom 22.9491200599999985 20.5893095799999983 2.6642062100000001 Au
atom 25.7435316199999988 20.4644311099999996 2.8043007100000001 Au
atom 0.4430382500000000 20.4949560700000006 2.8222228199999999 Au
atom 3.2208162900000001 20.5408142299999987 2.5918516399999998 Au
atom 6.0702815599999997 20.5640739199999985 2.6740488400000002 Au
atom 7.4623049799999999 23.0362462000000008 2.7386000600000000 Au
atom 10.3434655400000004 23.0406439799999987 2.6674515500000000 Au
atom 13.0680886699999999 23.0193090500000004 2.4765605399999999 Au
atom 15.9103069999999995 23.0217911400000013 2.4455160399999998 Au
atom 18.8396699500000011 22.9954920700000010 2.4864524200000000 Au
atom 21.6133090800000005 23.1158155000000001 2.6931611499999999 Au
atom 24.4785510700000017 22.9579931100000003 2.8788318799999999 Au
atom 27.3588252499999989 22.9694983700000002 2.6807079500000000 Au
atom 1.5352635800000001 22.9984245499999993 2.6693691700000000 Au
atom 5.0322992500000003 23.0677118400000012 2.6190939000000002 Au
atom 8.9468296800000005 25.6262869799999997 2.8228072100000001 Au
atom 11.7087441099999996 25.5448621500000002 2.6869305099999998 Au
atom 14.5620980299999996 25.5391335099999992 2.3807557600000000 Au
atom 17.3481887400000012 25.4343179600000013 2.4889517900000002 Au
atom 20.1959400400000000 25.5199008999999997 2.7497636499999998 Au
atom 22.9952318099999999 25.5107683399999985 2.9484146000000000 Au
atom 25.9001900499999991 25.5361375499999994 2.9917377599999999 Au
atom 0.5247496100000000 25.5553530699999989 2.7011710899999999 Au
atom 3.3548129800000002 25.5462719000000007 2.5628349699999999 Au
atom 6.1252105500000003 25.5411512899999984 2.6239398199999999 Au
atom 7.5783306699999997 28.0793964799999998 2.5731844300000000 Au
atom 10.4169747800000003 28.0640985600000015 2.5917084899999998 Au
atom 13.2038718999999993 27.9802795800000013 2.5306302100000000 Au
atom 15.9614852500000008 28.0237813600000010 2.6209121600000000 Au
atom 18.7641422099999993 27.9012471200000007 2.7135348399999999 Au
atom 21.6754930299999984 27.9364694600000014 2.8669859999999998 Au
atom 24.4910347299999991 28.0575878600000017 2.8842906199999998 Au
atom 26.9408467300000005 27.9846223199999997 2.8185937700000001 Au
atom 2.2354832099999999 27.9416291299999990 2.6096677100000001 Au
atom 4.6878374599999999 27.9586988500000011 2.6038285900000000 Au
atom 8.9454276600000000 30.4910098299999994 2.7136813700000002 Au
atom 11.7774658599999995 30.4360390699999996 2.4003204500000002 Au
atom 14.5430158299999999 30.4421518000000013 2.5440389500000000 Au
atom 17.3385586300000014 30.4570465000000006 2.7342532899999998 Au
atom 20.2415657099999997 30.4334860099999993 2.7522528999999998 Au
atom 23.0424928400000013 30.4138700200000009 2.6777821799999999 Au
atom 25.9044842300000013 30.5342779899999996 2.5949400699999998 Au
atom 0.5284276100000000 30.4788682100000017 2.7032515199999998 Au
atom 3.3534028600000001 30.3455121299999995 2.5390933200000001 Au
atom 6.1174508200000002 30.3717697999999992 2.4127993999999999 Au
atom 7.5861387899999997 32.8578603200000003 2.3965739400000001 Au
atom 10.2922829999999994 32.9094820799999965 2.3907744800000001 Au
atom 13.2620114800000000 32.9401716799999988 2.4956787899999999 Au
atom 15.9582373999999998 32.9418214000000020 2.6743320100000001 Au
atom 18.7649593000000010 32.9215793600000026 2.5797163500000000 Au
atom 21.6704050099999996 32.9318290300000029 2.7867810400000002 Au
atom 24.4882798999999984 32.9406301300000024 2.5988639400000002 Au
atom 27.2950348100000006 32.9201245799999995 2.4781015200000001 Au
atom 1.9522724600000001 32.8217472799999967 2.3427091099999999 Au
atom 4.7911743700000002 32.8312145900000019 2.5169401900000001 Au
atom 8.9757609899999995 35.3967796800000016 2.4956100999999999 Au
atom 11.7282409600000008 35.3927771500000006 2.6490291199999998 Au
atom 14.4878110000000007 35.4179884799999982 2.6761729999999999 Au
atom 17.3966061500000002 35.3823506299999977 2.6641967200000001 Au
atom 20.2404780500000001 35.3016886999999997 2.6273601200000001 Au
atom 23.0415870600000012 35.4148957499999995 2.5390524000000001 Au
atom 25.8797101699999992 35.4096833899999979 2.5036137300000001 Au
atom 0.5812961000000000 35.3543992900000035 2.5044093799999998 Au
atom 3.3781542299999998 35.3716357200000004 2.5069623600000002 Au
atom 6.2006787100000000 35.3108992200000031 2.7128106800000000 Au
atom 7.5752361800000001 37.8757617400000015 2.8161738900000000 Au
atom 10.3686779599999994 37.8596713700000009 2.8774274100000001 Au
atom 13.1634084900000001 37.9022461599999971 2.6880330799999999 Au
atom 15.9800373499999999 37.8645452399999982 2.7184564099999999 Au
atom 18.8352889700000006 37.7953949300000005 2.6992234300000000 Au
atom 21.6289792699999985 37.8742704699999990 2.6595844700000000 Au
atom 24.4526039500000003 37.8228744800000030 2.5672633000000000 Au
atom 27.3299900899999990 37.8000277200000028 2.6693951500000002 Au
atom 1.9134893700000000 37.8344841999999986 2.8203763600000000 Au
atom 4.8029585199999998 37.7969924200000023 2.7772445499999998 Au
atom 8.8900484399999993 0.8985856600000000 2.8226187399999998 Au
atom 11.6805535200000001 0.8833098900000000 2.7115821200000001 Au
atom 14.7013814400000005 0.8434937300000001 2.6728641199999998 Au
atom 17.4842247200000003 0.8699503000000000 2.7371961499999999 Au
atom 20.2512260499999996 0.8799615800000000 2.6014751199999999 Au
atom 23.0727354700000014 0.8210439700000000 2.6489666299999999 Au
atom 25.9512697000000010 0.8308334100000000 2.6321092799999999 Au
atom 0.4866703200000000 0.8656070700000000 2.6473308599999998 Au
atom 3.3270525300000000 0.8365437000000000 2.8263768699999998 Au
atom 6.1256983099999998 0.8345047799999999 2.7684619100000001 Au
atom 7.5034942400000002 3.3079502800000000 2.7458831300000002 Au
atom 10.3088120700000001 3.3368770600000000 2.7482658600000001 Au
atom 13.1454712300000001 3.3124621799999998 2.6266294299999999 Au
atom 16.0167052800000000 3.3235048200000001 2.7082160700000002 Au
atom 18.8201551400000007 3.4007493300000000 2.7203217400000002 Au
atom 21.6779008900000001 3.2928882399999999 2.6171424499999998 Au
atom 24.4575282799999982 3.2659727300000001 2.5317961300000000 Au
atom 27.2938073199999991 3.3733390100000000 2.6245517500000002 Au
atom 1.8741234000000000 3.2649998199999999 2.8552716800000000 Au
atom 4.7468312399999997 3.2886693500000002 2.8379207200000001 Au
atom 8.8881863100000000 5.8520021000000000 2.8207554300000002 Au
atom 11.7766683099999998 5.7777168600000000 2.7346174300000001 Au
atom 14.5733993900000005 5.7653222399999997 2.7769181600000001 Au
atom 17.4077727200000005 5.7748470100000002 2.7595366600000002 Au
atom 20.1555692600000000 5.7886135100000002 2.7536662600000001 Au
atom 23.0085128599999997 5.8381835999999998 2.6327482000000000 Au
atom 25.7612655000000004 5.7620174200000003 2.7371435399999999 Au
atom 0.4921579400000000 5.8790601499999999 2.7618133000000000 Au
atom 3.3717569799999998 5.7426510100000003 2.8915996300000000 Au
atom 6.1473118199999996 5.8399399599999997 2.7129141799999998 Au
atom 7.5022132099999999 8.3271022200000004 2.6161167299999999 Au
atom 10.3432768799999995 8.3168820900000000 2.5588842100000000 Au
atom 13.2543164999999998 8.3587294900000000 2.7479918500000000 Au
atom 15.9347871899999998 8.2223377099999997 2.7021823299999999 Au
atom 18.8318651700000004 8.2616841099999991 2.7363132299999999 Au
atom 21.6080286299999997 8.1883248399999999 2.5426695700000002 Au
atom 24.4628053200000011 8.2812821400000001 2.5014237399999999 Au
atom 27.1862661999999986 8.2570757199999996 2.6896395900000001 Au
atom 1.8759893500000000 8.3171549900000006 2.8278716600000000 Au
atom 4.6951623299999996 8.3132424900000004 2.5731951899999999 Au
atom 8.9544415500000003 10.7840137400000007 2.4743728500000000 Au
atom 11.8046074300000008 10.7508449000000006 2.4617750599999999 Au
atom 14.5644838199999995 10.7552880999999996 2.6559434199999998 Au
atom 17.3620723999999989 10.6937678199999997 2.6916545599999999 Au
atom 20.1841192099999986 10.6617031299999994 2.6954881700000000 Au
atom 22.9331420299999991 10.7413558200000008 2.6018553899999999 Au
atom 25.7733720700000006 10.6666396900000002 2.6344957999999998 Au
atom 0.4049115100000000 10.7022537399999997 2.4707062299999998 Au
atom 3.2742200000000001 10.6877393699999992 2.5058139000000001 Au
atom 6.1101697699999997 10.7646871999999991 2.4987929000000002 Au
atom 7.3130021899999997 13.0894132800000005 5.6173878200000003 Cl
atom 7.4380293300000000 15.9262439800000006 8.2899477499999996 Cl
atom 7.3296134200000003 13.1802109000000005 8.2004138500000003 Na
atom 7.1389350699999996 16.1541775100000002 5.3758367900000001 Na
atom 7.2469368100000002 18.8542862699999993 5.2970926800000004 Cl
atom 7.0654240499999998 21.4769223199999999 8.4395549499999998 Cl
atom 7.4408303599999996 18.6614110800000006 8.2664242100000003 Na
atom 7.3656451000000001 21.5691427800000000 5.5238045400000004 Na
atom 7.6813164000000000 24.3272129799999988 5.5196553000000002 Cl
atom 7.4374715699999996 27.2260278800000002 8.4578105099999998 Cl
atom 7.1823288500000002 24.3743265800000017 8.5375818700000004 Na
atom 7.2309127300000000 27.0659886699999994 5.7881570900000003 Na
atom 7.2737349199999999 30.0261574799999984 5.5796601700000004 Cl
atom 7.3611111300000003 32.8673270900000034 8.6058046000000008 Cl
atom 7.4279845599999996 29.9831424300000009 8.4106574100000007 Na
atom 7.2364564500000004 32.8680589800000007 5.8680419400000003 Na
atom 7.3336816599999999 35.7125507700000000 5.7577072100000004 Cl
atom 7.3459855699999999 38.4424876900000001 8.7563652899999997 Cl
atom 7.4659135599999997 35.5415589199999999 8.4384735899999992 Na
atom 7.2598361999999996 38.5018942999999965 6.0138279399999996 Na
atom 7.2709097700000003 1.8611507800000000 5.8481164999999997 Cl
atom 7.3591894399999997 4.6984002299999998 8.6596113599999995 Cl
atom 7.2270119099999999 1.7469954100000000 8.5560204399999993 Na
atom 7.1372949400000003 4.8719742300000002 5.8994578300000002 Na
atom 7.2106839200000001 7.2699187800000002 5.6112665499999999 Cl
atom 7.3917169600000001 10.2848927999999997 8.3700353100000005 Cl
atom 7.2993063500000002 7.5073046500000000 8.3226469800000000 Na
atom 7.1147556500000002 10.4614661000000009 5.6995626200000000 Na
atom 10.0274068599999993 13.1582319099999996 5.4118517199999996 Na
atom 12.8161935099999997 13.0870778899999998 5.3267783199999998 Cl
atom 10.1500059399999998 15.8798288700000008 7.9111235899999999 Na
atom 12.9649638399999994 15.9691981199999997 8.1869710399999995 Cl
atom 12.9828514699999999 13.0840819499999998 8.0208814000000004 Na
atom 10.2503451400000003 13.2320599199999993 8.2689656100000004 Cl
atom 13.1565601500000007 15.9227676700000007 5.3931300899999997 Na
atom 10.1603497500000000 15.9009653400000008 5.1317284799999996 Cl
atom 10.0008962399999994 18.7454117300000007 5.4393915100000001 Na
atom 12.9955818500000007 18.6878803900000001 5.4069816499999996 Cl
atom 10.0675617000000006 21.8051185499999995 8.2132785599999991 Na
atom 12.9764059500000002 21.4990852299999986 8.2785066199999999 Cl
atom 12.9047205199999997 18.7237131800000007 7.9239301299999996 Na
atom 10.2101501599999995 18.6222081899999985 8.2210105099999993 Cl
atom 12.8932168699999998 21.6839867200000000 5.4150950499999997 Na
atom 10.0947383199999994 21.6019095000000014 5.6108668699999997 Cl
atom 10.1597323500000005 24.3819805999999986 5.9081129499999996 Na
atom 13.0904981399999993 24.4468831699999996 5.5480223899999999 Cl
atom 10.1553562199999998 27.0931600900000014 8.3368324499999993 Na
atom 12.9886730200000002 27.1416171700000000 8.4425508399999991 Cl
atom 13.0841717499999994 24.3494221700000004 8.2648031199999998 Na
atom 10.1667839000000004 23.9807028200000012 8.5720807899999993 Cl
atom 13.0373968399999995 27.1735396099999988 5.5096999000000002 Na
atom 10.1146155600000007 27.1362576599999983 5.6055329499999997 Cl
atom 10.0404054200000008 29.9231032299999988 5.6891144200000001 Na
atom 13.1310589899999997 29.9713977999999983 5.6643460499999998 Cl
atom 10.0328578999999998 32.7086796700000022 8.3860444500000000 Na
atom 12.9743119500000006 32.8689422400000026 8.5095862899999997 Cl
atom 12.8763064899999993 30.0229331899999998 8.0644667200000004 Na
atom 10.1011573099999996 29.9373715000000011 8.5190038999999995 Cl
atom 12.9489124699999998 32.7995040500000030 5.7511496600000003 Na
atom 10.2408354900000003 32.8066296499999979 5.7378847100000003 Cl
atom 10.1279497400000000 35.6816223399999970 5.6806525199999998 Na
atom 13.0570813099999992 35.5653883600000000 5.7250367799999999 Cl
atom 10.1892482900000001 38.4086495299999982 8.2153574200000001 Na
atom 12.9701630300000001 38.4764654600000000 8.6254683100000005 Cl
atom 12.9742550500000000 35.6068553699999981 8.1494856500000008 Na
atom 10.2153809500000001 35.5740702700000000 8.4531586599999997 Cl
atom 12.7437675800000001 38.4554576399999988 5.8809633200000002 Na
atom 10.0639058000000006 38.5283384700000013 5.8376537700000002 Cl
atom 10.0045757299999991 2.0094298400000001 5.8556183500000003 Na
atom 12.6866161999999996 1.8757688699999999 5.7870941900000004 Cl
atom 10.1286898200000000 4.7000044799999996 8.4870421300000007 Na
atom 12.9511044299999991 4.7048955599999998 8.5408990800000009 Cl
atom 12.8796392599999994 1.7514624100000000 8.2656802799999998 Na
atom 10.0532536900000000 1.8693815100000000 8.7070581800000006 Cl
atom 12.7511343200000002 4.6525912399999996 5.8511996000000002 Na
atom 10.0427905699999993 4.7133134300000004 5.6913040600000002 Cl
atom 10.0656140999999995 7.6461580400000004 5.8121583599999997 Na
atom 12.9156559899999994 7.6483547700000001 5.2349576600000001 Cl
atom 9.9245177600000005 10.4019581700000003 8.1679976500000002 Na
atom 13.1772680199999996 10.4218690899999995 8.4109476500000007 Cl
atom 13.1004921599999999 7.6311604099999997 8.7820587999999997 Na
atom 10.1197147199999993 7.4169938899999996 8.6040331499999994 Cl
atom 13.0447644000000000 10.2432370499999994 5.5423630399999997 Na
atom 10.0590850100000004 10.0491039999999998 5.6629953799999999 Cl
atom 15.8772549099999996 13.1075300499999994 5.5358217600000001 Na
atom 18.5699862200000005 13.2110291400000008 5.6651451000000002 Cl
atom 15.8822468600000004 15.9939718299999996 8.0113625400000004 Na
atom 18.6478559500000003 15.9545572399999998 8.4847354399999997 Cl
atom 18.6154456999999987 13.1861778699999999 8.3049148600000002 Na
atom 15.8045334000000004 13.2519701699999999 8.2396373399999998 Cl
atom 18.5988931000000015 16.0020222399999987 5.4385226199999996 Na
atom 15.8345286200000004 16.1858086499999985 5.3124649300000000 Cl
atom 15.7816176899999991 19.0263313499999995 5.3891967300000001 Na
atom 18.6700307000000016 18.9348666700000017 5.5866246000000004 Cl
atom 15.6690027799999996 21.5194410699999992 8.3183956200000004 Na
atom 18.4557824100000012 21.5592012900000007 8.3683713100000006 Cl
atom 18.4938422299999985 18.8354122500000010 7.7371233500000001 Na
atom 15.8027772399999993 18.7829870800000016 8.1114677799999999 Cl
atom 18.5886335500000008 21.6771251300000003 5.4453579500000000 Na
atom 15.6630428399999992 21.7323030899999985 5.3558245800000002 Cl
atom 15.8029006299999999 24.2067112199999990 5.5360453700000001 Na
atom 18.6526876100000010 24.3509342300000000 6.0107930200000004 Cl
atom 15.6994452899999999 27.2795947500000011 8.0866388899999997 Na
atom 18.4148969800000017 27.1890674399999988 8.4792690400000001 Cl
atom 18.6825323499999989 24.3632109300000010 7.7504888899999997 Na
atom 15.7792496500000006 24.3201225799999996 8.3024637200000004 Cl
atom 18.7205786399999994 27.2474640299999997 5.8010295799999998 Na
atom 15.8204512800000003 27.5290166899999988 5.3886248600000002 Cl
atom 15.9299669500000007 30.0916285600000002 5.5998682700000000 Na
atom 18.4712068999999985 30.0499242600000009 5.6469519999999997 Cl
atom 15.7215586300000005 32.7436022999999992 8.2391267700000004 Na
atom 18.5180769900000008 32.8634541899999988 8.5404287799999992 Cl
atom 18.5970014500000005 29.9732268399999988 8.1069635800000004 Na
atom 15.7600300600000001 29.9971220199999991 8.3767563500000009 Cl
atom 18.5739568499999983 32.8931203300000021 5.7357276099999996 Na
atom 15.7559073099999996 32.8548542099999992 5.9625388299999997 Cl
atom 15.7972047399999997 35.6646143600000016 5.7570708100000001 Na
atom 18.7750923400000005 35.7020285199999989 5.6517540999999998 Cl
atom 15.6904895000000000 38.7868684399999992 8.5887553200000006 Na
atom 18.6471817100000017 38.4537034199999965 8.6957413500000005 Cl
atom 18.6521851900000009 35.5687055699999988 8.2313337700000009 Na
atom 15.8940564500000008 35.7080890399999973 8.4624309199999992 Cl
atom 18.5157330199999990 38.4423514200000014 5.9540210499999997 Na