#===============================================================================
# Created using the Atomic Simulation Environment (ASE)

# Tue Dec 23 21:43:02 2025

#=======================================================
lattice_vector 28.1999999999999993 0.0000000000000000 0.0000000000000000 
lattice_vector 0.0000000000000000 39.4799999999999969 0.0000000000000000 
lattice_vector 0.0000000000000000 0.0000000000000000 62.3296083400000001 
atom 7.5760541300000002 14.6729069699999997 -0.0210208800000000 Au
atom 10.4613738499999993 14.7535785300000004 -0.0355416500000000 Au
atom 13.1652553300000008 14.7674443400000008 -0.0563864500000000 Au
atom 15.9113245400000007 14.8167368899999996 -0.4052010700000000 Au
atom 18.7229099599999991 14.6762486800000005 -0.2683604800000000 Au
atom 21.6046854099999983 14.7842321499999994 -0.3980580200000000 Au
atom 24.4050033900000010 14.8225028299999995 0.2465872900000000 Au
atom 27.3203161100000003 14.8517778400000005 -0.1612244100000000 Au
atom 1.9254802900000001 14.8205851299999996 -0.0249769500000000 Au
atom 4.6423010500000004 14.6262944600000004 -0.0148311700000000 Au
atom 8.8906861999999993 17.1882986100000004 0.0464700900000000 Au
atom 11.7164341099999998 17.1973739300000013 0.0364600500000000 Au
atom 14.5502597900000001 17.2298248200000010 0.0693089400000000 Au
atom 17.3410642199999998 17.3403661400000004 -0.3033885100000000 Au
atom 20.0793128400000001 17.1124437799999995 -0.1539469000000000 Au
atom 22.9661884100000009 17.3736074000000009 0.1148661400000000 Au
atom 25.8374321599999988 17.2505209300000004 0.0219232700000000 Au
atom 0.4360530300000000 17.3417053699999997 0.1405684800000000 Au
atom 3.1538247600000000 17.2849248700000011 0.1450538700000000 Au
atom 6.0825362299999997 17.2578046200000017 -0.1579687700000000 Au
atom 7.4991643100000003 19.6101722400000007 0.2540759600000000 Au
atom 10.3311274500000003 19.6025078199999996 -0.0645672100000000 Au
atom 13.1292846799999996 19.6733337100000014 0.1561624400000000 Au
atom 15.8249896999999997 19.7090791900000006 0.0742705100000000 Au
atom 18.6989225200000000 19.8515818899999985 -0.0623103500000000 Au
atom 21.4678139299999984 19.6861621699999993 0.1806895700000000 Au
atom 24.3873304600000012 19.7642911599999991 0.1741601100000000 Au
atom 27.1297069600000000 19.7566778200000002 0.2380554900000000 Au
atom 1.7538017299999999 19.8078436700000005 0.1499450000000000 Au
atom 4.6087912600000003 19.6410577599999989 0.0556403300000000 Au
atom 8.9078966200000007 22.0751587899999997 -0.0774703600000000 Au
atom 11.6803666100000001 22.0779672200000014 0.0038398400000000 Au
atom 14.4627832999999999 22.2166603400000007 0.1755738200000000 Au
atom 17.3665564600000017 22.1877217500000015 0.2704635800000000 Au
atom 20.1021298399999999 22.2357596400000013 0.1451856300000000 Au
atom 22.9773741099999995 22.1410678099999991 -0.0191292300000000 Au
atom 25.8311404099999997 22.2676075900000008 0.0799979800000000 Au
atom 0.4263820200000000 22.2274783499999984 0.1313799000000000 Au
atom 3.2084759599999999 22.1153454300000014 -0.0458279500000000 Au
atom 6.0432799599999996 22.0889128499999998 -0.2564057200000000 Au
atom 7.5525403500000001 24.6030797399999983 -0.1015916600000000 Au
atom 10.3240174600000003 24.6433046900000008 -0.0706514300000000 Au
atom 13.1701331600000007 24.6371287700000003 -0.1001004900000000 Au
atom 15.9466951600000009 24.6662300899999991 -0.0460215200000000 Au
atom 18.7450828300000012 24.6693786899999985 -0.0749471300000000 Au
atom 21.6076268800000015 24.6574532700000013 0.2653796300000000 Au
atom 24.3634551500000001 24.6765025000000016 0.1354494000000000 Au
atom 27.1754805300000015 24.7474416300000009 0.1557895300000000 Au
atom 1.8431612799999999 24.6574615199999982 0.3100220700000000 Au
atom 4.6624665700000003 24.6220838399999984 -0.0396965500000000 Au
atom 8.8949976599999996 27.1537204199999991 0.0827268300000000 Au
atom 11.7634546699999998 27.1411012999999990 -0.0063111500000000 Au
atom 14.6242927199999997 27.1188299599999993 -0.2350700900000000 Au
atom 17.4138090699999992 27.1658187300000016 -0.2192374800000000 Au
atom 20.1459553699999994 27.0960660699999991 -0.0146977800000000 Au
atom 22.9298397399999985 27.1728540000000010 0.0339322900000000 Au
atom 25.7985844600000007 27.1285820499999986 -0.0982584900000000 Au
atom 0.4688390200000000 27.1642611699999996 0.0756858000000000 Au
atom 3.3128389199999999 27.0645597699999989 0.0767028900000000 Au
atom 6.1095694099999998 27.0527359599999997 -0.0261631800000000 Au
atom 7.4150818799999998 29.6490339899999995 -0.1875916300000000 Au
atom 10.2926658000000000 29.5782007000000000 -0.2947689300000000 Au
atom 13.0911925900000004 29.5902220900000010 -0.0475125700000000 Au
atom 16.0211683700000016 29.5433047799999997 -0.1084193500000000 Au
atom 18.7867629899999997 29.6468670000000003 -0.0728621000000000 Au
atom 21.5755719299999988 29.6069142099999993 -0.1427880700000000 Au
atom 24.4599320999999996 29.5585077600000012 -0.3406001400000000 Au
atom 27.2535063099999988 29.5792693500000006 -0.2419754500000000 Au
atom 1.9323387299999999 29.6027287500000007 -0.1042998800000000 Au
atom 4.6662072999999999 29.5836443600000010 -0.3576294800000000 Au
atom 8.9183281099999991 32.0256484200000031 -0.1600130900000000 Au
atom 11.7238068500000008 32.1087174199999978 -0.0879708600000000 Au
atom 14.5668510799999993 32.0549580699999979 -0.2667405300000000 Au
atom 17.3244239200000010 32.0958995299999970 -0.2336500000000000 Au
atom 20.1941058799999986 32.1050819900000022 -0.1701551600000000 Au
atom 23.0395895400000015 32.0683704699999979 -0.1077273400000000 Au
atom 25.7575671200000009 32.0153114100000025 0.1731163800000000 Au
atom 0.3453036800000000 32.0533314199999992 -0.2743873300000000 Au
atom 3.2416713200000000 32.0959010500000019 -0.1821746100000000 Au
atom 6.0501687799999999 32.0283118500000015 -0.3915808500000000 Au
atom 7.4431154299999998 34.4502929499999979 -0.0758494300000000 Au
atom 10.2909912899999991 34.5217014899999981 0.1738387400000000 Au
atom 13.0938224600000002 34.4982010499999987 0.0529564400000000 Au
atom 15.9506102300000006 34.5448799300000005 0.1347708200000000 Au
atom 18.7750269199999984 34.5663652599999978 -0.0853089200000000 Au
atom 21.6355212399999992 34.5293661099999980 -0.0711637900000000 Au
atom 24.4091991800000017 34.5539144700000023 0.2088789700000000 Au
atom 27.2372562900000013 34.5926454299999975 0.0840080400000000 Au
atom 1.7914536800000000 34.5101477199999991 -0.0780684500000000 Au
atom 4.6984463600000002 34.5585290000000001 -0.2560761000000000 Au
atom 8.9749758600000007 36.8632963000000018 -0.0135407800000000 Au
atom 11.6823412799999993 36.9835259600000015 0.1641489300000000 Au
atom 14.4699908900000001 36.9582124200000024 0.0386229000000000 Au
atom 17.2960686099999990 37.0197916600000028 0.0680949400000000 Au
atom 20.2106361099999994 36.9036263500000032 0.0444875500000000 Au
atom 22.9415684400000011 36.9979055900000020 -0.0736476400000000 Au
atom 25.8460303200000006 37.0472951899999998 0.0436398100000000 Au
atom 0.5135651200000000 37.0629714499999992 0.2164156900000000 Au
atom 3.2104304799999999 36.9884890900000016 0.1695207100000000 Au
atom 6.1214956699999998 37.0477943699999983 -0.1096652800000000 Au
atom 7.5715983600000003 -0.0250641500000000 0.1092301100000000 Au
atom 10.3651641199999993 0.0364039500000000 0.1310731500000000 Au
atom 13.1296143999999995 0.0583726600000000 0.1706180500000000 Au
atom 15.8855693000000002 -0.1540870800000000 0.3190590300000000 Au
atom 18.7768299200000008 -0.0815721800000000 0.0779811600000000 Au
atom 21.5289612300000002 -0.1323706200000000 0.2672788000000000 Au
atom 24.3491655300000005 -0.0831131700000000 0.1572714500000000 Au
atom 27.2440265299999993 -0.0503388900000000 0.1184993000000000 Au
atom 1.8553256499999999 -0.0471603400000000 0.1375129600000000 Au
atom 4.7475511800000003 -0.0657724600000000 0.2691469100000000 Au
atom 8.9343852899999998 2.4362369899999998 0.1995227200000000 Au
atom 11.7503732599999999 2.4215964300000001 0.3207580000000000 Au
atom 14.6460042500000007 2.3865034999999999 0.4570488900000000 Au
atom 17.3739574300000008 2.4284551400000001 0.2194342800000000 Au
atom 20.1731655900000000 2.3472244299999998 0.2456004400000000 Au
atom 22.9336379400000006 2.4191873699999999 0.0687615000000000 Au
atom 25.8154304500000009 2.3716031200000001 0.0210658100000000 Au
atom 0.4876665000000000 2.3802511200000001 0.1472440900000000 Au
atom 3.2842116300000002 2.4565669500000000 0.2064573600000000 Au
atom 6.0614164800000001 2.3746361999999999 0.2710503600000000 Au
atom 7.5624836599999998 4.9905968600000001 0.2957666600000000 Au
atom 10.3324933899999998 4.9339894900000001 0.2514353800000000 Au
atom 13.1610607300000009 4.9539761200000001 0.4044936100000000 Au
atom 16.0014756799999986 4.8949166699999997 0.4717599400000000 Au
atom 18.7998408499999989 4.9336821100000003 0.0218629700000000 Au
atom 21.5944497200000001 4.9360848199999996 0.1992945900000000 Au
atom 24.4036824900000013 4.8835757099999997 0.0392372500000000 Au
atom 27.2347286799999999 4.8584100299999999 0.1718344300000000 Au
atom 1.8983669400000001 4.9161940700000004 -0.1504378900000000 Au
atom 4.7431982399999999 4.9275483800000002 0.4255324800000000 Au
atom 8.9131683699999993 7.3423882899999997 0.2952463100000000 Au
atom 11.8188668499999991 7.3317145300000002 -0.0321823000000000 Au
atom 14.6567399300000005 7.3118390800000004 0.1647978500000000 Au
atom 17.4554578300000003 7.3473645000000003 0.0880584300000000 Au
atom 20.2534035400000008 7.3489609400000004 0.1137850100000000 Au
atom 23.0228596299999992 7.3786185199999998 -0.0415585600000000 Au
atom 25.8415351599999994 7.2975794299999999 0.0336126400000000 Au
atom 0.4446757200000000 7.3012053000000003 0.0925538500000000 Au
atom 3.2865765599999999 7.3427089800000003 0.3267754300000000 Au
atom 6.0948259299999998 7.4707870200000004 0.3953175100000000 Au
atom 7.5526016399999998 9.8698798199999995 -0.3011346200000000 Au
atom 10.4656016600000008 9.8134429700000005 -0.1379796600000000 Au
atom 13.3105311099999994 9.8106867100000006 -0.1484304200000000 Au
atom 16.0018401399999988 9.7062945900000006 -0.0622934500000000 Au
atom 18.7956635399999996 9.7907716300000001 -0.1058911800000000 Au
atom 21.6503979499999986 9.8435673099999992 -0.1488043700000000 Au
atom 24.4427719900000007 9.8210787499999999 -0.0969547900000000 Au
atom 27.1783868499999990 9.7710992200000000 -0.2359755200000000 Au
atom 1.8961831499999999 9.8355723499999996 -0.1327741700000000 Au
atom 4.6720032600000003 9.7731802600000002 -0.2843452600000000 Au
atom 8.9452498299999998 12.2766405400000007 -0.0929372900000000 Au
atom 11.7624512400000008 12.2382985400000006 -0.1028098900000000 Au
atom 14.5352817299999995 12.3214185599999997 -0.1875399300000000 Au
atom 17.2804785900000013 12.2210609600000009 -0.2813502500000000 Au
atom 20.1353201499999983 12.2404966200000000 -0.3512867500000000 Au
atom 23.0669180000000011 12.2821729299999998 -0.1712626100000000 Au
atom 25.8288726100000012 12.3760501999999999 -0.1901061400000000 Au
atom 0.4768909400000000 12.3176063800000009 -0.2479817900000000 Au
atom 3.2275394600000000 12.1962254600000009 -0.2055234800000000 Au
atom 6.0769986600000001 12.2248307700000005 -0.2440130500000000 Au
atom 7.5603492799999996 13.0989018300000009 2.5547372699999999 Au
atom 10.3223899600000006 13.1378222099999995 2.4468840699999999 Au
atom 13.1850522899999998 13.1185129000000007 2.4917332299999999 Au
atom 15.9428832299999996 13.2252834799999999 2.2560697200000002 Au
atom 18.8432495799999984 13.1505334900000008 2.3842651799999999 Au
atom 21.5561254300000016 13.1855573199999991 2.2724141800000002 Au
atom 24.3873290199999992 13.1264232100000005 2.6187354799999998 Au
atom 27.2263576299999990 13.2003167300000008 2.2899053800000000 Au
atom 1.9141672000000001 13.0985388399999998 2.3766654800000002 Au
atom 4.6885652499999999 13.0105385499999997 2.4488805199999999 Au
atom 8.9854015900000004 15.5491096700000000 2.5953685900000001 Au
atom 11.7823177300000008 15.6047681300000001 2.6519807000000002 Au
atom 14.5577377000000006 15.6163962999999999 2.6772835900000000 Au
atom 17.2686445599999985 15.6692598000000007 2.2190907300000000 Au
atom 20.1221759200000001 15.7009751800000004 2.5467873900000000 Au
atom 22.8435691200000015 15.6188247300000000 2.5726292399999999 Au
atom 25.8203781799999987 15.6243588899999999 2.7710458099999999 Au
atom 0.4721955600000000 15.6483701699999997 2.7013037099999999 Au
atom 3.2635102699999998 15.4925969600000002 2.6731173099999999 Au
atom 6.0880055500000001 15.6352921699999996 2.4614417899999999 Au
atom 7.4934529899999998 18.0713135099999995 2.7388100500000001 Au
atom 10.3689278700000003 18.1564529599999993 2.4745773600000001 Au
atom 13.2074837200000008 18.0043596599999987 2.8234211600000001 Au
atom 15.9392317000000006 18.1026291400000012 2.6208881300000000 Au
atom 18.6794838699999985 18.0659464900000017 2.3871821400000002 Au
atom 21.5286440799999994 18.1276316900000012 2.5167423300000000 Au
atom 24.3416906600000011 18.0277888900000001 2.6273831599999999 Au
atom 27.1424678300000011 18.1015818000000017 2.5859662600000002 Au
atom 1.7722752900000001 18.0726745899999983 2.7348014799999998 Au
atom 4.6512034199999999 18.0611401200000010 2.5803527700000002 Au
atom 8.8573646799999999 20.5424595500000002 2.8024995599999998 Au
atom 11.6611989800000000 20.6279562299999988 2.7615474700000000 Au
atom 14.5036851099999993 20.5469155199999989 2.7250430500000000 Au
atom 17.3682765299999993 20.6203251099999996 2.8656408600000001 Au
atom 20.0550339199999996 20.6082943400000005 2.6848697300000000 Au
atom 22.9618484900000013 20.5046680200000004 2.7229709099999999 Au
atom 25.7882993899999988 20.6702201400000014 2.7232503499999998 Au
atom 0.4485874300000000 20.5130422999999986 2.9521776599999998 Au
atom 3.2898820799999999 20.5911332300000005 2.6044071199999999 Au
atom 6.0470101200000004 20.5071528900000004 2.6247071700000002 Au
atom 7.4386296099999996 22.9635687500000003 2.3308673099999999 Au
atom 10.2809190699999995 23.0237617700000001 2.5526550399999999 Au
atom 13.1068251700000005 23.0747856700000007 2.7193658300000001 Au
atom 15.8907495200000000 23.0926682200000002 2.5784839200000000 Au
atom 18.7883719099999986 23.1976297500000008 2.7972143100000002 Au
atom 21.5959875299999986 22.9916249700000002 2.6634790599999998 Au
atom 24.3940993699999993 23.1194192299999983 2.5204336299999999 Au
atom 27.2311997099999985 23.1987240300000011 2.6525080399999998 Au
atom 1.8434883500000001 23.0567012899999995 2.7553482699999998 Au
atom 4.7105358300000004 22.9558069499999995 2.5812286699999998 Au
atom 8.8603401599999998 25.5023187299999989 2.6463108300000000 Au
atom 11.6673793999999997 25.4594157000000010 2.6355802000000002 Au
atom 14.5219309400000007 25.5383816800000005 2.4991807100000001 Au
atom 17.3140834199999993 25.6149427900000006 2.5102148700000000 Au
atom 20.1575409100000016 25.5171771400000011 2.6936428800000001 Au
atom 22.9559338400000001 25.5528917699999987 2.8650074600000002 Au
atom 25.8182502999999990 25.6562339000000001 2.6794741399999999 Au
atom 0.4551192400000000 25.5991687699999986 2.8736549700000000 Au
atom 3.2449871300000002 25.4974726800000013 2.7426354700000002 Au
atom 5.9798903100000000 25.4510214700000006 2.4888105999999999 Au
atom 7.4472700800000000 27.9175278499999990 2.6289710099999999 Au
atom 10.2936170699999998 27.9829228900000011 2.5239744499999999 Au
atom 13.1179083199999997 27.9484370200000001 2.5433297900000000 Au
atom 15.8674276400000007 27.9383799199999991 2.4435130699999998 Au
atom 18.7472591100000017 28.0107149200000016 2.5087788000000000 Au
atom 21.5248191200000001 28.0775961100000018 2.6140505900000002 Au
atom 24.3017545800000008 27.9616966200000014 2.5435412999999998 Au
atom 27.3446414100000013 28.0445474600000004 2.6471199699999999 Au
atom 1.9066696900000000 28.0327701699999992 2.5824733200000001 Au
atom 4.7030591299999998 27.9714452099999988 2.4749792500000001 Au
atom 8.8291513199999994 30.3890856700000001 2.6164034300000001 Au
atom 11.6316610600000008 30.4148394300000007 2.5061289699999998 Au
atom 14.4978791200000003 30.5092207699999989 2.5385884900000000 Au
atom 17.2673894399999988 30.4519162200000011 2.5903941499999998 Au
atom 20.1005938499999992 30.4722386100000016 2.4436382900000000 Au
atom 22.9794772499999986 30.4835236099999989 2.2974481000000000 Au
atom 25.8295133700000008 30.2944662300000012 2.4666331000000001 Au
atom 0.4454388400000000 30.4605217699999997 2.2618612800000002 Au
atom 3.2360109700000002 30.4058834299999994 2.4524150200000001 Au
atom 6.1596619800000001 30.3974584499999985 2.3768779300000000 Au
atom 7.4910126000000004 32.9361083499999978 2.4627662199999998 Au
atom 10.2545649000000001 32.8460647200000011 2.6056362000000002 Au
atom 13.0424455800000008 32.9096157399999996 2.3751437800000001 Au
atom 15.9235982099999998 32.9471333400000006 2.5584707899999999 Au
atom 18.7835676999999990 32.9551614100000023 2.3967174000000000 Au
atom 21.5148778699999994 32.9645487100000025 2.3970525899999999 Au
atom 24.4826050600000009 32.8417144599999986 2.6724550900000001 Au
atom 27.2692804100000004 32.7899905399999980 2.7046451299999998 Au
atom 1.8483891500000000 32.8856158999999977 2.4806447199999999 Au
atom 4.7109019700000001 32.8495492300000009 2.4013640700000001 Au
atom 8.8245227699999997 35.3581720999999973 2.6565357700000001 Au
atom 11.6738763500000005 35.3320386299999996 2.7643715599999998 Au
atom 14.5580295500000005 35.3843585999999988 2.6958256899999999 Au
atom 17.4042193699999999 35.3694105399999970 2.7360747800000000 Au
atom 20.2570160199999982 35.4564684999999997 2.5517426599999999 Au
atom 22.9705526000000013 35.3515782799999982 2.6810279700000001 Au
atom 25.9223073299999989 35.2998775000000009 2.7903405999999999 Au
atom 0.4525893800000000 35.4199169700000027 2.7666041500000000 Au
atom 3.2497073200000002 35.3316761499999998 2.4984715899999999 Au
atom 6.0465547800000001 35.3869847500000034 2.4621450700000000 Au
atom 7.4530932600000002 37.9008352399999993 2.5249138000000002 Au
atom 10.2856884199999996 37.9071514600000015 2.7890860800000001 Au
atom 13.1433113099999996 37.8615041300000001 2.6956730900000001 Au
atom 15.9760654500000001 37.7459495299999972 2.8179752100000002 Au
atom 18.9260678099999993 37.8565913500000022 2.6552155900000001 Au
atom 21.7267555399999992 37.8702571299999988 2.9014857900000002 Au
atom 24.4453784799999987 37.6962624299999973 2.6725663000000002 Au
atom 27.1854370299999992 37.8421698300000031 2.7805402899999998 Au
atom 1.8233130000000000 37.8767876000000001 2.8723034599999999 Au
atom 4.5974307300000001 37.7943796500000033 2.6910203199999998 Au
atom 8.8666057600000006 0.8192964300000000 2.7022878600000002 Au
atom 11.6601361800000003 0.8451571500000000 2.8831567599999999 Au
atom 14.4095583299999994 0.8589379700000001 2.9850200299999998 Au
atom 17.4044436199999986 0.7867854700000000 2.8287262200000001 Au
atom 20.1857094299999993 0.8478030700000000 2.7485919800000000 Au
atom 23.0002388199999999 0.8474058799999999 2.9047004900000002 Au
atom 25.7580457600000017 0.7642822500000001 2.7280014299999999 Au
atom 0.4064867100000000 0.7796134300000001 2.8203985600000001 Au
atom 3.2530220100000000 0.7994687900000000 2.8181266100000002 Au
atom 6.0969270399999997 0.7778082100000000 2.8903819199999998 Au
atom 7.5589949799999996 3.1716106700000002 2.7992676699999999 Au
atom 10.4518822300000007 3.3110943499999999 2.8005124499999998 Au
atom 13.1878292300000002 3.3760738099999998 3.0844046399999998 Au
atom 15.9943614899999993 3.2702634200000000 3.0025866400000001 Au
atom 18.8164751300000006 3.5222576600000002 2.7095786600000000 Au
atom 21.5455449200000011 3.2732708399999999 2.7216521899999999 Au
atom 24.4325315299999986 3.3185852499999999 2.6814313799999998 Au
atom 27.1516549000000005 3.3211200900000000 2.5761290400000001 Au
atom 1.8553718500000000 3.2315487699999998 2.6230099600000001 Au
atom 4.6848366099999996 3.2340723400000000 2.9698450099999998 Au
atom 8.9140739399999998 5.7801082399999997 3.0017195399999999 Au
atom 11.7652490800000002 5.9052376500000001 2.9702254899999998 Au
atom 14.6113096599999999 5.8005283500000004 2.9486745399999998 Au
atom 17.4341819399999984 5.9739909999999998 2.8896843400000001 Au
atom 20.2829861999999999 5.9192077200000002 2.8525920299999998 Au
atom 22.9955871899999984 5.7753313899999998 2.6773222900000002 Au
atom 25.8124256000000010 5.7944049700000004 2.7048749299999999 Au
atom 0.5376437700000000 5.6934513200000003 2.7974133100000000 Au
atom 3.3511590199999999 5.7988822200000003 2.9011681899999999 Au
atom 6.1765554900000001 5.6601446900000001 3.0553957899999999 Au
atom 7.5420690800000001 8.2809972199999997 2.8021506299999999 Au
atom 10.3470315199999998 8.2761451800000003 2.6640834400000002 Au
atom 13.1681466999999994 8.2868937799999998 2.5313026800000000 Au
atom 15.9627357100000005 8.3202537099999994 2.8279644700000000 Au
atom 18.8038705499999992 8.3505932200000004 2.5986740099999999 Au
atom 21.7095215599999989 8.3265078300000006 2.6528834799999998 Au
atom 24.5177763999999989 8.3281434500000007 2.4907805399999998 Au
atom 27.2654637000000015 8.2397384700000007 2.5249402500000002 Au
atom 1.8142400299999999 8.2435076600000006 2.6021711500000002 Au
atom 4.7467987500000000 8.2401982199999999 2.9168399100000002 Au
atom 8.9202541600000007 10.6451220499999994 2.3412985399999999 Au
atom 11.7642939099999992 10.6805017699999993 2.4841502800000002 Au
atom 14.5349266299999993 10.7021357199999994 2.2929682900000001 Au
atom 17.3667730400000018 10.7000698599999993 2.4331293299999999 Au
atom 20.1661973199999984 10.6790680699999996 2.3631136100000001 Au
atom 22.9011440899999990 10.7710364999999992 2.4943237500000000 Au
atom 25.7993386999999998 10.7893828999999997 2.4819077300000001 Au
atom 0.4074416500000000 10.7270162100000004 2.3512931899999998 Au
atom 3.3388714600000000 10.5705772400000004 2.4836854800000001 Au
atom 6.1243139600000003 10.5840736000000000 2.1831245199999998 Au
atom 7.5779649500000001 13.3539750700000006 5.5024670799999997 Cl
atom 7.3715900500000000 16.2718359899999996 8.4287453899999996 Cl
atom 7.5322938700000002 13.3760545999999998 8.3083027900000008 Na
atom 7.3913926900000000 16.3806159200000003 5.6405301600000000 Na
atom 7.6447485300000002 19.1169834300000012 5.5565613400000000 Cl
atom 7.6114443600000001 21.8152702800000000 8.6065438299999997 Cl
atom 7.3768234200000000 19.1804938800000002 8.2994882000000008 Na
atom 7.5323532399999999 21.9813940700000003 5.7948192399999998 Na
atom 7.7117922999999999 24.6434975399999985 5.6130522899999997 Cl
atom 7.7571354799999996 27.7233427299999988 8.5593953099999993 Cl
atom 7.7337858199999996 24.6419143200000015 8.3390687299999993 Na
atom 7.6775287199999998 27.5301100699999992 5.7930715599999996 Na
atom 7.4630929300000002 30.3532244099999993 5.5517698299999996 Cl
atom 7.4770246299999998 33.1357028299999996 8.6335318900000004 Cl
atom 7.5364017800000003 30.4154235300000018 8.3331603199999993 Na
atom 7.5670176199999997 33.1431965100000028 5.8308845800000002 Na
atom 7.5798568900000003 35.8895329500000031 5.7100726399999999 Cl
atom 7.6653414000000000 38.6917946299999969 8.7187903599999999 Cl
atom 7.6294780900000001 35.9140030200000027 8.3148216999999995 Na
atom 7.5999657200000001 38.7036568600000024 5.7709019599999998 Na
atom 7.6208518800000000 2.1111974600000001 5.9330399299999996 Cl
atom 7.6375821899999998 4.9304675800000002 8.7138631199999992 Cl
atom 7.5086494600000000 2.0702187900000002 8.5491073199999992 Na
atom 7.4128486100000002 5.0390875199999998 5.9318762300000003 Na
atom 7.4503537599999996 7.8413188500000004 5.8059037000000000 Cl
atom 7.6851653100000004 10.6094003600000004 8.5097891400000005 Cl
atom 7.4793167000000000 7.7947388799999997 8.4518967299999996 Na
atom 7.5693542300000001 10.5347184100000000 5.7915517500000000 Na
atom 10.4429120799999993 13.3728997799999991 5.8419756300000003 Na
atom 13.1936318299999993 13.3433647499999992 5.6531374500000000 Cl
atom 10.3561514900000002 16.3362626000000013 8.3228708999999998 Na
atom 13.2798190599999995 16.2726709599999992 8.7061462100000000 Cl
atom 13.1921792000000000 13.3507992499999997 8.6737284500000005 Na
atom 10.3811544999999992 13.3915878100000008 8.4558307999999993 Cl
atom 13.1952549999999995 16.1816317400000003 5.8236549599999998 Na
atom 10.2307200999999992 16.3951211000000008 5.4705584199999997 Cl
atom 10.3721590399999997 19.0936155499999991 5.6599100099999999 Na
atom 13.2123413700000008 19.0534194399999990 5.6968066200000003 Cl
atom 10.3833032000000003 21.8210041600000011 8.4888454400000004 Na
atom 13.2812030599999993 21.8147550000000017 8.6884966800000001 Cl
atom 13.3628143799999997 18.9396788299999983 8.3747183900000000 Na
atom 10.3885916199999997 19.2204165300000014 8.6626310899999996 Cl
atom 13.2086860799999997 21.7236143700000000 5.8900549599999996 Na
atom 10.4158682099999993 22.0039876599999999 5.7924989699999996 Cl
atom 10.5005694100000007 24.5942908600000010 5.8563509900000001 Na
atom 13.1831153699999994 24.7827349900000016 5.7838824999999998 Cl
atom 10.3380881999999996 27.5711191500000012 8.3176718600000008 Na
atom 13.1706559999999993 27.5351165699999996 8.5617975600000005 Cl
atom 13.2258482700000002 24.8718031800000006 8.4583871899999998 Na
atom 10.4277420299999992 24.6548573500000003 8.5980845899999991 Cl
atom 13.2360667200000002 27.6026440199999996 5.7633765099999996 Na
atom 10.5037891099999996 27.6285780299999999 5.6523270300000004 Cl
atom 10.4861706399999992 30.4742357699999999 5.6995018200000001 Na
atom 13.4800171199999994 30.4654102699999996 5.7067750699999999 Cl
atom 10.4656458499999996 33.1709539100000015 8.2905589200000005 Na
atom 13.2591499200000005 33.0935844299999999 8.6691237599999997 Cl
atom 13.1945111500000003 30.3910008100000013 8.2807015100000001 Na
atom 10.3155639800000003 30.3414142499999997 8.4484702400000007 Cl
atom 13.2680167200000003 33.2482229700000005 5.8557304500000003 Na
atom 10.4507622399999995 33.2103796700000018 5.7307861999999998 Cl
atom 10.5160851999999991 36.0033745200000013 5.8926327199999999 Na
atom 13.2781629500000005 36.0718068099999982 5.8431282500000004 Cl
atom 10.3615107299999991 38.8612947700000007 8.5520900599999994 Na
atom 13.1695669700000000 38.8580347500000016 8.8606351700000001 Cl
atom 13.2511447199999992 36.1234130799999988 8.5931880500000002 Na
atom 10.4421949699999992 35.9502953699999992 8.4750494500000002 Cl
atom 13.2193335300000001 38.9621479400000013 5.8710846999999999 Na
atom 10.4234763299999997 38.9028670100000014 5.7153932999999997 Cl
atom 10.5016874999999992 2.1421038700000001 5.9946075299999997 Na
atom 13.2995784700000002 2.2527349600000002 5.9474392099999998 Cl
atom 10.2730209499999994 4.8345153300000003 8.6204908699999994 Na
atom 13.0931773000000007 4.9294074800000001 8.8222708999999995 Cl
atom 13.1447403499999993 2.1604672100000002 8.6579314499999995 Na
atom 10.3637178300000006 2.1377309000000002 8.8893488000000005 Cl
atom 13.1541379000000003 4.9533113699999998 6.1619292100000003 Na
atom 10.2412627900000004 4.9725875799999999 6.0506868100000002 Cl
atom 10.3465156700000005 7.7090239900000004 5.9755125299999996 Na
atom 13.1891735299999997 7.7145516900000004 5.9801321200000004 Cl
atom 10.2732615000000003 10.4950625800000008 8.4254721700000008 Na
atom 13.2704283600000004 10.5986829300000007 8.5809429900000005 Cl
atom 12.9915584099999997 7.9096683700000003 8.5229789999999994 Na
atom 10.2515896499999997 7.8905919600000001 8.7490119300000000 Cl
atom 13.0776784900000003 10.4262001299999998 5.8360874699999998 Na
atom 10.4361458999999996 10.4391341799999999 5.6863837999999998 Cl
atom 15.9796422899999992 13.0754068599999993 5.7519830000000001 Na
atom 18.9085334600000010 13.2115690099999998 5.6221320600000002 Cl
atom 16.0942424899999992 15.9653655099999998 8.4974144700000007 Na
atom 18.8950807300000001 16.0982653400000011 8.4351769399999998 Cl
atom 18.7881705500000002 13.2607924500000003 8.2447404899999999 Na
atom 16.1741664999999983 13.1868637199999998 8.5783046699999996 Cl
atom 18.7898161799999990 16.0556444599999999 5.6570013399999999 Na
atom 16.1117796599999998 15.9055136600000004 5.7205437300000002 Cl
atom 16.1174139600000004 18.8136535699999996 5.9083523199999997 Na
atom 18.9823039000000016 18.8574416199999995 5.6273331799999999 Cl
atom 15.9300223499999998 21.7652163099999996 8.6569947000000003 Na
atom 18.9342906000000006 21.7172701299999993 8.6079349100000009 Cl
atom 18.9186192400000017 18.8309640999999992 8.2546177400000005 Na
atom 16.1750689200000011 18.8965071699999996 8.5960704299999993 Cl
atom 18.8662518000000006 21.6385477199999983 5.9286088200000000 Na
atom 16.0305456399999997 21.7019499300000014 5.9350272000000004 Cl
atom 15.9900499200000006 24.5483424200000009 5.9075449300000002 Na
atom 18.9208099599999997 24.5583211000000006 5.8487875200000001 Cl
atom 15.8692834900000008 27.6731737100000004 8.4991536100000005 Na
atom 18.7460848899999988 27.5313887100000017 8.6957012599999999 Cl
atom 18.7781264999999991 24.6965631799999983 8.5651785300000007 Na
atom 15.9678701699999994 24.7966867399999984 8.7858385299999995 Cl
atom 18.9288628099999983 27.4233059499999996 5.7410712300000002 Na
atom 16.1663615599999986 27.3769010000000002 5.8002286800000000 Cl
atom 16.1895808099999989 30.5860817199999993 5.7539174199999996 Na
atom 18.8838056999999999 30.2964363399999996 5.7807909200000003 Cl
atom 16.0904317200000015 33.1662819299999967 8.4672151800000002 Na
atom 18.9006096700000015 33.0339928599999979 8.5341966199999995 Cl
atom 18.8554521299999998 30.2518574200000003 8.5316092700000006 Na
atom 16.0128297400000008 30.4443716100000010 8.5377407600000002 Cl
atom 18.8431256100000013 33.3203142300000010 5.7096755000000003 Na
atom 16.1455395800000012 33.4022016699999966 5.7228457700000002 Cl
atom 15.9561071200000004 36.1292679100000029 5.8923259899999998 Na
atom 18.8615682199999988 36.3731390100000027 5.6921273899999996 Cl
atom 16.0313555000000001 38.8455697699999973 8.5614021200000003 Na
atom 18.7931743500000010 38.8490209400000026 8.7110071599999994 Cl
atom 18.8418352899999988 35.9453964200000016 8.3902951500000000 Na
atom 15.9447251500000000 36.1076782600000001 8.7346438299999996 Cl
atom 18.7918986100000005 38.9536178299999989 5.9209278799999998 Na