#===============================================================================
# Created using the Atomic Simulation Environment (ASE)

# Tue Dec 23 22:26:05 2025

#=======================================================
lattice_vector 28.1999999999999993 0.0000000000000000 0.0000000000000000 
lattice_vector 0.0000000000000000 39.4799999999999969 0.0000000000000000 
lattice_vector 0.0000000000000000 0.0000000000000000 62.3296083400000001 
atom 7.4989998499999997 14.8097789599999992 0.0839353100000000 Au
atom 10.3114052899999997 14.7959773200000004 0.0345178800000000 Au
atom 13.1023342300000003 14.8144629699999992 0.0492451400000000 Au
atom 15.9832164100000007 14.8643833200000000 -0.0474635200000000 Au
atom 18.7855548299999988 14.8381251100000000 -0.0128742600000000 Au
atom 21.6380690099999988 14.8255639800000001 -0.0611479200000000 Au
atom 24.4580683299999997 14.8316134000000002 -0.0308735200000000 Au
atom 27.2373648099999990 14.8574059900000002 -0.0511519300000000 Au
atom 1.8485332800000001 14.8320302099999992 -0.0102439300000000 Au
atom 4.6961768599999996 14.8032456000000003 -0.0049852300000000 Au
atom 8.9160229199999996 17.2650609000000017 0.0527147900000000 Au
atom 11.6927315299999997 17.3016100699999988 0.0310063700000000 Au
atom 14.4889009000000009 17.2749694500000004 0.0185503500000000 Au
atom 17.3773908900000009 17.2955736999999985 0.0592512000000000 Au
atom 20.1515697299999985 17.2815037300000007 0.1116454600000000 Au
atom 23.0060699699999986 17.2595348000000008 0.0239803000000000 Au
atom 25.8090142699999987 17.3354874899999984 0.0135227300000000 Au
atom 0.4836328500000000 17.3068573999999984 0.0398199800000000 Au
atom 3.2617773799999998 17.2829457300000016 -0.0253749900000000 Au
atom 6.0882776900000000 17.2797881999999987 0.0470036600000000 Au
atom 7.5261407299999998 19.7183389799999986 0.1930741700000000 Au
atom 10.3242203200000002 19.8014927699999994 -0.0098620500000000 Au
atom 13.1249611500000007 19.7634693100000014 0.1431734600000000 Au
atom 15.9445582100000003 19.7699248300000008 0.0406001200000000 Au
atom 18.7550349199999999 19.7474116899999999 0.0858372400000000 Au
atom 21.5797252800000017 19.7183214999999983 0.0324160100000000 Au
atom 24.3832932000000007 19.7251455600000014 0.1374094200000000 Au
atom 27.2127225599999996 19.7758922300000002 -0.0145496900000000 Au
atom 1.8560322499999999 19.7965189799999983 0.1978587400000000 Au
atom 4.6686071800000004 19.7692900800000011 0.0549611500000000 Au
atom 8.8923134800000003 22.2656314699999989 0.0944319400000000 Au
atom 11.7461124500000000 22.2149069700000013 0.0688020200000000 Au
atom 14.5393412400000006 22.1820132299999990 0.1069222800000000 Au
atom 17.3852037000000017 22.1920191799999991 0.0546841000000000 Au
atom 20.2212488700000002 22.2036733400000017 0.0408691100000000 Au
atom 22.9903485299999986 22.2235663099999989 0.0251697000000000 Au
atom 25.8179984199999986 22.1952449899999991 0.0522643600000000 Au
atom 0.4264634400000000 22.1985812799999991 0.0646727500000000 Au
atom 3.2829637599999999 22.2041777399999987 0.1749108800000000 Au
atom 6.0880348099999999 22.2047573199999988 0.1179226500000000 Au
atom 7.4806488299999998 24.6846356100000008 0.0841196200000000 Au
atom 10.3238954399999994 24.7083772300000000 0.0887095600000000 Au
atom 13.1718735700000007 24.6730971799999992 0.0783105300000000 Au
atom 15.9755966600000008 24.6792664100000003 0.0244664900000000 Au
atom 18.8345340599999993 24.6522052400000007 0.0925115400000000 Au
atom 21.6072147100000009 24.7002909499999994 0.0089120400000000 Au
atom 24.4244395899999986 24.6267096700000003 0.1227849900000000 Au
atom 27.2532123999999989 24.6697608700000011 0.0993413000000000 Au
atom 1.8465326200000001 24.6596883099999999 0.0600051900000000 Au
atom 4.6825030300000003 24.6562942000000014 0.0778122000000000 Au
atom 8.8835513499999994 27.1192932599999992 0.0912158300000000 Au
atom 11.7090990799999997 27.1621632499999990 0.0409238800000000 Au
atom 14.5497634300000005 27.1523605900000007 -0.0136090200000000 Au
atom 17.3760184799999990 27.1410247600000005 -0.1035861500000000 Au
atom 20.1744109800000011 27.1211268899999993 0.0080246200000000 Au
atom 23.0099854499999985 27.1178718699999983 0.1119761200000000 Au
atom 25.8403397599999991 27.1363481499999999 0.1257547600000000 Au
atom 0.4234131500000000 27.1596265099999989 0.1231496000000000 Au
atom 3.2425129500000001 27.1423256200000012 0.0505017200000000 Au
atom 6.0593464900000003 27.1509034100000015 0.0822239900000000 Au
atom 7.4919742999999999 29.6382899900000005 0.0071861500000000 Au
atom 10.3076142599999994 29.5960922900000014 -0.0237257900000000 Au
atom 13.1262787599999999 29.6471149599999997 -0.0392627300000000 Au
atom 15.9654553200000002 29.6121226499999999 0.0280735400000000 Au
atom 18.7645463399999990 29.6524771099999995 0.0652572900000000 Au
atom 21.5751263299999998 29.5658609199999987 0.0276124700000000 Au
atom 24.4240392300000018 29.5683424099999996 0.0084879700000000 Au
atom 27.2409053199999995 29.6409529800000016 0.0170199800000000 Au
atom 1.8722480200000000 29.6258815300000009 -0.0194298300000000 Au
atom 4.6894990999999999 29.6144614799999992 0.0397485600000000 Au
atom 8.9323492200000008 32.0776534499999997 0.0731931100000000 Au
atom 11.7437696000000003 32.1073364800000007 0.0019172800000000 Au
atom 14.5520834099999998 32.0986227300000024 -0.0406701900000000 Au
atom 17.3348995200000005 32.1144720899999996 -0.0075499900000000 Au
atom 20.1880286799999986 32.0948720399999985 0.0704282400000000 Au
atom 22.9875510100000007 32.0496720699999997 -0.1348413000000000 Au
atom 25.8110915399999996 32.0965714100000028 0.0132802800000000 Au
atom 0.4673416300000000 32.0635605499999983 -0.0313100000000000 Au
atom 3.2711729400000000 32.0524960899999982 -0.0298364000000000 Au
atom 6.1023489000000000 32.0793880499999986 -0.0435113100000000 Au
atom 7.4739614200000002 34.5320540199999968 0.0479303700000000 Au
atom 10.3323339599999997 34.5581963799999983 0.0416172000000000 Au
atom 13.1725901600000004 34.5940548299999975 0.0402512500000000 Au
atom 15.9772451100000001 34.5793122700000026 -0.0204373900000000 Au
atom 18.7951458000000002 34.5639202200000000 -0.0206784400000000 Au
atom 21.6110615099999990 34.5315194599999984 0.0503981400000000 Au
atom 24.4381166400000005 34.5617126400000032 0.0457229800000000 Au
atom 27.2554127500000014 34.5093465200000011 -0.0346489600000000 Au
atom 1.8566690400000001 34.5752534900000015 -0.0038844600000000 Au
atom 4.6220300400000003 34.5486957299999986 0.0606827900000000 Au
atom 8.9106636500000000 36.9993465700000002 0.0549620400000000 Au
atom 11.7436351899999991 37.0855994499999966 -0.0882414000000000 Au
atom 14.5744441899999995 37.0541998899999996 0.0208490300000000 Au
atom 17.3676437499999992 37.0231215100000028 0.0350421200000000 Au
atom 20.1857854199999984 37.0325962300000029 0.0853481800000000 Au
atom 23.0156591900000009 37.0551071100000016 -0.0484084900000000 Au
atom 25.8643962499999986 37.0032319299999983 0.0204013300000000 Au
atom 0.4363041100000000 37.0685892099999990 0.0062674000000000 Au
atom 3.2616412600000002 37.0259523799999997 0.0678581800000000 Au
atom 6.0658004400000003 37.0099765599999984 0.0613942400000000 Au
atom 7.4529345700000000 0.0100099600000000 0.0574681700000000 Au
atom 10.3019643799999994 -0.0083055100000000 0.0660931200000000 Au
atom 13.1681056200000004 0.0794824200000000 0.0604284100000000 Au
atom 16.0025575999999994 0.0864259900000000 0.1574580700000000 Au
atom 18.7937691999999998 0.0397358500000000 0.0843365000000000 Au
atom 21.5889235100000008 0.0438035200000000 0.1027506200000000 Au
atom 24.4134021200000007 0.0566462500000000 0.0732261500000000 Au
atom 27.2145707500000000 0.0385035400000000 0.0969089000000000 Au
atom 1.8615190300000000 0.0383426000000000 0.1045446800000000 Au
atom 4.6868593699999996 0.0299088700000000 0.0566366200000000 Au
atom 8.8779326600000008 2.4655935300000000 0.0278207700000000 Au
atom 11.7360374800000002 2.4833943399999998 0.0495787100000000 Au
atom 14.6025810600000003 2.5145847099999998 0.0501472400000000 Au
atom 17.4142059600000003 2.5041193599999998 0.1303952100000000 Au
atom 20.1959479900000005 2.5016516200000001 0.0010742300000000 Au
atom 23.0160431999999986 2.5046873299999999 -0.0212392500000000 Au
atom 25.8582467999999999 2.5136102899999999 0.0568979400000000 Au
atom 0.4907095000000000 2.5229820599999999 0.1168025200000000 Au
atom 3.2798736700000002 2.4830896500000001 0.0812606300000000 Au
atom 6.1040302700000000 2.5047349699999999 0.0683768200000000 Au
atom 7.4620697399999996 4.9643606800000004 0.0502578900000000 Au
atom 10.3094242400000002 4.9628806699999997 0.1307850700000000 Au
atom 13.1543336100000001 4.9682430799999997 0.1042548500000000 Au
atom 15.9971404400000008 4.9491397099999999 0.1430422000000000 Au
atom 18.7878458700000017 4.9722980600000000 0.1285507000000000 Au
atom 21.6241655500000007 4.9814753999999999 0.1063188200000000 Au
atom 24.4221508699999994 4.9890526499999996 0.0651098000000000 Au
atom 27.2264700799999986 4.9621182099999999 0.0904552400000000 Au
atom 1.8911042100000000 4.9820099400000002 0.1576486400000000 Au
atom 4.6839091200000000 4.9434357799999997 0.1036441700000000 Au
atom 8.8990891399999992 7.4358730700000004 0.0173236300000000 Au
atom 11.7174130900000009 7.4076288200000002 0.0337966200000000 Au
atom 14.5765455900000003 7.3900429799999996 0.0812440600000000 Au
atom 17.4000788600000007 7.4172069900000004 0.0582239900000000 Au
atom 20.2039124500000007 7.4503691500000002 0.0787271100000000 Au
atom 23.0376656000000004 7.4228444700000002 0.1116770100000000 Au
atom 25.8063145499999997 7.4150583499999998 0.0494502400000000 Au
atom 0.4419531300000000 7.4037199300000003 0.0299511900000000 Au
atom 3.2607591700000000 7.4449680999999996 0.0285603200000000 Au
atom 6.0673112400000004 7.4251610599999998 0.0664635200000000 Au
atom 7.5179834100000003 9.8618907599999996 -0.0150696600000000 Au
atom 10.3423823600000002 9.8655026899999996 -0.0450262900000000 Au
atom 13.1900708400000006 9.8506995400000008 0.0429614200000000 Au
atom 15.9950319800000003 9.8666820699999995 -0.0270637500000000 Au
atom 18.7961824700000015 9.8559657499999993 0.0050128000000000 Au
atom 21.6233641900000002 9.9243405700000000 0.0317034000000000 Au
atom 24.4536952700000008 9.8724831000000002 0.0511021000000000 Au
atom 27.1883025300000014 9.9193616200000001 0.0710788200000000 Au
atom 1.8089578399999999 9.8840486599999995 0.0914977200000000 Au
atom 4.6412798300000002 9.9248023100000005 0.0166504200000000 Au
atom 8.9578012099999995 12.3187595600000002 -0.0442322100000000 Au
atom 11.7507383599999997 12.3185498500000001 -0.1200822900000000 Au
atom 14.6108750599999997 12.3581991900000006 -0.0226050800000000 Au
atom 17.4048607100000012 12.3539236999999993 0.0060380700000000 Au
atom 20.2248989500000000 12.3864424599999996 0.0134207400000000 Au
atom 23.0281651799999985 12.3694937500000002 -0.0765770600000000 Au
atom 25.8355998000000007 12.3584441999999992 -0.0371210200000000 Au
atom 0.4584760800000000 12.3818429900000009 -0.0361988000000000 Au
atom 3.2484181900000002 12.3432517700000002 0.0056267100000000 Au
atom 6.1194819400000000 12.3247210200000001 0.0416357400000000 Au
atom 7.5469823800000002 13.1463094999999992 2.6023672800000002 Au
atom 10.3483179700000001 13.1943672000000003 2.4601988399999999 Au
atom 13.1390580200000002 13.1679572799999995 2.4426206300000000 Au
atom 15.9549738899999998 13.1644866599999997 2.5303516300000002 Au
atom 18.7243394700000003 13.1813596200000003 2.7161291900000002 Au
atom 21.5617365499999991 13.1648483299999999 2.5423361600000001 Au
atom 24.3868619899999999 13.2105259999999998 2.6720068800000001 Au
atom 27.2396618799999999 13.2194146299999993 2.5049128100000000 Au
atom 1.8629364799999999 13.1696597700000009 2.6627623499999999 Au
atom 4.7033748400000004 13.1791401700000002 2.5780606300000000 Au
atom 8.8824029699999993 15.6230920399999995 2.6502576300000000 Au
atom 11.7427083499999991 15.6495323499999994 2.6706165999999998 Au
atom 14.5285581399999995 15.6488673699999996 2.5877533900000000 Au
atom 17.3503263799999985 15.6374420599999997 2.6301523400000000 Au
atom 20.1744800300000016 15.6163468000000005 2.6273397900000002 Au
atom 22.9859590099999984 15.6152564799999993 2.5675977099999998 Au
atom 25.8369942100000003 15.6608723600000008 2.5956753699999999 Au
atom 0.4969883600000000 15.6584402499999999 2.6196898599999998 Au
atom 3.2810046399999999 15.6442078799999997 2.6258895899999999 Au
atom 6.1177856500000001 15.6149280099999999 2.6175459900000000 Au
atom 7.4830583400000004 18.0480271899999991 2.6845809900000002 Au
atom 10.2848311999999993 18.1399006800000002 2.3995022900000000 Au
atom 13.1290815199999997 18.0643244199999984 2.5778627599999999 Au
atom 15.9394752999999998 18.0968068200000012 2.4280816900000000 Au
atom 18.7718015300000012 18.0719393500000010 2.6889933099999999 Au
atom 21.6189956700000003 18.0964430900000011 2.6775826299999999 Au
atom 24.4293568500000013 18.0792509599999995 2.6978963800000000 Au
atom 27.2376124600000011 18.1378759100000018 2.5575019100000000 Au
atom 1.9088259599999999 18.1007860399999991 2.6733873300000002 Au
atom 4.6733197500000001 18.0833072699999988 2.5884005999999999 Au
atom 8.9194197699999993 20.5400753499999986 2.7196464100000002 Au
atom 11.7137664000000008 20.5770490600000002 2.6502345900000002 Au
atom 14.5429717699999994 20.5835999399999992 2.6085365700000001 Au
atom 17.3996619599999995 20.5209767499999991 2.6733089400000001 Au
atom 20.1798474100000007 20.5390805599999986 2.5952131100000000 Au
atom 23.0233940600000011 20.5531189599999990 2.6927664899999999 Au
atom 25.8329188800000011 20.5612671599999999 2.7030062400000001 Au
atom 0.4759559700000000 20.5415668099999991 2.7349925700000002 Au
atom 3.2799550900000001 20.5944158000000002 2.8163617300000001 Au
atom 6.0525996500000003 20.5768433299999991 2.6933362399999998 Au
atom 7.5012198600000000 23.0246738600000000 2.7204421299999999 Au
atom 10.3520631900000009 23.0477884700000004 2.6590260400000001 Au
atom 13.1302473899999992 23.0971055300000003 2.5388971400000000 Au
atom 15.9567267899999994 23.0564451099999985 2.5284687199999998 Au
atom 18.7388068700000012 23.0104434600000012 2.5902768699999998 Au
atom 21.6042362899999993 23.0205885799999983 2.5629461899999999 Au
atom 24.4281738299999986 23.0489033399999990 2.6977921000000000 Au
atom 27.2549591900000010 23.0341744900000016 2.6564102200000002 Au
atom 1.8259249399999999 23.0345612200000005 2.7341028000000001 Au
atom 4.6459777600000001 23.1096012600000016 2.7367732199999999 Au
atom 8.9141774999999992 25.4987310200000010 2.6740305100000001 Au
atom 11.7264654299999993 25.5704790899999992 2.6584476600000002 Au
atom 14.5676426400000008 25.5841586099999994 2.5961201500000000 Au
atom 17.3780281199999997 25.5397369599999990 2.5706988499999999 Au
atom 20.2066636799999984 25.5670786800000016 2.6182426300000001 Au
atom 22.9882953299999997 25.4760251099999984 2.6451891900000000 Au
atom 25.8528092100000002 25.5340174299999987 2.6887572500000001 Au
atom 0.4702503500000000 25.5136862899999990 2.7093149900000002 Au
atom 3.2772325200000001 25.5600706200000012 2.6816191599999999 Au
atom 6.0721674999999999 25.5264470500000016 2.6852407100000000 Au
atom 7.5126405700000003 27.9676117399999988 2.5753267800000001 Au
atom 10.3063701099999996 28.0059892499999989 2.7332594100000001 Au
atom 13.1396029500000004 28.0366914399999985 2.5394368900000002 Au
atom 15.9603107699999995 28.0061601700000011 2.6500786000000001 Au
atom 18.7900345199999990 28.0204463600000011 2.5525460899999999 Au
atom 21.6063217700000010 27.9847849199999992 2.7302214700000000 Au
atom 24.4121537400000008 27.9692830100000016 2.6711710499999999 Au
atom 27.2569168399999988 28.0025177200000002 2.7225015699999999 Au
atom 1.8973891100000000 27.9996999399999993 2.5936924600000002 Au
atom 4.6808501900000001 28.0256865899999994 2.7739170500000001 Au
atom 8.9000789299999994 30.4616187200000006 2.6467416799999999 Au
atom 11.7063867500000001 30.4516797699999984 2.5921477300000002 Au
atom 14.5571932900000007 30.4782758499999993 2.5923248499999998 Au
atom 17.3828105999999991 30.4668488300000000 2.6385424199999998 Au
atom 20.2207074499999990 30.4799297399999993 2.6611727400000000 Au
atom 23.0439270100000009 30.4615582099999997 2.5537289599999999 Au
atom 25.8375965299999990 30.4649340399999993 2.6849531899999999 Au
atom 0.4589831300000000 30.4470893499999988 2.6516374100000002 Au
atom 3.2953204700000001 30.4575762899999987 2.5892786200000000 Au
atom 6.1294486499999996 30.4702361199999991 2.6466481599999998 Au
atom 7.5377894300000001 32.9530368300000021 2.5899055700000000 Au
atom 10.3439174400000002 32.9314488899999986 2.7301271200000001 Au
atom 13.1577792299999992 32.9348589399999980 2.6023345500000001 Au
atom 15.9616697199999997 32.9402966299999989 2.6810481799999999 Au
atom 18.7861919200000003 32.9138668699999997 2.5918375899999999 Au
atom 21.6475909000000009 32.9062401199999996 2.6495818999999998 Au
atom 24.4272127800000014 32.9496690799999996 2.5722849499999998 Au
atom 27.2151346399999987 32.8994129200000032 2.6778942699999999 Au
atom 1.8828123400000001 32.8957263599999976 2.5423237200000002 Au
atom 4.7038558300000002 32.8975005300000021 2.6292352100000000 Au
atom 8.9478474400000003 35.4119800100000006 2.6883332599999998 Au
atom 11.7567598800000006 35.4406013199999990 2.5740162199999999 Au
atom 14.5917416299999996 35.4278088800000006 2.6357344800000000 Au
atom 17.3727441399999982 35.3782314199999988 2.6485867999999999 Au
atom 20.1837318199999984 35.3623752100000033 2.6344856299999999 Au
atom 23.0313739400000017 35.4014168900000001 2.6082712500000000 Au
atom 25.8383299199999996 35.3794952300000034 2.6225409499999999 Au
atom 0.4120598300000000 35.3598209999999966 2.5970323500000001 Au
atom 3.2320777700000001 35.3836695700000021 2.6749165499999998 Au
atom 6.0872758500000002 35.3705643600000030 2.6526480499999998 Au
atom 7.5502310399999999 37.8587100000000021 2.7179483800000002 Au
atom 10.3360006500000008 37.8678859799999969 2.6118336599999998 Au
atom 13.1605715500000002 37.9114135900000022 2.5652605500000001 Au
atom 15.9882293299999994 37.8329921899999988 2.7296472800000000 Au
atom 18.7975843500000011 37.8731135000000023 2.6745930699999998 Au
atom 21.6120917299999995 37.8220987999999991 2.6836885100000001 Au
atom 24.3854929200000008 37.8634636600000007 2.5263255600000001 Au
atom 27.2137222500000000 37.8394474999999986 2.6211112399999998 Au
atom 1.8585440300000000 37.8599126599999991 2.6664974099999998 Au
atom 4.7103568300000003 37.8366174100000023 2.6315623000000001 Au
atom 8.9112585200000005 0.8710533499999999 2.7137910800000000 Au
atom 11.7344557500000004 0.8607427100000000 2.7434506299999999 Au
atom 14.5987546699999999 0.8490348500000000 2.7169436299999998 Au
atom 17.3869499300000001 0.8455598700000000 2.7627072500000001 Au
atom 20.2064865699999991 0.8572191500000000 2.7011514700000001 Au
atom 22.9875106600000016 0.8465152600000000 2.6774793899999998 Au
atom 25.8207075300000000 0.8912311400000000 2.7553486700000001 Au
atom 0.4527475100000000 0.8651569200000000 2.7034726600000001 Au
atom 3.2891441900000000 0.8611325300000000 2.7428101900000001 Au
atom 6.1018458999999998 0.8273160200000000 2.6548658000000001 Au
atom 7.4924061799999997 3.3330329500000002 2.6086600400000002 Au
atom 10.3144568599999999 3.3123156100000002 2.6565899200000000 Au
atom 13.1544629600000000 3.3356896500000000 2.7022905000000002 Au
atom 15.9503699700000006 3.3213559099999999 2.6832747600000002 Au
atom 18.7900971699999992 3.3429690000000001 2.6779002200000002 Au
atom 21.6214862699999983 3.3184710499999999 2.6557413400000001 Au
atom 24.4061031300000018 3.3558426699999999 2.6857382599999999 Au
atom 27.2207881200000017 3.3401750400000001 2.7131304799999998 Au
atom 1.8614379500000000 3.3429130800000002 2.7561261300000002 Au
atom 4.6632353200000001 3.3177203099999999 2.7122282100000001 Au
atom 8.9192080899999997 5.7792300599999997 2.7363448600000000 Au
atom 11.7026990800000004 5.8261666300000003 2.7611424800000002 Au
atom 14.5115388700000008 5.8015943999999999 2.7318181099999999 Au
atom 17.3750248800000016 5.8064565699999999 2.7786496899999999 Au
atom 20.2138794799999992 5.8275982800000001 2.7349017500000001 Au
atom 23.0103672099999983 5.8245924599999999 2.7412196600000001 Au
atom 25.8097421099999984 5.8336099700000004 2.7214656800000001 Au
atom 0.4597954200000000 5.8069258799999997 2.7694356700000000 Au
atom 3.2638479000000000 5.8060697399999999 2.7620788900000002 Au
atom 6.1245564600000000 5.7974949100000002 2.7135187500000000 Au
atom 7.4963330600000004 8.2431836199999999 2.6829295399999999 Au
atom 10.2794711000000003 8.2794293299999993 2.6120808100000001 Au
atom 13.0995313299999996 8.2994711999999993 2.7066411600000002 Au
atom 15.9401654599999993 8.2639884000000006 2.6666321200000001 Au
atom 18.7449150300000014 8.2665419900000003 2.7577375200000001 Au
atom 21.5804597200000003 8.3108049400000006 2.6452512600000002 Au
atom 24.4267045799999991 8.3015780800000005 2.7973628800000001 Au
atom 27.2322670799999997 8.2989319300000002 2.5702231499999999 Au
atom 1.8175397099999999 8.2379174299999995 2.7585634699999999 Au
atom 4.6764127400000000 8.2653692799999998 2.6340005899999999 Au
atom 8.8987059300000002 10.7424552500000008 2.6563071800000002 Au
atom 11.6954366800000003 10.7497993699999999 2.6081055900000001 Au
atom 14.4652307699999998 10.7323777899999993 2.6284935100000002 Au
atom 17.3292722099999992 10.6937178300000006 2.5768631700000002 Au
atom 20.1880315400000008 10.7349040799999997 2.6146952200000002 Au
atom 23.0491655800000004 10.7936070399999995 2.6301022399999998 Au
atom 25.8408712200000004 10.7798943600000001 2.6499107400000002 Au
atom 0.4260908900000000 10.7614985999999995 2.6557067200000000 Au
atom 3.2481780200000001 10.7257239000000002 2.6723101800000002 Au
atom 6.0578272000000002 10.7048947800000001 2.6299566699999999 Au
atom 7.2009386099999997 13.0671437800000003 5.7797863600000001 Cl
atom 7.4373618700000002 16.0913317000000013 8.2287891399999999 Cl
atom 7.4870859300000001 13.1724816199999992 8.0089284099999993 Na
atom 7.2092767000000002 15.9265457000000001 5.5596194499999996 Na
atom 7.1821726100000003 18.9205571799999994 5.7611031700000002 Cl
atom 7.3983638999999997 21.7310651800000016 8.4742230999999997 Cl
atom 7.3062359800000003 18.8342341500000003 7.9637854299999997 Na
atom 7.2155545900000000 21.7336980199999985 5.7566775600000000 Na
atom 7.3065954700000004 24.5239596300000002 5.5815991100000000 Cl
atom 7.3820110100000003 27.3637366899999996 8.5575077099999994 Cl
atom 7.4013911700000001 24.4669915399999987 8.4538876700000003 Na
atom 7.3292558000000003 27.2960016199999984 5.7949781099999997 Na
atom 7.4105181699999996 30.2226807099999988 5.5724256600000004 Cl
atom 7.4910527000000000 33.0112071799999995 8.5526903999999995 Cl
atom 7.4915011900000001 30.0994631300000002 8.5139401400000008 Na
atom 7.4977187100000000 32.9791390800000030 5.8186108399999998 Na
atom 7.5527317900000002 35.7419563400000015 5.6120609999999997 Cl
atom 7.5042416699999999 38.5848875699999994 8.6184613900000002 Cl
atom 7.4906624800000001 35.7628354200000018 8.4509783899999995 Na
atom 7.5328842500000004 38.6426927199999994 5.8533548700000004 Na
atom 7.4754768900000004 1.9314873800000001 5.8161717499999996 Cl
atom 7.4277068000000002 4.6534736199999998 8.6198040000000002 Cl
atom 7.5664918800000001 1.8637021700000000 8.4821899500000004 Na
atom 7.4904797600000004 4.9607285699999997 5.8011593899999996 Na
atom 7.5104519800000000 7.2047526700000004 5.7401886800000002 Cl
atom 7.4217747400000000 10.3080879500000009 8.2307319000000003 Cl
atom 7.4922472100000004 7.5164318000000003 8.4442144199999998 Na
atom 7.3757495300000002 10.2560074599999993 5.8584666500000004 Na
atom 10.2010974200000000 12.9833337199999992 5.6004680799999997 Na
atom 13.2390015299999995 13.1988036799999993 5.5885828899999996 Cl
atom 10.2372242100000008 16.1747821800000011 7.9114547999999996 Na
atom 13.1150216000000004 16.0130285500000014 8.2056991700000008 Cl
atom 13.1711926199999994 13.1433851700000002 8.4452470500000008 Na
atom 10.4048172300000008 13.2773727600000004 8.2844689400000000 Cl
atom 13.0964799000000003 15.8921666500000001 5.3880731400000004 Na
atom 9.9634280799999999 16.0273073799999999 5.2356667400000001 Cl
atom 9.9602422100000005 19.1392130899999984 5.4214921599999997 Na
atom 13.1359454499999995 18.9742133099999997 5.4192678000000001 Cl
atom 10.3994087499999992 21.7066176599999991 8.0425240200000001 Na
atom 13.1037102599999997 21.7934347899999992 7.6748222100000003 Cl
atom 13.1921350499999992 18.8358370800000010 8.0625314899999996 Na
atom 10.4134825200000005 18.7672084999999988 8.1313271000000000 Cl
atom 13.0069029300000008 21.8853816999999999 5.8103853299999999 Na
atom 9.9625457900000001 21.9556000000000004 5.3272776400000001 Cl
atom 10.0696115200000005 24.7705178900000007 5.6688022499999997 Na
atom 12.8906560900000002 24.7949025100000000 5.4079686599999999 Cl
atom 10.2861587799999992 27.3548959600000003 8.2073560400000005 Na
atom 13.3091169199999992 27.0752314900000002 8.4112986200000002 Cl
atom 13.1700799699999997 24.5213337100000004 8.1991124800000001 Na
atom 10.3038448799999998 24.6109272300000015 8.3924892700000004 Cl
atom 13.0336095000000007 27.2216629700000006 5.7034298699999999 Na
atom 10.1605201899999997 27.5365519100000000 5.8087226500000000 Cl
atom 10.2449186599999997 30.2871598300000002 5.8039674200000002 Na
atom 13.0464664500000005 30.4936287399999983 5.8178871499999998 Cl
atom 10.2956676700000003 32.9518239699999995 8.8520695000000007 Na
atom 13.1412791999999996 33.0215898300000035 8.2448172999999993 Cl
atom 13.0933463099999994 30.0518217599999993 8.2261523499999996 Na
atom 10.3398153399999995 30.1559258700000008 8.5052291100000001 Cl
atom 13.1116188800000000 33.0393036899999970 6.1611256399999998 Na
atom 10.2675678000000001 33.0706495700000005 5.2760102900000003 Cl
atom 10.3278755199999992 35.8253628699999993 5.7742361700000000 Na
atom 13.1444496100000006 35.7510802799999965 5.7552688700000001 Cl
atom 10.3374255900000005 38.5339760600000005 8.4152974900000004 Na
atom 13.1093402000000001 38.5204777599999986 8.6591176900000004 Cl
atom 13.1727831799999997 35.7393377000000001 8.4296573299999995 Na
atom 10.2381973500000001 35.7555179100000018 8.5550797099999993 Cl
atom 13.1714099900000008 38.5719019499999973 5.9123944799999997 Na
atom 10.3191280299999999 38.5796539400000000 5.6915637800000001 Cl
atom 10.3339998499999997 1.8804450800000001 5.9362032999999998 Na
atom 13.1769460499999997 1.8489847800000001 5.7218830000000001 Cl
atom 10.3169899899999997 4.5763452600000001 8.4790033999999999 Na
atom 13.1642602499999999 4.6045365699999996 8.6706527700000002 Cl
atom 13.1928391400000002 1.8472240600000001 8.6352227700000004 Na
atom 10.3008511800000004 1.8996417000000001 8.7192679000000002 Cl
atom 13.1750523099999999 4.5835201000000003 5.9080169500000004 Na
atom 10.3005514799999993 4.6386453799999998 5.7730861300000003 Cl
atom 10.3354350900000007 7.3808319700000000 5.8979839600000004 Na
atom 13.1300780100000001 7.3712776699999996 5.8974968800000003 Cl
atom 10.5037602999999997 10.4217760300000002 8.4903890099999995 Na
atom 13.1619015400000006 10.4455343200000002 8.3986191899999998 Cl
atom 13.1609999999999996 7.4404958800000003 8.1914244499999995 Na
atom 10.2980367200000007 7.2859795900000002 8.6059157499999994 Cl
atom 13.1661276800000007 9.9774195300000006 5.9868745399999996 Na
atom 10.1879436800000001 10.1240306699999998 5.8398255900000002 Cl
atom 16.0658730900000002 12.9586266299999995 5.7049942199999997 Na
atom 19.0019793800000016 13.0346741799999997 5.8409699100000001 Cl
atom 15.9625951599999993 16.0212964299999996 8.0500501100000008 Na
atom 18.7794987199999994 15.8566207899999991 8.4273120400000003 Cl
atom 18.7271669699999990 13.0385115099999993 8.1975559499999999 Na
atom 15.7500797000000006 13.2253606999999995 8.4111839899999996 Cl
atom 18.9915957000000013 15.8303000800000007 5.6482944300000000 Na
atom 16.1429129099999997 15.8028808000000005 5.3321204800000004 Cl
atom 16.1611144899999992 18.5839941499999988 5.5211700400000003 Na
atom 19.0872333099999985 18.6227553099999987 5.6613862800000003 Cl
atom 15.9406375499999999 21.5647685100000004 7.6736506100000001 Na
atom 18.8105504299999993 21.6724125799999996 8.1029753800000002 Cl
atom 18.9650453399999996 18.6058777699999993 7.9759568300000003 Na
atom 15.9484831600000003 18.7787057900000001 8.1133674800000009 Cl
atom 19.3218477399999990 21.4128177199999996 5.4059886199999996 Na
atom 16.0820861599999994 21.5723347099999998 5.1483322300000003 Cl
atom 15.8573899100000002 24.6108699199999990 5.2529416700000002 Na
atom 19.4492664200000007 24.3516263500000001 5.3900628199999998 Cl
atom 16.0907073899999986 27.2663254500000001 8.1847554799999997 Na
atom 19.0137037699999993 27.2663710299999984 8.3835764299999997 Cl
atom 18.9300777899999986 24.0023505300000011 7.8375972300000001 Na
atom 15.9443271600000003 24.5741620099999984 8.4108224699999994 Cl
atom 19.0375960599999985 27.4046617800000014 5.3483934000000000 Na
atom 15.9530523399999993 27.4261030099999985 5.4497989499999999 Cl
atom 15.9875132200000003 30.2142668900000011 5.8423137499999998 Na
atom 18.8687031099999984 30.1375814099999992 5.9841841999999996 Cl
atom 15.9148611100000004 32.9073701800000009 8.8981655300000000 Na
atom 18.8225465900000017 32.8946580400000030 8.6927552800000001 Cl
atom 18.8137399000000016 29.8781568799999988 8.5387996899999994 Na
atom 15.8542989900000002 30.0548866600000011 8.5573653299999997 Cl
atom 18.8393879200000001 32.9107909000000021 5.9456650499999997 Na
atom 16.0529524300000013 32.9407433299999965 5.2925025899999998 Cl
atom 16.0103002799999992 35.7821222199999980 5.9055594899999999 Na
atom 18.8354050199999996 35.7283236700000018 5.6457530399999998 Cl
atom 15.9676875000000003 38.4888519000000002 8.4185727200000002 Na
atom 18.8215664099999991 38.4907423800000004 8.6146414000000000 Cl
atom 18.8662339099999983 35.7670638399999987 8.5529492499999993 Na
atom 15.9767381200000003 35.7269965999999997 8.6671299800000003 Cl
atom 18.8047227399999990 38.5177637199999978 5.8778354899999998 Na
atom 15.9602568399999996 38.5453667499999995 5.8448778600000004 Cl