#===============================================================================
# Created using the Atomic Simulation Environment (ASE)

# Tue Dec 23 22:26:29 2025

#=======================================================
lattice_vector 28.1999999999999993 0.0000000000000000 0.0000000000000000 
lattice_vector 0.0000000000000000 39.4799999999999969 0.0000000000000000 
lattice_vector 0.0000000000000000 0.0000000000000000 62.3296083400000001 
atom 7.5230237200000003 14.7726775099999994 0.0730959900000000 Au
atom 10.2372282099999996 14.8108601199999992 0.0543315700000000 Au
atom 13.2696659300000004 14.6860487000000006 0.0294368600000000 Au
atom 15.9459411000000006 14.8807830200000009 0.0579175300000000 Au
atom 18.7270635399999996 14.6860745399999999 0.1905020200000000 Au
atom 21.6296938300000008 14.8270841999999998 0.1085057000000000 Au
atom 24.2240618199999993 14.8807845600000004 -0.0713886900000000 Au
atom 27.3193610699999994 14.8262931200000008 -0.0898171000000000 Au
atom 1.9457999100000001 14.7870683799999991 0.0873151300000000 Au
atom 4.8705826500000002 14.6827970400000005 -0.1276162500000000 Au
atom 9.0311402500000000 17.4014219200000007 0.0343738900000000 Au
atom 11.7127576199999996 17.2775207699999989 -0.0008049200000000 Au
atom 14.4594015599999999 17.3463874999999987 -0.0439088300000000 Au
atom 17.5200579300000001 17.0403208600000013 0.0147678400000000 Au
atom 20.1259930699999998 17.3338720500000001 0.2709330400000000 Au
atom 23.0740716799999994 17.3451568000000016 0.1632935800000000 Au
atom 25.6604907400000002 17.3902715400000005 0.0268458800000000 Au
atom 0.3340485200000000 17.2474727399999992 0.0235010600000000 Au
atom 3.4403696199999998 17.3745901099999998 -0.0050118800000000 Au
atom 6.3385419000000001 17.3186468799999993 0.0606113300000000 Au
atom 7.5912660299999999 19.8457792399999988 0.3445911900000000 Au
atom 10.3783058300000004 19.8164713900000002 -0.0018779400000000 Au
atom 13.1182504299999998 19.6731479699999987 0.1559972700000000 Au
atom 15.9474684599999996 19.6840455299999988 0.0942802400000000 Au
atom 18.6847920199999997 19.7984878399999999 0.4124370900000000 Au
atom 21.6201833900000011 19.8872515700000001 -0.1702792400000000 Au
atom 24.4830033500000006 19.7632845000000010 -0.0415737800000000 Au
atom 27.2267639099999990 19.6448380399999998 -0.1180892500000000 Au
atom 2.0072294700000000 19.6091118199999990 0.0018845200000000 Au
atom 4.6293131599999997 19.8152818800000006 -0.0190283200000000 Au
atom 8.9045481800000008 22.1375577800000016 0.2733999600000000 Au
atom 11.7233759899999992 22.2734084000000010 0.1925430000000000 Au
atom 14.6476416500000006 22.1258422000000010 0.1733230800000000 Au
atom 17.3935821100000005 22.3359897200000006 0.0202102800000000 Au
atom 20.1039581900000002 22.1501356099999995 0.1845830700000000 Au
atom 23.1159759600000001 22.1947919400000018 0.1220941800000000 Au
atom 25.9395808099999989 22.1694474799999988 0.1594317600000000 Au
atom 0.4994275200000000 22.1688335099999989 -0.0348600600000000 Au
atom 3.2252166299999998 22.0638776800000009 -0.2269886300000000 Au
atom 6.0613795899999996 22.1497802700000008 0.2293001200000000 Au
atom 7.6020991100000002 24.6761449500000012 0.2650712200000000 Au
atom 10.3133859700000006 24.5850320599999996 0.1633527800000000 Au
atom 13.1068527400000008 24.6726073499999998 0.1974006200000000 Au
atom 15.9478383699999995 24.7882105499999987 0.2025492000000000 Au
atom 18.8519992800000011 24.5615539100000007 0.1500387000000000 Au
atom 21.6293779999999991 24.9158828200000002 0.1584322300000000 Au
atom 24.6189277599999983 24.6309859600000003 0.1138599900000000 Au
atom 27.3927557099999994 24.5460758500000011 0.1900427600000000 Au
atom 1.7215858700000000 24.6325770999999989 -0.1110061400000000 Au
atom 4.6096393200000003 24.5159407499999986 0.1874246400000000 Au
atom 9.0098856200000004 27.1491451400000017 -0.2912820400000000 Au
atom 11.6690612100000006 27.1622866599999995 0.0321395200000000 Au
atom 14.5719524200000006 27.3114083399999998 -0.1469276900000000 Au
atom 17.2426078099999991 27.2389391100000005 0.1919822400000000 Au
atom 20.1667524799999995 27.3188401700000014 0.0691254400000000 Au
atom 23.0173925200000014 27.2257980699999997 0.1019179700000000 Au
atom 25.7136195900000004 27.1482946699999985 0.0868446500000000 Au
atom 0.3790985400000000 27.2342280300000006 0.0914625500000000 Au
atom 3.4301842100000002 27.1013676399999994 0.0556443500000000 Au
atom 6.2383250700000001 27.0249332799999991 -0.1035397500000000 Au
atom 7.4990696999999997 29.6935902200000008 -0.1586835400000000 Au
atom 10.1448769399999996 29.2727203799999991 0.1076774500000000 Au
atom 13.1241069199999991 29.6193096599999990 0.1269241000000000 Au
atom 15.9619073000000000 29.4590619599999997 -0.0890558200000000 Au
atom 18.7872721100000000 29.5338829999999994 0.2051244800000000 Au
atom 21.7906861999999997 29.8006054599999999 0.0601595700000000 Au
atom 24.4432060699999987 29.4688052499999991 0.1383974100000000 Au
atom 27.1882117200000017 29.7476619400000004 0.0852613300000000 Au
atom 1.9166376800000000 29.5053774199999985 -0.0703400400000000 Au
atom 4.9574285900000001 29.6914692100000011 -0.0506478700000000 Au
atom 8.8245888000000008 32.0500072199999977 -0.0978623300000000 Au
atom 11.7546561799999996 32.0370042699999971 0.0523092000000000 Au
atom 14.5430165400000000 32.0449088599999996 -0.0084646900000000 Au
atom 17.6143475800000004 31.8928778900000012 -0.0641259800000000 Au
atom 20.2591253199999990 32.0874823999999990 0.1133239000000000 Au
atom 23.0915039200000010 32.0885820499999994 -0.0925288100000000 Au
atom 25.8130402200000013 32.0811123499999979 0.1214189700000000 Au
atom 0.4273547200000000 32.1429415400000025 -0.1066351900000000 Au
atom 3.2993033100000000 32.0290109800000025 -0.1955192700000000 Au
atom 6.0706616000000002 31.9662288299999986 0.2233092200000000 Au
atom 7.4380166699999997 34.6081147399999978 -0.0627459300000000 Au
atom 10.3931062200000000 34.5222020499999971 -0.1336436500000000 Au
atom 13.1870319899999995 34.3999626599999999 -0.0324591200000000 Au
atom 15.9323389899999999 34.3623893800000033 -0.1228352500000000 Au
atom 18.8542541700000008 34.6388669700000023 -0.0776398700000000 Au
atom 21.6647539900000012 34.6273499099999995 -0.1113973700000000 Au
atom 24.3335521200000002 34.5052812899999992 0.0587432300000000 Au
atom 27.2412102900000015 34.6693057199999970 -0.0107428900000000 Au
atom 1.9910788200000000 34.6707560799999968 0.1166865200000000 Au
atom 4.4855079299999998 34.4270946400000000 -0.1805360600000000 Au
atom 8.9506312900000005 36.9113820899999965 -0.0261540800000000 Au
atom 11.5812289199999991 36.9176103699999985 0.0676290100000000 Au
atom 14.4160892700000005 37.1207267200000004 0.1807261600000000 Au
atom 17.2798393799999985 36.9469076900000033 0.0389819000000000 Au
atom 20.2332430199999997 36.9106838000000010 -0.0331552000000000 Au
atom 22.9561818299999985 37.2933873699999978 -0.0161741900000000 Au
atom 25.8023420200000011 37.1604993400000012 -0.1023383200000000 Au
atom 0.5079968300000000 37.2391121799999993 -0.0276085400000000 Au
atom 3.4236218799999998 36.9184880399999997 -0.1084729300000000 Au
atom 6.1301834399999997 37.0562515299999973 0.1157821700000000 Au
atom 7.4754329899999998 -0.1678899300000000 0.0179002300000000 Au
atom 10.4742575000000002 -0.0931800800000000 0.2840181600000000 Au
atom 12.9787130600000005 -0.1500621300000000 -0.0003944600000000 Au
atom 16.0381581100000012 -0.2338154600000000 0.2604728600000000 Au
atom 18.8133987599999983 -0.1008897500000000 0.1421363200000000 Au
atom 21.6137858899999991 -0.0255164500000000 0.1765084000000000 Au
atom 24.2794602600000005 0.0090591600000000 0.2136364200000000 Au
atom 27.1264043400000006 -0.1372989400000000 0.0140818100000000 Au
atom 1.8165092899999999 0.2212809700000000 -0.0090162400000000 Au
atom 4.6877743100000000 -0.2586514800000000 0.0626013200000000 Au
atom 8.9343916100000005 2.4198428399999998 0.0426874200000000 Au
atom 11.6851173100000008 2.5699011800000000 0.0103574400000000 Au
atom 14.6257445500000003 2.2978979100000001 0.1203131600000000 Au
atom 17.3640329599999994 2.3169401800000000 0.1583835500000000 Au
atom 20.2109018399999982 2.5393494799999998 -0.0865992600000000 Au
atom 23.1942737299999990 2.5747483600000001 -0.0546571300000000 Au
atom 26.0205111799999997 2.2904642100000001 -0.1066956900000000 Au
atom 0.5007113100000000 2.6082627000000000 0.0148579800000000 Au
atom 3.3338456100000000 2.4500121699999999 0.1397424200000000 Au
atom 6.1523989400000003 2.5110047000000000 -0.0520782800000000 Au
atom 7.4699687399999997 4.8640250199999997 0.0228830200000000 Au
atom 10.3886921500000007 4.8537422799999996 0.1636676500000000 Au
atom 13.2208108000000006 4.7462051000000001 0.1133889100000000 Au
atom 16.0669617900000006 4.9770231400000000 0.1525389600000000 Au
atom 18.8151240299999998 4.9504407700000002 -0.1484168800000000 Au
atom 21.8430794800000001 5.1819137000000000 0.2149780100000000 Au
atom 24.5373016600000007 4.8581444200000004 -0.1814665000000000 Au
atom 27.2680981899999999 4.9439722699999997 0.1237895700000000 Au
atom 2.1551682300000001 5.1103238600000003 0.0135046900000000 Au
atom 4.7815407099999998 4.8682527799999997 0.1908040700000000 Au
atom 8.9922651699999996 7.3616784700000002 0.0224244900000000 Au
atom 11.7847422099999992 7.5537530600000000 0.0126101100000000 Au
atom 14.5283168600000003 7.4462942300000003 0.0827078200000000 Au
atom 17.4156012800000006 6.9950515299999996 0.1062674000000000 Au
atom 20.2710910899999988 7.5411403400000001 0.1825791200000000 Au
atom 23.1372314500000016 7.3540776899999996 0.0499937600000000 Au
atom 26.1527381100000014 7.3119515899999996 0.0737741400000000 Au
atom 0.3093194400000000 7.1660580300000003 0.3266341200000000 Au
atom 3.1415846200000002 7.3561934500000001 0.0606471500000000 Au
atom 6.2560312700000003 7.4360480400000002 0.1024782100000000 Au
atom 7.6974924199999997 9.9353825199999992 -0.0759685500000000 Au
atom 10.4020071400000003 9.8550706699999999 -0.0148303200000000 Au
atom 12.9827559000000008 9.8639627900000004 -0.0570796700000000 Au
atom 15.9863151400000003 9.7347029999999997 -0.1514277800000000 Au
atom 18.7474993300000001 9.9481786299999992 0.0337867000000000 Au
atom 21.7409957799999987 9.9823772799999997 0.0166024400000000 Au
atom 24.5456935300000012 9.8568000799999993 -0.0414586500000000 Au
atom 27.4165214400000004 9.7304089400000002 -0.0123932000000000 Au
atom 1.8532815700000000 9.6610243499999999 -0.1246413600000000 Au
atom 4.7402508499999998 9.8477566499999991 0.2094870200000000 Au
atom 8.8132272199999999 12.2345300800000008 -0.0026976500000000 Au
atom 11.8779753600000006 12.1048747100000007 -0.1003066700000000 Au
atom 14.6868801799999993 12.2735854599999996 0.0741590000000000 Au
atom 17.4694508199999987 12.0258968599999996 -0.1102403300000000 Au
atom 20.2138538700000012 12.2926359000000005 -0.1987093500000000 Au
atom 23.1332321500000013 12.2386666399999999 -0.0724382800000000 Au
atom 25.6276174300000008 12.1975199599999993 -0.0448806500000000 Au
atom 0.6192472800000000 12.3253986599999994 -0.0755003800000000 Au
atom 3.3291502300000002 12.4784661999999997 -0.0094407800000000 Au
atom 5.9967003400000003 12.1490855599999996 -0.0824997500000000 Au
atom 7.5717115599999998 13.1833569199999996 2.6421696899999998 Au
atom 10.4903376500000007 13.2496263899999995 2.7429416400000002 Au
atom 13.2073200499999999 13.5130092800000003 2.5168570600000000 Au
atom 16.0789141200000003 13.3792750999999992 2.5186204600000002 Au
atom 18.7776918899999998 13.1558501200000002 2.5528569200000000 Au
atom 21.6702722200000011 13.1330362399999991 2.2900935200000001 Au
atom 24.5767862900000011 13.3419385500000001 2.5721117300000000 Au
atom 27.2385075500000013 13.1648061300000006 2.6246123200000002 Au
atom 2.0746981299999998 13.2428194700000006 2.7543655399999998 Au
atom 4.8300437900000004 13.1136576799999993 2.5131048499999999 Au
atom 8.9252291100000001 15.6809727599999995 2.6906484700000002 Au
atom 11.7396898499999995 15.8334574900000007 2.6026680600000001 Au
atom 14.4852238700000004 15.5862380700000003 2.4717170400000001 Au
atom 17.3892357100000012 15.6226191599999993 2.5010076099999998 Au
atom 20.3307051399999992 15.7629944900000005 2.6269940900000002 Au
atom 22.8704932300000010 15.7864784000000000 2.4796733700000000 Au
atom 25.9997768299999983 15.6021780299999993 2.6504429500000000 Au
atom 0.4474413900000000 15.7049793900000001 2.6759494600000000 Au
atom 3.3441894300000001 15.6726017700000000 2.7887373900000001 Au
atom 6.0923814199999997 15.7689370600000007 2.5621476500000000 Au
atom 7.8133891799999997 17.9621500699999999 2.8452755800000000 Au
atom 10.3388269800000003 18.1264081700000013 2.5168865399999998 Au
atom 13.1022434699999994 18.1217340900000004 2.6407024400000001 Au
atom 15.7979381799999992 18.1869014399999998 2.5302197099999999 Au
atom 18.5995104600000012 18.1217997100000012 2.6764063800000000 Au
atom 21.5495954000000012 18.1317560899999997 2.5527225400000000 Au
atom 24.3527232399999995 18.0332504299999989 2.7688695600000002 Au
atom 27.3662427699999995 18.1547718899999992 2.5452951599999998 Au
atom 1.8255699900000000 18.1968272300000002 2.7679632199999999 Au
atom 4.7168778199999997 18.0265726800000010 2.2779311600000001 Au
atom 8.9063809500000009 20.6569630199999992 2.7640695000000002 Au
atom 11.5371876899999997 20.5821841700000014 2.7779686600000000 Au
atom 14.5416466700000004 20.5125064100000003 2.7446324199999999 Au
atom 17.3765285499999997 20.5047221399999984 2.8242752800000002 Au
atom 20.3574040799999985 20.5891374899999988 2.6578049500000001 Au
atom 23.0280334099999990 20.4367041500000006 2.6874626799999999 Au
atom 25.7447562499999982 20.6828594099999989 2.5948430400000002 Au
atom 0.5986799300000000 20.6262171099999989 2.8733471700000002 Au
atom 3.2627078500000000 20.6100419099999996 2.6704745000000001 Au
atom 6.0098082000000002 20.6930150799999986 2.6945798200000000 Au
atom 7.6096804799999997 23.1561829199999991 2.7318639500000002 Au
atom 10.3789324000000001 22.9943942800000016 2.8226908499999999 Au
atom 13.2242729000000008 23.0132640700000017 2.8469920200000001 Au
atom 15.9364617800000001 23.0704537999999992 2.6131338400000002 Au
atom 18.8764156099999987 22.8982297800000012 2.7727974600000000 Au
atom 21.5503664099999988 22.9426956000000004 2.6292854900000000 Au
atom 24.5717409899999986 23.1491204500000016 2.5512054599999998 Au
atom 27.2394418499999986 23.1413888599999993 2.7553054499999998 Au
atom 1.8582338899999999 23.1585963100000001 2.8171157400000002 Au
atom 4.9830802299999997 23.1977026700000017 2.7531226499999999 Au
atom 8.9714407400000002 25.5446315800000008 2.6909266199999999 Au
atom 11.7522119800000002 25.5173536900000002 2.7839943699999998 Au
atom 14.4861508800000003 25.4741737000000015 2.6641198199999998 Au
atom 17.3302476100000007 25.4084272800000015 2.8271361399999999 Au
atom 20.0818426999999993 25.5112346199999998 2.7900569000000002 Au
atom 23.1426496200000003 25.5318164299999992 2.8972312599999999 Au
atom 25.8217806699999990 25.6833177399999997 2.7321716000000000 Au
atom 0.4262398000000000 25.6519094500000016 2.6312942000000001 Au
atom 3.2730435600000001 25.4159703300000004 2.5031575899999998 Au
atom 6.0959567400000001 25.3795953800000014 2.7959695999999998 Au
atom 7.4878757800000004 28.1641727599999996 2.5400278500000000 Au
atom 10.3475522299999998 28.0652076400000006 2.6143965699999998 Au
atom 13.0579282600000006 27.9819895800000005 2.6905825200000000 Au
atom 15.9043070899999996 28.0324753899999983 2.6958409099999998 Au
atom 18.7563279799999982 27.9677550500000009 2.5446772599999998 Au
atom 21.6471744299999997 28.0150722600000002 2.7772669900000002 Au
atom 24.2381052699999984 28.1050695399999988 2.7524432900000000 Au
atom 27.2848291399999994 28.0833346299999995 2.7518611100000001 Au
atom 1.8456680800000000 28.1126466300000004 2.7619744399999999 Au
atom 4.7328269399999998 27.9785379799999987 2.3702939999999999 Au
atom 8.8328740000000003 30.4042283200000014 2.6834373199999999 Au
atom 11.8708130500000006 30.4637446599999997 2.5180170400000002 Au
atom 14.5771075200000002 30.3703156700000001 2.6145301100000000 Au
atom 17.4704510699999993 30.3805841900000004 2.6810426199999999 Au
atom 20.3416887799999984 30.4653081400000012 2.5543746100000000 Au
atom 22.9204590999999986 30.5392495799999999 2.5637268600000001 Au
atom 25.8970117000000002 30.5647553000000016 2.6773368000000000 Au
atom 0.3896916200000000 30.5904495099999991 2.5847020900000000 Au
atom 3.4520060500000000 30.5020132100000012 2.4734317199999998 Au
atom 5.8397554600000001 30.4781868299999985 2.4421754800000000 Au
atom 7.5596684300000003 32.8583447600000014 2.6623724900000001 Au
atom 10.3468190300000007 32.9136580799999976 2.5881059899999999 Au
atom 13.0017535199999994 32.9745727999999971 2.5588426200000001 Au
atom 16.0032234299999985 32.8888947200000032 2.4014528500000001 Au
atom 18.6278542499999986 33.0619249900000014 2.5633957399999998 Au
atom 21.4350588399999999 32.9779157199999986 2.5448546200000002 Au
atom 24.3078828000000016 33.1001708000000008 2.5165631400000001 Au
atom 27.2164231699999988 32.7208141600000033 2.6927947300000001 Au
atom 1.7631223700000000 32.8423099999999977 2.4521599500000000 Au
atom 4.7173531600000000 32.9929601999999988 2.6504290799999999 Au
atom 9.0065924800000001 35.3624980900000025 2.7173024699999999 Au
atom 11.7662129600000007 35.4546078099999988 2.3587976199999998 Au
atom 14.6132910299999992 35.4281790200000017 2.5237476100000000 Au
atom 17.5204410000000017 35.3943117000000029 2.3679194699999999 Au
atom 20.3091115600000016 35.3011488300000025 2.5508020000000000 Au
atom 22.9459853100000011 35.3807204599999992 2.6785752899999999 Au
atom 25.7799932299999988 35.4962473599999981 2.4693363499999998 Au
atom 0.5561985100000000 35.5643022200000019 2.4763109499999998 Au
atom 3.2049436500000001 35.5765503499999980 2.4993972699999998 Au
atom 6.1895364099999997 35.5163249100000016 2.4626990900000001 Au
atom 7.3989509900000003 37.9403064899999976 2.5861788500000000 Au
atom 10.3214289899999994 37.8747337100000010 2.7337173400000001 Au
atom 13.2381987399999996 38.0629406999999986 2.5027922199999999 Au
atom 16.0159963699999999 37.8877412300000032 2.8779479700000001 Au
atom 18.7851702500000002 37.7249416100000019 2.6058721000000000 Au
atom 21.6838270599999987 37.8772318099999978 2.5798354699999999 Au
atom 24.3692977699999993 37.9451641499999965 2.5616968899999999 Au
atom 27.2133865800000017 37.7638968999999989 2.4881046900000001 Au
atom 1.6573249999999999 37.8380498499999973 2.6253402100000001 Au
atom 4.6204570199999999 37.8927766899999980 2.8004703499999999 Au
atom 8.9489052600000001 0.9450019800000000 2.7547486399999999 Au
atom 11.8116829100000000 0.9274350500000000 2.6953864099999998 Au
atom 14.3615057799999999 0.7775564000000000 2.6631231799999999 Au
atom 17.3322254899999990 0.7232142499999999 2.7097263500000000 Au
atom 20.2797148199999988 0.7516112200000000 2.6821931900000000 Au
atom 22.9770000400000001 0.7480060900000000 2.6094501800000001 Au
atom 25.7798482799999995 0.8629351200000001 2.8812412500000000 Au
atom 0.6314080700000000 0.8391288400000000 2.9140233200000001 Au
atom 3.3239787700000001 0.8861068000000000 2.6278669300000002 Au
atom 5.9314492300000001 0.8029680000000000 2.8257862700000000 Au
atom 7.4768255300000002 3.4986099300000002 2.7180830199999999 Au
atom 10.2970719200000005 3.3540782999999998 2.6614365200000001 Au
atom 13.2457390799999999 3.1993256600000000 2.4180256600000001 Au
atom 15.6645011699999994 3.2402203100000002 2.8059461899999998 Au
atom 18.5600834699999986 3.3257002000000000 2.7918172900000000 Au
atom 21.5012380199999988 3.3797537100000001 2.7783283600000002 Au
atom 24.5894888199999997 3.2749322300000001 2.6021762100000001 Au
atom 27.3308772500000003 3.3580562500000002 2.7046354300000002 Au
atom 2.0018765699999999 3.1559642000000001 2.7625423599999999 Au
atom 4.6438199100000004 3.3514121000000001 2.8563149200000000 Au
atom 8.8518720099999992 5.7661628699999996 2.5549143900000000 Au
atom 11.7420511100000002 5.7958386500000003 2.8070025200000002 Au
atom 14.5154428899999992 5.8289187099999999 2.9117007699999999 Au
atom 17.4416476699999983 5.8159020799999999 2.7695820100000001 Au
atom 20.2056567999999999 5.9348680199999997 2.7731251100000001 Au
atom 23.0116526300000004 5.7895269899999997 2.8290126000000000 Au
atom 25.8041404800000009 5.8502317100000001 2.6742806500000000 Au
atom 0.2836091800000000 5.8702050200000002 2.8785174900000001 Au
atom 3.2177436799999999 5.7948000500000001 2.5431127000000000 Au
atom 6.0863551999999999 5.7549449199999998 2.7902282299999999 Au
atom 7.5597230399999997 8.3032066199999992 2.4810480099999999 Au
atom 10.1248980199999998 8.1538939700000004 2.7223963699999998 Au
atom 12.9917646300000005 8.2986507300000003 2.7127144599999999 Au
atom 15.9246334100000002 8.2754655899999996 2.7390003400000000 Au
atom 18.6779639999999993 8.4038246799999996 2.7358598399999998 Au
atom 21.6836012999999994 8.3792144400000002 2.7446950399999999 Au
atom 24.5079661699999996 8.2566345099999996 2.8603216699999998 Au
atom 27.3015868099999999 8.1712184499999996 2.6697118000000000 Au
atom 1.8954577800000001 8.2875181999999992 2.5312435799999999 Au
atom 4.5448233000000000 8.1962374800000006 2.6542175200000000 Au
atom 8.9772173599999991 10.8362080100000000 2.5524457500000000 Au
atom 11.7242439699999998 10.7809809800000007 2.5846752600000000 Au
atom 14.5951687700000008 10.6523145899999996 2.6192084100000002 Au
atom 17.4944753000000013 10.7679835199999996 2.5409696700000000 Au
atom 20.2110884800000008 10.8821203600000000 2.4247555400000000 Au
atom 23.0323298600000008 10.6222559800000003 2.8509046599999999 Au
atom 25.8503356400000008 10.4708065099999992 2.5608005199999999 Au
atom 0.5909610900000000 10.6756177900000004 2.4673270700000001 Au
atom 3.2773134300000000 10.7690211999999992 2.7002042500000001 Au
atom 6.3518895600000000 10.8059948600000002 2.5846105100000001 Au
atom 7.5050701699999998 13.2302762299999994 5.6768581899999999 Cl
atom 7.4919936299999996 16.0968381700000016 8.4414659699999994 Cl
atom 7.5318266400000002 13.2688771899999995 8.2704710299999995 Na
atom 7.6202826899999998 16.0632756500000013 5.8074138900000003 Na
atom 7.4220306799999998 18.9102951499999996 5.9117387099999998 Cl
atom 7.3356084299999997 21.8613681200000016 8.6569015500000006 Cl
atom 7.5547410199999998 18.7398229299999990 8.3052454600000001 Na
atom 7.5453269900000004 21.4013745100000001 5.8101928000000003 Na
atom 7.4115254999999998 24.4938878100000004 5.7751523200000001 Cl
atom 7.6328561099999996 27.0463036899999985 8.4423325699999996 Cl
atom 7.3730308100000004 24.3927285000000005 8.4591972999999996 Na
atom 7.4642683800000000 27.3330391000000006 5.6980799299999996 Na
atom 7.6198344200000001 30.1310798400000017 5.8688246399999997 Cl
atom 7.6403206800000003 32.9021314399999980 8.8084567699999994 Cl
atom 7.7069238599999998 30.0476802399999983 8.3130153500000006 Na
atom 7.3312296500000000 32.8014670900000027 5.8919177300000003 Na
atom 7.6780068000000004 35.6921126499999986 5.8852908900000003 Cl
atom 7.2839580699999997 38.6683561800000035 8.5927120200000005 Cl
atom 7.5790675199999997 35.8440245099999970 8.2757276599999994 Na
atom 7.4067744199999996 38.5371212900000017 5.5753256100000002 Na
atom 7.4945363399999998 1.9255166600000000 5.8192354000000002 Cl
atom 7.4722789399999998 4.7215711100000002 8.5285890500000008 Cl
atom 7.6678421800000001 1.7484552400000000 8.3778341399999992 Na
atom 7.6310886199999999 4.6664766699999998 5.9349858199999996 Na
atom 7.4171244999999999 7.5344875099999999 5.6976769599999999 Cl
atom 7.5462842300000004 10.3755630599999993 8.6096080799999992 Cl
atom 7.4248679199999996 7.7642416499999998 8.4870714799999991 Na
atom 7.4352653599999998 10.3901810799999996 5.9209401300000000 Na
atom 10.4636636700000007 13.1913483199999995 5.8084361099999997 Na
atom 13.3780189200000006 13.3368557400000007 5.8212820000000001 Cl
atom 10.4098392299999993 16.0553019399999997 8.3679765899999996 Na
atom 13.2327516799999998 16.1137802999999984 8.6773889900000007 Cl
atom 13.0952948700000000 13.0470538900000008 8.4933016200000004 Na
atom 10.3708128599999991 13.3096751900000001 8.6496707599999993 Cl
atom 13.0750934500000007 16.0282985300000007 5.7660760099999999 Na
atom 10.3912635800000004 15.9986632199999992 5.6572765699999996 Cl
atom 10.4598897799999992 18.8444598399999990 5.8757854199999997 Na
atom 12.9154702300000004 18.8953622900000013 5.8163384999999996 Cl
atom 10.5145572000000005 21.7198142499999989 8.5608131200000006 Na
atom 13.1470989399999993 21.5429902099999993 8.5352426099999992 Cl
atom 13.1698201099999999 18.8455142199999983 8.3644449499999993 Na
atom 10.3157548499999994 18.8021360100000017 8.4745267399999999 Cl
atom 13.2062931999999993 21.6773943500000001 5.9206013000000004 Na
atom 10.3336366300000009 21.5853704700000009 5.8041851099999997 Cl
atom 10.2934235500000000 24.4156885099999990 5.8667156199999999 Na
atom 13.0933378999999999 24.4972713999999989 5.9580818600000001 Cl
atom 10.2006920999999995 27.3837202099999999 8.3925278799999994 Na
atom 13.3032343199999996 27.2286359400000002 8.7795739400000006 Cl
atom 13.0552909699999997 24.3915463099999990 8.5272628200000007 Na
atom 10.2404762700000003 24.4200440699999994 8.6376345600000004 Cl
atom 13.0249875700000004 27.3101802199999995 5.6555170099999996 Na
atom 10.2761669999999992 27.0373901900000000 5.6588031799999996 Cl
atom 10.2054715900000001 29.9545392600000007 5.8784999999999998 Na
atom 13.1128012799999993 30.0151980000000016 5.6950489700000002 Cl
atom 10.2924282500000004 32.9263594900000029 8.4844254899999996 Na
atom 13.0947992400000004 32.5968910599999973 8.6122894599999995 Cl
atom 12.9659795599999992 30.1601582700000002 8.4319080500000005 Na
atom 10.2772600199999999 29.9943461599999992 8.6921913499999999 Cl
atom 12.9668930000000007 32.9233842900000013 5.8039387800000002 Na
atom 10.0979046100000005 33.0414481700000024 5.8514957299999999 Cl
atom 10.3086759299999997 35.8195699799999971 5.9504812200000003 Na
atom 13.2733077099999992 35.6748017299999987 5.6434770199999997 Cl
atom 10.3845646499999997 38.5482535800000008 8.3928038300000001 Na
atom 13.1126581200000007 38.7847923200000011 8.6540911600000001 Cl
atom 13.1874009399999998 35.6910831100000010 8.4417298600000006 Na
atom 10.4109141800000007 35.9193301399999996 8.6151529199999999 Cl
atom 13.0789271100000004 38.5646403900000010 5.7845253899999998 Na
atom 10.2874360300000003 38.4451459799999995 5.6521340000000002 Cl
atom 10.3345255999999992 1.9723559799999999 5.7813022600000004 Na
atom 13.2200251600000005 2.1638066500000002 5.9139101299999997 Cl
atom 10.2029324999999993 4.6266972199999996 8.5604860899999995 Na
atom 13.0568826500000004 4.6519212699999999 8.6648161699999999 Cl
atom 13.0906948900000000 1.9191262600000001 8.4292820000000006 Na
atom 10.2910716299999994 2.0639440100000002 8.7698909000000000 Cl
atom 13.0694014799999998 4.6859955900000001 5.7595503800000003 Na
atom 10.3960506600000002 4.6045773299999997 5.9661403300000000 Cl
atom 10.3569042600000003 7.5008870800000000 5.7854248000000004 Na
atom 13.0925878000000004 7.4478226799999998 5.7225431200000001 Cl
atom 10.2006248100000008 10.4845326700000001 8.5424871800000002 Na
atom 13.0217330300000000 10.4266324899999994 8.4038948700000002 Cl
atom 13.1779244599999998 7.6804724499999999 8.4156420000000001 Na
atom 10.2458307899999994 7.6116264300000003 8.7534070300000000 Cl
atom 13.0453558800000007 10.4239851899999998 5.7809873700000001 Na
atom 10.1875753400000004 10.4521153800000004 5.8788096000000003 Cl
atom 15.9781739999999992 13.3949250600000003 6.1607073000000003 Na
atom 18.7327893400000001 13.1191051200000004 6.0902445800000002 Cl
atom 15.9581056599999993 16.1216898899999990 8.5495996999999999 Na
atom 18.5368806100000008 16.0171103700000010 8.3841602000000002 Cl
atom 18.8237960400000013 13.1206641800000003 8.6118773500000003 Na
atom 15.9235319999999998 13.2181438199999999 8.9071650400000006 Cl
atom 18.6993015999999983 16.0563512499999987 5.9141891700000002 Na
atom 16.0143194000000015 16.1463096899999989 6.0883163900000001 Cl
atom 15.9452862799999995 18.7785499300000005 5.8496696100000003 Na
atom 18.7205452500000007 19.0074512999999996 5.6547108599999998 Cl
atom 15.9767712999999993 21.8319001300000011 8.6457903199999997 Na
atom 18.6799389200000014 21.6474792899999997 8.6587626899999997 Cl
atom 18.6789164099999994 18.7432777100000010 8.6055536000000004 Na
atom 15.8152071599999999 18.8776686699999985 8.5743080400000000 Cl
atom 18.8244976199999989 21.7327939900000011 6.1682526400000004 Na
atom 15.8957568699999996 21.6602125900000004 6.1799267200000001 Cl
atom 15.9287232799999998 24.3557744300000003 5.8972475600000003 Na
atom 18.9412817300000000 24.5155978899999987 5.7252082800000004 Cl
atom 15.8760862800000009 27.4351527799999992 8.4474758300000001 Na
atom 18.9752342399999989 27.3075368300000001 8.5816883700000002 Cl
atom 18.6480583099999997 24.4004924900000013 8.3096966999999999 Na
atom 16.0382049600000016 24.7363748100000009 8.5343477700000001 Cl
atom 18.7329602800000004 27.1239994399999986 5.9259865500000002 Na
atom 15.9866476300000002 27.3188895500000015 5.8962638299999997 Cl
atom 15.7117205400000000 30.1538013900000017 5.8289038599999996 Na
atom 18.9367085099999990 30.0881806699999999 5.7041745600000002 Cl
atom 15.9344519800000004 32.8981140699999983 8.2746512699999997 Na
atom 18.5351339300000006 33.1023950200000030 8.6439684400000001 Cl
atom 18.7408545000000011 30.2314461399999992 8.4705317400000002 Na
atom 16.0058990799999989 30.0185789999999990 8.4679317100000002 Cl
atom 18.9251565299999989 33.0073304200000024 5.8939373000000002 Na
atom 15.9692650999999994 32.9452545299999997 5.8289121599999998 Cl
atom 15.8446689999999997 35.5864298799999972 5.8156752100000002 Na
atom 18.8683240599999991 35.6508408600000024 5.7911232999999998 Cl
atom 15.9134147099999996 38.5730665000000030 8.2748736399999991 Na
atom 18.5251330500000009 38.3115752799999996 8.7207687299999996 Cl
atom 18.7204980100000000 35.6943025400000025 8.5186050600000005 Na
atom 15.8743546799999997 35.8710389299999974 8.6030418900000001 Cl
atom 18.7635826399999992 38.4493800999999991 5.9788699500000000 Na