#===============================================================================
# Created using the Atomic Simulation Environment (ASE)

# Tue Dec 23 22:26:01 2025

#=======================================================
lattice_vector 28.1999999999999993 0.0000000000000000 0.0000000000000000 
lattice_vector 0.0000000000000000 39.4799999999999969 0.0000000000000000 
lattice_vector 0.0000000000000000 0.0000000000000000 62.3296083400000001 
atom 7.8029320200000001 14.8592728399999991 -0.0252198200000000 Au
atom 10.4389319599999997 14.8764669299999994 0.0678663200000000 Au
atom 13.3870218500000000 14.7001752099999994 0.0136864800000000 Au
atom 16.0801221900000009 14.9010331100000002 -0.0653415700000000 Au
atom 18.8612666800000000 14.8823147000000002 -0.0495314900000000 Au
atom 21.4348762499999985 14.8596119699999996 0.0424315700000000 Au
atom 24.4207991699999987 14.9821705900000008 0.2231974600000000 Au
atom 27.2434787599999986 14.9018811899999992 -0.0539831200000000 Au
atom 1.9788647800000001 14.8119340899999994 -0.0276206100000000 Au
atom 4.6803055000000002 14.7429135099999993 -0.0933616200000000 Au
atom 8.9184288699999996 17.2970982100000015 -0.0337704800000000 Au
atom 11.7660717800000008 17.4086776000000008 -0.0624644700000000 Au
atom 14.5736277800000007 17.4838856800000002 -0.2543527600000000 Au
atom 17.4055312099999995 17.1918615099999990 -0.0592289400000000 Au
atom 20.1510913699999996 17.0903589300000007 0.1826493300000000 Au
atom 22.9156598000000002 17.2011724599999987 0.0818284700000000 Au
atom 25.9159912699999992 17.3482673900000002 -0.0437583300000000 Au
atom 0.5174948400000000 17.1574681300000016 0.1779694500000000 Au
atom 3.3696788500000001 17.3005272900000016 -0.1398409500000000 Au
atom 6.0381756900000001 17.2392898999999993 -0.0918970300000000 Au
atom 7.4318512400000003 19.7068254699999983 0.2344377300000000 Au
atom 10.4567868300000004 19.7584738199999990 -0.1805761700000000 Au
atom 13.1562479000000003 19.6842962499999992 0.1697758300000000 Au
atom 15.9239137799999995 19.5979078899999983 0.0844380800000000 Au
atom 18.8394298499999984 19.8377745099999991 -0.2943831400000000 Au
atom 21.4150378100000012 19.8188124700000010 0.3735196500000000 Au
atom 24.3281062800000001 19.7174529900000017 0.0740295100000000 Au
atom 27.2215618699999986 19.5670214400000013 0.2105081800000000 Au
atom 1.8661094600000001 20.1441090500000008 0.2182370400000000 Au
atom 4.8167965700000002 19.6650239099999986 0.0245606400000000 Au
atom 8.8195177900000008 22.2415561299999993 -0.0284572600000000 Au
atom 11.8471356799999992 22.2717571999999997 -0.0641115000000000 Au
atom 14.5841267800000001 22.0508359100000000 0.1121104800000000 Au
atom 17.4148425499999995 21.9970435500000008 0.0530367300000000 Au
atom 20.0373480800000010 21.9277620800000008 0.0093052400000000 Au
atom 23.1969290100000016 22.1002545800000014 0.1637947100000000 Au
atom 25.8630093000000016 22.1853738100000015 0.0109799200000000 Au
atom 0.4929334100000000 22.3371777400000013 0.0291011200000000 Au
atom 3.2057547400000002 22.0863010499999994 0.2977810400000000 Au
atom 6.1870077300000004 22.3106198800000008 0.1011463500000000 Au
atom 7.4594605899999999 24.7072306600000005 -0.1095053000000000 Au
atom 10.3085592199999994 24.5840590200000015 0.0425247400000000 Au
atom 13.0472230000000007 24.5796275400000006 0.1653184600000000 Au
atom 15.8726246100000008 24.7401237999999992 0.2739360900000000 Au
atom 18.5580070600000013 24.7200947100000015 0.1433786000000000 Au
atom 21.6444579700000013 24.6496846299999994 0.0975578500000000 Au
atom 24.4580559899999983 24.7514176299999988 -0.1462938700000000 Au
atom 27.1254365600000007 24.7377886599999997 0.1082639100000000 Au
atom 1.9156243100000001 24.6406686899999983 -0.0399769200000000 Au
atom 4.5406597199999998 24.6530805199999996 -0.0937494400000000 Au
atom 8.9327481199999994 27.0753229100000006 -0.0566185900000000 Au
atom 11.7274051200000002 27.1415157700000016 0.2025293400000000 Au
atom 14.7610788999999993 27.0582655199999991 0.1222137300000000 Au
atom 17.3471088000000009 27.1831358600000002 0.1235608500000000 Au
atom 20.1168141899999995 27.2407809299999997 0.0793444700000000 Au
atom 23.0470037699999999 27.1505537699999984 -0.0529604900000000 Au
atom 25.7133617000000001 27.0722218199999993 0.1755125900000000 Au
atom 0.5591117700000000 27.0766442699999992 0.1314496700000000 Au
atom 3.3490816500000000 27.1781648000000011 -0.0950885000000000 Au
atom 6.0172085300000004 27.0066022399999994 0.0158081000000000 Au
atom 7.5663782399999997 29.3854801899999991 0.0911618700000000 Au
atom 10.3439268999999996 29.6508832399999989 0.2293941500000000 Au
atom 12.9973700799999996 29.7336610099999987 0.0421679400000000 Au
atom 15.9154002899999991 29.7338623099999992 0.1144139100000000 Au
atom 18.7285480100000008 29.6143681799999996 -0.0205534200000000 Au
atom 21.6656642300000009 29.5487661899999985 -0.0457735400000000 Au
atom 24.4346182399999989 29.7929883699999998 -0.1005167100000000 Au
atom 27.2503619800000010 29.5822719099999993 0.1265027800000000 Au
atom 1.6310740500000001 29.5098622199999987 0.1441832700000000 Au
atom 4.6071892200000004 29.6730700600000006 0.0131615100000000 Au
atom 8.9038060100000003 32.1933230699999982 0.1241207500000000 Au
atom 11.6836092399999991 32.1862435500000004 0.0457145100000000 Au
atom 14.5918429500000002 32.0138923800000015 0.0919382100000000 Au
atom 17.4760340099999993 31.9316473499999987 -0.0029332200000000 Au
atom 20.3627229000000014 32.0974745400000003 -0.0567837400000000 Au
atom 23.0866625600000006 32.1169132500000032 0.1536876300000000 Au
atom 25.8169509499999990 32.1563913199999973 0.0205177100000000 Au
atom 0.4659803300000000 32.1312875300000016 -0.1184043400000000 Au
atom 3.3497861200000001 32.0421585799999988 -0.2362378500000000 Au
atom 6.1954466699999999 32.1652602200000004 0.1408853200000000 Au
atom 7.4274925900000000 34.5725225999999992 0.1108588100000000 Au
atom 10.3717533900000003 34.5456454099999988 0.1768289900000000 Au
atom 13.0510952000000007 34.4973102399999973 0.0753956000000000 Au
atom 15.8363378600000004 34.5305423499999975 -0.0625025700000000 Au
atom 19.0097748899999992 34.6016903499999984 -0.0302363300000000 Au
atom 21.5754911400000005 34.6709183400000001 0.2505118900000000 Au
atom 24.4493898499999993 34.5861942800000008 0.1499845500000000 Au
atom 27.3370666699999987 34.5947893499999992 -0.0540617600000000 Au
atom 1.9014732000000001 34.5046318899999989 0.1328731000000000 Au
atom 4.6699205600000004 34.4633345100000028 -0.2612197600000000 Au
atom 9.1348276399999992 36.8987729299999998 -0.1285005100000000 Au
atom 11.8832162300000004 36.9279637200000010 0.1684670000000000 Au
atom 14.6727672200000008 37.0986275500000033 0.0321363000000000 Au
atom 17.3292444799999998 37.0853298899999970 0.0859261400000000 Au
atom 20.2216416300000006 36.9807144899999969 0.0420688700000000 Au
atom 22.9444397400000000 37.0461503000000008 0.0686631000000000 Au
atom 25.7328368900000015 36.9981039099999975 0.1627038100000000 Au
atom 0.3941370600000000 37.0731826999999967 -0.0567738600000000 Au
atom 3.4205056500000000 37.0600309000000010 0.0537795400000000 Au
atom 6.1322316399999997 37.1125965000000022 0.0663012600000000 Au
atom 7.4799833900000001 0.0751008700000000 -0.0784526900000000 Au
atom 10.2936812000000000 0.0373953300000000 0.0403933300000000 Au
atom 13.0780918400000008 -0.0616197900000000 0.2002921300000000 Au
atom 15.8438105100000008 0.0536746300000000 0.1595152200000000 Au
atom 18.9123688299999984 0.0156095800000000 0.0545736400000000 Au
atom 21.6291947899999997 0.2003092200000000 0.0652606600000000 Au
atom 24.4017908100000014 -0.0731563700000000 0.1106877700000000 Au
atom 27.3302345799999991 0.0174921600000000 -0.0259771000000000 Au
atom 1.9936930500000001 0.1035541700000000 0.0298224900000000 Au
atom 4.7249545900000003 -0.2772957900000000 0.1653272900000000 Au
atom 8.9073141000000007 2.5581147199999998 0.1425906400000000 Au
atom 11.7275282799999996 2.4786329600000001 0.1367084600000000 Au
atom 14.6157454900000001 2.6610828600000000 0.0485586700000000 Au
atom 17.5379433099999993 2.6491879900000002 0.0922679400000000 Au
atom 20.2141576299999990 2.3817020000000002 0.1366987700000000 Au
atom 22.9460369200000009 2.3062041099999999 0.1264226300000000 Au
atom 25.9735902600000017 2.5718146700000002 0.2997737100000000 Au
atom 0.5350412500000000 2.5108897099999998 0.0726939100000000 Au
atom 3.2133477199999998 2.3755608399999999 0.0484340500000000 Au
atom 6.0790700600000003 2.4475289199999999 0.0005777400000000 Au
atom 7.4647522899999998 4.7694412100000001 0.0361934900000000 Au
atom 10.2388867900000005 5.0627400299999996 0.1596956400000000 Au
atom 13.4703649799999994 5.0342495300000003 0.0446143700000000 Au
atom 16.2167117500000018 4.8141933799999999 0.0723245700000000 Au
atom 18.9687275799999995 5.0598409999999996 0.0510759500000000 Au
atom 21.7456214299999999 5.0068147200000004 0.1114726400000000 Au
atom 24.4914335399999992 4.9107613499999996 0.0722164300000000 Au
atom 27.2966921300000003 4.9009761799999998 0.0861389400000000 Au
atom 1.8909506400000000 4.9857386400000001 -0.0154968500000000 Au
atom 4.8769667400000003 4.9613251600000003 0.0338798600000000 Au
atom 9.0307767099999996 7.6421221499999996 0.1383140000000000 Au
atom 11.6683856800000001 7.1914784300000001 0.1883137000000000 Au
atom 14.6061045000000007 7.3815403100000001 0.1749102000000000 Au
atom 17.3122564399999987 7.4020444400000001 0.0484304200000000 Au
atom 20.3277137500000009 7.4647307100000004 0.2849268500000000 Au
atom 23.0692843699999983 7.5556414399999996 0.0037060600000000 Au
atom 25.7862350000000013 7.2430064300000003 0.0427886600000000 Au
atom 0.5696642600000000 7.3012915100000004 -0.0951472300000000 Au
atom 3.1667848900000002 7.3992766000000003 0.0025589000000000 Au
atom 6.2317205099999997 7.3426058899999997 0.0353617300000000 Au
atom 7.3732127600000004 9.8073670699999997 0.0344157900000000 Au
atom 10.3096585800000007 9.9794000399999998 0.0703565300000000 Au
atom 12.8758498699999997 9.8552165200000008 0.0764440600000000 Au
atom 15.9611231000000000 9.8576522999999998 -0.0228091600000000 Au
atom 18.6092949999999995 9.8917999499999993 0.1130589300000000 Au
atom 21.5916254499999987 9.8426817399999997 -0.0257874600000000 Au
atom 24.3087358900000012 9.9223038199999998 0.1335030400000000 Au
atom 27.1954778600000004 9.8660971600000007 0.3816313600000000 Au
atom 1.7848751800000000 9.9182531399999991 0.0334407600000000 Au
atom 4.5227659800000000 10.0635555799999992 0.0042089900000000 Au
atom 9.1172658700000007 12.3542367899999999 0.0379881100000000 Au
atom 11.7145746499999994 12.3123077199999997 0.1079916600000000 Au
atom 14.5522048599999998 12.4453824700000002 -0.0574724500000000 Au
atom 17.5181287499999989 12.4452213799999996 0.0519179900000000 Au
atom 20.3396554800000011 12.3115842099999995 -0.1948901300000000 Au
atom 22.8680091099999991 12.3181333399999993 0.0593981500000000 Au
atom 25.8823865099999999 12.4450338200000008 0.0452266100000000 Au
atom 0.5543044000000000 12.3045662500000006 -0.0393359200000000 Au
atom 3.3212508600000001 12.3247791899999992 0.0282090500000000 Au
atom 5.9358662899999999 12.3723263699999997 0.0251643200000000 Au
atom 7.5165050799999999 13.2079502800000004 2.7763631499999999 Au
atom 10.4123316100000007 13.1339538999999998 2.7145367100000000 Au
atom 13.2893628199999991 13.0031447900000003 2.5817526000000002 Au
atom 15.9889049199999995 13.0001890699999993 2.5113878600000001 Au
atom 18.8410760900000014 13.2395713700000002 2.8893412600000001 Au
atom 21.6843353400000005 13.0395684500000009 2.7282042700000000 Au
atom 24.3378442100000001 13.2693586400000001 2.8198979300000002 Au
atom 27.2007210000000015 13.2183367000000001 2.5667684099999999 Au
atom 1.9297151500000000 13.1225156700000003 2.6375615600000000 Au
atom 4.7000755999999999 13.1850153300000006 2.4317550899999998 Au
atom 8.9664134499999992 15.7125075899999995 2.6121443200000001 Au
atom 11.6486176799999992 15.7424565800000007 2.5045595299999999 Au
atom 14.5597557099999992 15.5422703000000002 2.5568213200000001 Au
atom 17.3430704999999996 15.7345854900000006 2.6148715500000002 Au
atom 20.4763964499999993 15.6196533100000003 2.6231047900000002 Au
atom 23.0699518999999995 15.8108325399999998 2.4204726800000000 Au
atom 26.0158334300000007 15.6102551100000007 2.7306773000000000 Au
atom 0.6267664100000000 15.6576703300000002 2.6671680100000001 Au
atom 3.1791718699999998 15.6684067700000007 2.7029357400000000 Au
atom 6.1090844400000002 15.7183199699999996 2.7435515000000001 Au
atom 7.4506131499999997 17.9486298799999986 2.8553860599999998 Au
atom 10.2621011400000004 17.8694067600000004 2.7574505500000002 Au
atom 13.0712275800000004 18.1056742899999996 2.5725165900000002 Au
atom 15.9870023200000002 18.1692691000000011 2.5605706100000001 Au
atom 18.9578839899999991 17.8938671800000009 2.6197998199999999 Au
atom 21.5149676099999994 18.2778855799999995 2.5537638100000000 Au
atom 24.1717752300000015 18.2430653400000011 2.6302605799999998 Au
atom 27.2318786999999993 18.1471671500000014 2.4864664099999998 Au
atom 1.9177826499999999 18.1835325599999997 2.4826697900000001 Au
atom 4.6231716199999999 18.0934738099999990 2.6437745499999998 Au
atom 8.9201279200000005 20.3882178399999994 2.7061966800000001 Au
atom 11.7012596599999998 20.6592022600000007 2.4991924000000001 Au
atom 14.5894463999999999 20.4530215700000007 2.6147159900000001 Au
atom 17.5983362700000008 20.5558011000000000 2.8078566000000000 Au
atom 20.1636877699999992 20.5505234899999998 2.8340950399999998 Au
atom 22.9630209699999988 20.4709764400000012 2.7363834300000001 Au
atom 25.7805992900000014 20.5389942900000015 2.7216806500000001 Au
atom 0.4551690900000000 20.5746229800000009 2.7415297500000002 Au
atom 3.2989836000000001 20.7260403999999987 2.8226175400000000 Au
atom 6.0457774200000003 20.6034657599999989 2.8319283000000000 Au
atom 7.4770339699999999 22.9928118800000014 2.5328819199999999 Au
atom 10.3182973499999999 23.1560798000000005 2.6273580399999998 Au
atom 13.2268913900000005 23.0388126500000006 2.4452753800000000 Au
atom 16.0233657899999997 23.0308281100000016 2.4907982799999999 Au
atom 18.6244514300000006 23.0622139799999992 2.6329730900000001 Au
atom 21.4918190399999993 22.9137124400000012 2.6700482100000000 Au
atom 24.2296278799999989 23.1139127500000008 2.7493094600000001 Au
atom 27.0955547800000005 22.9246890999999984 2.8152777499999999 Au
atom 1.9745071500000000 23.2175207800000010 2.8605286099999998 Au
atom 4.7152120100000001 22.9153461699999994 2.7895957500000002 Au
atom 8.7119394700000008 25.5700280299999996 2.6488759200000001 Au
atom 11.7382675400000007 25.7385915300000008 2.7728295799999998 Au
atom 14.5476152499999998 25.4872217799999987 2.7904397900000002 Au
atom 17.3090389500000015 25.7071006500000010 2.5512679299999999 Au
atom 20.2436336099999998 25.5200608899999999 2.7156726400000002 Au
atom 22.9930802700000001 25.7155557500000000 2.6463818899999998 Au
atom 25.7992961899999997 25.6271595000000012 2.5220903200000002 Au
atom 0.2649538700000000 25.5050047699999993 2.6040950199999999 Au
atom 3.2186913000000001 25.5472895599999994 2.6073472999999998 Au
atom 6.0005366100000002 25.6097552200000003 2.5028729699999999 Au
atom 7.5256578999999997 28.1141176399999999 2.6726393300000000 Au
atom 10.2669087200000000 27.9781137199999996 2.7361241700000001 Au
atom 13.2378186400000004 28.0165580799999994 2.7087336299999998 Au
atom 15.8509540799999993 28.0066677499999983 2.9363593400000001 Au
atom 18.8212508700000001 27.9730865999999985 2.5953942200000002 Au
atom 21.7642892199999984 27.9827988999999988 2.6865799600000000 Au
atom 24.5690392300000013 28.1195779399999992 2.6510860799999998 Au
atom 27.1748608400000009 27.9947306699999992 2.6608908200000001 Au
atom 1.8460449800000001 27.8813433699999997 2.7331262600000001 Au
atom 4.7986015499999999 28.0696713799999991 2.5194770399999999 Au
atom 9.0527780700000005 30.5533273399999992 2.4729039500000001 Au
atom 11.6423715800000007 30.5498541000000010 2.6971746799999998 Au
atom 14.5087790200000004 30.5707276599999993 2.5408686199999999 Au
atom 17.3152506399999986 30.4883333699999994 2.3689766699999999 Au
atom 20.0763022299999996 30.4858219599999991 2.7773679900000001 Au
atom 22.9359350599999985 30.5887981899999986 2.9612702400000002 Au
atom 26.0083251400000002 30.5126691299999990 2.5349751500000002 Au
atom 0.4081891100000000 30.5072142600000014 2.5491776900000001 Au
atom 3.2832468399999999 30.4368650100000018 2.5648391199999998 Au
atom 6.1927521800000003 30.3250083500000009 2.6030065499999999 Au
atom 7.4619103400000002 32.8391347600000003 2.7694829200000002 Au
atom 10.3281935600000008 32.9416212000000002 2.7274401699999999 Au
atom 13.2223811500000004 33.1417620400000033 2.4847775200000002 Au
atom 15.9468069099999994 32.7380941199999995 2.5415495199999998 Au
atom 18.8080970200000017 32.7926150799999974 2.6320748599999999 Au
atom 21.5128925700000018 33.1096386500000008 2.6369045000000000 Au
atom 24.4321846499999999 32.8242066299999991 2.6468111099999998 Au
atom 27.2025692200000009 33.2066844599999982 2.7299619200000000 Au
atom 1.8971840600000001 32.9334841399999974 2.4025414399999998 Au
atom 4.7134050900000002 33.0070888999999994 2.8735216100000001 Au
atom 8.9386566700000003 35.4282820099999967 2.5740692500000000 Au
atom 11.7111196700000004 35.3206654399999991 2.6929652300000000 Au
atom 14.6070341900000003 35.5453894700000035 2.5630011599999998 Au
atom 17.1459332300000007 35.2955874199999968 2.6950089699999999 Au
atom 20.3730008500000004 35.6481761800000001 2.3884623999999999 Au
atom 23.0499264299999993 35.3733370400000027 2.7028394400000000 Au
atom 25.9629914200000016 35.5600801200000021 2.7061302299999999 Au
atom 0.5541179200000000 35.5111089999999976 2.7128091099999998 Au
atom 3.3529441499999999 35.3423723599999988 2.5726572000000001 Au
atom 6.1035094399999998 35.3290270500000005 2.6069394500000000 Au
atom 7.6422141400000001 37.8000829300000021 2.6759421400000001 Au
atom 10.3713625300000007 37.7684596300000024 2.6197272800000002 Au
atom 13.1236073900000001 37.7630760099999989 2.5675003599999999 Au
atom 15.9268027500000002 37.9677891799999969 2.5983169400000001 Au
atom 18.6848870600000012 37.7006358100000014 2.6578302100000002 Au
atom 21.4236768899999994 37.6502893199999988 2.7375369900000002 Au
atom 24.3229262499999983 38.0428939600000007 2.5351510300000002 Au
atom 27.3689755400000010 37.7875113799999980 2.7490108000000002 Au
atom 1.8629806300000000 37.8014389800000004 2.4327880700000000 Au
atom 4.4483221700000000 37.8510169999999988 2.8416740800000002 Au
atom 8.8955638300000004 0.9268771900000000 2.7937415699999999 Au
atom 11.7030808000000004 0.9198736100000000 2.7182737800000001 Au
atom 14.4106915299999994 0.8363391400000000 2.6722692600000002 Au
atom 17.3396047799999984 0.9503195300000000 2.7801441900000001 Au
atom 20.2208074899999986 0.8187359900000000 2.6634630800000001 Au
atom 23.0522841400000011 0.7985863100000000 2.5784306799999999 Au
atom 25.9536036800000005 0.7064625200000000 2.6675449499999999 Au
atom 0.2951118600000000 0.8512246800000000 2.6188059899999998 Au
atom 3.4103761800000001 0.8701811300000000 2.7353921099999998 Au
atom 6.1057970600000004 0.9295599400000000 2.5898468600000002 Au
atom 7.5356122399999999 3.3904196500000001 2.5816145700000002 Au
atom 10.4892360500000006 3.3578117000000001 2.6964152200000000 Au
atom 13.1472908000000004 3.3519490099999998 2.9813744500000001 Au
atom 15.8363585100000002 3.3611259499999999 2.5505028200000002 Au
atom 18.7280421699999984 3.3100300200000001 2.7066540200000002 Au
atom 21.4204389599999985 3.3560729899999999 2.7875502999999999 Au
atom 24.4769495100000007 3.4241058799999999 2.4475260599999999 Au
atom 27.2214218800000012 3.3443846200000000 2.3906161400000001 Au
atom 1.7932218099999999 3.3624914600000002 2.5453079600000001 Au
atom 4.4945092799999999 3.2340433700000002 2.7060780100000001 Au
atom 8.7292776599999993 5.6243556200000002 2.6277117900000002 Au
atom 11.6134404300000007 5.7789536400000001 2.7558707299999998 Au
atom 14.4326203399999997 5.7697418699999998 2.8207678399999998 Au
atom 17.3846654600000008 5.7579823899999996 2.7369520700000001 Au
atom 20.4384136900000009 5.8844353399999996 2.6853437499999999 Au
atom 23.0959557800000006 5.9944730599999998 2.6945791600000000 Au
atom 25.8414271299999996 5.7617201500000004 2.5749365700000002 Au
atom 0.4670506700000000 5.9393044399999999 2.7477553000000001 Au
atom 3.1559751800000000 5.9098802399999997 2.8239571600000000 Au
atom 6.1037110400000003 5.5464396100000002 2.8425111400000000 Au
atom 7.5473185400000000 8.4688035799999994 2.6272191000000000 Au
atom 10.3891970899999997 8.1823065600000007 2.6774950899999999 Au
atom 13.0741317099999996 8.3978287300000005 2.6897924999999998 Au
atom 16.0356634999999983 8.1672686900000002 2.6379018400000001 Au
atom 18.8676220000000008 8.1833946199999996 2.6717326799999999 Au
atom 21.6271347799999987 8.1114344200000001 2.6525717400000000 Au
atom 24.4244018199999999 8.3376351000000000 2.6432845899999999 Au
atom 27.2901467999999987 8.2427798899999996 2.4458653600000000 Au
atom 1.8942403600000000 8.1713402500000001 2.7823650299999998 Au
atom 4.8410110099999999 8.2590386799999997 2.5553342600000000 Au
atom 8.9905682000000002 10.7775103100000003 2.5502159000000000 Au
atom 11.6252555700000002 10.5950746500000008 2.7240414700000000 Au
atom 14.5479026999999999 10.8426079000000009 2.6100625100000001 Au
atom 17.3472909999999985 10.6385501700000003 2.7685600199999998 Au
atom 20.2651924699999988 10.5742832599999996 2.6442893199999999 Au
atom 22.8655015900000009 10.7272088100000005 2.6405644000000001 Au
atom 25.8259985800000003 10.7805245000000003 2.6391675200000000 Au
atom 0.4464944400000000 10.5936001799999993 2.7110280499999999 Au
atom 3.2842584300000000 10.6702707500000002 2.5403079800000001 Au
atom 6.1409632500000004 10.8013813100000000 2.6521108500000001 Au
atom 7.5080298100000000 13.0532078699999996 5.7282597300000004 Cl
atom 7.6376605800000004 16.0544423099999989 8.4871306900000008 Cl
atom 7.5947056000000002 13.1013851399999997 8.2268844899999998 Na
atom 7.6544583599999996 16.1592962000000000 5.9026470499999997 Na
atom 7.3964679499999999 18.9778453800000015 5.4519974500000004 Cl
atom 7.4347507500000001 21.6822017900000006 8.6881095100000003 Cl
atom 7.6199654199999998 18.7356271099999994 8.3937296900000007 Na
atom 7.5206470999999997 21.5757841799999994 5.9962485299999999 Na
atom 7.3748811500000002 24.2828675999999994 5.6563292000000001 Cl
atom 7.4189338600000001 27.3186339199999999 8.3939669600000002 Cl
atom 7.4480967600000003 24.4988082899999995 8.5410906799999999 Na
atom 7.3707673500000004 27.3206503400000003 5.8904138699999997 Na
atom 7.6054225000000004 30.1859715000000008 5.6633006100000003 Cl
atom 7.6150500399999999 32.8620618100000002 8.6181990600000002 Cl
atom 7.4660305800000000 30.0597569100000008 8.3482803099999998 Na
atom 7.5631423699999996 32.8619259600000007 5.9098762000000002 Na
atom 7.2871675500000004 35.8003209999999967 5.6681435999999996 Cl
atom 7.3964240500000002 38.5364663699999994 8.4774782399999999 Cl
atom 7.6258170900000000 35.7996877499999968 8.2858614799999994 Na
atom 7.5153748800000004 38.7412716899999978 5.7083335999999996 Na
atom 7.5152486100000004 1.9704080399999999 5.7536380400000002 Cl
atom 7.5169428900000002 4.6859233800000002 8.7209293199999998 Cl
atom 7.4327716199999996 1.9410590700000001 8.4649788200000007 Na
atom 7.4715270499999997 4.5126807800000002 6.0822793900000001 Na
atom 7.6334274799999999 7.5686992000000002 5.7900044199999998 Cl
atom 7.6069702799999996 10.3624185999999998 8.5582872900000009 Cl
atom 7.4709287399999997 7.3745581400000004 8.4182170500000009 Na
atom 7.4731736199999999 10.2391785199999994 5.7253113899999999 Na
atom 10.2492403099999994 13.1388555300000007 5.5608001900000001 Na
atom 13.1944712800000001 12.9297798099999994 5.6870991000000002 Cl
atom 10.7516880500000003 15.9471476499999998 8.0351487499999994 Na
atom 13.4179809199999998 16.6478532500000007 7.6273536699999998 Cl
atom 12.9019999100000007 12.8145671100000005 8.2553366599999993 Na
atom 10.4643015500000001 13.1029990600000001 8.4205308700000003 Cl
atom 13.2324182300000004 15.9794946200000005 5.3344502599999997 Na
atom 10.0738390500000001 16.1624390499999997 5.2904750299999996 Cl
atom 10.2393338299999996 19.0141356799999990 5.5797179600000000 Na
atom 13.0300484099999991 19.5748077199999990 5.2404166200000004 Cl
atom 10.3375701499999995 21.8958150499999995 8.3331625599999999 Na
atom 13.3735478099999998 22.0275095199999988 8.4213639699999998 Cl
atom 13.1227896899999994 19.1003646200000006 7.7854169799999999 Na
atom 10.3827850300000009 19.0757468999999986 8.2684091500000001 Cl
atom 13.0247659299999992 21.9417854299999995 5.6043437400000000 Na
atom 10.1489200400000001 21.8679104200000012 5.6151970599999999 Cl
atom 10.1931546999999991 24.4181410499999991 5.8451440999999997 Na
atom 13.0867264100000007 24.8327016000000000 5.7483685199999996 Cl
atom 10.1815241800000003 27.1815589700000011 8.2777831099999997 Na
atom 13.1513678299999999 27.2135012600000010 8.3106628400000009 Cl
atom 13.2506901799999994 24.4486564299999998 8.3044018800000003 Na
atom 10.3503033700000007 24.3462926999999993 8.4106458400000008 Cl
atom 12.9444156699999997 27.2794327400000007 5.7395032400000003 Na
atom 10.4516525599999994 27.3326051200000002 5.7239371700000001 Cl
atom 10.2582891699999994 30.0808200399999990 5.8545031999999999 Na
atom 12.9786972699999996 30.3883520699999998 5.8169613099999999 Cl
atom 10.2742432800000003 32.9522528700000024 8.4360286200000001 Na
atom 13.1146476399999994 33.0036760799999982 8.7823094000000008 Cl
atom 13.3078746599999995 29.8294072700000008 8.3122379199999994 Na
atom 10.2540252699999996 29.9744046600000011 8.4912344399999995 Cl
atom 13.1189194600000008 33.0094902700000006 6.0006419400000004 Na
atom 10.1327256000000006 32.8005612199999987 5.6444195700000002 Cl
atom 10.2117424099999994 35.7025433499999991 5.7470712600000002 Na
atom 13.0905482600000003 35.8291555599999967 5.7841979400000003 Cl
atom 10.5543369499999997 38.6661278199999998 8.4262518699999998 Na
atom 13.1755113700000006 38.5257221000000030 8.6106320499999995 Cl
atom 13.2312089799999999 35.9122619899999975 8.4455170200000005 Na
atom 10.3264271599999997 35.6737033799999992 8.6794387999999998 Cl
atom 13.2161813600000002 38.4590772700000016 5.8650995699999999 Na
atom 10.5690356699999999 38.6275550800000005 5.6794576599999997 Cl
atom 10.2131025100000006 1.9264536900000000 5.7747780600000000 Na
atom 12.9801224099999999 1.9169809200000001 5.9115813900000003 Cl
atom 10.3015700599999995 4.7309863900000000 8.4185785699999993 Na
atom 13.1443693300000000 4.7721995899999996 8.5283988700000002 Cl
atom 12.9741835800000000 1.9903309100000000 8.4627887299999998 Na
atom 10.2690645699999994 1.9027924100000000 8.6160201000000001 Cl
atom 13.1557263500000001 4.6650111599999997 5.6145416800000003 Na
atom 10.3325220000000009 4.5136461199999998 5.6071276699999997 Cl
atom 10.1945096500000005 7.3251825200000003 5.8864000200000000 Na
atom 13.2704410100000008 7.2139890299999996 5.6127900600000000 Cl
atom 10.4472632900000004 10.2467594099999992 8.5527422699999995 Na
atom 13.2605364699999999 10.2736021399999995 8.5646633800000007 Cl
atom 13.1322041499999997 7.4424395499999996 8.3681405099999999 Na
atom 10.1183356399999997 7.4421798900000002 8.9481252300000005 Cl
atom 13.2527389299999996 10.3390190499999992 5.5086145200000001 Na
atom 10.4244480900000003 10.2630928400000005 5.9480060500000000 Cl
atom 15.9807720100000008 13.1144570999999992 5.6440160099999996 Na
atom 18.9570325000000004 12.9770053599999997 5.6648351000000003 Cl
atom 15.9118637100000004 15.9983640200000004 7.8812141899999997 Na
atom 18.8405193699999991 16.0364342600000001 8.7932184800000002 Cl
atom 18.8127638600000004 13.2253265500000001 8.2094420800000005 Na
atom 15.8849956199999998 13.0504064999999994 8.2535735100000007 Cl
atom 19.0213821400000000 15.9119743499999995 5.8672872600000003 Na
atom 16.5500477299999993 15.5958839200000003 5.3734344500000004 Cl
atom 15.8684106099999997 18.8079990300000013 5.5365057300000000 Na
atom 18.7993507999999991 18.6022500700000002 5.4673666399999998 Cl
atom 16.3040379100000017 21.7329308599999997 7.8640596100000000 Na
atom 19.1425848599999995 21.7414976799999984 8.0821259100000002 Cl
atom 18.9290429799999984 18.7766615399999992 8.2146515900000008 Na
atom 16.2126953600000014 19.1429645199999996 8.3482789299999993 Cl
atom 18.7852888200000017 21.4924852800000004 5.2933897300000003 Na
atom 15.9522112200000006 21.6236532799999992 5.3337746800000003 Cl
atom 16.1744119300000015 24.2651715099999983 5.4118270800000001 Na
atom 19.1597094900000009 24.6063038799999987 5.1662177199999997 Cl
atom 16.0684223999999993 27.3078075700000014 8.2472532300000001 Na
atom 18.7866992500000016 27.0903500999999984 8.4672105299999991 Cl
atom 18.8803745599999999 24.3567109899999998 7.9203702399999996 Na
atom 16.0310537800000006 24.5806628600000003 8.2292794100000002 Cl
atom 18.8992514699999994 27.0283341200000002 5.7928090100000000 Na
atom 15.9734517799999995 27.4749497500000004 5.7341716199999997 Cl
atom 15.9694337500000003 30.2153880400000006 5.9610456000000003 Na
atom 18.7885043299999985 30.0936994400000017 5.8923879200000000 Cl
atom 15.9741187300000007 32.8772417899999994 8.2820118100000002 Na
atom 18.8954989799999993 32.8933129099999988 8.5412789599999996 Cl
atom 18.5716598099999999 29.9491779200000003 8.5058002699999999 Na
atom 15.9735265900000005 30.1191573400000010 8.5500909000000007 Cl
atom 18.7420749399999984 32.7472230199999998 5.8766799699999996 Na
atom 16.0391485100000004 33.0272226499999988 5.7398241800000003 Cl
atom 16.0929460400000011 35.7623015899999999 5.7890523800000002 Na
atom 18.8511509500000010 35.6054675000000032 5.7346594099999999 Cl
atom 15.9578215100000005 38.7035802099999984 8.3812605700000002 Na
atom 18.8225194999999985 38.6108577600000018 8.5231175700000001 Cl
atom 18.7690655000000000 35.6803593300000017 8.3986252100000005 Na
atom 15.8826660799999999 35.7654387199999988 8.5225043300000003 Cl
atom 18.8067837400000002 38.5739176100000023 5.9137990399999998 Na
atom 16.1085635899999993 38.8596265099999982 5.7346537099999999 Cl