#===============================================================================
# Created using the Atomic Simulation Environment (ASE)

# Tue Dec 23 21:43:00 2025

#=======================================================
lattice_vector 28.1999999999999993 0.0000000000000000 0.0000000000000000 
lattice_vector 0.0000000000000000 39.4799999999999969 0.0000000000000000 
lattice_vector 0.0000000000000000 0.0000000000000000 62.3296083400000001 
atom 7.5755939100000003 14.8143983299999995 -0.1471529800000000 Au
atom 10.4613294200000002 14.9524449799999992 -0.3698662600000000 Au
atom 13.2180533600000008 14.9040701700000007 0.1606781200000000 Au
atom 16.0648497299999988 14.9228346799999994 -0.1890861100000000 Au
atom 18.8202285799999984 14.8220687099999999 -0.3194492500000000 Au
atom 21.6274942699999997 14.6840294700000005 -0.3017131300000000 Au
atom 24.4422176100000001 14.7590707999999999 -0.1978653800000000 Au
atom 27.3750589499999997 14.6900336899999999 -0.1035426500000000 Au
atom 1.9167962400000000 14.7967892600000006 0.0510485200000000 Au
atom 4.7137239900000001 14.9281433200000002 -0.4168892700000000 Au
atom 9.0261633799999998 17.2687581399999992 0.0426603300000000 Au
atom 11.9038094200000000 17.3016065200000000 0.1189614000000000 Au
atom 14.7081658599999994 17.3812919500000014 0.3468428300000000 Au
atom 17.5009247899999991 17.3176201899999995 0.3513084500000000 Au
atom 20.3200232999999990 17.4409855600000014 -0.1541798100000000 Au
atom 23.1145390299999995 17.1635970799999988 -0.1854844900000000 Au
atom 25.9244145300000000 17.1923142300000009 -0.1990470900000000 Au
atom 0.4566137600000000 17.2294697700000015 0.0431444700000000 Au
atom 3.2487132900000000 17.2192150599999998 0.1113735100000000 Au
atom 6.1231517499999999 17.3241472399999985 -0.2026374600000000 Au
atom 7.6753937700000003 19.6789234099999994 -0.0749553500000000 Au
atom 10.4586957999999992 19.6569242300000013 0.3089418000000000 Au
atom 13.3026183400000004 19.7098769000000011 0.4672068900000000 Au
atom 16.1135919700000017 19.7454249100000006 0.4080175600000000 Au
atom 18.9025445300000001 19.7453591099999990 0.0653214400000000 Au
atom 21.7544913599999994 19.8851851800000006 0.0525829200000000 Au
atom 24.5035513599999994 19.6227667100000005 0.2572552700000000 Au
atom 27.2911087499999994 19.7187951699999999 -0.1605595700000000 Au
atom 1.9480191499999999 19.8327104100000007 -0.1134091600000000 Au
atom 4.8713328499999999 19.7513750299999984 -0.1194312200000000 Au
atom 8.9145217900000002 22.0672447399999996 -0.0394605500000000 Au
atom 11.7404375000000005 22.1446024399999999 0.1810142000000000 Au
atom 14.5880281299999996 22.1888933000000002 0.4707646700000000 Au
atom 17.5180925899999984 22.2121836200000011 0.2201049200000000 Au
atom 20.2977606199999983 22.2949508799999983 0.1949097400000000 Au
atom 23.1052826799999984 22.2462542499999998 0.2349336300000000 Au
atom 25.8549364100000005 22.1546591600000013 0.2291760400000000 Au
atom 0.4605855200000000 22.3099296000000002 -0.1621490600000000 Au
atom 3.4002883800000001 22.3088846099999998 -0.3912862000000000 Au
atom 6.1601617500000003 22.1662632500000001 0.0281458500000000 Au
atom 7.6436799500000001 24.5803234599999989 0.1564081500000000 Au
atom 10.3305061200000008 24.6704603800000015 0.1881323400000000 Au
atom 13.2126987000000007 24.5755815899999988 0.2225169600000000 Au
atom 16.0817503600000009 24.5982213200000004 0.1795867200000000 Au
atom 18.9459144799999990 24.7650398600000017 0.2166415800000000 Au
atom 21.6721766799999997 24.7919388599999984 0.0805766700000000 Au
atom 24.3862466399999995 24.5586188700000001 0.1519086700000000 Au
atom 27.2757930100000010 24.6040489600000001 0.0738999500000000 Au
atom 1.8485101300000000 24.8198614299999996 0.0897032400000000 Au
atom 4.7743924900000003 24.6383611400000007 -0.2691290400000000 Au
atom 9.0047132300000001 27.1130190499999983 -0.0375478200000000 Au
atom 11.8198618399999997 27.0752650700000004 0.0249501000000000 Au
atom 14.5887661899999994 26.9444546600000017 0.2300756800000000 Au
atom 17.4193540499999990 27.1694008499999988 0.2520894400000000 Au
atom 20.2673297000000012 27.1348012899999986 0.4443663600000000 Au
atom 23.0590405499999989 27.1179597100000009 0.1850156100000000 Au
atom 25.9175945799999994 27.1571191100000000 0.0456037500000000 Au
atom 0.4487758300000000 27.2313862499999999 0.0702631600000000 Au
atom 3.3895489400000001 27.1773603600000015 -0.2352242400000000 Au
atom 6.1221909800000001 26.9947789200000017 0.0493091000000000 Au
atom 7.5486183300000000 29.5273129499999989 -0.2992981300000000 Au
atom 10.3687971900000004 29.6164933200000000 0.0981335600000000 Au
atom 13.2338830800000000 29.6405726399999985 0.0298394000000000 Au
atom 15.9790425099999993 29.6014841000000004 -0.0285171000000000 Au
atom 18.8822036299999994 29.6275436200000009 0.0253416100000000 Au
atom 21.7763285999999994 29.6275573100000003 0.1711632200000000 Au
atom 24.5028512200000002 29.5490989900000010 0.2052993300000000 Au
atom 27.1725510700000008 29.5780797900000003 -0.1525943900000000 Au
atom 1.9755356900000001 29.7037917900000004 -0.1789869500000000 Au
atom 4.7610756199999997 29.5713710200000008 -0.1515363600000000 Au
atom 8.8771402100000003 32.0141459499999996 -0.1561680100000000 Au
atom 11.8217432799999997 32.0459842699999982 0.0371665700000000 Au
atom 14.6423268699999998 32.1820831100000007 0.1210048500000000 Au
atom 17.4296717799999996 32.1066822100000024 -0.0256414100000000 Au
atom 20.2597756900000014 32.0186146400000027 -0.0579558800000000 Au
atom 23.0585187599999983 32.1111324600000003 0.2954716500000000 Au
atom 25.8280884700000009 32.1492929099999998 0.1689507200000000 Au
atom 0.3318660000000000 32.0414200299999976 0.0277971100000000 Au
atom 3.3955665100000001 32.0533136600000006 -0.1500581500000000 Au
atom 6.1240863399999999 32.0306775399999992 -0.2752379500000000 Au
atom 7.6149046499999997 34.5304986900000017 -0.4307017800000000 Au
atom 10.3165156699999994 34.5287949599999990 0.0061224900000000 Au
atom 13.1179513799999992 34.6222103599999969 -0.0381921400000000 Au
atom 15.8854333400000005 34.4714559399999985 0.2180950700000000 Au
atom 18.7893844100000003 34.6541389100000004 -0.0298216400000000 Au
atom 21.5025493800000014 34.4883547900000025 0.4454556200000000 Au
atom 24.2883960999999999 34.4976876400000023 -0.1573762400000000 Au
atom 27.1471560700000012 34.5884643500000024 -0.0649069300000000 Au
atom 1.8432343200000001 34.6474090899999965 -0.1245283800000000 Au
atom 4.6831560300000001 34.5443671800000018 -0.0791672700000000 Au
atom 9.0182821700000009 37.0067013800000026 0.0756650600000000 Au
atom 11.7676945100000001 37.1547525100000016 -0.0164485300000000 Au
atom 14.5173261100000008 36.9611133599999988 0.4116425600000000 Au
atom 17.3108090099999998 36.9058806199999978 0.5063887200000000 Au
atom 20.1842463199999997 37.0361981300000025 0.2079664900000000 Au
atom 22.9419077199999997 36.9738197400000033 0.1497621600000000 Au
atom 25.7381713400000010 37.0681389499999980 -0.1424275300000000 Au
atom 0.3998311300000000 37.1333556299999969 -0.1289232800000000 Au
atom 3.3079830200000000 37.1023552699999968 -0.2486885300000000 Au
atom 6.1020864899999996 37.0583362699999981 -0.1721362000000000 Au
atom 7.5706964299999999 -0.0582287700000000 0.1381631500000000 Au
atom 10.2933429000000007 0.0549807100000000 -0.1101340800000000 Au
atom 13.1178547000000005 0.0416153000000000 0.0483700400000000 Au
atom 15.9874022700000005 -0.0407520900000000 0.1751707000000000 Au
atom 18.7973039399999990 -0.0922289600000000 0.1934416800000000 Au
atom 21.6920295699999990 -0.0478062700000000 0.1659886300000000 Au
atom 24.3751940500000011 -0.0045534800000000 0.1060236600000000 Au
atom 27.1949548700000001 0.0683600500000000 0.1347725700000000 Au
atom 1.8618879300000000 0.0140128300000000 0.3172902000000000 Au
atom 4.6042965899999997 -0.0089201400000000 0.3331302500000000 Au
atom 8.9078346699999997 2.4367414799999998 0.0849220300000000 Au
atom 11.7351541299999997 2.4672209899999999 -0.0491251500000000 Au
atom 14.5019266099999999 2.3847035299999999 0.1141397000000000 Au
atom 17.2990164300000018 2.4644952899999999 0.3822689500000000 Au
atom 20.0026330899999998 2.3233928300000000 0.0077456600000000 Au
atom 23.0450589400000005 2.4884842599999999 0.0214856800000000 Au
atom 25.8345517700000009 2.4677172999999999 0.1189736200000000 Au
atom 0.4148288300000000 2.4218833800000001 0.2109295600000000 Au
atom 3.1695754699999998 2.5006868099999999 0.0651357400000000 Au
atom 5.9738393399999996 2.3726122699999999 0.0806948300000000 Au
atom 7.4780955200000001 4.8096717800000004 -0.0487706500000000 Au
atom 10.2517933200000009 4.8050016600000003 0.1659230500000000 Au
atom 13.1483547800000000 4.8347042099999999 0.0619261900000000 Au
atom 15.8939363399999998 4.8852812999999999 0.1174255400000000 Au
atom 18.7154421699999993 4.9255584099999998 0.2147569600000000 Au
atom 21.4855385500000011 4.9368217200000002 0.1292490600000000 Au
atom 24.3909930800000012 4.9606211800000004 0.1052819200000000 Au
atom 27.2029822500000016 4.9051699400000004 0.0538413900000000 Au
atom 1.7226615700000001 4.8740387399999996 0.0532881200000000 Au
atom 4.5717930000000004 4.9523114200000000 -0.0374623300000000 Au
atom 8.8885646400000002 7.3432610699999996 -0.0107061900000000 Au
atom 11.6532502000000004 7.2254741999999998 0.0017927400000000 Au
atom 14.4353981099999995 7.3388449600000003 -0.0137709900000000 Au
atom 17.1825899000000000 7.3096636200000003 -0.2428766700000000 Au
atom 20.0639254600000001 7.4476707400000004 -0.1074816800000000 Au
atom 22.8822102500000000 7.4371303900000001 0.0417884900000000 Au
atom 25.7426309700000004 7.3661554999999996 0.0330841700000000 Au
atom 0.3805763000000000 7.3799608699999997 0.1784791300000000 Au
atom 3.1820973900000000 7.3087404700000000 -0.3837497100000000 Au
atom 6.0934951699999997 7.3042631800000004 -0.4443423200000000 Au
atom 7.5180191100000000 9.8439719199999995 -0.3841787300000000 Au
atom 10.2717831900000007 9.8414116699999994 -0.1608033100000000 Au
atom 13.0897019599999993 9.8122366099999994 -0.2784313500000000 Au
atom 15.9588859099999993 9.8681657200000004 -0.2113253100000000 Au
atom 18.7047258599999999 9.8685395400000004 -0.1256827600000000 Au
atom 21.5595088200000014 9.8173013499999993 -0.1249332400000000 Au
atom 24.4609308500000004 9.8205181800000005 -0.1592290700000000 Au
atom 27.1113113500000011 9.7414399800000009 0.0540343000000000 Au
atom 1.7764578499999999 9.7777098200000001 -0.1546351900000000 Au
atom 4.6500204600000004 9.8096766899999999 -0.2528000700000000 Au
atom 8.9972922000000004 12.3541295400000006 -0.5967249400000000 Au
atom 11.7983226699999992 12.3251118700000006 -0.3230561700000000 Au
atom 14.6728495199999998 12.3913684199999992 -0.1737297500000000 Au
atom 17.4111592399999999 12.3318416800000001 -0.3339958600000000 Au
atom 20.1906604899999991 12.2854466400000000 -0.1388766000000000 Au
atom 23.0731080000000013 12.2237877099999999 -0.4402289300000000 Au
atom 25.8579412700000013 12.2182233500000006 0.0044286400000000 Au
atom 0.5021735500000000 12.3146539799999992 0.0135687100000000 Au
atom 3.2881064300000000 12.3616229200000003 -0.2979102200000000 Au
atom 6.0842578500000002 12.4382238899999997 -0.2462424400000000 Au
atom 7.4361654300000000 13.1748315199999997 2.4600153699999998 Au
atom 10.3105103600000003 13.2102146499999993 1.9978041200000001 Au
atom 13.0492163600000008 13.1853870600000000 2.6022285100000002 Au
atom 16.0380006000000002 13.1757106700000008 2.2544174699999999 Au
atom 18.8614574499999996 13.1973794299999998 2.4792363200000000 Au
atom 21.6269443499999987 13.1989490499999995 2.3326461400000000 Au
atom 24.4051051500000007 13.1930011300000007 2.4095785900000002 Au
atom 27.2857895200000016 13.1287179199999997 2.5339599200000000 Au
atom 1.9501270100000001 13.1916098300000009 2.5758518000000001 Au
atom 4.7179467099999997 13.2547012700000000 2.1380257500000002 Au
atom 8.9003736900000003 15.5699228699999992 2.4379724600000001 Au
atom 11.7041899699999998 15.6901309599999994 2.6891587100000001 Au
atom 14.7055813200000003 15.5441263200000002 2.7794028200000001 Au
atom 17.4675649100000001 15.6043566400000007 2.5984892099999999 Au
atom 20.2236764600000001 15.6519414599999998 2.2651379100000000 Au
atom 23.1229226700000012 15.6480011599999997 2.4102668800000000 Au
atom 25.8905954399999985 15.5299216500000004 2.4223260099999999 Au
atom 0.5437925900000000 15.6275181100000005 2.8712494099999999 Au
atom 3.4303873000000000 15.7277313400000001 2.5308215900000000 Au
atom 6.1294629399999998 15.7406571500000005 2.3093745000000001 Au
atom 7.6121907699999998 18.0849501600000018 2.5511357800000001 Au
atom 10.4010558799999995 18.1349733600000000 2.7476288400000000 Au
atom 13.2512826700000002 17.9577837500000008 3.0834672099999998 Au
atom 16.0541209599999988 18.0720780800000007 3.1529918000000001 Au
atom 19.0507516499999987 18.1796718400000010 2.6489158599999998 Au
atom 21.7808756700000004 18.0883895599999995 2.4020698299999999 Au
atom 24.5094602799999990 17.9772506099999987 2.7819101300000000 Au
atom 27.4201744000000005 18.0823262299999996 2.5057624500000002 Au
atom 1.9790888200000001 18.1169460999999998 2.5650356699999999 Au
atom 4.8045609999999996 18.1518042400000006 2.4785054799999999 Au
atom 8.9892645699999996 20.6319018599999993 2.5842903599999998 Au
atom 11.7200223300000008 20.6547780799999998 3.0525609199999999 Au
atom 14.6337181600000008 20.6361299000000002 3.0854602500000001 Au
atom 17.5246601700000006 20.5297960400000008 2.8169447800000000 Au
atom 20.3486693199999991 20.5596353699999987 2.7413008799999998 Au
atom 23.1938226100000016 20.5296698699999993 2.8436452499999998 Au
atom 25.9443539299999983 20.4001956799999995 2.7871926600000001 Au
atom 0.4973075300000000 20.5108617700000018 2.4834837400000001 Au
atom 3.3610493600000000 20.5665408499999991 2.4004550400000002 Au
atom 6.1768678100000001 20.6029715300000014 2.5895668800000000 Au
atom 7.5324772099999997 23.0873939499999992 2.8888795100000002 Au
atom 10.4073696499999997 23.0475714499999995 2.6206624800000000 Au
atom 13.1634976399999992 23.1618328300000016 2.9508556000000001 Au
atom 15.9722900800000005 23.0372236699999995 2.9477436099999998 Au
atom 18.8918688000000010 23.0183880899999984 2.8543312699999999 Au
atom 21.7287907999999987 22.9036049099999985 2.9292543400000000 Au
atom 24.4287806200000013 23.0114797799999984 2.8426854900000000 Au
atom 27.3324919299999998 22.9028138000000006 2.7197573899999998 Au
atom 2.0455786900000001 22.9927217900000009 2.2660412399999998 Au
atom 4.7616824700000002 23.0221312199999986 2.2955861999999998 Au
atom 8.8376398700000003 25.6071712900000001 2.8859522800000001 Au
atom 11.7130901299999994 25.6460072900000000 2.8060041500000001 Au
atom 14.5877067700000005 25.5954304400000012 2.8857489900000002 Au
atom 17.4650754699999986 25.5863903999999991 2.9558627199999998 Au
atom 20.2154605700000012 25.4986920200000000 2.9571511199999998 Au
atom 22.9353383999999991 25.4402811399999997 2.8139199800000001 Au
atom 25.8324018299999985 25.4503966400000010 2.6699452500000000 Au
atom 0.4061237100000000 25.3769457900000006 2.8097090599999999 Au
atom 3.2965902900000001 25.5296552299999995 2.3988219900000001 Au
atom 6.0408343799999997 25.4849847300000008 2.5564858500000001 Au
atom 7.4403720000000000 28.0247889599999986 2.5719131599999998 Au
atom 10.2429506200000002 27.9640388100000017 2.5082916300000000 Au
atom 13.1710138699999995 28.0659968900000010 2.7649545099999999 Au
atom 16.0178637600000009 28.0882596500000012 2.8058584799999999 Au
atom 18.8073526400000013 28.0301604399999995 2.9593763599999998 Au
atom 21.7970979800000002 27.9786616300000013 3.0159024300000001 Au
atom 24.5731386100000009 27.9101601399999986 2.6803526099999999 Au
atom 27.3609835200000013 27.9160025000000012 2.5859046200000000 Au
atom 1.9839257100000001 27.9541100100000008 2.4683214499999999 Au
atom 4.7480122400000004 27.9790710000000011 2.4269944300000001 Au
atom 8.8392764100000001 30.3941572499999992 2.4630124499999999 Au
atom 11.7448657799999996 30.3868706700000004 2.7306564000000000 Au
atom 14.5304277699999993 30.4283485599999999 2.7086742099999999 Au
atom 17.4619202099999988 30.3691386799999989 2.3918713600000001 Au
atom 20.3377325000000013 30.3249803900000003 2.4964925500000001 Au
atom 23.1607880900000005 30.3909524600000012 2.8189505399999999 Au
atom 25.9768092000000017 30.3925058399999983 2.5886919000000002 Au
atom 0.6290564300000000 30.5143832900000014 2.4188160500000002 Au
atom 3.3340914900000000 30.5160325099999987 2.5630019000000002 Au
atom 6.0803434300000001 30.5661585500000008 2.4025363700000000 Au
atom 7.5158344499999998 33.0761014300000014 2.1876673200000001 Au
atom 10.2716501699999991 32.7844972799999965 2.5194080200000002 Au
atom 13.1555088700000002 32.8666473700000026 2.6585851800000002 Au
atom 16.0653249100000011 32.7370438800000016 2.9955672600000001 Au
atom 18.7879635200000017 32.9085438400000001 2.6623656100000002 Au
atom 21.7193911899999996 32.7718625400000008 2.7532629200000001 Au
atom 24.5821710399999986 32.8452913899999999 2.7248647600000000 Au
atom 27.3617334700000008 32.8805705700000033 2.6750587200000000 Au
atom 2.0292542500000001 32.9534664899999967 2.3649665199999998 Au
atom 4.7599757399999998 32.9873421100000002 2.4430794300000001 Au
atom 8.8500357399999992 35.3825699400000033 2.4882606799999998 Au
atom 11.7173925800000003 35.3498147099999969 2.6401677399999999 Au
atom 14.5469385100000004 35.3423204500000026 2.9745619699999999 Au
atom 17.3642723699999983 35.2754821400000012 2.8901634700000001 Au
atom 20.2613028899999996 35.3768596000000031 3.1009901000000002 Au
atom 23.0931874300000004 35.4586099799999985 2.8405070399999999 Au
atom 25.8553484000000005 35.4223907100000019 2.5023040200000000 Au
atom 0.4465405200000000 35.3181372600000003 2.4337260299999999 Au
atom 3.2832212900000002 35.4774864099999974 2.4032173100000001 Au
atom 6.0886577600000003 35.4623155499999996 2.3185411600000001 Au
atom 7.4524863799999999 37.8016924300000028 2.6685680899999999 Au
atom 10.3412910999999994 37.7930334099999996 2.6223128600000001 Au
atom 13.1301873499999999 37.8903979199999981 2.7135444299999998 Au
atom 15.9967496100000002 37.8147961499999994 2.8885688400000000 Au
atom 18.7608786599999995 37.7885936400000020 2.9038197499999998 Au
atom 21.6904666599999985 37.9449286700000030 2.7782936500000002 Au
atom 24.5018295399999992 37.8165978999999979 2.6075436999999999 Au
atom 27.3432125299999988 37.7791641900000030 2.6805739499999999 Au
atom 1.8938572199999999 37.8263141600000026 2.5099662700000001 Au
atom 4.6732744999999998 37.9194697699999992 2.6841877400000000 Au
atom 8.9243812499999997 0.7712830100000000 2.8058181200000001 Au
atom 11.7462779000000008 0.7697313800000000 2.7452744800000000 Au
atom 14.6071932499999999 0.8675059200000000 2.7237894599999999 Au
atom 17.4447162499999990 0.8179607700000000 2.8470560200000001 Au
atom 20.2420933900000009 0.9203574900000000 2.6908135500000001 Au
atom 23.0217784700000010 0.8760553700000000 2.9395367900000000 Au
atom 25.8427211399999983 0.7804598600000000 2.6796199100000000 Au
atom 0.3613415600000000 0.8619804700000000 2.9723808799999998 Au
atom 3.2748587200000001 0.9047521700000000 2.8116596700000001 Au
atom 6.0482221599999999 0.8587909100000000 2.8132786200000002 Au
atom 7.4014196700000001 3.2555787700000001 2.6330467199999998 Au
atom 10.3555633799999995 3.2480235999999998 2.7998573699999998 Au
atom 13.0919766499999994 3.3977187500000001 2.8029275000000000 Au
atom 15.9462310800000004 3.3145950499999999 2.8573644300000001 Au
atom 18.8584561999999991 3.2412702699999998 2.7933911800000000 Au
atom 21.6845640599999996 3.3390408699999998 2.6819803000000002 Au
atom 24.3619516699999998 3.4493804600000000 2.5522159000000002 Au
atom 27.0740241600000004 3.2984001300000001 2.8556216800000001 Au
atom 1.7577868600000000 3.3245543000000000 2.7003158200000001 Au
atom 4.5201940000000000 3.3799229199999998 2.8167255500000001 Au
atom 8.7857403900000008 5.7136122299999998 2.6159943800000001 Au
atom 11.6173293399999995 5.8739778800000000 2.6842229700000000 Au
atom 14.4600573099999998 5.8840299900000002 2.6746952500000001 Au
atom 17.4426094300000010 5.7810747800000000 2.7734108800000001 Au
atom 20.2231673500000007 5.8334686199999997 2.7694652700000000 Au
atom 22.9470789500000016 5.8728482299999998 2.8427226999999999 Au
atom 25.7659819699999986 5.8878816299999999 2.6701598600000001 Au
atom 0.4287054500000000 5.7096416300000001 2.6935329000000001 Au
atom 3.1591656100000001 5.8035353399999998 2.4238991099999998 Au
atom 6.0146826000000004 5.7882059799999999 2.3767352399999999 Au
atom 7.3218701399999997 8.1311829899999992 2.3694815800000000 Au
atom 10.2286307999999995 8.3335528100000005 2.4039804000000000 Au
atom 13.0173496699999998 8.2936529399999994 2.5855995200000002 Au
atom 15.9125309399999999 8.2615582599999993 2.3485738399999998 Au
atom 18.7343768600000011 8.2786767000000001 2.4664933400000000 Au
atom 21.4666680899999989 8.3748718400000008 2.4133774300000002 Au
atom 24.3607082900000016 8.3354981099999996 2.5734013199999999 Au
atom 27.1785261399999989 8.2823493999999993 2.6498161200000001 Au
atom 1.8815022900000000 8.2365186099999992 2.5296126399999999 Au
atom 4.5617595499999997 8.2340836100000008 2.2948544000000002 Au
atom 8.7872670999999993 10.7062255999999998 2.2687734800000001 Au
atom 11.6190315999999996 10.6243993000000003 2.4810086500000001 Au
atom 14.3860067199999992 10.7263592800000005 2.3808344099999998 Au
atom 17.2556897999999990 10.6345594400000003 2.4802765199999999 Au
atom 20.0690668899999984 10.7369774000000007 2.6213961800000001 Au
atom 22.8263816300000002 10.7433792199999996 2.5381494800000000 Au
atom 25.7392685599999993 10.7952238600000001 2.6187750799999998 Au
atom 0.3297890700000000 10.6930861499999992 2.4663851499999998 Au
atom 3.1779641800000000 10.7524073900000001 2.4429566500000002 Au
atom 6.0412687600000003 10.6522964400000006 2.2891719699999999 Au
atom 7.4501751399999998 13.2824436299999995 5.6526163100000000 Cl
atom 7.5006456100000003 16.1117000200000007 8.2038865699999999 Cl
atom 7.3253826100000001 13.2528062799999997 8.3437618899999997 Na
atom 7.5359989499999998 16.0386823800000009 5.6441467699999999 Na
atom 7.4801230600000004 19.2107331200000004 5.7978616299999999 Cl
atom 7.4549496700000004 21.8303873000000017 8.6323530000000002 Cl
atom 7.4299048699999997 19.0160234000000017 8.4252587400000003 Na
atom 7.5647616199999996 21.8141748000000000 5.8100982800000001 Na
atom 7.4001885999999999 24.6643685700000006 5.7851081999999998 Cl
atom 7.3428614400000001 27.5183128000000004 8.7706687199999998 Cl
atom 7.3458471699999999 24.7026224799999987 8.4285110299999992 Na
atom 7.5345583899999999 27.4910913299999997 6.0533845099999999 Na
atom 7.5130287400000002 30.2955006400000002 5.7753115900000003 Cl
atom 7.2526454800000000 33.0368243200000009 8.5229275700000002 Cl
atom 7.2862428599999998 30.2957239600000001 8.5046096500000008 Na
atom 7.3346935999999996 33.1918591800000016 5.7542447699999997 Na
atom 7.4578937500000002 35.9175855100000021 5.5853810700000004 Cl
atom 7.2273560999999997 38.8456496499999986 8.5604189799999997 Cl
atom 7.3128002299999997 36.0056896399999999 8.3477711699999997 Na
atom 7.3333238200000004 38.8014656599999981 5.8974924099999999 Na
atom 7.2654039900000003 2.2296238599999998 5.7741398100000003 Cl
atom 7.1311791900000001 5.1406761899999998 8.4434193700000009 Cl
atom 7.2966253800000000 2.1668471100000000 8.4906400699999995 Na
atom 7.3291645599999997 4.9303919900000004 5.6501387200000002 Na
atom 7.3762896500000004 7.8645086700000002 5.4500928200000001 Cl
atom 7.2470185100000002 10.6303686400000004 8.6794329300000008 Cl
atom 7.2844635200000001 7.8571142700000003 8.2355402600000005 Na
atom 7.2456844100000000 10.5691162799999994 5.6464051000000000 Na
atom 10.1232792600000003 13.3670145999999992 5.6699356700000001 Na
atom 12.8746731099999998 13.4716549800000003 5.5043895699999998 Cl
atom 10.1986488400000006 16.1055218099999990 8.2918767399999993 Na
atom 13.0102368300000002 16.1158983400000011 8.5881250500000004 Cl
atom 12.9915610400000006 13.4536028000000005 8.3644820200000005 Na
atom 10.2124546299999999 13.4395197900000003 8.2557472000000001 Cl
atom 13.1384690000000006 16.3231221799999986 5.8893942600000004 Na
atom 10.3914265599999993 16.1362235100000007 5.5605314699999999 Cl
atom 10.3821401200000007 19.0837712500000016 5.8609068999999998 Na
atom 13.0612175399999995 19.2091242800000011 6.0183080000000002 Cl
atom 10.3667819399999992 21.7675563799999985 8.4860429899999996 Na
atom 12.9771722000000000 21.9527635399999994 8.6412930299999999 Cl
atom 13.2098549799999994 19.0278095699999987 8.6920641599999993 Na
atom 10.2732177399999998 19.0579680899999993 8.7124817199999995 Cl
atom 13.1088938099999996 21.8950069800000016 5.9871240300000004 Na
atom 10.3093856200000005 21.8958359700000003 5.5644212399999997 Cl
atom 10.2543440300000004 24.6715415299999989 5.8446297500000002 Na
atom 13.2278189099999999 24.6504081299999989 5.8543286200000004 Cl
atom 10.1665666399999992 27.4760488000000009 8.6253936099999997 Na
atom 13.3058336399999995 27.5446226900000006 8.7512197100000009 Cl
atom 13.0812667099999995 24.7685131500000004 8.5695193799999991 Na
atom 10.2131345899999992 24.6916372499999994 8.6117703100000007 Cl
atom 13.0861943600000004 27.4486432399999991 6.0613044199999999 Na
atom 10.3582434400000007 27.4694806199999988 6.0161400399999998 Cl
atom 10.1684619099999995 30.3780527900000017 5.8564444199999999 Na
atom 12.9666453799999992 30.2543093399999989 5.8757645099999998 Cl
atom 10.2297063099999992 33.1300852000000035 8.5155215299999991 Na
atom 13.0368093199999997 33.3372724299999987 8.4942977099999997 Cl
atom 13.0748395300000002 30.4116489299999984 8.4838606799999994 Na
atom 10.2566462000000005 30.3424590199999997 8.8554982199999994 Cl
atom 12.9607172599999991 33.2254092900000018 5.8034956400000004 Na
atom 10.1951167300000005 33.1880085800000018 5.8570842699999996 Cl
atom 10.1839168099999995 35.9946399399999990 5.9881346000000004 Na
atom 12.9614083200000003 36.0219957600000029 5.9293415600000001 Cl
atom 10.1456279899999995 38.8281155399999989 8.5373010300000001 Na
atom 12.8685839400000006 38.8092177999999990 8.8013820000000003 Cl
atom 12.9045295099999997 36.0914427499999988 8.5858485000000009 Na
atom 10.0803780700000001 35.9111785999999995 8.7075672900000001 Cl
atom 12.7978545199999996 38.8119093899999967 5.8562398099999999 Na
atom 10.2425870799999998 38.6753783300000009 5.9066700200000000 Cl
atom 10.0868069600000005 2.1258468599999998 5.8092822499999999 Na
atom 12.9149674500000007 2.1317449300000000 6.0294291700000002 Cl
atom 9.8382014099999999 5.0528495500000004 8.4550378500000001 Na
atom 13.0102246299999997 5.1261369800000001 8.6172205300000009 Cl
atom 12.9220184600000003 2.4440328899999999 8.5538653100000008 Na
atom 9.9043149600000007 2.2138116100000000 8.7953633000000000 Cl
atom 12.8631333800000007 4.9861020099999998 5.8693466900000004 Na
atom 10.0822075099999999 4.9308546399999997 5.9412923099999997 Cl
atom 10.1365144399999991 7.6788194900000004 5.5315483499999996 Na
atom 13.0062061500000006 7.6811431499999996 5.4936849399999996 Cl
atom 10.3029782900000004 10.5783127199999996 8.2503187600000008 Na
atom 13.0674910600000000 10.7800899500000007 8.4319772799999999 Cl
atom 13.0280844699999996 7.8445688699999998 8.2678213399999994 Na
atom 9.9872229400000005 7.8592421400000001 8.6320959800000008 Cl
atom 12.9360161599999994 10.8403039999999997 5.5115517100000000 Na
atom 9.9871147100000002 10.3428623599999998 5.5518071000000004 Cl
atom 15.9672795399999998 13.6205455700000009 5.7625562600000002 Na
atom 18.7654354199999993 13.5943944900000009 5.8242588599999996 Cl
atom 15.8748988799999999 16.3405751200000005 8.5001398899999998 Na
atom 18.7469526199999983 16.1589483399999985 8.5412823800000002 Cl
atom 18.6184565999999982 13.3934537700000007 8.4168164000000001 Na
atom 15.8121195799999992 13.3922647799999996 8.4252649399999999 Cl
atom 18.7464443600000017 16.3451984199999991 5.9133351500000000 Na
atom 15.8827636900000009 16.3612743800000011 5.9131555799999997 Cl
atom 15.8116977799999994 19.2973938899999986 5.9932990200000003 Na
atom 18.8254746900000001 19.1837778000000014 5.7466330699999997 Cl
atom 15.9001870299999997 21.9320971600000014 8.8907326199999996 Na
atom 18.8615374399999993 21.7372924500000018 8.8310337499999996 Cl
atom 18.9175415999999998 18.9933760700000001 8.4544338000000003 Na
atom 15.8228498200000001 19.2610105300000001 8.8643369900000000 Cl
atom 18.6942742399999986 21.7814709399999984 6.1224999499999999 Na
atom 15.9650155599999994 21.9353127299999997 6.1366796800000003 Cl
atom 15.9532970699999996 24.8940508099999995 6.2989497099999996 Na
atom 18.6780541000000007 24.6665371799999988 6.2195380699999996 Cl
atom 15.9694001700000001 27.6284199800000003 8.5341100000000001 Na
atom 18.7359500600000004 27.7957481999999985 8.8738085200000008 Cl
atom 18.8018738499999998 24.6439605300000011 8.8287329299999993 Na
atom 15.7284198899999996 24.6497052100000005 8.9039767300000001 Cl
atom 18.7494188900000012 27.6197393499999997 6.0196254299999996 Na
atom 16.0426061699999991 27.5846677699999994 5.7652291099999999 Cl
atom 15.8611685599999994 30.3455637200000012 5.7756076099999998 Na
atom 18.5983605700000005 30.4841954999999984 5.8469252599999999 Cl
atom 15.8145445700000007 33.2531753600000002 8.3897435300000005 Na
atom 18.5656801499999986 33.2181378100000018 8.7027523700000007 Cl
atom 18.4665564999999994 30.4580174100000001 8.5563312800000002 Na
atom 15.8023884999999993 30.2624350399999997 8.6559824299999999 Cl
atom 18.5279793499999990 33.2965129700000020 5.8998536499999998 Na
atom 15.6663718200000002 33.1632476400000016 5.7679862000000002 Cl
atom 15.6829673900000000 35.9804648499999971 5.9515809300000004 Na
atom 18.5297253899999994 35.8952333100000018 5.9651176899999996 Cl
atom 15.6320871300000004 38.8512790999999993 8.4328616800000002 Na
atom 18.5773356999999990 38.8211796699999994 8.5796035400000008 Cl
atom 18.5809113100000012 35.9206755900000019 8.5884904599999992 Na
atom 15.6419949999999996 35.9773261799999986 8.7200084499999999 Cl
atom 18.4885324500000010 38.8084750700000001 5.8348714800000003 Na