#===============================================================================
# Created using the Atomic Simulation Environment (ASE)

# Tue Dec 23 21:42:02 2025

#=======================================================
lattice_vector 28.1999999999999993 0.0000000000000000 0.0000000000000000 
lattice_vector 0.0000000000000000 39.4799999999999969 0.0000000000000000 
lattice_vector 0.0000000000000000 0.0000000000000000 62.3296083400000001 
atom 7.4188546100000003 14.9238455400000003 -0.2472950100000000 Au
atom 10.3061334099999993 14.8558564799999999 -0.3886866000000000 Au
atom 13.2170084699999997 14.8389844400000008 -0.2003184700000000 Au
atom 16.0044701399999987 14.8322333600000000 0.0706939000000000 Au
atom 18.8334527399999985 14.8730373000000000 -0.1830286300000000 Au
atom 21.5644444100000001 14.7843102900000005 -0.0092615100000000 Au
atom 24.3495567900000012 14.8694369000000002 -0.1853586500000000 Au
atom 27.1544409199999990 14.8744091899999997 -0.1025101300000000 Au
atom 1.7667677100000001 14.8406721899999994 -0.1614641000000000 Au
atom 4.6208272800000003 14.8840518500000005 -0.4513327600000000 Au
atom 8.9642649500000005 17.3390727700000014 -0.2260929600000000 Au
atom 11.7256726100000002 17.3685464799999991 -0.1728522500000000 Au
atom 14.5348152099999997 17.2878260099999999 0.2110045100000000 Au
atom 17.3812256000000005 17.3468635499999984 -0.1161669000000000 Au
atom 20.2110018700000005 17.2536609500000004 -0.1340885800000000 Au
atom 22.9529447399999995 17.2467944399999986 -0.0824460700000000 Au
atom 25.7285192199999990 17.2986173299999990 -0.1133177500000000 Au
atom 0.3315113100000000 17.2597260299999995 -0.3163203000000000 Au
atom 3.1688867100000002 17.2350871599999991 -0.4559635400000000 Au
atom 5.9795337100000001 17.4067783499999997 -0.1902492600000000 Au
atom 7.4138934200000000 19.7156917299999996 0.1839749600000000 Au
atom 10.3397296599999997 19.7906304000000013 -0.0236301800000000 Au
atom 13.1651578199999992 19.7465162099999993 0.1223457800000000 Au
atom 16.0679983700000015 19.8098080400000001 0.1122961400000000 Au
atom 18.7934545300000018 19.7911239899999991 -0.2360017800000000 Au
atom 21.6302790599999994 19.6332271700000014 -0.0122993700000000 Au
atom 24.4535708199999995 19.7620885999999985 0.1108364900000000 Au
atom 27.2030984999999994 19.8274057799999994 -0.0583384900000000 Au
atom 1.7460661099999999 19.8273125599999993 -0.3753629800000000 Au
atom 4.5937574500000000 19.7487227499999989 -0.3305867900000000 Au
atom 8.8286160200000001 22.1281119799999999 -0.3006946500000000 Au
atom 11.7335755800000001 22.2038254299999984 -0.2798669600000000 Au
atom 14.6182787100000002 22.1744615600000010 0.0575500400000000 Au
atom 17.3624307500000015 22.2203900499999989 -0.0536867700000000 Au
atom 20.2803264399999996 22.1989851899999984 0.0171074300000000 Au
atom 23.0845415299999992 22.2281295599999993 -0.0479009700000000 Au
atom 25.9098133100000005 22.3081567000000014 -0.2051840800000000 Au
atom 0.4479937200000000 22.2656732700000006 -0.2396718700000000 Au
atom 3.2482176400000000 22.2764639200000012 -0.2468920900000000 Au
atom 6.0838483700000001 22.2414654399999989 -0.1406468100000000 Au
atom 7.5572748100000000 24.6671544500000017 0.0155997300000000 Au
atom 10.3207842000000003 24.6771312800000011 -0.0158101400000000 Au
atom 13.1578434800000004 24.7050610500000012 -0.3278679400000000 Au
atom 15.9300574800000003 24.6251358200000006 0.2273534300000000 Au
atom 18.7857065799999994 24.6781804700000009 0.0066029600000000 Au
atom 21.5864070099999985 24.7113608400000011 0.0287006500000000 Au
atom 24.4201212400000003 24.8571934699999986 -0.0556576200000000 Au
atom 27.2761141299999998 24.7246477599999999 0.1054138700000000 Au
atom 1.8816785300000001 24.7262492199999997 -0.3390502200000000 Au
atom 4.6982893900000002 24.6888541100000012 -0.3136111800000000 Au
atom 8.9901471100000006 27.1878352599999999 0.1503215300000000 Au
atom 11.7547204199999999 27.0920739300000015 -0.1054212800000000 Au
atom 14.5840261400000006 27.0534432500000008 0.0467957500000000 Au
atom 17.2950814999999984 27.1661162099999984 0.1045242800000000 Au
atom 20.2373107200000000 27.1679357900000014 -0.0238537400000000 Au
atom 23.0071528699999988 27.2709088100000017 0.1000990400000000 Au
atom 25.9630659500000007 27.2506234300000010 0.1787356400000000 Au
atom 0.4744044300000000 27.1562571699999999 0.0220042000000000 Au
atom 3.3649493700000002 27.2438961199999987 -0.1791226800000000 Au
atom 6.1573545200000002 27.1029198600000001 0.0014027100000000 Au
atom 7.5360493499999999 29.6416722999999998 -0.0008727200000000 Au
atom 10.4273854400000001 29.7090365200000015 -0.0829418600000000 Au
atom 13.2149928100000000 29.5653182100000009 0.0389759500000000 Au
atom 15.9348604300000005 29.5958007300000006 -0.1914368800000000 Au
atom 18.7284539199999998 29.6452031299999987 -0.0598708000000000 Au
atom 21.5180214200000002 29.7074870100000012 -0.0129734700000000 Au
atom 24.4505089399999989 29.6143249900000001 0.1743413400000000 Au
atom 27.3676232599999985 29.6449486200000010 0.1956201800000000 Au
atom 1.8823689100000001 29.5415576599999987 -0.1400239800000000 Au
atom 4.7342690100000002 29.6076554300000012 -0.0641542100000000 Au
atom 9.0774894600000007 32.0764374000000032 0.0356507800000000 Au
atom 11.8938030000000001 32.0788781700000030 -0.0545865500000000 Au
atom 14.6526010899999992 32.1404228999999972 0.2153850400000000 Au
atom 17.3249921499999999 32.1082441799999998 0.0855139600000000 Au
atom 20.1820952499999997 32.0477972999999992 -0.0563384300000000 Au
atom 23.0223790800000003 32.1713925399999994 -0.1980373200000000 Au
atom 25.8683440599999983 32.0108678599999976 -0.2248378200000000 Au
atom 0.6082588200000000 32.0800566899999993 -0.1182408900000000 Au
atom 3.4014449999999998 32.0189174899999998 -0.0621953000000000 Au
atom 6.2440030999999996 32.0526771700000026 0.1414005300000000 Au
atom 7.5184400499999997 34.5685651499999977 -0.0706165100000000 Au
atom 10.3730827899999998 34.6575721099999967 0.1635360900000000 Au
atom 13.2428048599999997 34.5461007500000008 -0.0002658000000000 Au
atom 16.0501340299999988 34.5894701100000006 -0.0301414200000000 Au
atom 18.8879037300000014 34.6031612399999986 0.0000435600000000 Au
atom 21.7338452900000014 34.5970803000000018 0.1832789600000000 Au
atom 24.5178423199999997 34.6136600900000033 0.0482244800000000 Au
atom 27.3320354999999999 34.5112371000000024 -0.0039734300000000 Au
atom 1.9303078600000001 34.5757828699999976 -0.1378526000000000 Au
atom 4.6945598000000004 34.5644053400000004 0.1987805200000000 Au
atom 9.0389508400000000 37.1287213499999993 0.2713583700000000 Au
atom 11.8977908200000009 36.9572413400000030 0.3277470600000000 Au
atom 14.6966897200000002 37.1457483699999997 0.2101469800000000 Au
atom 17.4248126600000006 37.1091890699999993 0.1499038800000000 Au
atom 20.2424341299999995 37.0700458399999988 -0.0781804100000000 Au
atom 23.0214380699999985 37.0649938999999975 0.2259462300000000 Au
atom 25.8879225899999987 37.0479661999999976 0.0755192800000000 Au
atom 0.5060776500000000 37.0727141599999968 0.1683769200000000 Au
atom 3.3334518800000001 37.0136301100000011 0.1720653800000000 Au
atom 6.2607524500000000 37.0410115299999987 0.4129107800000000 Au
atom 7.5061267100000002 0.0061373100000000 0.3185014600000000 Au
atom 10.4719387600000005 0.0153016300000000 0.4133162800000000 Au
atom 13.2299482000000008 0.0336160000000000 0.4556199700000000 Au
atom 16.1036264100000004 0.1425836500000000 0.1084868000000000 Au
atom 18.8824430499999991 0.0622166500000000 0.1316532600000000 Au
atom 21.6288068299999985 0.0643288100000000 0.5520187700000000 Au
atom 24.4429094000000013 0.0599217900000000 0.3257342200000000 Au
atom 27.3044491100000002 0.0431221000000000 0.3192504000000000 Au
atom 2.0121259000000000 0.1223156300000000 0.1757180500000000 Au
atom 4.7791920699999997 0.0446263600000000 0.3293512700000000 Au
atom 8.8751098899999992 2.4522674100000001 0.4372453300000000 Au
atom 11.7049241899999998 2.4483216799999998 0.6002082200000000 Au
atom 14.4702300800000003 2.4557833300000000 0.3689455000000000 Au
atom 17.3379156700000010 2.6068765800000002 0.0134979200000000 Au
atom 20.2001617300000014 2.5607529699999998 0.4301206300000000 Au
atom 23.0536812299999987 2.4888559799999999 0.2628561900000000 Au
atom 25.9296885099999983 2.4877449100000000 -0.0182690700000000 Au
atom 0.5535361300000000 2.4628129400000001 0.1925494600000000 Au
atom 3.3272781400000002 2.5373847299999999 0.2013870200000000 Au
atom 6.0444862800000001 2.4850907499999999 0.6331347899999999 Au
atom 7.5646963899999999 4.9020452399999996 0.2756644600000000 Au
atom 10.3531104900000006 4.8376486300000003 0.3569098400000000 Au
atom 13.1324565100000008 4.9547621299999998 0.3216043200000000 Au
atom 15.9322349100000000 4.9541221200000001 0.4115146100000000 Au
atom 18.6932466700000006 5.0115301299999997 0.3847226700000000 Au
atom 21.4394541300000014 5.0355751800000004 0.3074740700000000 Au
atom 24.3084355700000003 5.0194415799999996 -0.1274327600000000 Au
atom 27.1690143199999987 4.9500868599999999 0.2540470100000000 Au
atom 1.9402687999999999 4.9733434100000000 0.0547107000000000 Au
atom 4.7320087800000001 4.8505928200000001 0.0430189700000000 Au
atom 8.9172955199999997 7.3509684300000000 0.0993509900000000 Au
atom 11.7094470800000003 7.3562670800000003 0.1374304400000000 Au
atom 14.5189610800000004 7.4128524799999997 0.3170510000000000 Au
atom 17.3476499000000004 7.3462433799999998 0.4047626000000000 Au
atom 20.1697301499999995 7.5768152700000000 0.3330538200000000 Au
atom 22.9771073299999991 7.5006191600000003 0.2283373300000000 Au
atom 25.7855603400000000 7.4275757499999999 -0.0590881300000000 Au
atom 0.4190125700000000 7.4092486400000004 -0.0379373800000000 Au
atom 3.2610874200000000 7.2969520599999997 -0.0733384800000000 Au
atom 6.0681912899999997 7.4076816200000000 0.1380110300000000 Au
atom 7.4820576499999998 9.8462852400000003 0.3386091600000000 Au
atom 10.3312765399999993 9.7688038000000006 0.0763536700000000 Au
atom 13.1275905300000009 9.8747080700000005 0.0505345100000000 Au
atom 15.9883174799999992 9.7911097700000003 0.1438086400000000 Au
atom 18.7348132199999995 9.8674679600000008 0.0277141400000000 Au
atom 21.5932014899999984 9.9499976700000001 0.0868425100000000 Au
atom 24.4755486699999985 9.8890208400000006 -0.0691899200000000 Au
atom 27.2634982400000005 9.7743731300000007 -0.3097634300000000 Au
atom 1.8640059099999999 9.7979825300000005 -0.3551568400000000 Au
atom 4.7557958300000003 9.8435991200000004 -0.3376251300000000 Au
atom 8.9420819100000006 12.3095030199999993 0.0265326800000000 Au
atom 11.7303109100000000 12.2891758800000002 -0.1085691300000000 Au
atom 14.5431931999999993 12.2754381800000001 -0.0756109200000000 Au
atom 17.3145333000000008 12.3369406599999998 0.0089579400000000 Au
atom 20.2648010800000016 12.3599608199999995 -0.1914544600000000 Au
atom 22.9857431699999992 12.3494366099999997 -0.3044348500000000 Au
atom 25.8113291400000016 12.3214237799999999 -0.3330687900000000 Au
atom 0.3683641600000000 12.3966543900000001 -0.1922437900000000 Au
atom 3.1458207800000002 12.2940863900000004 -0.2295505500000000 Au
atom 6.0806254700000002 12.3571252099999995 -0.1240992900000000 Au
atom 7.5603454599999997 13.2158220600000007 2.5085519000000001 Au
atom 10.4189975700000002 13.2258857600000006 2.4643445499999999 Au
atom 13.2125941600000001 13.2305883299999998 2.4866047400000002 Au
atom 16.0342714499999985 13.1695100000000007 2.5053486999999999 Au
atom 18.8288426300000005 13.1637064899999991 2.3318883000000001 Au
atom 21.6589895199999987 13.1492469900000000 2.4807575800000001 Au
atom 24.4635790600000007 13.2006765900000005 2.1567982200000002 Au
atom 27.3603513300000003 13.2841237000000003 2.4507760799999998 Au
atom 1.9629488900000001 13.3121972900000003 2.3944120700000000 Au
atom 4.8011364399999996 13.2000911500000004 2.1800374599999999 Au
atom 9.0820275600000002 15.6729962900000004 2.1036752000000001 Au
atom 11.7842196500000007 15.7165118800000005 2.2121050599999998 Au
atom 14.5236205599999995 15.7172428800000006 2.7294925499999998 Au
atom 17.4111334900000010 15.5941549500000001 2.5571199400000002 Au
atom 20.2458140799999988 15.5395209100000002 2.5389157199999999 Au
atom 23.0170374799999991 15.6666141400000001 2.5252946100000000 Au
atom 25.8756037700000014 15.6761337500000000 2.6199881500000002 Au
atom 0.4838453800000000 15.7146467800000007 2.4757277400000000 Au
atom 3.2938160900000000 15.7938695599999992 2.2365715800000001 Au
atom 6.2051833099999998 15.6725878600000001 2.1682512300000001 Au
atom 7.5022971099999998 18.0214320400000005 2.5223381200000001 Au
atom 10.2640994100000000 18.2315658499999991 2.3747725900000001 Au
atom 13.0695477800000006 18.1430983700000006 2.6989845400000001 Au
atom 15.9483209699999993 18.0373549299999993 2.5935977800000001 Au
atom 18.7329637499999997 18.1555523699999988 2.3031899700000000 Au
atom 21.6280467499999993 18.0750724100000006 2.5709313699999998 Au
atom 24.5059262999999987 18.0459972200000003 2.6209555400000002 Au
atom 27.2479557399999983 18.1486177200000007 2.3586214100000000 Au
atom 1.8592129399999999 18.1488723599999986 2.2354472599999999 Au
atom 4.6891510900000002 18.1501926400000002 2.2760694199999998 Au
atom 8.7883879000000000 20.5756149499999985 2.7487867900000000 Au
atom 11.7630482799999996 20.6624817699999994 2.5388022499999998 Au
atom 14.6455088900000003 20.5198153900000015 2.6801587300000000 Au
atom 17.5106062499999986 20.6141010999999992 2.6924689800000001 Au
atom 20.1999323100000012 20.5794657799999996 2.5660698700000002 Au
atom 22.9642838599999983 20.6151026199999983 2.6739888399999998 Au
atom 25.8343961799999988 20.6022933500000001 2.4688753299999999 Au
atom 0.4801154000000000 20.5991712599999985 2.4629804599999998 Au
atom 3.2969666499999999 20.6403442300000002 2.1134817199999998 Au
atom 6.0301544099999997 20.5263997399999987 2.6357685700000002 Au
atom 7.4605549099999999 22.9980913099999995 2.5850059299999999 Au
atom 10.1852615800000006 23.0469057900000003 2.4243720500000001 Au
atom 13.1041633599999994 23.1058787000000017 2.2685444600000002 Au
atom 15.9841196300000004 22.9773809299999989 2.7446872400000002 Au
atom 18.8242785499999989 23.0749380299999984 2.5499402299999998 Au
atom 21.6526350000000001 23.0929195999999983 2.5419070100000001 Au
atom 24.4676482100000001 23.0005353899999996 2.4517086500000000 Au
atom 27.2752004300000017 23.0100961700000006 2.4508800800000001 Au
atom 1.8232877400000000 23.0940641400000004 2.3360250300000001 Au
atom 4.6582884399999998 23.1044883799999994 2.3102338699999998 Au
atom 8.7866942600000009 25.4964360899999996 2.6779648100000002 Au
atom 11.6033740999999999 25.4881908499999987 2.4558949100000000 Au
atom 14.4295758299999992 25.4830485700000011 2.7830557400000000 Au
atom 17.3910973999999996 25.5163664899999993 2.7339616400000000 Au
atom 20.1879866700000008 25.5278433100000015 2.7919293800000000 Au
atom 23.0836244999999991 25.4655178100000015 2.6975611599999998 Au
atom 25.9258289799999986 25.4843107099999990 2.8244399800000002 Au
atom 0.5115776800000000 25.5910181100000003 2.6838239499999998 Au
atom 3.2546943700000002 25.5312800099999997 2.3125601699999998 Au
atom 6.0191086299999998 25.6190489300000017 2.4799329499999998 Au
atom 7.4917912099999997 28.0320381500000018 2.4938278500000002 Au
atom 10.3370203499999995 27.9276817199999989 2.5208354300000000 Au
atom 13.1074360199999997 28.0635022800000016 2.6161047399999999 Au
atom 15.7998162400000002 27.9957735300000010 2.6693765400000000 Au
atom 18.8201398799999993 27.9392133899999990 2.6313655300000001 Au
atom 21.6252578100000008 27.9784275700000009 2.6577137000000000 Au
atom 24.4623705899999990 27.9567561799999993 2.6845634899999999 Au
atom 27.3212760500000016 27.9899280600000004 2.8578457199999998 Au
atom 1.9441910200000001 28.0180694400000014 2.4334597200000001 Au
atom 4.6546016400000001 28.0729236499999999 2.7616663400000001 Au
atom 8.8928983899999992 30.4440379900000018 2.5316534599999998 Au
atom 11.7484946600000004 30.4636172899999984 2.5581303599999998 Au
atom 14.5938422400000007 30.5166055400000005 2.7862360100000001 Au
atom 17.3988143199999996 30.3378489199999990 2.4720124999999999 Au
atom 20.2042757000000002 30.4033064199999998 2.6860781100000000 Au
atom 22.9976532200000001 30.3897261599999986 2.4803712299999998 Au
atom 25.8117623700000003 30.3953297599999992 2.7219505700000002 Au
atom 0.4897373000000000 30.4705035200000012 2.5895683599999999 Au
atom 3.2238729099999999 30.4825383999999993 2.5069424800000002 Au
atom 6.1038403600000004 30.5182712199999990 2.7550306500000001 Au
atom 7.6069635399999997 32.9247797199999965 2.4910660500000001 Au
atom 10.4564129599999998 32.8254955299999978 2.6787029400000000 Au
atom 13.2346634900000009 33.0509353200000007 2.6374004800000002 Au
atom 16.0401086699999986 32.9282067099999978 2.8989549399999999 Au
atom 18.9048776499999995 32.9133157199999999 2.6028716799999998 Au
atom 21.6303418500000006 32.9009781500000003 2.6783182399999999 Au
atom 24.3163169299999993 32.8702129799999980 2.3541939699999999 Au
atom 27.1155745000000010 32.9197086300000024 2.3073461700000002 Au
atom 1.8483878600000001 32.9016908500000014 2.4940297299999998 Au
atom 4.7148005700000004 32.8991022900000019 2.7066216500000002 Au
atom 8.9976141900000002 35.3091508600000026 2.6929239699999998 Au
atom 11.7986865099999996 35.3517843400000018 2.7087757200000002 Au
atom 14.6076813500000000 35.4090271800000025 2.5511879000000000 Au
atom 17.3675064699999986 35.4240666999999974 2.4910928600000002 Au
atom 20.3034113699999992 35.4126153799999983 2.6778695400000001 Au
atom 23.1043640000000003 35.3687500200000002 2.7895446100000001 Au
atom 25.9364148300000004 35.3284036599999993 2.6214424799999998 Au
atom 0.5139486700000000 35.2559403500000030 2.5503959799999998 Au
atom 3.4013551799999999 35.3788708800000009 2.6832316800000000 Au
atom 6.2346634099999996 35.2738448099999999 2.9110582800000002 Au
atom 7.7096605599999997 37.7348259700000028 3.0143262300000000 Au
atom 10.4373164999999997 37.8408859399999997 2.9242475799999998 Au
atom 13.1975873299999993 37.8024524499999970 3.0650947099999999 Au
atom 15.9487205999999997 37.9644271000000018 2.7622919700000002 Au
atom 18.8574942999999990 37.8399425599999972 2.5255563400000001 Au
atom 21.6659854299999992 37.8444174099999984 2.9018846900000002 Au
atom 24.6606873600000007 37.8118430800000027 2.7741338000000000 Au
atom 27.4242250699999985 37.6993029400000026 2.9025301400000001 Au
atom 1.9603398900000000 37.9164201999999975 2.6359956200000001 Au
atom 4.7906412300000003 37.7361187200000003 2.8855316499999999 Au
atom 9.0029543600000004 0.8186683900000000 2.8749308800000000 Au
atom 11.8563152400000007 0.8562987100000000 3.1728937099999999 Au
atom 14.6088103799999995 0.9781991700000000 2.9181263600000000 Au
atom 17.4332596500000001 0.8512641500000000 2.7102243600000002 Au
atom 20.2938990399999994 0.8737871500000000 2.9912587899999998 Au
atom 23.2068230900000003 0.7907663600000000 2.9824382200000001 Au
atom 25.9984022000000010 0.9147645400000000 2.7659571399999998 Au
atom 0.5531546500000000 0.8390794300000000 2.7956893500000000 Au
atom 3.3918181100000000 0.8077313500000000 2.7970630500000002 Au
atom 6.1682970099999999 0.8476453600000000 2.9976658600000001 Au
atom 7.5144437699999997 3.4400087799999999 3.1856521899999999 Au
atom 10.3039280499999997 3.4276642200000000 3.0220326300000000 Au
atom 13.1972229799999994 3.4031060200000001 2.9944052100000000 Au
atom 15.9405798900000004 3.3241759599999998 2.8401071800000000 Au
atom 18.8137992999999994 3.3298411200000002 2.9852602799999999 Au
atom 21.7828389599999994 3.2807393399999998 2.8245307600000000 Au
atom 24.6134655000000002 3.3348751299999999 2.6127260200000002 Au
atom 27.4312413600000014 3.2986117799999999 2.7266018800000000 Au
atom 1.9210495700000001 3.4087691200000001 2.8758690699999998 Au
atom 4.7277651799999996 3.3806592300000000 3.0575885500000002 Au
atom 8.9046395799999996 5.8834626900000000 2.9015560499999999 Au
atom 11.8102600399999993 5.8955337300000004 2.8494875600000000 Au
atom 14.5557298500000005 5.9528104800000001 3.0204658400000000 Au
atom 17.4684901199999985 5.8396350100000003 3.0076600400000002 Au
atom 20.2791141500000016 5.8521028099999999 2.8182406300000000 Au
atom 23.1701779899999991 5.8579506600000002 2.7525340100000002 Au
atom 25.8702566900000015 5.7638746599999999 2.6250605800000000 Au
atom 0.5138634800000000 5.8809960600000002 2.5106152300000000 Au
atom 3.3459140700000001 5.8289231399999997 2.7170368499999999 Au
atom 6.1068258999999996 5.8525568699999999 2.6704490700000001 Au
atom 7.4960861999999997 8.3792646899999994 2.8493079799999999 Au
atom 10.2854945900000008 8.3144224799999993 2.6704305200000000 Au
atom 13.1545561800000002 8.4108814299999999 2.7458122899999999 Au
atom 16.0536984800000013 8.3482297699999997 2.6751746500000002 Au
atom 18.8466816000000001 8.3330219999999997 3.0142932199999999 Au
atom 21.6636390699999986 8.3165199600000008 2.9475568499999998 Au
atom 24.4813575199999995 8.3403849300000008 2.5707367300000001 Au
atom 27.2563298200000013 8.3268234400000001 2.5491422799999999 Au
atom 1.9630125100000000 8.3154172800000001 2.4682507899999999 Au
atom 4.7259483700000002 8.4216257900000002 2.4625489599999999 Au
atom 9.0218955399999992 10.7398890700000003 2.7654846499999999 Au
atom 11.8084102699999995 10.7983819200000006 2.5495876000000002 Au
atom 14.5802298900000000 10.7884332599999997 2.7558402000000002 Au
atom 17.4902347399999982 10.6681743999999998 2.5735220700000001 Au
atom 20.2250122099999992 10.7531523300000007 2.6120641199999999 Au
atom 22.9814096799999987 10.7542470600000009 2.4849825700000001 Au
atom 25.9196955200000012 10.9252799199999995 2.3968046200000002 Au
atom 0.5449989000000000 10.7761961900000003 2.1835251300000000 Au
atom 3.2609906999999998 10.7446335400000006 2.2633854900000001 Au
atom 6.0708746700000003 10.8140102900000006 2.8979875900000001 Au
atom 7.2621939700000002 13.0128015099999992 5.4062060699999996 Cl
atom 7.0482484699999999 15.8580032600000003 8.3250642799999994 Cl
atom 7.1142370499999998 13.0358247100000000 8.1880012299999994 Na
atom 7.1980874200000002 15.8165597000000009 5.5773098200000000 Na
atom 7.3008100799999998 18.7796782600000007 5.6060458200000003 Cl
atom 7.0882165400000003 21.4046931100000002 8.3232683800000000 Cl
atom 7.1192018399999997 18.7030432799999993 8.0945889300000005 Na
atom 7.2156454099999996 21.5146379799999998 5.7731989199999996 Na
atom 7.1488755700000004 24.3987892700000017 5.6616117399999997 Cl
atom 7.2966869399999998 27.1098220400000010 8.5587524800000008 Cl
atom 7.1217641699999996 24.3225476000000000 8.3350889000000006 Na
atom 7.2321659699999996 27.1556667699999998 5.8505366099999998 Na
atom 7.3026996000000004 29.9235497099999996 5.7938586299999999 Cl
atom 7.1639886199999996 32.8746446099999972 8.6087024099999994 Cl
atom 7.3364456899999997 30.0096595499999985 8.3609233700000001 Na
atom 7.1627207700000000 32.8822566500000022 5.7578688099999997 Na
atom 7.4134446199999999 35.6089095999999969 5.7961336299999999 Cl
atom 7.2869125400000003 38.4336931400000026 8.7281741900000007 Cl
atom 7.2304430499999999 35.6893017299999968 8.3744428299999996 Na
atom 7.3395174100000000 38.7549432400000029 5.9288718600000001 Na
atom 7.1414287400000003 1.9778433300000000 5.9201981200000002 Cl
atom 7.1539676900000000 4.6280823800000004 8.7895740700000005 Cl
atom 7.2788470800000002 1.6984693300000000 8.6822438799999997 Na
atom 7.2137244699999998 4.7966300500000001 6.0315636200000000 Na
atom 7.1296413100000002 7.4004444500000002 5.7071749900000004 Cl
atom 7.1730044599999996 10.1025185299999993 8.7406141399999999 Cl
atom 7.3156468200000004 7.4795060299999996 8.4879392500000002 Na
atom 7.0742792500000000 10.1164824499999995 5.7355101299999998 Na
atom 9.9723723100000008 13.0820854799999999 5.6442712899999998 Na
atom 12.7480996599999994 13.1152924800000008 5.5179369700000001 Cl
atom 9.8639449199999998 15.8851895100000000 8.2715049700000005 Na
atom 12.8381465200000005 15.9697685899999993 8.5428871900000001 Cl
atom 12.8063189299999998 13.0431944899999994 8.3069789499999995 Na
atom 9.7502463600000002 13.0107481699999994 8.3445009999999993 Cl
atom 12.7943900799999994 15.8316503999999991 5.8361258300000003 Na
atom 9.9212672699999995 15.9161343199999994 5.6423164300000002 Cl
atom 9.9599881499999992 18.7507717099999986 5.6723008999999998 Na
atom 12.9088275299999999 18.7216785899999998 5.8289735399999998 Cl
atom 9.9911806100000007 21.4766153700000011 8.2725467500000001 Na
atom 12.9022594399999999 21.5518137500000009 8.3895557099999998 Cl
atom 12.8347019099999997 18.7338751200000004 8.4781100200000008 Na
atom 9.8675008399999999 18.7028280500000008 8.4581717199999993 Cl
atom 12.8173653000000005 21.4131280799999999 5.6613902500000002 Na
atom 10.0851558200000007 21.6053384900000012 5.6748801200000001 Cl
atom 9.9654450800000003 24.3736246600000008 5.7499230700000004 Na
atom 12.7400104800000005 24.4330820200000005 5.5538328000000003 Cl
atom 10.0295879100000001 27.3283854899999987 8.3616013599999999 Na
atom 12.8990673299999994 27.1976730999999994 8.3239676300000003 Cl
atom 12.8259281000000005 24.3360060400000009 8.1397099500000003 Na
atom 10.0485707200000007 24.1903490400000010 8.5960717700000000 Cl
atom 12.7436487899999999 27.1618265200000018 5.7197339300000003 Na
atom 9.9083575499999998 27.1194659999999992 5.8233669600000004 Cl
atom 10.1159521100000003 30.0146559900000014 5.8142281300000000 Na
atom 12.8149063299999995 30.0471445199999998 5.6380566200000004 Cl
atom 10.0034999700000000 32.9975597700000023 8.1879006600000004 Na
atom 12.9214825799999993 32.7387655699999982 8.4392549500000005 Cl
atom 13.0066561600000004 30.0746608799999997 8.2678353199999997 Na
atom 10.1795887100000009 30.0060679099999987 8.5009103899999996 Cl
atom 13.0128202399999999 32.8164061900000021 5.8104137199999997 Na
atom 10.0385993800000008 32.7135951100000000 5.6215835399999996 Cl
atom 10.0810147600000004 35.7351697200000018 5.8941901200000002 Na
atom 12.8400954899999995 35.7692505699999970 5.7785809600000002 Cl
atom 10.1175538899999999 38.5575246300000032 8.6137967599999996 Na
atom 12.8591355600000004 38.6435569300000026 8.7824833499999997 Cl
atom 13.0051917199999991 35.6611708499999978 8.3523813300000000 Na
atom 10.0827537199999995 35.6419274200000018 8.6396597199999992 Cl
atom 12.8587731800000000 38.5854825700000035 6.0515769800000001 Na
atom 10.0368234199999993 38.5906863599999994 6.0022406899999998 Cl
atom 10.1500795299999993 1.8163725100000001 6.0438398099999997 Na
atom 12.8970704699999992 1.9485559600000000 6.0084949900000000 Cl
atom 9.9681306799999998 4.6090399299999998 8.5914376699999995 Na
atom 12.9354807500000000 4.7241509700000002 8.8502937900000003 Cl
atom 12.7763424299999997 1.9269378100000001 8.7061118299999993 Na
atom 9.9053544599999999 1.8496903600000001 8.9032195999999999 Cl
atom 13.0258040499999996 4.6773378499999998 6.2213428799999999 Na
atom 10.0727407200000005 4.5831789199999999 6.0122861500000004 Cl
atom 10.0813385699999998 7.4526055199999997 5.8714757799999999 Na
atom 12.9537928000000004 7.3775014499999996 5.9034642799999997 Cl
atom 10.0343059700000001 10.2709418899999996 8.2790714399999992 Na
atom 12.8401840000000007 10.4037568799999995 8.5806296300000007 Cl
atom 12.9259845500000008 7.4666118800000003 8.5179729300000009 Na
atom 10.1780341300000003 7.4674262599999999 8.6462821200000004 Cl
atom 12.9331444399999995 10.2618981399999996 5.7597191499999996 Na
atom 10.0027508399999991 10.1808381499999996 5.6402311100000002 Cl
atom 15.6500521799999994 12.9374324699999992 5.8357922200000001 Na
atom 18.5544270299999994 12.9992838899999992 5.8577567000000004 Cl
atom 15.8424829500000008 15.9970549500000008 8.2853517599999993 Na
atom 18.6980681699999991 15.9599053699999995 8.3871709899999995 Cl
atom 18.5972872799999998 12.9913491000000008 8.3624749699999992 Na
atom 15.6419345300000003 13.1015512399999992 8.4611716599999998 Cl
atom 18.6689388399999991 15.7066473999999996 5.6746417700000000 Na
atom 15.7025374800000002 15.8771973000000006 5.6666426400000001 Cl
atom 15.7111821999999997 18.6293560099999986 5.9011072000000002 Na
atom 18.5601770500000001 18.4971263400000012 5.3918378799999997 Cl
atom 15.7257024899999998 21.6145321000000017 8.3091637100000000 Na
atom 18.6814657699999991 21.3261157200000007 8.2150796100000001 Cl
atom 18.7015228700000016 18.6019305499999987 8.3210799800000004 Na
atom 15.8972183800000000 18.9179646900000016 8.5346789600000008 Cl
atom 18.4628982099999988 21.6408290399999998 5.6988749099999998 Na
atom 15.6522454100000008 21.7216050199999984 5.5977846299999996 Cl
atom 15.8151381400000002 24.4430009800000008 5.6285166000000002 Na
atom 18.6957301600000001 24.3685547299999996 5.9436557199999998 Cl
atom 15.6718288700000006 27.2042748500000009 8.3657420100000000 Na
atom 18.3786755500000005 27.2916660499999999 8.7098075300000009 Cl
atom 18.5812670000000004 24.3151946800000012 8.5924298399999994 Na
atom 15.7380566999999996 24.4589143000000000 8.3385466400000006 Cl
atom 18.4364030600000000 27.1660672500000011 5.9648192499999997 Na
atom 15.6916286700000001 27.2185772700000008 5.5959441800000000 Cl
atom 15.8525596699999998 29.9462230200000015 5.9139703700000004 Na
atom 18.5505142599999999 29.8146230299999999 5.7901056700000000 Cl
atom 15.6861596999999993 32.8579350600000026 8.5244448899999998 Na
atom 18.6013329600000006 32.8315849600000007 8.8327182099999995 Cl
atom 18.4862522200000008 30.0814074500000004 8.4938166499999994 Na
atom 15.7883000599999992 30.1715509600000011 8.7097490700000009 Cl
atom 18.6366710100000006 32.9042487299999991 6.0386088100000004 Na
atom 16.0101992399999986 32.8139076300000028 5.8778034999999997 Cl
atom 15.7859202100000005 35.8173050600000025 5.8960789599999996 Na
atom 18.5257766799999999 35.6106088800000009 5.8495693400000004 Cl
atom 15.7492653499999999 38.4876899599999973 8.5277299600000003 Na
atom 18.5238718599999999 38.3920111700000035 8.8685247999999994 Cl
atom 18.5496826299999995 35.6676179000000033 8.5490676800000003 Na
atom 15.6496378400000005 35.6578374199999999 8.6309307000000004 Cl
atom 18.5390532899999982 38.5264584399999990 6.1206987300000000 Na