#===============================================================================
# Created using the Atomic Simulation Environment (ASE)

# Tue Dec 23 22:26:22 2025

#=======================================================
lattice_vector 28.1999999999999993 0.0000000000000000 0.0000000000000000 
lattice_vector 0.0000000000000000 39.4799999999999969 0.0000000000000000 
lattice_vector 0.0000000000000000 0.0000000000000000 62.3296083400000001 
atom 7.4428909900000004 14.8265022799999997 -0.0712296300000000 Au
atom 10.2500289000000002 14.7735403000000005 0.0074708500000000 Au
atom 13.1420709000000002 14.7705329499999998 0.0177690500000000 Au
atom 15.9850849000000004 14.8501324199999996 -0.0398064200000000 Au
atom 18.7335688800000000 14.8215664599999997 -0.0036839500000000 Au
atom 21.6158416699999982 14.7927171200000007 0.0037527100000000 Au
atom 24.4288318400000009 14.7886836299999995 0.1007896800000000 Au
atom 27.2311615399999987 14.7124578800000005 -0.0918021600000000 Au
atom 1.8397620900000000 14.7574301800000001 0.1259113700000000 Au
atom 4.6449857899999998 14.8103353599999998 -0.0613935000000000 Au
atom 8.8178575499999994 17.2509018500000018 -0.0953904700000000 Au
atom 11.7019115300000003 17.3101602600000000 -0.1211411400000000 Au
atom 14.5096600000000002 17.2223340500000006 -0.0401091200000000 Au
atom 17.3879538400000015 17.2781990100000016 -0.0358994600000000 Au
atom 20.1847188600000003 17.3021830200000011 -0.0320583500000000 Au
atom 23.0031828699999998 17.2540134599999995 0.0227786400000000 Au
atom 25.8135288500000009 17.2060287500000015 0.1030022400000000 Au
atom 0.4396617300000000 17.3376090699999992 0.0687405900000000 Au
atom 3.2711143300000001 17.2882543999999996 0.0147046400000000 Au
atom 6.0505081100000000 17.3306682300000006 -0.0274528600000000 Au
atom 7.4652046099999998 19.7425032199999997 0.0512341100000000 Au
atom 10.2674603900000001 19.7442352399999983 -0.1428420100000000 Au
atom 13.0848264099999998 19.6411417399999984 -0.0829154200000000 Au
atom 15.9792973200000006 19.6384240800000001 -0.0551387700000000 Au
atom 18.8015070000000009 19.7605595500000000 0.0633149200000000 Au
atom 21.6538963899999999 19.7907501199999984 0.0250770400000000 Au
atom 24.4223492299999982 19.7353778200000001 0.2365172700000000 Au
atom 27.2036268200000002 19.8072607500000011 0.0095689400000000 Au
atom 1.8945265000000000 19.7289639799999996 0.0413848800000000 Au
atom 4.6809737699999996 19.7968428400000001 -0.0100029800000000 Au
atom 8.9117019800000001 22.1983368299999988 -0.0093662700000000 Au
atom 11.6822254599999997 22.1734978799999993 -0.1159056300000000 Au
atom 14.5106524799999992 22.1436375400000003 0.0361172500000000 Au
atom 17.3475443399999989 22.2212960600000002 0.0130132600000000 Au
atom 20.1819052499999998 22.2350415199999993 0.0276695500000000 Au
atom 23.0471940400000008 22.2320506800000004 0.0859951200000000 Au
atom 25.8402035599999991 22.1994232800000013 -0.0003121800000000 Au
atom 0.4690867400000000 22.2206031899999985 -0.0664146900000000 Au
atom 3.2918447500000001 22.2217322000000017 0.0820123500000000 Au
atom 6.1040560199999998 22.2465648199999997 0.0485279800000000 Au
atom 7.4784206099999997 24.6330375199999985 0.0584552000000000 Au
atom 10.3244342600000003 24.6943033199999995 -0.0790080400000000 Au
atom 13.1586037200000003 24.6985660699999983 -0.0010598800000000 Au
atom 15.9176216799999999 24.7041245099999998 0.1805417700000000 Au
atom 18.7770135200000006 24.7009674600000011 0.1150988300000000 Au
atom 21.6060564399999997 24.7128754899999983 0.0861278700000000 Au
atom 24.4366728699999989 24.6963498699999988 0.2006435600000000 Au
atom 27.2227674200000003 24.5052948199999996 0.1648378400000000 Au
atom 1.8813879600000001 24.6826928400000014 0.1760835800000000 Au
atom 4.6905521600000002 24.6483657500000000 0.0694521200000000 Au
atom 8.9090531500000001 27.1717326800000016 -0.0368085200000000 Au
atom 11.7511475700000005 27.1912089299999984 0.0486880000000000 Au
atom 14.5441508499999994 27.1122398300000000 0.0197522300000000 Au
atom 17.3601085099999999 27.1034126300000011 0.0137891500000000 Au
atom 20.1621486099999991 27.1599743199999999 0.0518532400000000 Au
atom 23.0241680899999999 27.1088971699999988 0.1018087000000000 Au
atom 25.8515589000000006 27.2150609800000005 0.0991300500000000 Au
atom 0.4804125800000000 27.0619356599999996 0.0921138700000000 Au
atom 3.3222120099999999 27.1515611200000002 0.1558249500000000 Au
atom 6.1161650400000003 27.0946597400000009 0.0781797600000000 Au
atom 7.4810019299999997 29.5894202600000007 0.0119278900000000 Au
atom 10.3161562999999994 29.5897058599999987 -0.0761507000000000 Au
atom 13.1825532100000000 29.6000636399999983 0.0997753200000000 Au
atom 15.9259982699999991 29.6456508200000002 0.0529453000000000 Au
atom 18.7443606900000006 29.6688976199999992 0.0671439400000000 Au
atom 21.5742599300000002 29.5858470699999998 0.1235961700000000 Au
atom 24.3750823799999985 29.5956832399999996 -0.0139343200000000 Au
atom 27.2360337600000015 29.8198051000000000 0.0317562400000000 Au
atom 1.8929593300000001 29.6742970600000007 0.0960604300000000 Au
atom 4.7090802600000004 29.5678114600000015 0.1541877800000000 Au
atom 8.9349213400000007 32.0501531900000032 0.0670295600000000 Au
atom 11.7141882000000006 32.0231503400000008 0.0198141300000000 Au
atom 14.5239741999999996 32.0786310299999968 0.0910775300000000 Au
atom 17.3441439200000005 32.0846106099999986 -0.0277716700000000 Au
atom 20.1961813100000001 32.0729638999999978 0.1115649300000000 Au
atom 22.9675945199999987 32.0781005300000004 0.0201209700000000 Au
atom 25.7969070100000017 32.1863874900000013 -0.0333069500000000 Au
atom 0.4471246000000000 31.9940461700000007 0.0060472400000000 Au
atom 3.2286850299999998 32.0449930699999967 -0.0935101500000000 Au
atom 6.0819512500000004 32.0633274400000019 0.0251730700000000 Au
atom 7.4751690999999996 34.4804270899999992 -0.0581492300000000 Au
atom 10.3216788699999995 34.5271232999999995 0.0932023400000000 Au
atom 13.1442823999999998 34.5249426000000028 -0.0129418500000000 Au
atom 15.9903913699999993 34.5239001599999966 0.1675068100000000 Au
atom 18.8056768400000003 34.5644429800000026 0.0027522100000000 Au
atom 21.6396763900000018 34.4898955099999966 0.1053154400000000 Au
atom 24.3948183599999986 34.6052817300000015 0.0019197300000000 Au
atom 27.2126206999999987 34.4846207399999969 -0.1384314400000000 Au
atom 1.8633434000000000 34.6178123099999979 0.0728417400000000 Au
atom 4.6523670499999996 34.5185938099999987 0.0294687400000000 Au
atom 8.9346563600000000 36.9880446100000029 -0.1417261200000000 Au
atom 11.6979666200000008 36.9824932699999991 0.0545064000000000 Au
atom 14.6279391499999996 37.0282637199999982 -0.0765059500000000 Au
atom 17.3176506799999999 37.0231814200000002 -0.0833317200000000 Au
atom 20.2388732400000002 37.0183795700000005 0.0392698500000000 Au
atom 23.2752786900000004 37.0843056100000013 -0.2338159900000000 Au
atom 25.9750740899999997 36.9983208800000014 -0.0673677700000000 Au
atom 0.4647285900000000 36.9296890700000020 -0.1387194800000000 Au
atom 3.2416869500000001 36.9688889999999972 0.1107502400000000 Au
atom 5.9313986099999996 37.0185454599999986 -0.0391099500000000 Au
atom 7.2458973699999998 0.0194001200000000 -0.0812196200000000 Au
atom 10.3801281799999998 -0.0286854100000000 0.0970178300000000 Au
atom 13.1709382700000006 0.0351578500000000 0.0881416200000000 Au
atom 15.8468941399999999 -0.0292736400000000 0.0899284300000000 Au
atom 18.7991595800000013 0.0387166900000000 0.0418577900000000 Au
atom 21.7473492200000003 -0.0088999700000000 0.1128875100000000 Au
atom 24.3943944200000011 0.0355159000000000 0.2939551000000000 Au
atom 27.2386703799999985 -0.0540355100000000 0.2996924400000000 Au
atom 1.6855452200000001 0.0555775000000000 -0.1126795900000000 Au
atom 4.6147316199999997 -0.0248179100000000 0.1316767500000000 Au
atom 8.8715181699999999 2.4604434600000000 0.0885552800000000 Au
atom 11.7603683399999994 2.4805730399999999 0.1327441300000000 Au
atom 14.6350976100000008 2.4997071599999998 0.1062223000000000 Au
atom 17.3712039699999998 2.4659317000000001 0.1182510800000000 Au
atom 20.2122608700000015 2.4842061499999999 -0.0361527600000000 Au
atom 23.0128707599999984 2.4516639800000002 0.0545912200000000 Au
atom 25.7949246999999993 2.4649937600000000 0.0750553000000000 Au
atom 0.4181628200000000 2.5834469599999998 -0.0344074100000000 Au
atom 3.2197309100000000 2.4424657700000001 0.0125812600000000 Au
atom 6.0265247100000003 2.4680047599999999 -0.0407457500000000 Au
atom 7.5492707699999997 4.9261795900000003 0.0586290600000000 Au
atom 10.3154489799999993 4.8911536299999998 0.0352057300000000 Au
atom 13.1022249899999998 4.8903817199999997 0.1199622400000000 Au
atom 15.9810156800000005 4.9494791700000000 0.1251917700000000 Au
atom 18.7775272300000005 4.9292339600000004 0.1593567500000000 Au
atom 21.5595246399999994 4.9854189800000004 0.0897731900000000 Au
atom 24.4267574799999991 4.9264321899999999 0.1122969600000000 Au
atom 27.2376027500000006 5.0651578400000004 0.0685303600000000 Au
atom 1.8987463899999999 4.9582874400000003 0.0462898600000000 Au
atom 4.6595445099999999 4.9388707399999996 0.0687938700000000 Au
atom 9.0058373500000002 7.3731543100000003 -0.0061561200000000 Au
atom 11.7642691700000004 7.3665107699999997 0.0292647500000000 Au
atom 14.5859484699999999 7.3476006500000004 0.0607406500000000 Au
atom 17.3732534100000002 7.4431461800000003 0.0417988800000000 Au
atom 20.1624543500000009 7.4426395400000001 0.0548995900000000 Au
atom 23.0522315800000008 7.3913393899999997 0.0442749600000000 Au
atom 25.7952059799999986 7.3516262699999997 0.0371329700000000 Au
atom 0.4911034200000000 7.6593342800000004 0.0713198500000000 Au
atom 3.2691013199999999 7.4011715499999999 0.0439837300000000 Au
atom 6.1735717100000000 7.3759545600000003 0.0639322800000000 Au
atom 7.5737158700000000 9.8209054099999999 0.0042534800000000 Au
atom 10.3366527599999998 9.8695566199999991 0.0378039800000000 Au
atom 13.2094703199999994 9.8208337300000004 0.0211178100000000 Au
atom 15.9260530500000002 9.9228070400000004 0.0849434300000000 Au
atom 18.7462778300000004 9.9318405999999992 0.1426774300000000 Au
atom 21.5981538200000003 9.8630525500000008 0.0330628200000000 Au
atom 24.4536483500000017 9.8706981400000000 0.0429109400000000 Au
atom 27.2574004999999993 10.2505992900000003 0.0023627800000000 Au
atom 1.8951447299999999 9.9327142700000000 0.0748805100000000 Au
atom 4.7101696000000004 9.8958782400000000 -0.0020436000000000 Au
atom 8.9443578899999991 12.2947928500000003 0.0377162200000000 Au
atom 11.7223745899999994 12.3412247300000004 0.0894592600000000 Au
atom 14.5430549100000004 12.3748924799999998 -0.1346425000000000 Au
atom 17.3483616299999994 12.3498651699999993 0.0299689800000000 Au
atom 20.1835009300000010 12.3748106199999999 0.0951097800000000 Au
atom 23.0287408700000000 12.2908480299999994 -0.0456881000000000 Au
atom 25.8872604399999986 12.3071338099999998 -0.0398020500000000 Au
atom 0.5012261500000000 12.4154829000000007 -0.0538976900000000 Au
atom 3.3245766400000001 12.3439298399999995 -0.0750225500000000 Au
atom 6.1399699999999999 12.3874968499999998 -0.1079929900000000 Au
atom 7.4680139299999997 13.2052339599999993 2.7182556099999999 Au
atom 10.2265670100000001 13.2422311700000002 2.5956461000000002 Au
atom 13.0953565199999993 13.1877085100000002 2.6486960000000002 Au
atom 15.9168649999999996 13.2480174799999997 2.5619652300000002 Au
atom 18.7628144100000007 13.2113248500000005 2.6757280500000000 Au
atom 21.5972797900000018 13.2080294800000004 2.6867927400000000 Au
atom 24.3775271899999986 13.1575943899999999 2.6029913100000002 Au
atom 27.2304276300000012 13.2317438700000007 2.6077963700000000 Au
atom 1.8818228400000001 13.1998145600000001 2.6897994299999999 Au
atom 4.6952759600000000 13.1984471600000006 2.5128926599999999 Au
atom 8.9010263300000005 15.6530760999999998 2.5028703100000000 Au
atom 11.7065549900000008 15.6826037300000003 2.4947545899999999 Au
atom 14.6059909599999997 15.6933054700000003 2.5437611300000000 Au
atom 17.4026847999999994 15.7684196199999995 2.4840611300000002 Au
atom 20.1735679800000014 15.6743512000000003 2.4733367400000001 Au
atom 23.0139696399999991 15.6711892099999996 2.6672833699999998 Au
atom 25.7883057800000017 15.5779130200000004 2.6712221199999999 Au
atom 0.4366240500000000 15.5869764199999992 2.5278813800000002 Au
atom 3.3246225400000000 15.6401209600000008 2.6381726200000002 Au
atom 6.1006569400000004 15.6637064400000003 2.4948478700000001 Au
atom 7.4463510499999996 18.0387822399999997 2.5455967799999999 Au
atom 10.3011429799999998 18.1194531599999991 2.3937252400000002 Au
atom 13.1236355800000002 18.0764968099999983 2.5826139800000001 Au
atom 15.9717786099999994 18.1282813800000007 2.5473844099999998 Au
atom 18.8274488499999997 18.1792102799999995 2.6070304300000000 Au
atom 21.6017484099999990 18.0986048799999999 2.6269077300000001 Au
atom 24.4110287700000015 18.0933221099999990 2.7213673699999998 Au
atom 27.2360786099999999 18.0626396900000010 2.5097170100000001 Au
atom 1.8790924600000001 18.0353382999999994 2.6857099600000001 Au
atom 4.7315333099999997 18.1313786899999982 2.6520436200000002 Au
atom 8.9214348000000001 20.5928833199999985 2.6121307800000002 Au
atom 11.7541473399999994 20.6305123299999984 2.4694551699999998 Au
atom 14.5685531899999994 20.5455437500000002 2.5503845900000002 Au
atom 17.4388055199999989 20.6098279099999999 2.7338332699999999 Au
atom 20.2333574899999995 20.6470091899999986 2.6208222600000002 Au
atom 23.0247284699999994 20.6040729099999993 2.6952433600000001 Au
atom 25.8581317499999983 20.7242396599999985 2.7758058100000000 Au
atom 0.4510654900000000 20.5120129800000015 2.6418079200000002 Au
atom 3.2427321099999999 20.5385909600000005 2.7434019599999999 Au
atom 6.0484099499999999 20.6471703300000016 2.6701842299999998 Au
atom 7.5397990600000000 23.0428025500000011 2.6502324300000000 Au
atom 10.3304028900000002 23.0581362200000015 2.5054574100000000 Au
atom 13.1074143000000003 23.0857999499999984 2.4451740000000002 Au
atom 15.9344230699999994 23.1569172899999991 2.7283948800000002 Au
atom 18.7536297199999993 23.0457215600000005 2.5969810299999998 Au
atom 21.5972114300000015 23.0806749199999999 2.6541238699999998 Au
atom 24.4465964800000002 23.0456623799999996 2.7728475299999999 Au
atom 27.2581755799999996 22.9952211200000001 2.5896062600000000 Au
atom 1.9091030200000001 23.0399339199999993 2.6919735400000002 Au
atom 4.7225516699999996 23.0501537600000006 2.6942062600000001 Au
atom 8.9837476299999999 25.6042191599999995 2.5762470099999999 Au
atom 11.7014421599999991 25.5975821400000001 2.6435811199999999 Au
atom 14.5633534000000004 25.6423799199999998 2.7249109800000002 Au
atom 17.3838896200000015 25.5497053500000000 2.6843505200000002 Au
atom 20.1704158199999988 25.5429663699999985 2.7247586400000001 Au
atom 22.9868873100000002 25.5032356799999995 2.7518203099999998 Au
atom 25.8713600200000009 25.5666593900000017 2.6842290000000002 Au
atom 0.4925314200000000 25.6055333000000012 2.6782893699999999 Au
atom 3.2830603799999998 25.4945958700000013 2.6864084300000002 Au
atom 6.0759670500000000 25.5774380400000005 2.7347986500000001 Au
atom 7.4597897099999999 28.0184225399999995 2.6613897400000002 Au
atom 10.2732485400000009 28.0761273699999983 2.6886244700000002 Au
atom 13.1207080400000002 28.0573643399999995 2.5786079200000001 Au
atom 15.9306633600000005 28.0631777500000013 2.6139519099999999 Au
atom 18.7579348599999989 27.9975468200000002 2.5966073500000002 Au
atom 21.5874617800000017 28.0570147600000013 2.8438504800000000 Au
atom 24.3528615200000011 28.0056796400000003 2.6313442100000000 Au
atom 27.2462225499999988 27.8811449399999987 2.7419102899999999 Au
atom 1.8699477300000000 28.0294873399999993 2.7186079300000001 Au
atom 4.7093721999999998 27.9951326499999986 2.7598857799999998 Au
atom 8.9610228700000008 30.4666913699999995 2.5833316499999999 Au
atom 11.7205450800000008 30.4722544199999987 2.6490762000000001 Au
atom 14.4824067700000008 30.4795199100000005 2.7029974800000001 Au
atom 17.3217558300000007 30.4711104299999995 2.5951602800000000 Au
atom 20.1169264100000014 30.4816475000000011 2.7093332299999999 Au
atom 22.9848460000000010 30.5078255100000000 2.6614408900000002 Au
atom 25.8113096700000000 30.5657091899999998 2.5739482800000002 Au
atom 0.5000873800000000 30.5375915099999986 2.7352585199999999 Au
atom 3.3162112800000001 30.4697932000000016 2.6219398699999998 Au
atom 6.0982273700000000 30.4658878400000006 2.7049132400000002 Au
atom 7.4996052899999999 32.9076548199999976 2.5915278499999999 Au
atom 10.3166619700000002 32.9088178200000030 2.7046990399999999 Au
atom 13.0552263499999999 32.9360748900000004 2.6518237800000000 Au
atom 15.9351631999999999 32.8959635599999984 2.7566408999999998 Au
atom 18.6719154899999999 32.9417586799999995 2.5887228200000001 Au
atom 21.6272819299999988 32.9568085499999981 2.8051544599999998 Au
atom 24.4060233300000000 32.9727271200000018 2.5703542499999998 Au
atom 27.2584763099999989 33.1596772899999976 2.6607150000000002 Au
atom 1.8253581299999999 32.9469273599999966 2.5328892299999999 Au
atom 4.6751636799999998 32.8833669200000003 2.6131875000000000 Au
atom 8.8865676199999992 35.4049297700000025 2.6337287800000002 Au
atom 11.6950742699999992 35.4089824400000026 2.6332406300000000 Au
atom 14.5498798499999999 35.3333769099999984 2.6059416500000001 Au
atom 17.4104690499999997 35.4140263600000011 2.6147168000000001 Au
atom 20.2201978099999984 35.3926086900000030 2.6721673300000002 Au
atom 23.0511089799999986 35.3241777300000024 2.6550067799999999 Au
atom 25.8988386099999985 35.3724739099999965 2.6505981599999999 Au
atom 0.4639645800000000 35.3606598900000009 2.4918166899999998 Au
atom 3.2915596599999999 35.4028234600000005 2.5677152300000001 Au
atom 6.1089687599999998 35.3619468600000033 2.5838042600000000 Au
atom 7.4496653200000003 37.9145957599999974 2.7871122700000002 Au
atom 10.0485941800000003 37.8617492200000001 2.5183105900000000 Au
atom 13.2476894099999996 37.7990057100000030 2.5711202000000002 Au
atom 16.2293489400000013 37.8059020700000019 2.8991526200000002 Au
atom 18.9074529499999997 37.8523643600000028 2.5454763200000001 Au
atom 21.7594704300000004 37.8059767299999976 2.5495488000000002 Au
atom 24.3955288299999999 37.8313895000000002 2.3987421800000002 Au
atom 27.0604874299999985 37.8064081099999996 2.8113382400000000 Au
atom 2.1308378700000001 37.8486039699999992 2.5732539399999999 Au
atom 4.8108282700000000 37.8355143200000015 2.4957523899999998 Au
atom 9.0031777799999997 0.8100715100000000 2.6787498799999998 Au
atom 11.8000196200000005 0.8320950700000000 2.7377384500000002 Au
atom 14.5277166199999996 0.8149208900000000 2.7049699199999999 Au
atom 17.3897619900000002 0.8790666400000000 2.8883244700000001 Au
atom 20.4592643500000015 0.8336158900000000 2.7224195999999998 Au
atom 23.1648602399999994 0.8174144000000000 2.7743269200000000 Au
atom 25.9340054500000008 0.7919950100000001 2.7497174599999998 Au
atom 0.5728178300000000 0.8991423900000000 2.8871497900000000 Au
atom 3.2178229500000000 0.8728058700000000 2.6854333200000000 Au
atom 6.1459226500000002 0.8714167100000000 2.7142950099999998 Au
atom 7.4944512799999998 3.3085263800000000 2.6283632600000000 Au
atom 10.3638247499999991 3.3231444500000000 2.6935983100000001 Au
atom 13.1565730799999994 3.2853311800000000 2.7158170099999999 Au
atom 15.9788146300000005 3.3266820899999998 2.7424736099999998 Au
atom 18.8000769599999984 3.2577565900000001 2.7267590600000000 Au
atom 21.5982485400000002 3.2953878200000002 2.6236285600000002 Au
atom 24.3836251900000001 3.3203606200000002 2.6678375999999999 Au
atom 27.2152138699999995 3.2738026400000000 2.7572629200000001 Au
atom 1.7928589399999999 3.3475500199999999 2.5386307499999998 Au
atom 4.6995119399999998 3.2808347699999998 2.6854380199999999 Au
atom 8.9394544200000006 5.7675313800000003 2.6732102700000002 Au
atom 11.7539325100000003 5.8008784000000002 2.6707559700000001 Au
atom 14.5643879999999992 5.7890706999999999 2.6816140599999998 Au
atom 17.3597108200000001 5.7996869599999998 2.6953651600000001 Au
atom 20.2105491199999996 5.8065247800000002 2.7979314400000002 Au
atom 23.0151794000000010 5.7927868900000004 2.7557376699999998 Au
atom 25.8325400000000016 5.8794207399999996 2.6945593600000000 Au
atom 0.4507368500000000 5.8437229799999999 2.7841627099999999 Au
atom 3.2883310799999999 5.8022967400000001 2.7914645500000002 Au
atom 6.0919295699999996 5.7759691200000001 2.7639241200000000 Au
atom 7.5271875100000001 8.2471254199999997 2.6335825900000001 Au
atom 10.2951478000000005 8.3003276899999996 2.6189157100000000 Au
atom 13.1652687000000004 8.3092207400000007 2.6931901599999999 Au
atom 15.9830342099999996 8.3029442400000004 2.5973529100000001 Au
atom 18.7871414299999984 8.3160985200000006 2.6936601100000002 Au
atom 21.6194827799999985 8.2579491199999993 2.6538151200000000 Au
atom 24.4556238099999987 8.2900500000000008 2.7111760600000001 Au
atom 27.2485759700000010 8.2275157199999995 2.6049597000000002 Au
atom 1.8441135000000000 8.2916277100000002 2.8081578100000000 Au
atom 4.7027145900000002 8.1914303299999993 2.6694244299999998 Au
atom 8.9166296700000007 10.7226020999999996 2.5932469999999999 Au
atom 11.7813759900000008 10.7446594999999991 2.5810648700000001 Au
atom 14.5577571900000002 10.7936550300000000 2.6262013099999999 Au
atom 17.4024731700000004 10.7900668199999998 2.6912822799999998 Au
atom 20.1761972800000002 10.7552998599999992 2.6818923899999998 Au
atom 23.0625512000000015 10.6993436400000004 2.6966168700000002 Au
atom 25.8089887400000002 10.7703866000000001 2.5597476000000001 Au
atom 0.4374681200000000 10.8459584499999995 2.5942114300000001 Au
atom 3.2857750700000001 10.6986229500000007 2.6201561899999999 Au
atom 6.1201508400000000 10.7319892400000008 2.5792215999999999 Au
atom 7.2429069600000000 12.8623424300000000 5.7577676300000000 Cl
atom 7.6686832999999996 16.1611885499999985 8.2163825199999998 Cl
atom 7.4990536900000002 13.2224498799999992 8.5018485500000001 Na
atom 7.3899679999999996 15.6217928199999996 5.6225604599999999 Na
atom 7.3084597599999999 18.7352330500000015 5.6146051600000000 Cl
atom 7.2899462399999999 21.5635754700000000 8.4940632899999997 Cl
atom 7.4320860499999997 18.8814674599999996 8.2809519700000003 Na
atom 7.4268522499999996 21.6752344800000003 5.5898640400000001 Na
atom 7.3371658300000000 24.6492932300000014 5.5876101900000004 Cl
atom 7.6282279099999997 27.2525439300000016 8.6876623500000001 Cl
atom 7.4685014599999997 24.4729208800000002 8.2028895199999994 Na
atom 7.4204328500000001 27.4261275900000001 5.8303416600000002 Na
atom 7.4448759000000004 30.2007918500000017 5.7734451699999996 Cl
atom 7.4886016000000000 32.9465231599999981 8.6022572600000000 Cl
atom 7.4993477000000004 30.1964226099999991 8.4352884499999998 Na
atom 7.4631964300000000 32.9741734699999967 5.8346997700000003 Na
atom 7.5007716999999996 35.7794374500000032 5.7565211999999999 Cl
atom 7.4574068400000000 38.5267908599999984 8.6144483199999993 Cl
atom 7.4965293500000003 35.7808711799999983 8.3918254000000001 Na
atom 7.4376978999999999 38.5846610600000020 5.6207576799999996 Na
atom 7.6089873900000002 1.9583287800000000 5.8723763000000000 Cl
atom 7.4411237100000003 4.6608638899999999 8.7274901299999996 Cl
atom 7.3797046999999996 1.8339221500000000 8.5391236799999994 Na
atom 7.4623014799999998 4.6690323800000000 5.9490806699999998 Na
atom 7.3509874399999999 7.3803419999999997 5.7726886200000003 Cl
atom 7.4697075899999996 10.3353124199999993 8.5523598300000003 Cl
atom 7.4577230800000001 7.4835621600000000 8.5297514799999998 Na
atom 7.3950895699999997 10.0564629700000001 5.7741945399999999 Na
atom 10.1894699600000003 13.0944269799999997 5.8388478900000003 Na
atom 13.1416838800000004 12.7688087400000008 5.5556020100000003 Cl
atom 10.2432428699999996 16.3510234399999987 8.4182974200000000 Na
atom 13.0191507200000007 15.8847022899999999 8.1720300399999992 Cl
atom 13.0881529699999994 13.0753351400000000 8.1346348800000001 Na
atom 10.3981539800000000 13.0811259500000006 8.5991825599999991 Cl
atom 13.1047591099999998 15.8831569100000003 5.5740442100000003 Na
atom 10.1886143499999999 15.8116795999999997 5.5416144200000002 Cl
atom 10.1062840800000000 18.9831739400000004 5.6306364999999996 Na
atom 13.1322712700000004 18.8744579899999998 5.9249348700000004 Cl
atom 10.6128041799999995 21.7905151299999993 8.6244255600000006 Na
atom 13.2917138099999992 21.5727576799999987 9.0789942499999992 Cl
atom 13.1730604200000005 19.0341383399999984 8.4497853999999997 Na
atom 10.2808927400000005 18.9597109099999983 8.2848500800000000 Cl
atom 13.0943957100000006 21.8221554900000001 5.5499998399999999 Na
atom 10.6301536999999993 21.6409163500000012 5.6864456700000003 Cl
atom 10.3049236499999992 24.5880015299999997 5.3799697100000001 Na
atom 13.1807547300000003 24.7092368200000010 5.6739075400000001 Cl
atom 10.3288225499999999 27.4705246299999999 8.3916525600000007 Na
atom 13.1888320500000003 27.3584513399999985 8.3581004300000004 Cl
atom 13.2121007099999996 24.4618714799999992 8.2558885699999998 Na
atom 10.3805419200000006 24.4136469399999996 8.3897474200000008 Cl
atom 13.2085799200000000 27.4894328200000011 5.6385037300000000 Na
atom 10.2773802799999991 27.3966001299999995 5.7198622099999996 Cl
atom 10.3819501100000000 30.2073652099999990 5.8286771699999997 Na
atom 13.1745844299999995 30.4256717700000010 5.7086820800000000 Cl
atom 10.3001710400000004 33.0460690800000023 8.4305717999999992 Na
atom 13.1977935199999994 33.0946985100000006 8.6468828500000008 Cl
atom 13.1833237200000006 30.2062355599999997 8.2972257200000001 Na
atom 10.3440740000000009 30.1970706500000006 8.5816148099999996 Cl
atom 13.2071108400000004 33.1037536700000032 5.8772623499999996 Na
atom 10.2673703500000002 33.0754491699999988 5.7780949799999997 Cl
atom 10.2964526200000002 35.8371633200000019 5.8286027400000000 Na
atom 13.1572016499999993 35.7847770999999995 5.6906289699999997 Cl
atom 10.1725079899999997 38.5853041700000006 8.3152082099999998 Na
atom 13.2365265599999997 38.5723522099999983 8.5677643700000008 Cl
atom 13.1889721200000007 35.7746895200000026 8.3685054200000000 Na
atom 10.3182103400000003 35.7613529699999972 8.6016619799999994 Cl
atom 13.2527139399999996 38.6618873399999998 5.6492147900000003 Na
atom 10.2685998600000001 38.5805030400000035 5.7372304800000000 Cl
atom 10.3640323500000004 1.8586652100000001 5.8435891099999999 Na
atom 12.9753215900000001 1.9019086800000000 5.7863233899999997 Cl
atom 10.3119621400000003 4.6504123100000001 8.5252879299999993 Na
atom 13.0732129599999993 4.6139657500000002 8.6779842800000004 Cl
atom 13.1269430899999993 1.8647062900000000 8.3633599899999993 Na
atom 10.1319205900000000 1.8815316900000001 8.6751342699999991 Cl
atom 13.1051716500000008 4.6551772199999997 5.9410805299999998 Na
atom 10.2400231300000009 4.6521385799999999 5.8484030499999999 Cl
atom 10.2453497099999993 7.3980593600000004 5.8341060100000002 Na
atom 13.0959595800000006 7.2716960300000002 5.7719389400000001 Cl
atom 10.1962295199999993 10.1863212799999996 8.4512868999999995 Na
atom 13.0075451900000001 10.2630984400000003 8.4877215199999991 Cl
atom 13.1143179300000003 7.5835664300000003 8.4526198099999998 Na
atom 10.3010737999999993 7.4543334899999998 8.5996181299999996 Cl
atom 13.1071797399999994 10.1441925400000006 5.6510183600000001 Na
atom 10.1621728400000002 10.1482675499999999 5.7555613900000004 Cl
atom 16.1151718600000002 13.0388653600000008 5.6053765100000001 Na
atom 18.9319839999999999 13.0302662199999997 5.7119752400000001 Cl
atom 15.9898115500000007 15.9006152400000005 8.1982313100000006 Na
atom 18.7514764499999984 16.0731657199999987 8.4056531900000007 Cl
atom 18.8360589800000007 13.1726978599999995 8.3031652400000002 Na
atom 15.8832774400000005 13.2269375799999995 8.3958091300000000 Cl
atom 18.8262131199999985 15.8839526200000005 5.6479469000000000 Na
atom 15.9712699800000006 15.8646725899999996 5.6457079700000001 Cl
atom 16.0023394799999998 18.8010524200000013 5.4174410799999997 Na
atom 19.0672259100000012 18.8083890599999997 5.5965472399999996 Cl
atom 15.6163108099999999 21.5509323100000003 8.2131494899999993 Na
atom 18.9030392200000001 21.6771872499999994 8.2585443999999999 Cl
atom 18.8234511799999993 18.8296706299999990 8.0545366900000008 Na
atom 16.0197065099999989 18.8468030599999992 8.1173362400000002 Cl
atom 18.8743850100000010 21.8245762100000000 5.5212767600000001 Na
atom 15.7989043700000007 21.8810323699999998 5.4943037700000001 Cl
atom 15.9718828599999991 24.6858216500000012 5.7080010699999999 Na
atom 18.8198073599999987 24.6613748599999987 5.6572480499999998 Cl
atom 15.8516998600000001 27.3007104299999988 8.3590210299999992 Na
atom 18.7215614399999986 27.2154083299999989 8.3362931099999997 Cl
atom 18.7925394499999996 24.4732085499999990 8.2500272599999995 Na
atom 15.7663267200000003 24.4037628799999986 8.3498589699999997 Cl
atom 18.9963850399999998 27.4884261099999989 5.6709685900000002 Na
atom 16.1163131799999988 27.3749947099999993 5.7326598500000001 Cl
atom 16.1099841999999995 30.1818875400000017 5.7093676899999997 Na
atom 18.9648167100000009 30.3326491900000015 5.6303310800000004 Cl
atom 16.0308511899999999 32.9897623299999978 8.3163915199999998 Na
atom 18.8924836999999997 32.9869066199999992 8.6414359399999991 Cl
atom 18.9658858300000013 30.1501651200000005 8.3588044900000007 Na
atom 16.1173400300000011 30.1921274799999999 8.4693191700000003 Cl
atom 18.7887663200000006 33.0662711299999970 5.8764010500000001 Na
atom 16.0229622200000001 33.1368494900000030 5.7084774300000003 Cl
atom 15.9602408800000006 35.8486955799999976 5.8517850300000003 Na
atom 18.8005849000000005 35.8581499000000008 5.7768331799999997 Cl
atom 15.7549528900000002 38.6024335099999973 8.3542737999999996 Na
atom 18.8772399600000007 38.5334287900000021 8.6912181099999994 Cl
atom 18.8362518899999998 35.9041105399999978 8.4486997699999993 Na
atom 15.9829645800000009 35.8521207499999974 8.4930273399999994 Cl
atom 18.8016438599999987 38.5653475900000018 5.8936084199999996 Na