#===============================================================================
# Created using the Atomic Simulation Environment (ASE)

# Tue Dec 23 22:26:25 2025

#=======================================================
lattice_vector 28.1999999999999993 0.0000000000000000 0.0000000000000000 
lattice_vector 0.0000000000000000 39.4799999999999969 0.0000000000000000 
lattice_vector 0.0000000000000000 0.0000000000000000 62.3296083400000001 
atom 7.4856470599999998 14.8376680099999998 -0.0250171900000000 Au
atom 10.3673536700000000 14.8450006200000004 -0.0457996400000000 Au
atom 13.1619734699999995 14.8425808000000004 -0.1188292800000000 Au
atom 15.9564828199999997 14.8469167899999999 -0.0895774300000000 Au
atom 18.7836994299999986 14.7268670000000004 0.0197641300000000 Au
atom 21.5860629300000006 14.8768353300000005 0.0394801500000000 Au
atom 24.4249021299999995 14.8064440800000003 -0.0717337100000000 Au
atom 27.2575509800000013 14.7923714799999999 0.0446333000000000 Au
atom 1.8721827499999999 14.7983130099999993 0.0530241200000000 Au
atom 4.6500161400000000 14.7399886700000007 -0.1154916300000000 Au
atom 8.8733380999999998 17.3302122999999995 -0.0111831800000000 Au
atom 11.7763087100000003 17.3314690899999988 0.0227202600000000 Au
atom 14.5380673999999992 17.3063942900000001 0.0210041500000000 Au
atom 17.3633429399999990 17.2978929800000003 0.0241845400000000 Au
atom 20.2075214400000007 17.2819494499999990 -0.0629854200000000 Au
atom 23.0376927999999985 17.2523061899999988 -0.0035570000000000 Au
atom 25.8280909399999992 17.3349187100000002 0.0200784600000000 Au
atom 0.4508795800000000 17.2371307800000011 0.0119521600000000 Au
atom 3.2390790599999999 17.2782234599999995 0.1129061700000000 Au
atom 6.1015868500000003 17.3151353499999985 -0.0176875400000000 Au
atom 7.5019201300000002 19.7104083900000013 0.0858571300000000 Au
atom 10.3045498000000002 19.8101602600000000 0.0641482500000000 Au
atom 13.1819884999999992 19.7456018499999999 0.0734270400000000 Au
atom 16.0050942899999988 19.8105860699999994 -0.0414320700000000 Au
atom 18.8237370000000013 19.6810763100000017 0.0777795100000000 Au
atom 21.6043346599999992 19.7801844399999993 0.0299363900000000 Au
atom 24.4926540099999990 19.7285969700000017 0.0440192000000000 Au
atom 27.2743901400000013 19.9904232999999998 -0.1016024800000000 Au
atom 1.8689201600000001 19.7330487699999999 0.0779605300000000 Au
atom 4.6579767399999996 19.7484869900000000 0.1370334400000000 Au
atom 8.8616066100000008 22.3028911900000004 0.1159031500000000 Au
atom 11.7498209599999992 22.2904502899999990 0.0040647500000000 Au
atom 14.5482345399999993 22.2634322199999986 -0.0194204400000000 Au
atom 17.4199050500000006 22.2469432000000005 0.1718021200000000 Au
atom 20.1985769799999986 22.2410049500000007 0.1193001000000000 Au
atom 23.0653418700000010 22.2515608399999998 0.0686064100000000 Au
atom 25.8778425200000015 22.1861347299999991 0.1365977200000000 Au
atom 0.4843689000000000 22.2137771899999983 0.1690692400000000 Au
atom 3.2902644300000001 22.1973565499999985 0.0464425000000000 Au
atom 6.0488031700000002 22.1840432499999984 0.1218696100000000 Au
atom 7.4887256000000004 24.6734712999999992 0.0649804100000000 Au
atom 10.3394944300000002 24.6586311500000015 0.0563274200000000 Au
atom 13.1388238299999998 24.7027890600000006 0.1340427500000000 Au
atom 16.0213107299999997 24.7199292700000015 0.0457386500000000 Au
atom 18.8646061699999983 24.6792699999999989 0.0746132400000000 Au
atom 21.6856922499999989 24.6761088800000010 0.0250002500000000 Au
atom 24.4712143100000006 24.7199898800000000 0.1066826000000000 Au
atom 27.2572783299999983 24.5336881799999986 0.0453262400000000 Au
atom 1.8187951800000000 24.6455051199999993 0.1155107600000000 Au
atom 4.6486425100000002 24.6785786300000005 0.0522047600000000 Au
atom 8.9473324099999996 27.1382504500000010 0.0731387900000000 Au
atom 11.7191589500000006 27.1290146199999995 0.0903714500000000 Au
atom 14.6032926199999995 27.1030725399999994 0.1440228100000000 Au
atom 17.4371164699999994 27.1307470299999984 -0.0595692200000000 Au
atom 20.2116266700000011 27.1191597800000004 0.0751788700000000 Au
atom 23.0003328600000003 27.1599901099999990 0.0263813900000000 Au
atom 25.8775658300000018 27.0741748499999986 0.1080191400000000 Au
atom 0.4538180700000000 27.1583816300000009 -0.0533355900000000 Au
atom 3.2788938700000001 27.1372647499999999 0.0328261600000000 Au
atom 6.0995581999999997 27.1252830200000012 0.1246242100000000 Au
atom 7.4845396099999997 29.5407969000000001 0.0509520700000000 Au
atom 10.2900061300000001 29.5752040899999997 0.1666160600000000 Au
atom 13.1366875299999997 29.5894822799999986 0.1141658800000000 Au
atom 16.0207255900000014 29.6097674200000007 0.0406123900000000 Au
atom 18.7942196700000004 29.6525573499999986 0.0122278100000000 Au
atom 21.6000395999999988 29.5993993199999998 0.0985754500000000 Au
atom 24.4010663299999990 29.6425926199999985 0.0360422000000000 Au
atom 27.2075027499999997 29.3974446299999990 -0.0838566300000000 Au
atom 1.8582104600000000 29.6169705199999989 -0.0526013100000000 Au
atom 4.6795637699999997 29.6037026599999997 0.0418604000000000 Au
atom 8.9516782399999997 32.0624243099999973 -0.0881160500000000 Au
atom 11.7439130100000000 32.0574728300000018 0.0225305500000000 Au
atom 14.5863212000000004 32.0833631599999975 -0.0696488800000000 Au
atom 17.3615881600000002 32.0877035099999972 -0.0970579800000000 Au
atom 20.1780219199999991 32.0227954900000000 -0.0923873700000000 Au
atom 23.0574644500000012 32.0584944699999994 0.0166643700000000 Au
atom 25.8697772999999991 32.0617992500000000 -0.0256622500000000 Au
atom 0.4605024200000000 32.1501744700000032 0.0500222200000000 Au
atom 3.3123168600000001 32.0610414300000031 0.0234167900000000 Au
atom 6.0957072700000001 32.0809134300000025 0.0436633000000000 Au
atom 7.4871518200000002 34.5162703199999967 -0.0133256300000000 Au
atom 10.3309924100000003 34.5795982400000028 0.0741777300000000 Au
atom 13.1236451800000005 34.5275839600000012 -0.0359529700000000 Au
atom 15.9319710699999995 34.5413743800000006 0.0890643800000000 Au
atom 18.7608274900000005 34.5818098599999999 0.0003927800000000 Au
atom 21.5781032500000016 34.5727627400000017 -0.0791409000000000 Au
atom 24.3898653699999990 34.5270251399999992 0.0596270800000000 Au
atom 27.2291686199999994 34.5551813599999988 -0.0419657700000000 Au
atom 1.8970280500000001 34.5904691599999978 0.0070703400000000 Au
atom 4.6247609599999997 34.5646111399999967 -0.0205308500000000 Au
atom 9.0838134299999993 36.9389131000000006 -0.1427057200000000 Au
atom 11.6253478200000000 37.0409124399999996 0.1310676600000000 Au
atom 14.4143554100000006 36.9678049999999985 0.1363003200000000 Au
atom 17.4069688400000011 37.0240793099999976 -0.0727706000000000 Au
atom 20.1917145200000014 37.0273325699999987 0.0474120900000000 Au
atom 23.2348561700000005 37.0146903500000022 -0.0599410100000000 Au
atom 25.5880247800000014 37.0106660499999975 0.1706362100000000 Au
atom 0.4154305300000000 37.1532687600000031 0.0969584900000000 Au
atom 3.0441164000000001 37.0535252600000007 0.1100471900000000 Au
atom 5.9944503100000004 37.0286334800000034 -0.1355924100000000 Au
atom 7.5830153999999999 -0.0060800200000000 0.0653891800000000 Au
atom 10.1693023000000000 -0.0482344700000000 0.1343349700000000 Au
atom 13.1297786100000007 0.0420547400000000 -0.1598409400000000 Au
atom 16.0601692500000013 0.0486414700000000 0.0733926100000000 Au
atom 19.0887820400000017 -0.0273481200000000 0.0910000100000000 Au
atom 21.4396590200000006 -0.0286673700000000 0.0777308600000000 Au
atom 24.3264180199999984 0.0311822500000000 0.0092094500000000 Au
atom 27.2786388200000012 -0.1714271000000000 0.2751764000000000 Au
atom 1.7972864799999999 0.0814065000000000 0.1725596000000000 Au
atom 4.5876820199999999 0.0400371600000000 0.1495997600000000 Au
atom 8.9113772999999998 2.4013942600000000 -0.0182050700000000 Au
atom 11.7251047699999997 2.4424086800000002 -0.0137015900000000 Au
atom 14.5128822100000008 2.4562495499999999 0.1689659300000000 Au
atom 17.3725367700000000 2.4750809899999999 0.1259868500000000 Au
atom 20.2068560400000017 2.4870836500000002 0.0187982900000000 Au
atom 23.0569813199999984 2.4213381400000000 0.1077934300000000 Au
atom 25.7989191300000016 2.4318567899999999 0.1583563500000000 Au
atom 0.4158744300000000 2.6366993100000000 0.0504288700000000 Au
atom 3.2841587400000001 2.5195569099999999 -0.0096831200000000 Au
atom 6.1146043600000004 2.4807146100000002 -0.0028667300000000 Au
atom 7.5469968300000003 4.9453605200000004 0.0517943000000000 Au
atom 10.3488081600000008 4.9117758800000004 0.1063904600000000 Au
atom 13.1042164400000001 4.8982592699999996 0.0759460000000000 Au
atom 15.9435417800000003 4.9480352300000003 0.1134462300000000 Au
atom 18.7612028399999993 4.9088635800000002 0.0772497100000000 Au
atom 21.5877026100000009 4.9351426900000002 0.1489595200000000 Au
atom 24.4305950699999990 4.9462752500000002 0.1189765300000000 Au
atom 27.2476002599999987 5.1372073599999997 0.1783002600000000 Au
atom 1.8561089600000000 4.9885655299999998 0.0586582600000000 Au
atom 4.6996067899999998 4.9839564699999999 0.1120938700000000 Au
atom 8.9539288399999997 7.3867657600000003 0.0742599000000000 Au
atom 11.7400320899999997 7.3524394600000003 0.1439479200000000 Au
atom 14.5428369199999992 7.3967385400000003 0.0980971100000000 Au
atom 17.4231973800000013 7.3647639199999997 0.1806421900000000 Au
atom 20.2295072900000008 7.4043982000000002 0.0077160900000000 Au
atom 23.0287727000000011 7.3936471399999997 0.0911004200000000 Au
atom 25.8924827700000009 7.3770153199999999 -0.0459552800000000 Au
atom 0.4637887900000000 7.5129154800000002 -0.1469092400000000 Au
atom 3.2887586999999998 7.4678458900000004 0.1419319900000000 Au
atom 6.1038701199999998 7.4199067999999997 0.0666967200000000 Au
atom 7.5685745300000002 9.8894958899999992 0.1538842400000000 Au
atom 10.3683086400000004 9.8788564799999996 0.0506844500000000 Au
atom 13.1946446999999996 9.8490171199999992 0.0462256500000000 Au
atom 15.9803348900000000 9.7890245999999994 0.0505866900000000 Au
atom 18.8024798900000008 9.8779651200000007 0.0193799400000000 Au
atom 21.6273466100000000 9.8800634699999996 0.0517385300000000 Au
atom 24.4498209899999992 9.8620885999999999 0.0806631700000000 Au
atom 27.2671393199999983 9.9236872399999996 0.0779902500000000 Au
atom 1.8402106300000001 9.8766629300000002 -0.0181087500000000 Au
atom 4.7439063499999996 9.8730562099999997 -0.0626617600000000 Au
atom 8.9666436399999991 12.3126312900000006 -0.0023453000000000 Au
atom 11.7812600100000004 12.3619297800000005 -0.0478350300000000 Au
atom 14.5698660100000001 12.3382594399999999 0.0232454900000000 Au
atom 17.3655155199999989 12.3226879599999997 0.0121931400000000 Au
atom 20.1766442400000017 12.3400931299999996 -0.0585559600000000 Au
atom 23.0080259399999996 12.3936003299999999 0.0150272300000000 Au
atom 25.8511907799999996 12.3253690500000008 0.0842849500000000 Au
atom 0.4336424300000000 12.3413701299999996 0.2472074700000000 Au
atom 3.3068567600000001 12.2676397099999992 0.0667034000000000 Au
atom 6.1232355399999996 12.3084115900000004 -0.0606394100000000 Au
atom 7.4997190199999997 13.1883288800000003 2.6054055500000000 Au
atom 10.2869149199999992 13.2110184299999993 2.5400050599999999 Au
atom 13.1621139899999999 13.1179609999999993 2.5740069900000000 Au
atom 15.9068314799999992 13.1214573399999992 2.5706221700000000 Au
atom 18.7625297700000004 13.1458079899999998 2.6596542500000000 Au
atom 21.5887111699999998 13.2192633500000003 2.6005835899999998 Au
atom 24.4205645400000009 13.1849834000000001 2.7043344800000000 Au
atom 27.2245760200000007 13.3125194699999998 2.4645595800000000 Au
atom 1.9048710600000001 13.2245588299999994 2.7468900199999999 Au
atom 4.7166524100000000 13.1942862000000005 2.5273094999999999 Au
atom 8.9787049900000007 15.6576377699999991 2.5666070699999999 Au
atom 11.7727114400000001 15.5940221099999992 2.5500133900000002 Au
atom 14.5499518000000005 15.6547363900000001 2.5374895099999999 Au
atom 17.3309785500000011 15.6362146400000004 2.6035996300000002 Au
atom 20.1394973099999994 15.6251327799999995 2.5893781300000001 Au
atom 23.0079801999999987 15.6300871600000004 2.6766238900000001 Au
atom 25.7696161299999993 15.6602785200000003 2.5799393300000002 Au
atom 0.4256619000000000 15.7035134299999992 2.4958049600000001 Au
atom 3.2922951199999999 15.5893431899999992 2.6567709800000001 Au
atom 6.1216059600000001 15.6362359200000007 2.4767228399999999 Au
atom 7.5145284099999996 18.0737796300000007 2.6909755500000001 Au
atom 10.3320153599999998 18.1413297200000017 2.5396661100000002 Au
atom 13.1651950499999995 18.1244492699999995 2.5664295600000000 Au
atom 15.9295033600000000 18.1523285299999984 2.5347718800000001 Au
atom 18.8092007400000014 18.0965100999999997 2.6627662499999998 Au
atom 21.5837786999999999 18.0696769300000000 2.5545860299999998 Au
atom 24.4334507599999995 18.0639864900000013 2.6685595900000001 Au
atom 27.2514246399999998 18.1939319300000015 2.4035685700000000 Au
atom 1.8646103300000001 18.0592470200000008 2.6104048400000002 Au
atom 4.7048508699999996 18.0608313699999989 2.5782820200000001 Au
atom 8.8896279000000007 20.5994168400000000 2.6091562399999999 Au
atom 11.7339130399999991 20.6182700600000004 2.6154092699999998 Au
atom 14.5456417299999998 20.6207628099999987 2.5841723999999999 Au
atom 17.4463860400000002 20.5939814699999992 2.7112980499999999 Au
atom 20.1701854300000001 20.5628174500000007 2.5896667199999999 Au
atom 22.9264825700000010 20.5689461300000005 2.5958584299999998 Au
atom 25.8340872799999985 20.5490249100000000 2.7686899600000001 Au
atom 0.4668620400000000 20.6294142700000016 2.6788314000000000 Au
atom 3.3027520799999999 20.5708216600000000 2.7062586700000000 Au
atom 6.0747907699999999 20.5755336799999995 2.6823689300000000 Au
atom 7.4861974199999999 23.0891089799999989 2.6510959999999999 Au
atom 10.3332163300000008 23.0367108800000011 2.6822777900000001 Au
atom 13.1597807899999992 23.0945082600000013 2.5947502000000000 Au
atom 16.0104291299999986 23.1400751100000015 2.5620179900000002 Au
atom 18.8600689400000014 23.1481868999999989 2.6264685200000000 Au
atom 21.6656415600000010 23.0995951099999992 2.6132415600000001 Au
atom 24.4387373200000013 22.9913002099999986 2.6835748300000000 Au
atom 27.2762649199999991 23.2697843800000008 2.9279026099999999 Au
atom 1.8618631400000001 23.0879766000000011 2.6308787599999999 Au
atom 4.6610560100000002 23.0548788299999998 2.6820897399999999 Au
atom 8.8994175999999996 25.5307584699999985 2.5858983100000001 Au
atom 11.7014920799999995 25.5650018500000016 2.6855731399999998 Au
atom 14.5714637600000003 25.5622469300000006 2.7497412699999999 Au
atom 17.4647191399999997 25.6025003600000005 2.5693499399999999 Au
atom 20.2465172299999985 25.5253641500000015 2.6841080900000001 Au
atom 23.0395869600000012 25.5756781500000017 2.6516746599999999 Au
atom 25.8408422000000009 25.5383706699999991 2.6914910999999999 Au
atom 0.4457674200000000 25.5703648000000001 2.7474344999999998 Au
atom 3.1764330699999999 25.4620724199999984 2.6537165599999999 Au
atom 6.0281400800000000 25.5108862700000003 2.7015663600000002 Au
atom 7.4850721000000000 27.9848962499999985 2.6148637300000002 Au
atom 10.3167409100000000 28.0472141599999993 2.7375743099999998 Au
atom 13.1882812099999995 27.9794256600000004 2.7235333800000001 Au
atom 15.9795595800000001 28.0012098700000003 2.5480081100000000 Au
atom 18.8851158199999993 28.0675509100000014 2.4764998000000000 Au
atom 21.6589435100000003 28.0601861899999996 2.7454811700000001 Au
atom 24.4336658000000000 28.0256900400000006 2.5547247899999999 Au
atom 27.2509051699999993 28.1689742699999996 2.9758436200000000 Au
atom 1.8500574800000000 28.0107882500000009 2.6542987999999998 Au
atom 4.6553256599999999 27.9882896300000006 2.7333231900000001 Au
atom 8.9313051500000000 30.4295457899999988 2.6879328100000000 Au
atom 11.7969457999999996 30.4718722799999995 2.7481401100000000 Au
atom 14.5413499399999999 30.5006027700000004 2.6718012000000000 Au
atom 17.3754789800000005 30.5038706799999986 2.6145885799999999 Au
atom 20.2076470700000002 30.5072057399999998 2.7009945800000001 Au
atom 23.0806158000000003 30.4620808600000004 2.7489760599999999 Au
atom 25.8284361999999987 30.6345193800000004 2.6386951199999999 Au
atom 0.4426020100000000 30.4026657799999995 2.6152649299999999 Au
atom 3.2352214300000002 30.4748428300000000 2.5518022199999999 Au
atom 6.1003376899999999 30.4105699899999991 2.6927584200000001 Au
atom 7.5173654599999997 32.8855983899999984 2.5602011999999998 Au
atom 10.3890753399999998 32.9135207400000027 2.6939172600000001 Au
atom 13.1242258799999991 32.9547741200000033 2.6019123099999999 Au
atom 15.9284402800000002 32.9567769200000029 2.6234393200000001 Au
atom 18.7574903599999985 32.9801101799999969 2.6804817299999999 Au
atom 21.6155049599999991 32.9156804699999981 2.6324800399999999 Au
atom 24.4323982700000002 32.9394647599999999 2.6077210599999998 Au
atom 27.2360931999999991 32.8658328300000022 2.5561501999999998 Au
atom 1.9054176599999999 32.8846925200000015 2.5977668999999999 Au
atom 4.6939411099999999 32.9363465099999999 2.6810789599999998 Au
atom 8.9507131799999993 35.3883971500000030 2.5944858200000001 Au
atom 11.7181765299999991 35.3216097800000028 2.6427252100000000 Au
atom 14.5397668200000005 35.3991738100000006 2.6930654500000002 Au
atom 17.3332361500000012 35.4214532000000020 2.5686349499999999 Au
atom 20.1365699599999992 35.3644579500000020 2.6235864200000001 Au
atom 22.9426959199999985 35.3519740099999993 2.6125944400000001 Au
atom 25.8533743600000001 35.3726514600000002 2.7230790100000002 Au
atom 0.4807384900000000 35.5316628499999965 2.7368259899999998 Au
atom 3.3527888099999998 35.4375546300000011 2.7114435399999999 Au
atom 6.1346289100000000 35.3644918700000019 2.6228394599999998 Au
atom 7.8571832099999996 37.8459816499999988 2.6930882399999998 Au
atom 10.4245420400000004 37.8295964599999976 2.6367524100000002 Au
atom 13.3027679200000009 37.8441162499999990 2.7775566399999998 Au
atom 15.9125609099999998 37.8494771000000014 2.6076924300000002 Au
atom 18.8183650299999989 37.8764080799999974 2.5583359500000000 Au
atom 21.5587203800000005 37.8382993299999981 2.7857237300000000 Au
atom 24.3630696399999991 37.8343681599999968 2.9582006999999999 Au
atom 27.1209178800000004 37.9745056499999976 2.9099909899999998 Au
atom 2.0794465899999999 37.8378463000000025 2.5244110599999998 Au
atom 4.5485975500000002 37.8289926699999981 2.6608316900000002 Au
atom 8.8497020699999993 0.8420196500000000 2.7388061100000001 Au
atom 11.7912256600000003 0.8625267300000000 2.6474403700000000 Au
atom 14.7240281399999997 0.8276370199999999 2.7643741099999999 Au
atom 17.4704494100000005 0.8386087900000000 2.6711911300000000 Au
atom 20.1962298999999987 0.8199075500000000 2.6906859900000000 Au
atom 23.0064428899999989 0.8250922300000000 2.7838875900000000 Au
atom 25.7946433800000001 0.8510380800000000 2.6840695700000001 Au
atom 0.5968499600000000 0.7566428300000000 2.8162242399999999 Au
atom 3.2320417099999998 0.8465686300000000 2.7730828700000001 Au
atom 6.0955221599999998 0.8285057700000000 2.6796079200000000 Au
atom 7.4266935800000002 3.3580234099999999 2.6602951699999999 Au
atom 10.3445325799999992 3.3125466200000000 2.6639468599999998 Au
atom 13.1013281399999997 3.2781639400000002 2.7255602099999998 Au
atom 15.9761974400000000 3.3122135300000002 2.7291175100000000 Au
atom 18.8115434999999991 3.3781485600000001 2.7297786600000000 Au
atom 21.5933024499999995 3.2686394299999999 2.7064450999999998 Au
atom 24.4626445699999984 3.2831912900000000 2.7307221400000001 Au
atom 27.2517786899999983 3.2762221399999998 2.5659475899999999 Au
atom 1.8522122700000001 3.3233980200000000 2.6901609899999999 Au
atom 4.6568120700000000 3.2802513900000001 2.6077389000000002 Au
atom 8.9446881800000000 5.7942986500000000 2.7965059499999998 Au
atom 11.7306854900000008 5.7684799299999998 2.7637089100000001 Au
atom 14.5299433199999992 5.7502665500000001 2.7482066500000002 Au
atom 17.3704515300000004 5.8122641499999999 2.7521852500000001 Au
atom 20.1542507499999992 5.8247832099999997 2.7402289700000000 Au
atom 22.9944636299999985 5.7780791899999997 2.6953317600000002 Au
atom 25.8042277899999988 5.7706132300000004 2.7045175600000002 Au
atom 0.4341341200000000 5.7729810400000003 2.6761825500000000 Au
atom 3.3181064199999999 5.8047457700000002 2.7393248600000000 Au
atom 6.0328785399999996 5.8027611500000003 2.6980331199999998 Au
atom 7.4742129300000002 8.2688069700000000 2.7169283200000001 Au
atom 10.3203343099999998 8.2366569900000002 2.6171171100000001 Au
atom 13.1752285300000000 8.2993123999999998 2.7744829800000002 Au
atom 15.9501382599999992 8.2865800200000006 2.7527112900000001 Au
atom 18.8216399000000010 8.3195628700000004 2.7081128900000002 Au
atom 21.5946785100000014 8.2524567199999996 2.6170057500000001 Au
atom 24.4454960700000008 8.2540623800000006 2.7323598599999999 Au
atom 27.2266002200000017 8.3433263800000006 2.5374945499999999 Au
atom 1.8423181500000001 8.3244419199999999 2.6461404900000001 Au
atom 4.6835081299999999 8.2607338000000006 2.6635397500000000 Au
atom 8.8604837100000005 10.7435071099999995 2.6875730199999999 Au
atom 11.7300836600000000 10.7364586099999997 2.6259123199999999 Au
atom 14.5377191499999991 10.6943877599999997 2.6380789000000000 Au
atom 17.4063997599999993 10.7491266400000001 2.7453560600000002 Au
atom 20.1995776499999984 10.8152263800000004 2.7024708099999999 Au
atom 23.0769158599999997 10.6926173900000006 2.5688514800000002 Au
atom 25.8510693099999997 10.7144347799999995 2.6776136600000000 Au
atom 0.4744487300000000 10.6779550400000005 2.6497656400000000 Au
atom 3.2211596500000002 10.7365370400000000 2.6119321599999998 Au
atom 6.1273657000000004 10.6952466499999996 2.6170787600000001 Au
atom 7.4710983999999998 13.0794529300000004 5.6340151199999999 Cl
atom 7.4660988100000001 16.0716223400000011 8.1902891800000006 Cl
atom 7.3834952200000004 13.2622160499999993 8.3189860800000002 Na
atom 7.3757682800000000 15.9719386500000002 5.4218420099999998 Na
atom 7.3531241500000002 18.8652698000000001 5.5204619800000003 Cl
atom 7.5271293400000001 21.5297939199999995 8.3399844900000009 Cl
atom 7.5200453300000003 18.8278654299999992 8.1327985199999997 Na
atom 7.2426957099999996 21.7764803499999999 5.6425374300000000 Na
atom 7.2199558899999996 24.6227326600000005 5.6994449500000002 Cl
atom 7.3756664299999999 27.3313038100000014 8.5881705700000008 Cl
atom 7.3252275300000003 24.4549918800000015 8.3344848000000002 Na
atom 7.2884501600000000 27.3126089900000011 5.7952440599999999 Na
atom 7.3808525600000001 30.1479209200000007 5.5898685400000003 Cl
atom 7.4128583900000002 32.9630700200000035 8.5191566900000009 Cl
atom 7.4582825799999997 30.0984422699999996 8.3088016699999994 Na
atom 7.3954698199999997 32.9873019699999972 5.7344907300000001 Na
atom 7.4353127499999996 35.8582816699999967 5.7351736500000001 Cl
atom 7.5643152300000001 38.5261172399999978 8.6749271799999992 Cl
atom 7.4942771500000003 35.7697108999999998 8.3781352400000006 Na
atom 7.5172159599999997 38.7405855499999987 5.7519588900000000 Na
atom 7.4329458800000001 2.0521130699999999 5.7126937299999998 Cl
atom 7.4033193500000003 4.6992610299999997 8.6660852399999992 Cl
atom 7.3464444999999996 1.9109427000000001 8.4698609299999994 Na
atom 7.4346382400000000 4.7095746800000002 5.9336492700000001 Na
atom 7.3986899399999997 7.4711912099999997 5.8357456399999998 Cl
atom 7.3981017600000003 10.4217264499999995 8.5955990799999995 Cl
atom 7.4049611700000000 7.5932451900000002 8.5222794600000000 Na
atom 7.2975290700000004 10.2926832299999997 5.8223485500000001 Na
atom 10.1772815500000000 12.9949428000000005 5.6533932699999996 Na
atom 12.9162575600000000 13.0162471800000006 5.4804483399999997 Cl
atom 10.2767786399999999 16.0072876300000004 8.0265831599999995 Na
atom 13.2151562400000007 16.1404697299999995 8.1606670399999999 Cl
atom 13.1250327700000007 13.1276934199999999 8.4836855799999995 Na
atom 10.2840690299999995 13.3302670299999999 8.5250531600000006 Cl
atom 13.0869876600000001 15.9570329300000004 5.3807333599999998 Na
atom 10.2422100300000007 15.7842910500000002 5.4307060800000002 Cl
atom 10.1148364999999991 18.8840482099999996 5.4879491700000003 Na
atom 13.1232932299999998 18.6809903800000008 5.5117447000000004 Cl
atom 10.2579739799999992 21.6680647800000017 8.0073563799999992 Na
atom 13.1179091200000002 21.6912573600000016 8.0045618600000008 Cl
atom 13.0898012000000001 18.7524418299999986 8.0639722700000007 Na
atom 10.4555945999999995 18.7401533299999983 8.2639933400000007 Cl
atom 13.0843544999999999 21.6417966399999990 5.2826673399999997 Na
atom 10.0018920999999992 21.8001142100000003 5.4891118700000003 Cl
atom 10.2502665999999998 24.6274001899999995 5.5709987300000003 Na
atom 13.1921199399999995 24.7320497500000016 5.5470298800000002 Cl
atom 10.2940663099999998 27.2702867699999985 8.2499984899999994 Na
atom 13.3095707999999995 27.2538939099999986 8.3547962499999997 Cl
atom 13.2150086099999999 24.5193953799999989 8.2457363400000006 Na
atom 10.2781068199999996 24.5348548000000015 8.4022623099999993 Cl
atom 12.9749859599999997 27.5119450999999984 5.6644142600000000 Na
atom 9.9867124000000000 27.4667567999999989 5.7081156200000001 Cl
atom 10.1252003899999998 30.3264391899999985 5.7668049799999999 Na
atom 13.0048062200000007 30.3084232799999995 5.6682824700000003 Cl
atom 10.1781240999999998 32.9311640600000004 8.4560807600000008 Na
atom 13.0565307300000004 33.0406712600000034 8.5637132299999994 Cl
atom 13.1219548899999996 30.1392443099999987 8.2918795599999999 Na
atom 10.2585127699999994 30.0979247900000004 8.5387048500000002 Cl
atom 13.0910936299999996 33.0618586900000011 5.8735158700000003 Na
atom 10.1937532999999991 33.0320522199999971 5.6628616300000001 Cl
atom 10.2806883899999999 35.7774928199999991 5.7695837499999998 Na
atom 13.0422492200000004 35.8234869099999997 5.6960502799999997 Cl
atom 10.1553692699999996 38.6267684800000026 8.2820993900000008 Na
atom 13.2529605499999992 38.5955284300000017 8.5282581499999992 Cl
atom 13.1041590200000009 35.8084919300000024 8.3005373999999996 Na
atom 10.2949488599999999 35.7738181799999992 8.5764852299999994 Cl
atom 13.1025521099999995 38.6057980400000034 5.8358586099999998 Na
atom 10.2066513000000008 38.6453320600000012 5.6502474600000001 Cl
atom 10.2760261100000001 2.0014415300000001 5.8155633099999999 Na
atom 13.0084419400000009 1.9451352500000001 5.7947706900000000 Cl
atom 10.2229927299999996 4.7132299099999999 8.5088496899999999 Na
atom 13.0495841800000001 4.6975957099999999 8.6683053000000001 Cl
atom 12.9718610200000004 1.9042818200000000 8.5172678899999994 Na
atom 10.2371435900000005 1.8533343099999999 8.6606797899999997 Cl
atom 13.1282052999999994 4.7244014300000003 5.9671065499999996 Na
atom 10.3300589499999997 4.8405021000000001 5.8464481599999996 Cl
atom 10.1756403199999994 7.5625093100000003 6.0765640300000001 Na
atom 13.0559736799999992 7.5425167399999999 5.8937291700000003 Cl
atom 10.1705273399999996 10.4818238099999999 8.6140901799999998 Na
atom 13.0238164100000002 10.4482915900000002 8.6967477399999993 Cl
atom 13.1420121400000003 7.5780518299999997 8.5692790300000006 Na
atom 10.2288609699999995 7.6033409000000001 8.7613003299999992 Cl
atom 13.0274693599999996 10.2430310900000006 5.8105266699999998 Na
atom 10.1235367099999998 10.2777979500000001 5.9698803399999996 Cl
atom 15.9634531200000005 13.0745173700000006 5.5860185900000001 Na
atom 18.8723790300000012 13.0378284900000008 5.7274713600000000 Cl
atom 15.9884492399999996 16.0082996599999987 8.0207232299999998 Na
atom 18.6563656599999987 15.9766625799999993 8.2431391900000008 Cl
atom 18.7457923300000004 13.0896658299999995 8.2237134899999997 Na
atom 15.9692234200000005 13.1672413899999992 8.4003410800000005 Cl
atom 18.8920091600000006 15.9422023700000004 5.5464162300000002 Na
atom 15.9907063199999993 15.8375789499999993 5.4817634999999996 Cl
atom 16.0142147100000010 18.8780743400000013 5.3591774299999999 Na
atom 19.0615247500000002 18.9917081500000009 5.6152818299999998 Cl
atom 15.8421589699999998 21.5689446800000013 7.9993608800000002 Na
atom 18.7206164900000012 21.5094669399999994 8.6037817099999998 Cl
atom 18.7410062300000000 18.8655441300000000 8.2994857100000008 Na
atom 15.9837662700000003 18.8830038900000012 7.9962293899999999 Cl
atom 18.8821567200000011 21.8279737599999990 5.8610802399999997 Na
atom 16.1914151299999993 21.9672738900000013 5.4383766800000002 Cl
atom 16.0791848399999999 24.6172566999999987 5.7050905900000002 Na
atom 18.9185646600000013 24.6271822600000014 5.5802407000000001 Cl
atom 15.9384516000000005 27.3150268800000013 8.4791363000000004 Na
atom 18.8160100899999989 27.3330218900000013 8.6588024200000007 Cl
atom 18.9285054300000013 24.5926652200000007 8.4401817500000007 Na
atom 15.8829722800000006 24.4264635299999995 8.5426328399999996 Cl
atom 18.8451399299999984 27.3906559399999985 5.6483782800000002 Na
atom 15.8952558600000007 27.3178534100000014 5.7559474899999996 Cl
atom 15.9691609200000002 30.2517120800000008 5.6712185499999999 Na
atom 18.8233527100000018 30.1146506199999990 5.7840593699999996 Cl
atom 15.9162382000000004 33.1222728700000033 8.3917934200000008 Na
atom 18.8025710599999982 33.0310819299999991 8.6013009999999994 Cl
atom 18.7757339799999983 30.0941292900000015 8.4103971499999997 Na
atom 15.9804579600000007 30.1976999299999989 8.4239221499999992 Cl
atom 18.7702874500000014 33.0160420099999996 5.9926197400000003 Na
atom 15.9152816599999998 33.0818947300000019 5.7463830099999997 Cl
atom 15.9782934799999996 35.8824348099999995 5.7993817500000002 Na
atom 18.8339502799999998 35.8255082700000003 5.7443833299999998 Cl
atom 16.0480394599999983 38.6402113600000021 8.3378336100000006 Na
atom 18.7266017399999996 38.5896542400000016 8.6648143100000006 Cl
atom 18.8141763900000001 35.7766675700000008 8.3914546800000007 Na
atom 15.9217066000000003 35.8266531599999993 8.5218634200000007 Cl
atom 18.7773187800000017 38.5773556299999996 5.7979430699999996 Na
atom 15.9795482300000007 38.6008320500000011 5.8030757199999998 Cl