#===============================================================================
# Created using the Atomic Simulation Environment (ASE)

# Tue Dec 23 21:41:55 2025

#=======================================================
lattice_vector 28.1999999999999993 0.0000000000000000 0.0000000000000000 
lattice_vector 0.0000000000000000 39.4799999999999969 0.0000000000000000 
lattice_vector 0.0000000000000000 0.0000000000000000 62.3296083400000001 
atom 7.3911711999999996 14.8722716300000002 -0.2014119100000000 Au
atom 10.2588353100000003 14.8245679199999998 -0.4342524200000000 Au
atom 13.2311477499999999 14.8705784800000007 -0.1328118600000000 Au
atom 15.9794883500000005 14.8557810299999993 -0.3304007100000000 Au
atom 18.8531981600000016 14.7984643299999998 -0.3830753400000000 Au
atom 21.5889049100000001 14.8178971199999996 -0.0954245300000000 Au
atom 24.4840973400000017 14.7812655199999998 -0.0634292400000000 Au
atom 27.2720247399999991 14.8047794400000008 -0.4206183600000000 Au
atom 1.9249740600000000 14.8138341899999997 0.0194232200000000 Au
atom 4.6274917499999999 14.8886038799999998 -0.4307190200000000 Au
atom 8.8065722500000003 17.2307457699999986 -0.2051215200000000 Au
atom 11.6911797600000007 17.3408626699999999 -0.2490975200000000 Au
atom 14.5947404899999995 17.2970140800000003 -0.2490419200000000 Au
atom 17.3875976200000011 17.3201402999999985 -0.3414968600000000 Au
atom 20.2081858899999993 17.3749132700000004 -0.0941569900000000 Au
atom 23.0321079299999987 17.2388682099999997 -0.0194949400000000 Au
atom 25.8958257799999991 17.2626058100000002 -0.0897055700000000 Au
atom 0.5004382400000000 17.1969968400000006 -0.1828412300000000 Au
atom 3.3167874500000001 17.3318342399999992 0.1080155200000000 Au
atom 6.0887464400000004 17.3330172500000010 -0.1111075200000000 Au
atom 7.5349556399999997 19.7344299800000016 -0.0212252600000000 Au
atom 10.2256379200000005 19.7210616399999985 -0.3336390300000000 Au
atom 13.1182251200000000 19.7694032799999988 -0.4106080400000000 Au
atom 15.9315462399999994 19.7507261499999984 -0.3837330200000000 Au
atom 18.8237110299999983 19.7716037000000000 -0.0245625400000000 Au
atom 21.7828208500000002 19.7363073200000017 -0.2158629600000000 Au
atom 24.5800308799999989 19.7130397700000017 0.2927138700000000 Au
atom 27.3640575699999999 19.7083372799999985 0.0199882900000000 Au
atom 1.8738816400000000 19.8015401500000010 0.0684533300000000 Au
atom 4.6866885299999996 19.7421839599999984 0.0588256100000000 Au
atom 8.9674206600000002 22.2145691899999989 0.0174409900000000 Au
atom 11.7977890500000004 22.2010675299999996 -0.3045386800000000 Au
atom 14.5929110099999999 22.2710390300000007 -0.3401982800000000 Au
atom 17.3777825700000008 22.2372008399999999 -0.2388248100000000 Au
atom 20.2433429999999994 22.1832263000000012 -0.0290820500000000 Au
atom 23.1626871299999983 22.1023550399999991 0.2811327600000000 Au
atom 25.9379616199999994 22.2205559400000006 0.0785821500000000 Au
atom 0.4484661700000000 22.2046384299999993 0.2669109500000000 Au
atom 3.3504067800000001 22.2548094799999987 0.0119227200000000 Au
atom 6.1896878700000002 22.2389352500000008 0.1643055800000000 Au
atom 7.5814897200000004 24.7450369099999996 0.1012553600000000 Au
atom 10.4304660400000007 24.6732847500000005 0.1565662300000000 Au
atom 13.1487973300000007 24.7300757800000000 -0.1488030600000000 Au
atom 16.0008464400000001 24.7449311499999993 -0.0434031300000000 Au
atom 18.8976425600000013 24.6726242099999986 0.1127161400000000 Au
atom 21.7363201000000004 24.6590305100000009 0.2572777100000000 Au
atom 24.4470249700000011 24.7421917499999999 0.2947078200000000 Au
atom 27.2885804800000003 24.6595176800000004 0.3741457700000000 Au
atom 1.8779717400000000 24.6719225900000012 -0.0151888900000000 Au
atom 4.7084616500000003 24.7234454499999998 -0.0005539100000000 Au
atom 9.0224241400000000 27.2076362899999999 0.0484333300000000 Au
atom 11.8060282000000001 27.1451335799999995 0.1099751600000000 Au
atom 14.6188687099999992 27.2062273899999987 -0.1091314900000000 Au
atom 17.5219805400000013 27.1043475700000016 0.1839781400000000 Au
atom 20.3255769700000002 27.0905224599999990 0.1477222500000000 Au
atom 23.0378634499999997 27.0872638499999994 0.3809554000000000 Au
atom 25.8791761200000003 27.1533503699999983 0.3196314500000000 Au
atom 0.4590379400000000 27.1090987100000014 0.1427488800000000 Au
atom 3.3094913300000002 27.2784740499999998 -0.0900519100000000 Au
atom 6.0927902600000001 27.1230950100000001 0.1259176400000000 Au
atom 7.5707896300000002 29.6276078299999988 0.1108310200000000 Au
atom 10.4016310700000005 29.6401286500000012 0.0164036300000000 Au
atom 13.2244025399999998 29.6091751999999993 -0.0586172400000000 Au
atom 16.0677991800000015 29.6438971600000016 0.0171498400000000 Au
atom 18.8554801199999993 29.6044093799999999 0.1642423700000000 Au
atom 21.6982721299999994 29.5217543400000011 0.3024522000000000 Au
atom 24.5462406400000006 29.5073922199999998 -0.1356832200000000 Au
atom 27.3143908400000015 29.5693003599999997 0.2184313200000000 Au
atom 1.9238080300000000 29.6484784099999992 -0.1883661100000000 Au
atom 4.7639681100000004 29.5755462400000013 -0.1230627400000000 Au
atom 9.0361956200000009 32.1375311999999980 -0.2130364700000000 Au
atom 11.7915870799999993 32.1420864700000024 -0.2646627900000000 Au
atom 14.6426386900000001 32.0812558900000013 -0.2113020000000000 Au
atom 17.4834510200000004 32.0404469100000000 0.0009740100000000 Au
atom 20.3490459900000005 32.0397819100000021 0.2071228700000000 Au
atom 23.0751517600000007 32.0381301099999973 0.0230698000000000 Au
atom 25.9444593999999995 32.0777204999999981 -0.1282187700000000 Au
atom 0.5583443600000000 32.0060479500000028 -0.1352913600000000 Au
atom 3.3841068000000001 32.1263196199999967 -0.0728441800000000 Au
atom 6.1970565200000003 32.0444346600000003 -0.2647629800000000 Au
atom 7.5884355799999996 34.5654066600000007 -0.0971230400000000 Au
atom 10.3944548799999996 34.6168601999999979 -0.2326342300000000 Au
atom 13.1834519700000001 34.5937390599999972 -0.1228276400000000 Au
atom 16.0118420099999987 34.5157611099999997 0.0488009600000000 Au
atom 18.8338908399999987 34.5652398499999975 -0.0355873700000000 Au
atom 21.6774376099999984 34.4933003100000022 0.0262293000000000 Au
atom 24.3725345900000008 34.4687600700000019 -0.1219983300000000 Au
atom 27.3321547100000011 34.5359146199999998 -0.2448811600000000 Au
atom 1.9589119500000001 34.5056566200000034 -0.1449145000000000 Au
atom 4.7582735899999999 34.5664608700000002 -0.0176592900000000 Au
atom 8.9241857499999995 37.0741011300000025 0.0483819300000000 Au
atom 11.7468347499999997 37.0832477100000020 0.1499755000000000 Au
atom 14.5846165899999995 37.0523643599999986 0.0772957300000000 Au
atom 17.3890693100000000 37.0729083299999971 0.1726441500000000 Au
atom 20.2019814800000006 36.9936705300000028 0.1364079800000000 Au
atom 22.9894569500000010 37.0360978599999981 -0.0134054400000000 Au
atom 25.7885860099999995 36.9940311399999970 0.0135883900000000 Au
atom 0.5198903200000000 37.0087460000000021 0.1268830900000000 Au
atom 3.3055182599999999 37.0208295999999990 0.0580261300000000 Au
atom 6.1940575999999998 36.9710807599999995 0.2534468000000000 Au
atom 7.5177432599999996 0.0722329800000000 0.3046713500000000 Au
atom 10.3164075799999999 -0.0258095400000000 0.2114298500000000 Au
atom 13.1915987399999999 0.0045977000000000 0.1097093300000000 Au
atom 16.0197913900000017 -0.0487906400000000 0.0615978100000000 Au
atom 18.8056290600000011 0.0325372100000000 0.1294566800000000 Au
atom 21.6215129600000004 0.0394723000000000 0.0378138400000000 Au
atom 24.4072189000000002 -0.0256522800000000 -0.0298980400000000 Au
atom 27.2663012199999990 -0.1350297100000000 -0.1428477800000000 Au
atom 1.9837055900000000 0.0046771900000000 0.0462889800000000 Au
atom 4.8261780099999996 0.0043157900000000 0.1992385500000000 Au
atom 8.9621006600000008 2.5038198299999999 0.2043291100000000 Au
atom 11.7166519699999991 2.5128653299999999 0.0418920700000000 Au
atom 14.6178486700000008 2.5173014899999999 -0.0463865500000000 Au
atom 17.4436967900000006 2.4906594399999999 0.0754723300000000 Au
atom 20.2476739899999991 2.4539448199999998 0.0226105200000000 Au
atom 23.0804524200000003 2.5712127800000002 -0.0175139500000000 Au
atom 25.8163114399999998 2.4198731200000001 0.0052828700000000 Au
atom 0.3649311200000000 2.3547490000000000 0.1905959600000000 Au
atom 3.3205916800000002 2.4403390100000002 0.3229793200000000 Au
atom 6.1408226700000004 2.5440689100000000 0.0976838300000000 Au
atom 7.6064712200000004 4.9055891699999998 0.0434892300000000 Au
atom 10.3697426200000002 5.0418773600000000 0.2709513500000000 Au
atom 13.1697807400000002 4.9556727100000000 0.1288744100000000 Au
atom 15.9485466700000007 4.9956462200000002 0.1462631700000000 Au
atom 18.8022621100000009 4.9343263700000000 0.2458586100000000 Au
atom 21.6610128400000015 5.0078694199999996 0.0893843700000000 Au
atom 24.5047267899999994 4.9931072099999998 0.0329429000000000 Au
atom 27.2451979599999987 4.9242140699999997 0.1087807800000000 Au
atom 1.8409070500000000 4.8616136200000000 0.0616387700000000 Au
atom 4.6972078499999999 4.9909909099999998 0.0883338500000000 Au
atom 8.9558894700000007 7.4889693199999998 0.1206420600000000 Au
atom 11.7385246300000006 7.4943968700000001 -0.0459344000000000 Au
atom 14.5046329800000002 7.4381059299999999 0.0776509400000000 Au
atom 17.4077462599999997 7.5073031200000004 0.1620950600000000 Au
atom 20.1504190399999992 7.4437837399999998 0.1570171800000000 Au
atom 22.9987974900000012 7.3993998400000001 -0.1970667900000000 Au
atom 25.9742496199999984 7.3617463000000001 -0.0878378000000000 Au
atom 0.5683479800000000 7.3115354500000000 0.1301741400000000 Au
atom 3.2715189800000002 7.4382198199999996 0.1056599700000000 Au
atom 6.1097726600000000 7.3946755199999998 0.0328850600000000 Au
atom 7.5588018200000002 9.8669528100000008 -0.2022560400000000 Au
atom 10.3838104999999992 10.0297637900000005 -0.0637830500000000 Au
atom 13.2103002600000003 9.9307747000000006 -0.0027887300000000 Au
atom 15.9825622700000007 9.9339822099999999 0.1277361900000000 Au
atom 18.8395380800000005 9.9599577299999993 0.1897098700000000 Au
atom 21.6169122400000013 9.8902193100000009 -0.0592892900000000 Au
atom 24.4893854799999993 9.8106278600000003 -0.1576603100000000 Au
atom 27.3120667499999996 9.8799123299999998 -0.0362922100000000 Au
atom 1.8888933600000000 9.9377946000000001 -0.0640098800000000 Au
atom 4.7324779100000001 9.8638823900000006 -0.0837750900000000 Au
atom 8.8599534000000002 12.3617697399999997 -0.1663291400000000 Au
atom 11.8516720400000004 12.3796933100000004 -0.3503393600000000 Au
atom 14.6541051099999997 12.3910447200000000 -0.1731937600000000 Au
atom 17.4345588499999984 12.3307294899999995 -0.2074356100000000 Au
atom 20.3180831799999986 12.3446288499999994 -0.0688898800000000 Au
atom 23.0607303600000009 12.2427189799999994 0.0767635800000000 Au
atom 25.7712300399999990 12.3693831599999999 -0.2568424900000000 Au
atom 0.4351427200000000 12.3289699000000006 -0.2840074000000000 Au
atom 3.2485168799999999 12.3393461599999998 -0.2630625600000000 Au
atom 6.0795902399999999 12.3812490200000003 -0.3269783100000000 Au
atom 7.4847108200000001 13.1923692199999998 2.4616129099999999 Au
atom 10.3382165700000002 13.1445774699999998 2.1763246600000001 Au
atom 13.1493405600000006 13.1711078599999993 2.5516367700000000 Au
atom 15.9935130900000004 13.1622926200000006 2.3843739700000000 Au
atom 18.7698239300000012 13.1127764399999993 2.4181969200000002 Au
atom 21.5832286199999999 12.9913341899999999 2.6325129299999999 Au
atom 24.3934716700000003 13.1869830100000005 2.5102265099999999 Au
atom 27.1687428400000002 13.1694632800000004 2.1681355400000002 Au
atom 1.7440644800000000 13.1424519199999992 2.5665774200000002 Au
atom 4.6080661200000002 13.1340328399999997 2.2338198600000001 Au
atom 8.9724481100000002 15.5509166000000008 2.4254779800000001 Au
atom 11.8352953400000001 15.6030614300000003 2.3214976200000002 Au
atom 14.6677821500000007 15.6913434699999996 2.4822524000000001 Au
atom 17.3980607300000010 15.6552385399999991 2.2438050299999999 Au
atom 20.0764135599999989 15.6385352199999996 2.4195283800000000 Au
atom 22.8562652300000018 15.6031258899999994 2.4519986299999998 Au
atom 25.8033522700000013 15.5741771000000000 2.4408177599999998 Au
atom 0.3410269500000000 15.5778750400000003 2.3617696900000000 Au
atom 3.1757011099999999 15.6164475800000009 2.6056555299999999 Au
atom 5.9639580099999998 15.5766475199999999 2.3524539199999999 Au
atom 7.4950602100000001 18.0012482499999997 2.5300550500000001 Au
atom 10.3414428300000001 18.0735489600000001 2.4172275399999998 Au
atom 13.1438481800000009 18.1738522399999987 2.4411566499999999 Au
atom 15.9711238600000005 18.1503752399999989 2.3477058199999998 Au
atom 18.7837916100000015 18.1666154400000011 2.6208022400000002 Au
atom 21.5447673399999999 18.0698788099999987 2.4599499200000001 Au
atom 24.3616519800000013 17.9834664500000017 2.5471377300000002 Au
atom 27.1703969100000009 18.0659539799999997 2.4583312500000001 Au
atom 1.8134893000000001 18.0787382900000004 2.6248917100000000 Au
atom 4.6799449099999997 18.0746464300000014 2.6734274199999999 Au
atom 8.8146424000000003 20.4911507600000000 2.6887405499999999 Au
atom 11.6449041900000001 20.6110669100000017 2.2557932599999999 Au
atom 14.4819907899999993 20.5938612100000000 2.3601830300000000 Au
atom 17.3389044100000014 20.5741533099999998 2.4008593500000002 Au
atom 20.2471909200000013 20.5238355599999984 2.6403966500000000 Au
atom 23.0880936900000009 20.4635556600000008 2.8502232099999998 Au
atom 25.9661670099999995 20.5591333100000000 2.8963990200000000 Au
atom 0.5818696400000000 20.5281443400000008 2.7519229100000002 Au
atom 3.2960553699999999 20.6545240099999994 2.6161504099999999 Au
atom 6.0674204999999999 20.6280616399999985 2.6674726999999998 Au
atom 7.6110254299999998 23.0363571399999998 2.7123640800000000 Au
atom 10.3497025199999992 23.0019459600000005 2.5645540400000000 Au
atom 13.1999459399999992 23.0160877200000016 2.5006714900000002 Au
atom 15.9742619900000005 23.0374650800000005 2.3956794100000001 Au
atom 18.7116544900000008 22.9776677099999986 2.5600016399999999 Au
atom 21.6095553000000002 22.9132225900000002 2.7389785799999999 Au
atom 24.5308100499999995 22.9511366000000017 2.7452877000000000 Au
atom 27.2662745999999991 22.9436609300000001 2.8363818799999998 Au
atom 1.9031261200000000 23.0454822800000017 2.6011414799999999 Au
atom 4.8032571800000001 23.1259353999999995 2.5455198399999999 Au
atom 9.0656376499999993 25.4887886399999992 2.6301085099999999 Au
atom 11.8055818400000003 25.5154532100000004 2.8087370300000001 Au
atom 14.5675325200000003 25.5427400999999996 2.7134127200000000 Au
atom 17.3416116900000006 25.5123563699999991 2.7876089199999998 Au
atom 20.1784520399999998 25.3667400100000009 2.7447911700000001 Au
atom 23.1126080999999992 25.4162690100000006 3.0487556599999999 Au
atom 25.9188113499999986 25.4403970900000012 2.9254780199999999 Au
atom 0.4861717500000000 25.5503951200000010 2.8062214999999999 Au
atom 3.3323093300000002 25.5920883699999990 2.5117873999999998 Au
atom 6.1421539300000001 25.5410001999999992 2.7149286699999999 Au
atom 7.5585207900000002 28.0884798300000007 2.5929872999999999 Au
atom 10.3688650599999992 27.9624777100000017 2.6010927800000001 Au
atom 13.1348051500000000 28.0723865000000004 2.5341780400000000 Au
atom 15.9772105799999995 28.0242386799999998 2.4669459400000000 Au
atom 18.8404737400000002 27.9246828299999983 2.7326953500000002 Au
atom 21.6511806900000003 27.8980569799999998 3.0218228699999998 Au
atom 24.4597470799999996 27.9390929499999991 2.7939688399999998 Au
atom 27.3496726700000004 27.9199767299999984 3.0474849399999999 Au
atom 1.8943976800000000 28.0008466499999997 2.4540686500000000 Au
atom 4.7935125500000000 28.0843247299999987 2.7918419100000000 Au
atom 8.9727989499999996 30.5329154799999998 2.5175314400000000 Au
atom 11.8530840299999998 30.6132905999999991 2.4954600299999998 Au
atom 14.6491537899999997 30.4514016100000013 2.5762680300000000 Au
atom 17.4807778200000001 30.4563508399999989 2.7237914299999999 Au
atom 20.3104859500000003 30.3780227899999993 2.7531781899999999 Au
atom 23.0888444300000018 30.4447769800000003 2.6834068900000001 Au
atom 25.8242717000000006 30.3866178699999985 2.5851313700000000 Au
atom 0.4991111500000000 30.4135581200000011 2.6586863100000002 Au
atom 3.3474250200000002 30.4231169000000001 2.3747114300000001 Au
atom 6.1029868599999997 30.5597299999999983 2.5024678699999998 Au
atom 7.5075500300000000 32.9480379199999973 2.4324323500000000 Au
atom 10.3502197999999996 32.9865335400000035 2.3968119699999999 Au
atom 13.2780976299999995 32.9931218299999998 2.3691700199999999 Au
atom 16.0813713299999996 32.9284571099999965 2.5259880899999998 Au
atom 18.8872121499999999 32.8828867699999989 2.6817804000000001 Au
atom 21.7164716499999990 32.8890675199999976 2.7684022599999998 Au
atom 24.5421360100000001 32.8969410400000015 2.5253773700000002 Au
atom 27.2994774900000010 32.7701152200000010 2.3800379899999999 Au
atom 1.8802751400000000 32.8926104700000010 2.4999980700000002 Au
atom 4.7446704700000000 32.9015565999999993 2.6190736299999999 Au
atom 8.9482415999999994 35.3135688500000029 2.4897749299999998 Au
atom 11.8639263300000000 35.3300611100000026 2.6931182499999999 Au
atom 14.6921477599999992 35.5067571100000023 2.5609375700000001 Au
atom 17.4622651299999987 35.3400452200000004 2.6235753900000001 Au
atom 20.2165885199999984 35.3271325300000001 2.5898555000000001 Au
atom 23.1077593300000004 35.3253174800000025 2.4498554299999999 Au
atom 25.9536780699999987 35.3428394499999996 2.4472724800000001 Au
atom 0.5136810000000001 35.2560500399999981 2.5052923200000001 Au
atom 3.2886390699999999 35.3334884900000006 2.5912694400000000 Au
atom 6.1217631099999998 35.4066479999999970 2.7872051899999999 Au
atom 7.5570841900000003 37.7876418700000016 2.6434807400000002 Au
atom 10.3681438999999997 37.7837093899999985 2.8667619700000002 Au
atom 13.2417868500000004 37.8662083099999975 2.7297331100000002 Au
atom 16.1332838400000007 37.8886239400000022 2.7987645600000000 Au
atom 18.9056724000000003 37.8364223700000011 2.7181419999999998 Au
atom 21.7207611400000005 37.7780781599999997 2.6248054900000000 Au
atom 24.4820729399999983 37.8437094100000024 2.6030514199999999 Au
atom 27.3067057200000001 37.8318886100000000 2.5703376100000002 Au
atom 1.8823012600000000 37.7873638399999976 2.6533938899999998 Au
atom 4.6889676900000001 37.8037877499999979 2.9071580199999998 Au
atom 8.9948368100000007 0.8267526200000000 2.9362050399999999 Au
atom 11.8429726199999994 0.9005595300000000 2.7188527100000002 Au
atom 14.5710146399999996 0.9012876600000000 2.6727384500000002 Au
atom 17.4221295199999986 0.8080657300000000 2.6162016299999999 Au
atom 20.3250611899999996 0.8068601600000000 2.7505339100000001 Au
atom 23.1039431700000009 0.8789703200000000 2.8087986100000002 Au
atom 25.8810586200000010 0.8541031200000000 2.5720579300000002 Au
atom 0.4981007700000000 0.7904933600000000 2.6569517999999999 Au
atom 3.2933993099999999 0.7990095200000000 2.7822212400000002 Au
atom 6.0934414600000002 0.8582677100000000 2.8954918699999999 Au
atom 7.6049110500000001 3.3030268600000001 2.7723249600000002 Au
atom 10.4657680600000003 3.2908074300000001 2.9341227900000000 Au
atom 13.2321859499999999 3.3546774899999998 2.6053670300000000 Au
atom 16.0741897899999984 3.2598121899999999 2.7286946599999999 Au
atom 18.8655296600000000 3.2578835900000001 2.7261897700000000 Au
atom 21.6599326699999999 3.2625723199999999 2.6118541300000002 Au
atom 24.4764805800000005 3.3513036600000001 2.4888756100000000 Au
atom 27.3093783999999999 3.2950976100000000 2.6622622800000002 Au
atom 1.8924846200000001 3.3754398000000001 2.7922344200000002 Au
atom 4.7562667699999999 3.3831636399999998 2.7914328700000000 Au
atom 8.9204795000000008 5.7713230299999996 2.7154748199999998 Au
atom 11.8093685700000002 5.7466810700000002 2.7473136100000000 Au
atom 14.6147779799999995 5.7822874300000002 2.7190126000000001 Au
atom 17.3939779299999984 5.7298143799999997 2.7621885399999999 Au
atom 20.2218431500000015 5.8144920600000001 2.8751034700000000 Au
atom 23.0910467699999984 5.7150557800000001 2.7236767600000000 Au
atom 25.8944442899999991 5.8099877500000003 2.7433330900000001 Au
atom 0.4086343100000000 5.7893579800000001 2.7801888099999998 Au
atom 3.2623429000000002 5.8930176799999998 2.7725448400000001 Au
atom 6.0944367100000001 5.7920486699999998 2.6346390899999999 Au
atom 7.4929536099999998 8.2479420500000007 2.7654803000000001 Au
atom 10.2894260600000003 8.2461019600000007 2.5482540000000000 Au
atom 13.1452100499999993 8.2350067399999993 2.6439573099999998 Au
atom 15.9668853100000003 8.2480490399999997 2.6344290600000000 Au
atom 18.7411605899999998 8.2414589300000003 2.9713004600000001 Au
atom 21.5713830199999990 8.1752641599999993 2.4483003800000001 Au
atom 24.4215499200000004 8.2093142599999993 2.3640188000000002 Au
atom 27.2291179499999991 8.2928265799999998 2.5381287499999998 Au
atom 1.8450708899999999 8.2679314500000007 2.7946989800000002 Au
atom 4.6860804600000003 8.3028507000000005 2.6581908500000000 Au
atom 8.8497644100000006 10.6892323200000003 2.5323363200000002 Au
atom 11.6909652899999994 10.7466087199999993 2.5228856700000000 Au
atom 14.5400721300000004 10.6273914400000002 2.6831054999999999 Au
atom 17.4129607899999996 10.7117081200000008 2.7076011000000002 Au
atom 20.2035717499999983 10.6260035899999998 2.6698360999999999 Au
atom 23.1028656900000016 10.6014021799999991 2.6013133499999999 Au
atom 25.8305135300000011 10.7052299000000009 2.5597036700000002 Au
atom 0.4371382700000000 10.7183610300000005 2.4966983699999998 Au
atom 3.1973555199999999 10.7346554199999993 2.5893843699999999 Au
atom 6.0951984200000000 10.6818129000000006 2.5217313799999999 Au
atom 7.1898279599999997 13.0284759399999999 5.6840422999999998 Cl
atom 7.2558661999999998 15.8426044299999997 8.3558570900000007 Cl
atom 7.2833193400000003 13.1967229400000008 8.1552271800000007 Na
atom 7.2727335399999999 16.0418017999999982 5.5828412099999998 Na
atom 7.2327417699999996 18.8705480299999984 5.8371958299999998 Cl
atom 7.3432065499999997 21.7773309399999988 8.4614633999999995 Cl
atom 7.3322070300000002 18.6828358799999990 8.3951471099999999 Na
atom 7.2583205000000000 21.6617507899999993 5.6462149000000004 Na
atom 7.2363083399999999 24.5224270599999983 5.7861700500000000 Cl
atom 7.4019891900000001 27.3193886200000016 8.6285145900000000 Cl
atom 7.2098396700000000 24.5779925000000006 8.4054366900000002 Na
atom 7.2924946000000004 27.2873663800000017 5.7823742300000003 Na
atom 7.3253873699999996 30.0596869600000005 5.7156665300000000 Cl
atom 7.3720661999999999 32.8522041900000019 8.4713003300000000 Cl
atom 7.3489160299999998 29.9926573400000009 8.3348086200000004 Na
atom 7.1951281299999996 32.9519468399999980 5.5927777900000004 Na
atom 7.2825365700000004 35.7182518199999990 5.6337484199999999 Cl
atom 7.3642780999999999 38.5200031600000017 8.6576093299999997 Cl
atom 7.2687463299999999 35.6598028599999992 8.4020216800000007 Na
atom 7.2828132099999996 38.4770642599999988 5.7788167200000000 Na
atom 7.2972441799999999 1.7946833300000000 5.7686671199999999 Cl
atom 7.4524316700000002 4.6105934700000004 8.5722152499999993 Cl
atom 7.4068894199999997 1.8005572299999999 8.3116647799999992 Na
atom 7.2235676299999998 4.5748446100000004 5.7827232600000000 Na
atom 7.2205766999999996 7.3559879700000002 5.6358534400000000 Cl
atom 7.2852401699999998 10.2485290899999999 8.3502679700000009 Cl
atom 7.3211498700000002 7.4385178500000002 8.4305933100000008 Na
atom 7.0851505699999997 10.2608358600000003 5.7384157399999998 Na
atom 9.9752401099999997 13.1176083099999996 5.3814499800000002 Na
atom 12.7058337699999999 13.1216458899999999 5.3432240599999998 Cl
atom 9.9761658099999995 15.9243839200000004 8.0129300099999998 Na
atom 12.7080288400000008 15.9905465600000003 8.1425766500000005 Cl
atom 12.8112775400000007 13.1745546499999993 7.9874490500000004 Na
atom 10.0169599999999992 13.0738564700000008 8.3420962900000006 Cl
atom 12.8568330900000003 16.0337691199999988 5.4206049900000002 Na
atom 10.0649647899999994 15.9282136899999998 5.2541933600000004 Cl
atom 10.0748589200000005 18.7851755500000017 5.7271565000000004 Na
atom 12.9222811800000006 18.9859340299999992 5.5153953700000002 Cl
atom 10.0610727000000004 21.7063406199999989 8.3725959900000007 Na
atom 12.9004548799999998 21.6140541800000001 8.4100108999999996 Cl
atom 12.9026274599999997 18.7827890400000008 8.2216038699999991 Na
atom 10.0056256200000000 18.7151920099999991 8.5077065300000001 Cl
atom 12.9057203499999993 21.6537690800000000 5.5580929799999996 Na
atom 10.1138758699999993 21.7877479100000002 5.7523592199999998 Cl
atom 10.1240697300000004 24.4563200099999989 5.8976471799999999 Na
atom 12.9171016999999999 24.5681050200000008 5.6817126800000004 Cl
atom 10.1600909500000007 27.2931832300000003 8.3255528600000002 Na
atom 12.9227888199999992 27.3276696200000018 8.3453173300000003 Cl
atom 13.0575185800000000 24.5775973900000011 8.3402871100000002 Na
atom 10.1852856599999999 24.4804194799999983 8.6556991500000002 Cl
atom 12.7415321800000001 27.3162397199999987 5.6801714199999997 Na
atom 10.0746488299999992 27.2854245300000002 5.6653125299999996 Cl
atom 10.1603176499999996 30.0972241599999997 5.7401404899999999 Na
atom 12.9786008000000006 30.0583065100000013 5.6910237600000002 Cl
atom 9.9992215400000006 32.8422001799999990 8.1208611800000003 Na
atom 12.8567887800000005 32.8852008200000014 8.1974559199999995 Cl
atom 12.9319396700000002 30.1232265400000010 8.2345366299999991 Na
atom 10.0749935100000005 30.1973124499999983 8.6356710400000001 Cl
atom 12.9214797699999995 32.8746371900000014 5.5102813399999997 Na
atom 10.0662444200000003 32.9744221500000023 5.4787829300000004 Cl
atom 9.9565133699999997 35.6296273399999990 5.7532225300000004 Na
atom 12.8547576899999996 35.6705791099999985 5.6784936500000001 Cl
atom 10.1074327200000003 38.4149564599999991 8.4442349799999992 Na
atom 13.0346846999999997 38.4538649799999988 8.7187112300000003 Cl
atom 12.7999353800000009 35.6451549100000022 8.3169869100000007 Na
atom 10.0141290999999999 35.6786967800000028 8.5929441999999998 Cl
atom 13.0055290600000006 38.3808472300000005 5.8746132900000001 Na
atom 10.0987965000000006 38.4784695700000015 5.6563690400000004 Cl
atom 10.1498974999999998 1.7197293300000001 5.8643713000000002 Na
atom 13.1288993499999993 1.6485939700000001 5.7055066900000000 Cl
atom 10.2315494200000003 4.6734026599999998 8.3230023400000004 Na
atom 12.9668644299999993 4.4431232999999999 8.6132344799999991 Cl
atom 12.8628309200000004 1.7634567200000000 8.4637343299999994 Na
atom 10.1720303699999999 1.7242848000000000 8.5566241900000009 Cl
atom 13.1437663199999992 4.5043844000000002 5.6939870700000004 Na
atom 10.2038662200000001 4.4472204800000004 5.7475294899999998 Cl
atom 10.1769839399999995 7.2852834099999999 5.7296511199999998 Na
atom 12.9244841299999997 7.2562723199999999 5.7214609799999998 Cl
atom 10.1625159499999995 10.4088885300000005 7.9961298500000000 Na
atom 12.8559661100000007 10.2199895800000000 8.3944386299999998 Cl
atom 12.9433723100000009 7.4699202199999997 8.2328676099999996 Na
atom 10.1576515999999994 7.4851014500000002 8.3686542599999996 Cl
atom 12.8986693900000002 10.3071036700000001 5.2890137499999996 Na
atom 9.9552663199999998 10.0508427099999995 5.4380627800000001 Cl
atom 15.7226662099999999 13.1013246700000003 5.4630025000000000 Na
atom 18.6563109999999988 13.0728864500000004 5.3251053500000003 Cl
atom 15.6764215100000008 15.9513399800000002 7.9918937799999998 Na
atom 18.5077483500000000 15.8302269700000000 8.0853648899999992 Cl
atom 18.5164940599999994 13.0839847799999998 8.0431521099999994 Na
atom 15.7427304699999997 13.1523524199999997 8.2318092800000002 Cl
atom 18.5025880899999997 15.8490574300000002 5.3773795099999999 Na
atom 15.5674346400000001 15.8491397999999997 5.2800898500000004 Cl
atom 15.7589989900000003 18.8467861700000014 5.7245606100000002 Na
atom 18.3888111000000016 18.7459150200000018 5.5685408599999997 Cl
atom 15.7488513500000007 21.5301085299999997 8.3531393200000004 Na
atom 18.4617984499999999 21.5431373400000012 8.4199594500000003 Cl
atom 18.5198346299999983 18.7700168500000011 8.2461565900000000 Na
atom 15.7115296999999998 18.7095015400000015 8.4671545399999992 Cl
atom 18.5497735400000003 21.6222406300000003 5.5714299900000004 Na
atom 15.7308042199999996 21.6698893000000012 5.6529324499999998 Cl
atom 15.7622349100000001 24.3395195300000005 5.8104797399999999 Na
atom 18.5690732700000005 24.3510842600000004 5.7037240000000002 Cl
atom 15.7142678500000006 27.3517305899999990 8.2675766500000005 Na
atom 18.5216573099999984 27.2276210399999989 8.5956652699999996 Cl
atom 18.4303077399999999 24.3781341299999994 8.5166339799999999 Na
atom 15.8316689000000004 24.3447091799999988 8.4193907299999999 Cl
atom 18.5232982799999988 27.2293762599999987 5.5735981199999998 Na
atom 15.5849911500000005 27.0967541400000016 5.3296802200000002 Cl
atom 15.9384000199999996 30.0268190799999992 5.6345925299999999 Na
atom 18.6196974600000011 29.9782008399999995 5.7184451100000002 Cl
atom 15.8047460599999994 32.7275548300000025 8.2619990699999999 Na
atom 18.4856805599999987 32.9176167199999981 8.4491831299999998 Cl
atom 18.8024816399999999 30.0447566799999990 8.3602281400000003 Na
atom 15.9805322899999993 30.0145952700000009 8.2696580199999996 Cl
atom 18.6324979699999993 32.8155748599999981 5.6692488200000000 Na
atom 15.8439401199999992 32.8576363999999970 5.5927458300000001 Cl
atom 15.7050599399999999 35.5573452799999998 5.7298935999999996 Na
atom 18.6458871700000017 35.6182641899999979 5.5853353600000002 Cl
atom 15.6353379799999992 38.4147686700000008 8.2644484899999995 Na
atom 18.4020474400000005 38.4682073500000001 8.5783537100000000 Cl
atom 18.3443041999999998 35.5684764200000032 8.3123092399999994 Na
atom 15.6630881199999994 35.6048337699999990 8.4503837700000002 Cl
atom 18.5271101000000016 38.3022381800000034 5.8504520099999997 Na