#===============================================================================
# Created using the Atomic Simulation Environment (ASE)

# Tue Dec 23 22:26:56 2025

#=======================================================
lattice_vector 28.1999999999999993 0.0000000000000000 0.0000000000000000 
lattice_vector 0.0000000000000000 39.4799999999999969 0.0000000000000000 
lattice_vector 0.0000000000000000 0.0000000000000000 62.3296083400000001 
atom 7.4651497300000003 14.6726759100000006 -0.0901259800000000 Au
atom 10.3174861399999998 14.6824456600000008 -0.1038320700000000 Au
atom 13.1533896699999993 14.6658765899999999 0.1592587700000000 Au
atom 16.0592469899999983 15.0408659399999998 0.0063355700000000 Au
atom 18.6518031200000003 14.8696567900000005 -0.1404620500000000 Au
atom 21.5951795599999983 14.6807497999999992 -0.2269114000000000 Au
atom 24.3459732299999985 14.8014349799999998 -0.0472228500000000 Au
atom 27.4739755599999995 14.8840738399999992 -0.0110075100000000 Au
atom 1.8653957299999999 15.0135314599999994 0.0384515800000000 Au
atom 4.7082994800000000 14.6590937500000003 0.1410902900000000 Au
atom 8.9570835199999994 17.1675539599999993 0.1153674100000000 Au
atom 11.7021743699999998 17.3665449500000015 -0.3884084600000000 Au
atom 14.6891885099999993 17.2728732899999997 -0.2375901900000000 Au
atom 17.2791716599999994 17.4764885499999991 -0.0687979000000000 Au
atom 20.2789141400000013 17.3024980900000003 -0.4229053200000000 Au
atom 23.0493673900000005 17.1855425000000004 -0.0917851100000000 Au
atom 25.9500962900000012 17.1830524099999984 0.0694627600000000 Au
atom 0.3706143800000000 17.1649877599999989 0.4129484500000000 Au
atom 3.3715165100000002 17.3765823200000007 -0.0665448900000000 Au
atom 6.0457986100000003 17.2001829700000002 -0.1706173700000000 Au
atom 7.6795850400000001 19.8860311100000011 -0.1759895700000000 Au
atom 10.4784409899999993 19.8102296399999993 -0.1532534200000000 Au
atom 13.1232015900000007 19.6722203200000010 -0.1432296900000000 Au
atom 15.9429196399999995 19.8082498800000018 -0.1327788000000000 Au
atom 18.7401471999999991 19.6524590600000018 0.2794599300000000 Au
atom 21.7118116000000008 19.7195848799999993 0.2589600200000000 Au
atom 24.4634458399999986 19.6668992899999999 0.3508142900000000 Au
atom 27.1096322600000015 19.5436088400000010 0.5572402100000000 Au
atom 1.7337619500000001 19.7139799700000005 0.4813112100000000 Au
atom 4.8153843500000004 19.6452667599999984 -0.1479397600000000 Au
atom 9.0226823899999999 22.1844880999999994 -0.4316141800000000 Au
atom 11.7364049099999992 22.4255057499999992 -0.1496828900000000 Au
atom 14.6663774000000000 22.4346878099999998 0.0511644500000000 Au
atom 17.4628444000000016 22.1764630700000005 -0.0494371700000000 Au
atom 20.1821116700000012 22.1891372900000015 0.2295248500000000 Au
atom 22.8902500499999988 22.3887436999999991 0.3730856000000000 Au
atom 25.5958004700000004 22.1620031699999984 0.4020056800000000 Au
atom 0.3565148200000000 22.1465574799999985 0.0051708400000000 Au
atom 3.1829874399999998 22.2283925800000013 0.1436487700000000 Au
atom 6.1656143700000001 22.3032518400000015 -0.2976181200000000 Au
atom 7.5887308400000002 24.6450894600000012 -0.2444686300000000 Au
atom 10.4143112500000008 24.7430787199999997 -0.0884827200000000 Au
atom 13.1973951700000001 24.6918034499999983 -0.0857806300000000 Au
atom 15.7581866599999998 24.6940139099999989 -0.1470959000000000 Au
atom 18.7786981399999995 24.6763043400000015 0.1009081700000000 Au
atom 21.8031063100000004 24.8085304300000011 0.2869940300000000 Au
atom 24.4940130600000003 24.5560061999999988 0.3950894500000000 Au
atom 27.2726981600000009 24.7970038799999983 0.2542479400000000 Au
atom 1.8283597300000001 24.6836103099999988 0.0104503700000000 Au
atom 4.5309561299999999 24.7145492400000002 -0.1972058100000000 Au
atom 8.9224657300000008 27.1849696700000010 -0.0865638300000000 Au
atom 11.7762180700000005 27.3250376999999993 -0.2746454700000000 Au
atom 14.4197354900000008 27.0990970900000008 -0.4168220700000000 Au
atom 17.4419337100000007 26.8909064399999984 -0.1484634800000000 Au
atom 20.2334940000000003 27.0537045099999993 0.0284659500000000 Au
atom 22.9680981499999994 27.2267202099999999 -0.0815976500000000 Au
atom 25.8561898600000006 27.1648837500000013 0.2058605500000000 Au
atom 0.4792258000000000 27.0257265400000009 -0.0080994500000000 Au
atom 3.3256723099999999 26.9013458599999993 0.2149039400000000 Au
atom 5.9846630300000001 27.0365384700000000 0.0934352800000000 Au
atom 7.6059247299999999 29.7337067700000013 -0.1359115000000000 Au
atom 10.4573521500000002 29.4968191100000006 -0.0820267200000000 Au
atom 12.9905695399999992 29.6763757999999989 -0.3461852000000000 Au
atom 15.8533050200000005 29.5313440699999994 -0.4572645900000000 Au
atom 18.7043588900000017 29.5577497600000001 -0.6322288700000001 Au
atom 21.6201340100000010 29.5186002000000016 -0.1364428100000000 Au
atom 24.4639040299999984 29.4457929800000002 0.1206813000000000 Au
atom 27.1959133900000012 29.6565476399999994 0.0990807700000000 Au
atom 2.0404918099999998 29.5800931499999997 -0.1049565900000000 Au
atom 4.6341152200000000 29.4662192500000018 0.1156697400000000 Au
atom 9.0984831800000006 32.2120285800000019 -0.1001651800000000 Au
atom 11.8703335100000000 32.0077507800000021 0.0532579400000000 Au
atom 14.5311503399999999 32.1932561699999980 -0.5080931200000000 Au
atom 17.3545756000000004 32.0219115100000025 -0.2120445200000000 Au
atom 20.0906608599999998 32.1392849200000015 -0.2397535400000000 Au
atom 23.0449450200000001 32.2232808099999986 0.1968317800000000 Au
atom 25.7245131600000008 32.0963906699999981 0.1793517600000000 Au
atom 0.5534943700000000 31.9135838300000003 -0.2502925200000000 Au
atom 3.3288582899999999 32.0835681399999970 -0.0684911500000000 Au
atom 6.0583432100000003 32.3303301099999985 -0.2106598700000000 Au
atom 7.6735271000000003 34.6998361899999992 -0.1847342500000000 Au
atom 10.4906241399999995 34.5309024299999976 -0.2955874300000000 Au
atom 12.9755287100000007 34.5377364900000003 -0.1388588300000000 Au
atom 16.1594137199999999 34.7019619499999976 -0.0841037700000000 Au
atom 18.8750258600000009 34.4446900000000014 0.0932395600000000 Au
atom 21.5923128800000015 34.3579944299999980 0.2226169500000000 Au
atom 24.4537666999999992 34.4290520099999995 -0.0074881000000000 Au
atom 27.2978019200000013 34.5034374000000028 0.0731818700000000 Au
atom 1.8605878100000000 34.6127968799999977 -0.1329443100000000 Au
atom 4.7024613300000002 34.4283556299999987 -0.5388628900000000 Au
atom 8.8622776800000000 37.2099602500000017 -0.4116719800000000 Au
atom 11.7539890699999994 37.0369589399999981 -0.0230226500000000 Au
atom 14.5597776900000007 37.0207802400000006 -0.2397200700000000 Au
atom 17.3835244200000005 37.1367503700000015 0.0516755800000000 Au
atom 20.0882715999999988 36.8396144299999975 0.1207160200000000 Au
atom 23.0333495600000013 36.8958252500000015 0.2148183600000000 Au
atom 26.0057727300000003 37.0254605499999982 0.0707949700000000 Au
atom 0.4972287700000000 37.0247163599999993 -0.0510049100000000 Au
atom 3.3657515999999998 36.7361625799999985 0.0494199100000000 Au
atom 6.1416170499999998 36.9867696600000002 -0.2955078500000000 Au
atom 7.6197683200000004 0.0849154200000000 -0.2145382000000000 Au
atom 10.2859593799999995 0.3549445200000000 0.1223289000000000 Au
atom 13.1219229800000008 0.0348473100000000 -0.2122904900000000 Au
atom 15.9054675799999998 0.1158623100000000 0.0469701000000000 Au
atom 18.8328379199999993 0.0540020300000000 -0.1809868000000000 Au
atom 21.5238720599999986 -0.2027869300000000 -0.0372130300000000 Au
atom 24.3870660999999984 0.0127590400000000 0.0302934900000000 Au
atom 27.4264285100000009 -0.1172483200000000 0.1877115000000000 Au
atom 1.9508239800000000 -0.0357773700000000 0.0668328200000000 Au
atom 4.8190948699999998 -0.0353350000000000 -0.0971868900000000 Au
atom 9.0063897300000004 2.3306856499999999 0.1237906400000000 Au
atom 11.8043730199999999 2.5671732800000000 0.2595378200000000 Au
atom 14.5388408099999999 2.6002134799999999 0.0972704600000000 Au
atom 17.3838818500000016 2.5363853500000002 0.0436388600000000 Au
atom 20.3311981199999998 2.4610818900000000 0.0283795600000000 Au
atom 22.8943147200000006 2.4859014600000000 -0.2201590200000000 Au
atom 25.7283658600000003 2.3072206700000000 -0.0335177300000000 Au
atom 0.2769522700000000 2.3857268299999999 0.0809978800000000 Au
atom 3.2902242600000000 2.6255870500000000 -0.0999426000000000 Au
atom 6.1122746100000001 2.4578484299999999 0.0671544100000000 Au
atom 7.4689510099999996 4.8252366400000000 0.0265439700000000 Au
atom 10.2149317100000001 4.9764534400000002 0.1357276700000000 Au
atom 12.9845229199999999 4.8638146999999998 0.1170358800000000 Au
atom 16.2123735899999986 4.8037445500000002 0.2993126500000000 Au
atom 18.9020486299999995 5.0793075700000001 0.2162197200000000 Au
atom 21.5287926200000008 5.1130467499999996 0.2352119400000000 Au
atom 24.4490975699999993 5.0700120799999997 -0.2161837300000000 Au
atom 27.1602190700000001 4.9542673199999996 -0.1509084600000000 Au
atom 2.0072519199999999 5.0130593399999999 0.1152059900000000 Au
atom 4.4946176400000004 4.9323474100000002 0.2543663400000000 Au
atom 9.0369421699999997 7.4889553099999997 -0.1088399800000000 Au
atom 11.7558422300000007 7.2884867499999997 0.1591367600000000 Au
atom 14.5882023800000002 7.6280181999999996 0.1735052000000000 Au
atom 17.3310037500000007 7.4265320399999997 0.1459473400000000 Au
atom 20.1699608400000017 7.3424592899999999 -0.0693615900000000 Au
atom 22.9007396599999993 7.3822043700000002 0.0405629200000000 Au
atom 25.9960490700000015 7.3579052999999996 0.0853305200000000 Au
atom 0.5115107700000000 7.3490805200000002 -0.0023086400000000 Au
atom 3.2229017600000001 7.4233743700000003 0.1226129900000000 Au
atom 6.3105154900000002 7.4927329900000004 0.3137215100000000 Au
atom 7.2545287199999997 9.9732612399999994 0.0632124600000000 Au
atom 10.2697851199999999 9.8892324200000008 -0.0908446200000000 Au
atom 13.1891976599999996 10.1887636700000002 0.0042708600000000 Au
atom 16.0820801099999997 9.8727348399999997 -0.0854760800000000 Au
atom 18.8042663800000014 9.8018919699999998 0.0710979200000000 Au
atom 21.6890895599999993 9.7698868000000001 0.1290206200000000 Au
atom 24.3666949099999997 9.8282083900000003 0.2315062200000000 Au
atom 27.2770603099999995 9.6612747500000005 -0.0144351600000000 Au
atom 1.8395733800000000 9.7266350300000006 0.0088874400000000 Au
atom 4.5254423800000003 9.8015154199999994 0.1461211500000000 Au
atom 9.0624605299999992 12.2999137699999999 -0.2362477200000000 Au
atom 11.7938376500000004 12.4666783900000002 -0.0592680600000000 Au
atom 14.5504230099999994 12.5132510999999997 -0.0095640500000000 Au
atom 17.4367657999999999 12.4449664999999996 0.2088234600000000 Au
atom 19.9332746199999988 12.2443836800000003 0.3814751400000000 Au
atom 23.0625177299999997 12.3966115699999992 0.0428625000000000 Au
atom 25.8025781199999997 12.4737642900000001 0.1118099100000000 Au
atom 0.4977719800000000 12.2602160199999997 -0.0967300000000000 Au
atom 3.2931114199999998 12.3991580199999998 -0.4109351700000000 Au
atom 6.1967608600000004 12.4369515499999999 -0.0674757300000000 Au
atom 7.4589359899999996 13.0492821200000009 2.5664879799999998 Au
atom 10.1287652999999995 13.1689275200000004 2.5219404499999998 Au
atom 13.2974410499999998 13.2445573999999997 2.6593919200000000 Au
atom 16.0922677400000005 13.4658835099999994 2.6742981299999999 Au
atom 18.9303597900000007 13.0841999500000004 2.8213969799999998 Au
atom 21.6774498400000013 13.1584437300000001 2.4186515700000002 Au
atom 24.5860635999999992 13.1705487199999993 2.5834452099999998 Au
atom 27.2387932399999997 13.2417132599999992 2.4200201799999999 Au
atom 1.9460782599999999 13.2798497900000001 2.4915013600000000 Au
atom 4.5943234700000000 13.1123255800000003 2.3713168900000001 Au
atom 8.9374899200000009 15.5733103899999996 2.6781628300000002 Au
atom 11.7020934299999997 15.6343266399999994 2.5297645800000002 Au
atom 14.4844524700000008 15.4249462299999998 2.4964239799999999 Au
atom 17.5200244699999992 15.6297154200000001 2.8479205699999999 Au
atom 20.2130885000000013 15.7253690800000001 2.2962829600000001 Au
atom 23.0775733999999986 15.5469896399999996 2.5149813499999998 Au
atom 25.6082478000000009 15.4958971499999993 2.5413360100000002 Au
atom 0.4608335300000000 15.6041434700000003 2.8612582799999999 Au
atom 3.1659505200000000 15.6451536600000001 2.8481668400000002 Au
atom 5.9592405900000003 15.4651780700000003 2.6590105500000001 Au
atom 7.5470699899999998 18.0665212400000001 2.5870785999999999 Au
atom 10.1397235200000004 18.1424592599999990 2.4850856499999998 Au
atom 12.9760645100000005 18.1195397100000015 2.2768369599999998 Au
atom 16.0041724400000014 18.0685585000000017 2.5462638100000001 Au
atom 18.9011369900000012 18.0590466300000010 2.4082401500000001 Au
atom 21.8650409000000003 18.1311027100000004 2.6544150200000001 Au
atom 24.6161607899999986 18.3456266100000001 2.8055094700000001 Au
atom 27.5261430099999984 18.1649857399999988 2.8315540100000001 Au
atom 2.1595015399999999 18.1703735399999999 3.0155767999999998 Au
atom 4.8608963799999998 18.0378910200000000 2.5681053199999999 Au
atom 9.0229547300000004 20.7203640900000003 2.4717527800000001 Au
atom 11.8009135399999998 20.7722204300000008 2.4127825800000000 Au
atom 14.4768903899999994 20.4584277499999985 2.4092137500000002 Au
atom 17.4210668599999998 20.3172428099999998 2.3359898399999999 Au
atom 20.1400618899999984 20.8205720200000002 2.8413936600000000 Au
atom 23.0202878300000009 20.5023397299999992 2.8848237399999999 Au
atom 25.7796391100000015 20.5909839300000002 2.9218790700000001 Au
atom 0.5607346400000000 20.7043897500000007 2.9850301300000002 Au
atom 3.3469278199999999 20.7254332999999988 2.9173756000000002 Au
atom 6.0625068100000004 20.6207556200000006 2.5729631600000000 Au
atom 7.5205568500000002 23.1114194399999988 2.1176826000000002 Au
atom 10.2147715399999992 23.2010292800000002 2.4035603200000000 Au
atom 13.0864092999999997 23.1767146500000010 2.5533897900000002 Au
atom 15.9023444499999993 23.0368013000000005 2.4374649399999999 Au
atom 18.6360584299999985 23.1096745599999984 2.5728926500000000 Au
atom 21.8029633199999999 23.1507852499999984 2.9747323300000001 Au
atom 24.4136702099999994 23.1189787299999985 3.0371285100000001 Au
atom 27.2735607800000004 23.2792286200000014 2.8392007300000000 Au
atom 1.9012889200000000 23.1520441099999985 2.6184162400000002 Au
atom 4.7250128299999998 23.1275636899999988 2.5186540100000001 Au
atom 8.9988571700000008 25.5409517999999984 2.4667250100000002 Au
atom 11.6038294799999999 25.4544276899999993 2.3085262200000001 Au
atom 14.4096713800000007 25.6255290900000006 2.6187668799999999 Au
atom 17.3796283500000008 25.7543412600000003 2.5099265000000002 Au
atom 20.2028077599999989 25.3460918699999986 2.8029197699999999 Au
atom 22.9349182999999996 25.6737267299999985 2.9667527400000000 Au
atom 25.7148724299999998 25.4024344000000006 2.8306892200000000 Au
atom 0.5099954300000000 25.6826975799999992 2.9384551299999999 Au
atom 3.2807401700000001 25.7099183599999996 2.6369996599999999 Au
atom 6.0364767700000002 25.6581966399999999 2.5385872799999998 Au
atom 7.6113555200000000 27.9826240000000013 2.6425837900000002 Au
atom 10.2366977000000006 27.9093435099999994 2.7155756200000001 Au
atom 12.9564160699999995 28.0677505700000012 2.1961711099999999 Au
atom 15.9495668800000008 28.0434795200000018 2.3214284900000002 Au
atom 18.8396696000000006 28.1193336100000018 2.4614843999999998 Au
atom 21.3934704499999988 28.0011637299999983 2.7328356000000000 Au
atom 24.5973736999999986 28.0303860900000004 2.7658433900000001 Au
atom 27.2449528399999998 27.9457281699999989 2.6813972599999998 Au
atom 1.9299591400000000 28.0756206800000001 2.7352133300000001 Au
atom 4.6194459800000001 28.0795225100000003 2.6316814599999998 Au
atom 8.9134297000000000 30.7186862400000003 2.4088888300000000 Au
atom 11.8584978400000001 30.5201595599999997 2.6738110200000000 Au
atom 14.3585735499999991 30.5165457099999990 2.2351053099999998 Au
atom 17.3225699300000002 30.4374050199999999 2.3058287300000000 Au
atom 20.1243141700000017 30.4263533200000005 2.2333878800000000 Au
atom 23.1196521900000000 30.3030014500000000 2.7687188500000000 Au
atom 25.9252009299999990 30.5406377199999994 2.7705655700000000 Au
atom 0.5251663800000000 30.5476451000000004 2.2858005000000001 Au
atom 3.3369656000000001 30.7250759100000010 2.5550423599999998 Au
atom 6.0524875500000004 30.5502818900000008 2.5391747800000002 Au
atom 7.6860163400000001 32.9910146400000031 2.5563442400000000 Au
atom 10.5780273400000002 32.9749303099999977 2.2643710900000000 Au
atom 13.0660962000000005 32.7856315399999971 2.6426232800000000 Au
atom 15.9644562200000006 32.7294825000000031 2.5630180100000000 Au
atom 18.6871075500000003 32.8599655900000016 2.6220900500000002 Au
atom 21.6406053400000005 32.9787560899999974 2.7124977499999998 Au
atom 24.3618037799999989 32.8035106900000031 2.7923662700000000 Au
atom 27.3351960699999985 32.9153629600000031 2.7103405700000001 Au
atom 1.9782897699999999 32.9249690999999984 2.4065512199999999 Au
atom 4.7564297599999996 32.9814048799999995 2.7892539699999999 Au
atom 8.8866125700000005 35.3853731999999965 2.2156733900000001 Au
atom 11.7617051299999993 35.4119376599999995 2.7424074599999999 Au
atom 14.5079339399999991 35.5785418899999968 2.5041945800000001 Au
atom 17.3698518499999999 35.4864741900000027 2.7316844300000001 Au
atom 20.0902143200000012 35.5035340599999998 2.6996820700000002 Au
atom 22.9019694099999995 35.2240547800000030 2.7162703200000000 Au
atom 25.8335868600000005 35.2469486700000019 2.6290308400000000 Au
atom 0.4427017000000000 35.4076951500000021 2.6564280400000002 Au
atom 2.9439955599999998 35.1223885799999991 2.6067468599999999 Au
atom 6.1250513599999996 35.3121311000000020 2.0876095299999999 Au
atom 7.5218253300000004 37.6561168400000028 2.3776306900000002 Au
atom 10.3295076699999999 37.9492973099999986 2.5144163900000001 Au
atom 13.2857611000000002 37.9134597799999966 2.5953068899999998 Au
atom 15.8973304800000008 37.8150878100000014 2.5847794700000000 Au
atom 18.7560039600000010 38.0627809400000032 2.6051931200000000 Au
atom 21.5953135100000004 37.7344196700000012 2.6562338200000002 Au
atom 24.2752090500000008 37.7337964700000015 2.7813904699999998 Au
atom 27.1806493499999995 37.8447265699999988 2.9128191900000000 Au
atom 1.6360778899999999 37.7142317500000033 2.6742172700000002 Au
atom 4.6756226400000003 37.7799090299999989 2.5388145999999998 Au
atom 8.9205139199999994 0.7197830500000000 2.5389449300000000 Au
atom 11.7577897999999994 0.8369445700000000 2.6540576599999999 Au
atom 14.5944692800000002 0.8689632900000001 2.6369394399999999 Au
atom 17.4794262399999987 0.8662848900000000 2.4731636400000001 Au
atom 20.2655643000000012 0.7585532500000000 2.5529178099999998 Au
atom 23.0047175599999996 0.7644555600000000 2.7457752599999998 Au
atom 25.7188903300000007 0.9091515100000001 2.5723049499999999 Au
atom 0.3874287100000000 0.7027258500000000 2.6853413200000000 Au
atom 3.4559254799999999 0.7325344600000000 2.7518761899999999 Au
atom 5.9995072299999999 0.8415400100000000 2.6573936499999999 Au
atom 7.7391783399999996 3.3069544099999999 2.6491375200000000 Au
atom 10.4190870400000009 3.2768549400000002 2.5823538899999998 Au
atom 13.2666465999999996 3.3372667599999999 2.5943160500000002 Au
atom 15.9510724600000007 3.3057629199999998 2.8029834199999999 Au
atom 18.7573859499999998 3.0745308200000001 2.5174861900000001 Au
atom 21.4877830500000009 3.1049598600000001 2.6049470900000000 Au
atom 24.2909395000000004 3.2083763500000000 2.7337839100000001 Au
atom 27.0461028500000005 3.1083138699999999 2.5567897500000001 Au
atom 1.7350376599999999 3.1824266799999998 2.6770864200000002 Au
atom 4.4546269100000000 3.0979867699999999 2.7966819300000001 Au
atom 8.8643371599999998 5.8978719899999996 2.6749646199999999 Au
atom 11.7673109700000005 5.8269270300000002 2.7374976400000000 Au
atom 14.7952386899999997 5.8208272200000000 2.8669224299999998 Au
atom 17.2780204399999988 5.8623046399999996 2.6736282199999999 Au
atom 20.0290249299999985 5.9283165300000000 2.8314192299999998 Au
atom 23.1037284300000003 5.8623506000000001 2.7964339800000002 Au
atom 25.8110459900000002 5.8237551500000002 2.5693369100000001 Au
atom 0.5238001600000000 5.5230088100000003 2.6404863199999999 Au
atom 2.9732380500000000 5.8829237299999999 2.6342186299999999 Au
atom 6.2698720500000000 5.6353479799999997 2.6406220100000000 Au
atom 7.4720317200000004 8.2478687399999995 2.6398389700000000 Au
atom 10.4131111099999991 8.3094742200000002 2.5945202799999998 Au
atom 13.0792960199999992 8.1351434800000000 2.8278443400000000 Au
atom 15.9929232100000007 8.5464425300000002 2.5767944400000000 Au
atom 18.8651849300000016 8.1934949199999991 2.5795785800000002 Au
atom 21.7018150600000013 8.1070741000000002 2.6825891500000001 Au
atom 24.5749384599999985 8.2814321700000004 2.5262602400000000 Au
atom 27.1661352899999997 8.3144033299999993 2.5331971499999999 Au
atom 1.8226833800000000 8.3625177199999996 2.6393040399999999 Au
atom 4.5526518200000003 8.3528958600000003 2.8304604900000001 Au
atom 9.0282853400000000 10.6552280100000001 2.4282495100000001 Au
atom 11.9078991799999994 10.6797734500000008 2.9545422200000000 Au
atom 14.7736315800000000 10.6617863699999997 2.7208126099999999 Au
atom 17.4783871099999999 10.8098063199999999 2.6650311300000000 Au
atom 20.1768746400000012 10.7685351100000002 2.6612089900000000 Au
atom 23.0146735199999988 10.8343374499999996 2.6624916000000001 Au
atom 25.7959090999999994 10.7419123200000008 2.7814357599999999 Au
atom 0.5422998500000000 10.8180853799999994 2.6402266200000000 Au
atom 3.2354434200000002 10.8269084000000007 2.8013273200000000 Au
atom 6.0943821600000003 10.5110177300000007 2.4784117100000000 Au
atom 7.3501012299999999 13.2138226799999998 5.8980401999999996 Cl
atom 7.5024010900000002 16.0408941100000000 8.5545429199999994 Cl
atom 7.3550967800000002 13.3551816199999998 8.3849686800000001 Na
atom 7.6144941800000003 16.0409416000000000 5.6944439100000004 Na
atom 7.4820293600000003 18.7260915300000015 5.5964210000000003 Cl
atom 7.4785453899999998 21.7118962300000007 8.1828663000000006 Cl
atom 7.3575227999999999 18.9078529800000013 8.1100846499999992 Na
atom 7.0551302600000003 21.4293604799999997 5.4419453799999999 Na
atom 7.2024479699999997 24.4949659599999983 5.5865681100000000 Cl
atom 7.4044659199999998 27.2642078900000016 8.4241944300000000 Cl
atom 7.2515182899999999 24.4109549299999991 8.4292951499999997 Na
atom 7.4200502000000004 27.2645600600000009 5.7303474500000000 Na
atom 7.5944008500000004 29.9326338999999990 5.6042995900000001 Cl
atom 7.4409934000000000 32.7848325000000003 8.9092805700000000 Cl
atom 7.5003127200000002 30.1262392900000009 8.2738941199999996 Na
atom 7.3291550900000004 32.6545027700000006 5.9953400300000004 Na
atom 7.5896776099999999 35.6713233899999977 5.7601533399999996 Cl
atom 7.4662842999999999 38.7135722599999994 8.5053618100000001 Cl
atom 7.5509915300000001 35.5547318300000015 8.2756311500000006 Na
atom 7.7749331499999998 38.4636167000000029 5.8176108400000004 Na
atom 7.5663147100000003 1.6817818099999999 5.4944446800000000 Cl
atom 7.4021627800000003 4.6372056300000004 8.3731824400000008 Cl
atom 7.4562005700000000 1.8241134400000001 8.0182149400000000 Na
atom 7.3685627699999996 4.5371887600000003 5.8799958600000002 Na
atom 7.5706786299999997 7.5841717299999996 5.9145131800000001 Cl
atom 7.4128258200000001 10.3180457600000004 8.5323604999999993 Cl
atom 7.4419119299999998 7.5495618599999998 8.3871164000000000 Na
atom 7.4438864400000000 10.0784858499999999 5.8840688999999999 Na
atom 10.3493066400000000 13.4302012499999996 6.0520462999999998 Na
atom 13.0732017599999999 13.4918842399999992 6.1327441599999997 Cl
atom 10.1416851300000008 15.8708425000000002 8.7308334900000002 Na
atom 12.9945020699999993 16.2793710000000011 8.3678283600000007 Cl
atom 13.0518433599999994 13.5427400900000006 8.8307168699999998 Na
atom 10.2370649900000004 13.2660802100000002 8.7374240699999994 Cl
atom 12.9119171399999999 15.9984038999999996 5.9613148100000002 Na
atom 10.3382876600000007 15.8545434000000007 5.8710002100000001 Cl
atom 10.1924033600000001 18.9355799000000005 5.7048764900000002 Na
atom 13.0042322499999994 19.0556017699999991 5.5219299299999998 Cl
atom 9.8417872800000001 21.7993063999999990 8.1647848700000001 Na
atom 12.9730110799999991 21.9386192999999992 8.3187794099999994 Cl
atom 13.0346555899999998 19.0448732099999987 8.0889834100000009 Na
atom 10.1706041099999993 18.9296449699999982 8.5412367099999997 Cl
atom 13.0147088499999999 21.9682888799999994 5.6180253799999997 Na
atom 10.1995354099999993 21.6265533199999993 5.4575599199999996 Cl
atom 10.3654850399999994 24.6044192700000011 5.6612019699999996 Na
atom 12.8810290700000003 24.5153161299999987 5.2703778200000002 Cl
atom 10.1722456099999992 27.3868456599999988 8.0885484400000003 Na
atom 13.0438054799999996 27.3109781299999987 8.3258197099999993 Cl
atom 13.0882337599999996 24.5614376199999995 8.1775438499999993 Na
atom 10.0979765300000004 24.7085919499999989 8.4759384799999999 Cl
atom 12.8992707299999996 27.2142933800000009 5.6469393300000004 Na
atom 10.2046514500000001 27.1839532999999989 5.5678138300000004 Cl
atom 10.2305405999999994 30.3771222799999983 5.4694633200000000 Na
atom 12.9698857600000004 30.1778090299999988 5.5785935300000000 Cl
atom 10.1852250000000009 32.9099663200000023 8.3659294600000003 Na
atom 13.1626829599999997 33.0991714399999992 8.4845860599999998 Cl
atom 12.9578317999999992 30.0772345899999998 8.0659930600000003 Na
atom 10.1085554099999992 30.0845500699999988 8.4881178300000002 Cl
atom 13.1226271299999997 32.7798367299999995 5.4647932199999998 Na
atom 10.2325814099999999 32.9403146699999994 5.8709663399999998 Cl
atom 10.3713484600000001 35.5982839300000009 5.6179514900000003 Na
atom 13.1969131900000001 35.5758192799999975 5.3712516199999998 Cl
atom 10.3757749399999994 38.3592997299999965 8.3059563099999991 Na
atom 13.0659182800000000 38.3116303099999982 8.3690112499999998 Cl
atom 12.9665532700000004 35.7453667799999977 8.1840518099999997 Na
atom 10.1771231600000007 35.5296383800000015 8.8553903599999995 Cl
atom 13.2236545400000001 38.3854590199999990 5.7812902599999996 Na
atom 10.2495782799999997 38.3983142900000018 5.5595350699999999 Cl
atom 10.4829565500000008 1.8909929500000000 5.7462490700000002 Na
atom 13.1548602100000007 1.9144812700000000 5.7460502800000004 Cl
atom 10.2637547300000005 4.8078441600000001 8.3568711199999992 Na
atom 13.1795720500000009 4.9032246099999997 8.4420138799999993 Cl
atom 13.0392587100000004 1.9576672600000000 8.1731133699999994 Na
atom 10.3619852300000002 2.0291834099999999 8.4139929200000001 Cl
atom 13.1197495600000007 4.7891158500000000 5.9568069000000001 Na
atom 10.0596301300000004 4.9471039799999996 6.0076209900000004 Cl
atom 10.3091895299999994 7.8301544500000002 6.1767599700000000 Na
atom 13.1461019700000001 7.8569230499999998 5.9302542200000001 Cl
atom 10.0398907400000006 10.4175681600000001 8.5417566600000008 Na
atom 13.2451424400000004 10.6242300099999998 8.7137549500000002 Cl
atom 13.1303674299999997 7.7037757999999998 8.4602268800000004 Na
atom 10.2012816199999996 7.6432183800000004 8.7025106799999996 Cl
atom 13.0892546500000009 10.5962167899999997 6.1725637000000004 Na
atom 10.3100371899999992 10.4616537600000008 5.9899065100000000 Cl
atom 15.7936101499999992 13.2957832099999997 6.0617955700000001 Na
atom 18.5794152600000011 13.4016777900000008 5.8517885900000000 Cl
atom 15.6195215300000001 16.1166709200000007 8.3715575300000005 Na
atom 18.6651553600000000 15.9217871800000008 8.6136227800000000 Cl
atom 18.7044952299999991 13.2068977099999998 8.2926159899999998 Na
atom 15.8402921600000006 13.4564770800000009 9.1294632700000005 Cl
atom 18.8007620499999994 16.1825899500000006 5.9422721599999999 Na
atom 15.6942791199999991 15.8853672699999997 5.9220052299999999 Cl
atom 15.9020944800000006 18.6723846299999998 5.9039711600000002 Na
atom 18.5940944299999984 19.0066169000000009 5.7635961199999999 Cl
atom 15.7087648099999999 21.6004592100000004 8.3454526300000005 Na
atom 18.6899158900000018 21.6505703099999991 8.8198491600000004 Cl
atom 18.6181438999999997 18.5879225099999985 8.5315953800000006 Na
atom 15.9356812399999992 18.7513832200000010 8.5833318900000002 Cl
atom 18.7215466799999994 21.8744420800000015 5.9573685000000003 Na
atom 15.9526530900000001 21.7228430900000014 5.6994816999999998 Cl
atom 15.7853593199999995 24.3956297699999993 5.5438365000000003 Na
atom 18.8630853899999984 24.4961338099999999 6.0397177099999997 Cl
atom 15.8883341700000003 27.4969687799999996 8.2373274799999994 Na
atom 18.7109258800000013 27.2083160100000008 8.5814957700000001 Cl
atom 18.5240532599999987 24.2587506300000015 8.9661350599999992 Na
atom 15.8820156000000008 24.2534625699999999 8.5300489499999994 Cl
atom 18.6864408200000014 27.0462611600000002 5.8783455000000000 Na
atom 15.9676416900000007 27.2440220400000008 5.4018214300000000 Cl
atom 15.9151473600000006 30.3131679799999993 5.5965624700000003 Na
atom 18.6924122200000014 29.9777126000000003 5.6398340899999999 Cl
atom 15.7932065700000006 33.0842635599999966 8.4297990699999996 Na
atom 18.5566360900000014 32.7592625099999992 8.5625994199999997 Cl
atom 18.2785062399999987 29.8690308500000015 8.1701431200000005 Na
atom 15.6698402699999999 29.9856595000000006 8.5539748099999997 Cl
atom 18.8592874399999992 32.8988417099999992 5.5926867299999996 Na
atom 15.9315210500000006 33.0018310900000031 5.7242712800000000 Cl
atom 15.8538915500000002 35.6619965699999995 5.7758608499999999 Na
atom 18.5697247200000000 35.8135347300000006 5.7542391600000000 Cl
atom 16.0441680799999986 38.4275374799999980 8.2856922700000002 Na
atom 18.6228962600000010 38.4244588700000023 8.7485358000000009 Cl
atom 18.7666292500000012 35.8503394600000007 8.5044327000000006 Na
atom 15.9387405100000006 35.6310409000000021 8.6046850300000006 Cl
atom 18.7693790299999996 38.4361111099999988 5.6567969600000003 Na