#===============================================================================
# Created using the Atomic Simulation Environment (ASE)

# Tue Dec 23 22:26:37 2025

#=======================================================
lattice_vector 28.1999999999999993 0.0000000000000000 0.0000000000000000 
lattice_vector 0.0000000000000000 39.4799999999999969 0.0000000000000000 
lattice_vector 0.0000000000000000 0.0000000000000000 62.3296083400000001 
atom 7.5513974800000003 14.7380438999999992 -0.1068592300000000 Au
atom 10.2730850399999998 14.8699680900000004 0.0382082800000000 Au
atom 12.9767071400000003 14.8779378599999994 0.3757186300000000 Au
atom 15.8861970499999998 14.8322224400000007 0.1643973500000000 Au
atom 18.9814856799999987 14.7424663400000000 -0.2737210500000000 Au
atom 21.7085667499999992 14.8244960500000005 -0.2257975500000000 Au
atom 24.4782103100000015 14.8232928400000006 -0.3200494400000000 Au
atom 27.3539245800000010 15.0950214099999993 -0.4139224100000000 Au
atom 1.7633721600000001 15.0180115000000001 -0.2314988100000000 Au
atom 4.7056826200000001 14.6531783600000001 -0.3116626900000000 Au
atom 8.9329037800000002 17.2938452200000015 -0.0681930800000000 Au
atom 11.9293115899999993 17.3551311400000010 0.0416550300000000 Au
atom 14.6694053199999992 17.3529151299999995 -0.0961955500000000 Au
atom 17.4315577700000013 17.4624178299999997 -0.1226397800000000 Au
atom 20.1309933200000017 17.3817559999999993 -0.5528737800000000 Au
atom 22.9583424200000010 17.4501248900000014 -0.4484918900000000 Au
atom 26.0165664300000010 17.6449794699999991 -0.1601015200000000 Au
atom 0.3707930800000000 17.3406004799999991 0.0867633900000000 Au
atom 3.1707451299999998 17.3521455499999995 0.2027849700000000 Au
atom 5.9810665900000002 17.3201408199999989 -0.3542639800000000 Au
atom 7.6400685900000003 19.7184899400000013 0.0974354900000000 Au
atom 10.3979694800000004 19.6877936700000014 0.0412796700000000 Au
atom 13.2445244199999994 19.6889240699999988 0.0381758100000000 Au
atom 16.0531789200000006 19.7026430300000008 -0.2563470000000000 Au
atom 18.9147938700000005 19.9197017699999996 -0.3647008000000000 Au
atom 21.6833307899999994 19.9298598600000005 -0.1037696300000000 Au
atom 24.4726852299999997 19.6293304599999985 0.3086844100000000 Au
atom 27.3182112699999990 19.8159133800000014 0.0770879300000000 Au
atom 2.0056278100000000 19.9521557899999991 0.2930992400000000 Au
atom 4.6077388900000003 19.8866522000000003 -0.0224035900000000 Au
atom 9.0154534000000002 22.1794185000000006 -0.2360791500000000 Au
atom 11.7456792500000002 22.1032873800000011 -0.1189048700000000 Au
atom 14.7042714700000001 22.1904399300000001 -0.2707290400000000 Au
atom 17.6154633400000016 22.2795304399999985 0.3395584000000000 Au
atom 20.1792607400000001 22.4021472899999985 0.2427170100000000 Au
atom 23.1040029500000017 22.2979275799999996 0.5248942300000000 Au
atom 25.8319295199999992 22.2074523699999986 0.4140306200000000 Au
atom 0.3857781700000000 22.3915942900000005 0.4278491300000000 Au
atom 3.2579881199999998 22.2117750299999983 0.2406849100000000 Au
atom 6.0453419300000002 22.3069327400000006 0.1227157100000000 Au
atom 7.4946741299999999 24.6025243499999995 0.0626335100000000 Au
atom 10.3644257599999996 24.5117954199999986 0.2213260900000000 Au
atom 13.3603898399999999 24.7858002400000004 0.0080932100000000 Au
atom 16.0283310099999987 24.6924024099999997 0.0573376300000000 Au
atom 18.8411681000000009 24.9581303500000011 0.7411198900000000 Au
atom 21.6632325200000011 24.8034423900000007 0.5383093000000000 Au
atom 24.4517632800000015 24.7530166600000001 0.5137982700000000 Au
atom 27.3179344700000009 24.7989130099999997 0.1714727800000000 Au
atom 2.1390668599999998 24.7235031599999999 0.4178531200000000 Au
atom 4.7201992600000002 24.6206585500000017 0.0593719000000000 Au
atom 9.0217976199999992 27.0984973599999996 -0.1934741100000000 Au
atom 11.7845356500000005 27.1039482599999992 -0.2551227700000000 Au
atom 14.7025933000000002 27.2028664800000008 -0.0800122700000000 Au
atom 17.3875335000000000 27.1964495200000016 0.2490618500000000 Au
atom 20.2337333699999995 27.1170545199999999 0.3276252600000000 Au
atom 22.9592333900000014 27.1866580300000003 0.1562877900000000 Au
atom 25.8660475800000000 27.0457110599999986 0.2506964000000000 Au
atom 0.5465688300000000 27.2079895299999990 0.4164212800000000 Au
atom 3.3411210599999999 27.1905560900000012 0.1065667800000000 Au
atom 6.1681791099999996 27.0763307200000014 -0.2008308800000000 Au
atom 7.6204917200000004 29.5511878800000005 -0.3224705200000000 Au
atom 10.2858639499999995 29.4905690400000005 -0.1849533300000000 Au
atom 13.1246332399999996 29.6246301199999991 -0.1609113300000000 Au
atom 16.0761145700000014 29.7954441000000010 -0.1838208800000000 Au
atom 18.7558484700000001 29.8325668099999994 -0.1894128700000000 Au
atom 21.8612013599999990 29.5225228000000008 0.0815030500000000 Au
atom 24.4789554299999992 29.5627027799999986 0.2243694400000000 Au
atom 27.4107507499999983 29.7555077300000015 -0.1486476900000000 Au
atom 1.7628848399999999 29.4888752099999998 -0.1015548600000000 Au
atom 4.5180049100000002 29.5671489500000000 -0.0645491100000000 Au
atom 9.1425362200000002 32.1245757299999966 -0.1501332000000000 Au
atom 11.7090439300000000 31.9120983100000011 0.0260547200000000 Au
atom 14.6397615200000004 31.9566324600000016 -0.3262248100000000 Au
atom 17.3257578800000012 32.1077182599999986 -0.0746843100000000 Au
atom 20.3774329999999999 32.0367006299999986 0.0742777800000000 Au
atom 22.9830247199999995 32.2724133800000033 0.1079608200000000 Au
atom 25.8703357400000016 32.1950693200000018 -0.1019878200000000 Au
atom 0.2812414500000000 32.0441276199999976 0.1760475500000000 Au
atom 3.2245782500000000 32.1514886599999983 0.2454650700000000 Au
atom 6.2849478300000001 32.0917620800000023 0.1534193500000000 Au
atom 7.5614053700000001 34.5524665100000021 -0.1051527100000000 Au
atom 10.4301475900000007 34.6462149500000010 -0.1996486900000000 Au
atom 13.0439261599999998 34.7553568299999966 -0.2776543700000000 Au
atom 15.9828980800000000 34.5503649799999977 -0.3065153200000000 Au
atom 18.5763941999999993 34.6639553400000011 0.2511127400000000 Au
atom 21.5672121499999996 34.5067502599999969 0.0475110200000000 Au
atom 24.4823756400000008 34.6798047400000016 0.2685321000000000 Au
atom 27.0835806300000002 34.6913283800000016 0.1497140200000000 Au
atom 1.8408153899999999 34.5480285499999979 -0.2961748900000000 Au
atom 4.6572127099999996 34.5737777800000003 -0.3250403000000000 Au
atom 8.9729964199999994 37.0859498000000016 -0.0899416700000000 Au
atom 11.8311945999999999 37.1834297099999986 -0.1374677600000000 Au
atom 14.4511655099999992 36.9608585699999992 -0.1078298500000000 Au
atom 17.2768667499999999 37.0119516500000003 0.1081680600000000 Au
atom 20.1755996800000013 37.0435991700000002 0.1946698700000000 Au
atom 22.8964067000000000 36.9028367200000034 0.1715232800000000 Au
atom 25.8154576899999988 37.0569542400000032 -0.1070577500000000 Au
atom 0.5306478500000000 37.1232720400000034 -0.3159502500000000 Au
atom 3.3642110700000001 37.1965029500000028 -0.2017645600000000 Au
atom 6.2734951900000002 36.9589734899999982 -0.1001903300000000 Au
atom 7.6409536400000002 0.1446752300000000 -0.0166353000000000 Au
atom 10.0954213399999997 0.0393474400000000 -0.1528823100000000 Au
atom 12.9036486099999994 0.0876301400000000 -0.1237404600000000 Au
atom 15.9743341200000000 0.0179815700000000 0.2298654000000000 Au
atom 18.8459299000000016 0.0098396800000000 0.0011528300000000 Au
atom 21.5010610100000008 0.0539414900000000 0.2340481500000000 Au
atom 24.5025164000000011 0.0731400800000000 -0.0179609400000000 Au
atom 27.1527964699999984 0.1158538000000000 0.0374466400000000 Au
atom 2.0194770499999999 0.1044473600000000 -0.3310613700000000 Au
atom 4.6042483399999998 0.1382458500000000 0.3107090800000000 Au
atom 8.9737657500000001 2.6056151700000001 -0.2337116300000000 Au
atom 11.7711248800000003 2.4887274200000000 0.0326036300000000 Au
atom 14.5432534100000002 2.4506191300000002 0.3297261300000000 Au
atom 17.2094482900000010 2.2680093399999999 -0.1275343100000000 Au
atom 20.3360939499999986 2.5732302200000001 -0.0214069200000000 Au
atom 23.0596446899999989 2.4176078599999999 0.2670281800000000 Au
atom 25.9437296400000008 2.6052883900000001 0.1416998000000000 Au
atom 0.5323562800000000 2.8659540799999998 -0.0492002600000000 Au
atom 3.2822593200000001 2.5263952800000000 0.4014795800000000 Au
atom 6.0659558300000000 2.3724124199999999 0.3691577200000000 Au
atom 7.7777753399999998 4.8696098000000001 0.3772451700000000 Au
atom 10.4354609499999995 4.9705045999999999 -0.0871456200000000 Au
atom 13.4029235399999997 5.0280671300000002 0.0922582600000000 Au
atom 16.0582509900000012 4.8464385900000000 0.2442950700000000 Au
atom 18.9910291999999998 5.1203918599999998 0.1982162900000000 Au
atom 21.7580866399999984 4.8563764999999997 0.1968139800000000 Au
atom 24.4990544800000016 5.1397630000000003 0.3801043400000000 Au
atom 27.3811971700000001 5.0920397599999996 0.0250090000000000 Au
atom 1.7863388899999999 5.1672084299999996 0.5100668300000000 Au
atom 4.6907084899999996 5.1459617199999999 0.4211725900000000 Au
atom 8.8597276199999992 7.5424128200000000 0.1627201600000000 Au
atom 11.8278262400000003 7.3190205300000004 0.0709877200000000 Au
atom 14.4979851199999992 7.6847317100000003 0.0495542300000000 Au
atom 17.2432220299999983 7.4859808000000001 0.2758929700000000 Au
atom 20.1801832300000008 7.5122494199999998 0.0558643600000000 Au
atom 23.0099556800000009 7.3807271300000004 -0.0321089400000000 Au
atom 25.9710271599999984 7.3703669400000003 0.4516075800000000 Au
atom 0.5822197600000000 7.5323552100000004 -0.1240748400000000 Au
atom 3.3802390099999999 7.4710242500000001 0.0720662900000000 Au
atom 6.1599428100000004 7.3806294699999997 0.2615725400000000 Au
atom 7.5936164100000001 9.8911773400000005 0.1595204200000000 Au
atom 10.3426592399999997 9.9834837299999997 0.1067748300000000 Au
atom 13.1775443299999999 9.9753947699999994 0.3611963400000000 Au
atom 15.7388982100000003 9.9496849100000002 0.0736893800000000 Au
atom 18.7596100700000008 9.9022400899999994 -0.0291937900000000 Au
atom 21.5704840799999999 9.8859506800000005 -0.2202701800000000 Au
atom 24.5080275100000016 9.7792264099999997 0.0049311000000000 Au
atom 27.3083695499999983 9.9078785000000007 0.0685174400000000 Au
atom 1.9662991700000001 9.7279192099999996 0.1544427200000000 Au
atom 4.8145987200000002 10.1223229600000000 -0.1310202600000000 Au
atom 9.0514244700000006 12.4469532500000000 0.1398088900000000 Au
atom 11.7014376500000008 12.3344233200000009 0.2563548000000000 Au
atom 14.4805273400000001 12.7644190500000008 0.1359924600000000 Au
atom 17.4284779599999986 12.3898235700000008 -0.0295243000000000 Au
atom 19.9834092100000014 12.4198180300000001 -0.2060233700000000 Au
atom 23.0706323900000001 12.3718417200000008 -0.1748792300000000 Au
atom 26.0259798199999999 12.4495066699999999 -0.3448957400000000 Au
atom 0.7293461300000000 12.3575095600000004 -0.1464127300000000 Au
atom 3.4789724899999999 12.4909828600000008 -0.2478764900000000 Au
atom 6.2341231400000003 12.3544202900000002 -0.1839081100000000 Au
atom 7.4503840700000001 13.2620193400000002 2.4738278399999998 Au
atom 10.3039836699999992 13.2309306000000007 2.8088603200000000 Au
atom 13.0663245700000008 13.2986465099999993 2.9012449800000000 Au
atom 16.0577083499999986 13.2512315500000000 2.6078466699999998 Au
atom 18.9042251999999991 13.0633628399999999 2.3891487300000001 Au
atom 21.4462096799999991 13.2794185799999997 2.1381374900000001 Au
atom 24.5266671500000015 13.1295961000000005 2.3322487000000001 Au
atom 27.3560494600000013 13.2807791999999996 1.9949446600000000 Au
atom 1.7356050199999999 13.3146983300000006 2.4059556000000000 Au
atom 4.8639329599999996 13.1744059100000008 2.3364223599999998 Au
atom 8.8554170100000000 15.6730234799999995 2.4141295299999999 Au
atom 11.7340692499999992 15.9091066399999992 2.8534066000000000 Au
atom 14.6923870099999991 15.6901756500000005 2.5615256099999999 Au
atom 17.6349160199999986 15.6311537699999992 2.6228247699999998 Au
atom 20.3359723000000017 15.5970247499999992 2.4218260599999999 Au
atom 23.1031963500000010 15.6075369599999991 2.4096623199999998 Au
atom 25.6762821899999985 15.5218061800000005 2.1340998700000000 Au
atom 0.5162262300000000 15.5662292999999998 2.4016587399999998 Au
atom 3.2954496899999999 15.6570014999999998 2.5686374100000000 Au
atom 6.2121694300000003 15.7573797700000000 2.3059507199999998 Au
atom 7.5926929899999998 18.0328324900000005 2.7348275000000002 Au
atom 10.4073593300000002 18.1593666599999999 2.4275937200000000 Au
atom 13.3288549100000004 18.3209373000000006 2.4755305299999999 Au
atom 16.0313593800000014 18.1021513899999995 2.5302996900000001 Au
atom 18.8940898900000001 18.0819371800000006 2.3204931800000002 Au
atom 21.6206322200000010 18.1333832000000008 2.5883450200000002 Au
atom 24.5723941400000001 18.2196764500000015 2.5353808799999999 Au
atom 27.4528279399999988 17.9329297899999993 2.8615479700000002 Au
atom 1.9035037500000000 18.2154796700000006 2.8020843100000001 Au
atom 4.9133942099999999 18.1103982300000013 2.4246329100000001 Au
atom 8.8569502399999998 20.5686506499999986 2.7629200900000002 Au
atom 11.6145545899999991 20.7245352400000016 2.7995811900000001 Au
atom 14.5823915199999998 20.6495366099999984 2.4860849300000001 Au
atom 17.5002166999999993 20.4707375300000010 2.6172344900000000 Au
atom 20.1702764399999985 20.8504941700000010 2.6018948800000001 Au
atom 23.1385146199999987 20.9065698299999987 2.9324999400000000 Au
atom 25.6653685399999993 20.8358562300000010 2.9364043000000000 Au
atom 0.3910668000000000 20.5578348999999996 2.9863652500000000 Au
atom 3.2405103799999999 20.7459464000000011 2.8145673400000000 Au
atom 6.1292656499999998 20.6383858300000007 2.6201937100000001 Au
atom 7.6836691400000001 23.2351672299999983 2.6030513499999999 Au
atom 10.3037806300000003 23.2890437400000003 2.4262784100000001 Au
atom 13.2336642700000002 23.0934276899999986 2.5149562799999998 Au
atom 16.1288218699999994 23.1617550299999984 2.8875970199999998 Au
atom 18.8617723800000014 23.1347495800000011 3.0899959799999999 Au
atom 21.8903622999999996 23.1756066400000016 2.8700459199999999 Au
atom 24.5084765199999985 23.0731458399999987 2.9825257100000000 Au
atom 27.2864673800000013 23.0351511500000008 2.9249271700000001 Au
atom 1.9123396100000001 22.9762389400000018 3.0134433600000001 Au
atom 4.7845537900000004 22.9905066399999995 2.8721915800000000 Au
atom 9.1906007200000008 25.5830682399999993 2.5259931700000000 Au
atom 11.8806429900000001 25.5668542999999993 2.6554326499999998 Au
atom 14.6014115100000001 25.5948924099999999 2.6996333799999999 Au
atom 17.3468703799999986 25.5201420799999994 2.8569700600000001 Au
atom 20.2837181800000010 25.5592714200000017 3.0862487500000002 Au
atom 23.0662495800000009 25.6591437000000013 3.1388854099999999 Au
atom 26.0256378700000006 25.6043729499999984 3.0808461899999999 Au
atom 0.6859523500000000 25.7015251000000013 3.0263417600000002 Au
atom 3.2242092300000000 25.6757784399999984 2.7387420400000000 Au
atom 6.2172514799999998 25.6140746899999989 2.5742923800000002 Au
atom 7.6943600999999999 28.1619353500000003 2.8014709700000000 Au
atom 10.2119041500000005 28.0679054999999984 2.3124955699999998 Au
atom 13.0889293200000001 28.0209780799999990 2.4203421700000001 Au
atom 15.9714533500000009 28.1496082799999989 2.7703604600000000 Au
atom 18.7450572800000010 28.0759137599999988 2.8635795000000002 Au
atom 21.6001411400000016 28.1571090200000000 2.8448678400000000 Au
atom 24.5956577100000011 28.2436060799999993 2.7817467900000001 Au
atom 27.4205375800000013 28.1350319700000000 2.6768807200000002 Au
atom 2.0061162100000001 28.2497189999999989 3.0177065000000001 Au
atom 4.8010054599999998 27.9910040500000008 2.6400079000000001 Au
atom 8.9337928899999994 30.5715830799999999 2.2487423500000001 Au
atom 11.9536356700000006 30.5767617600000001 2.3715115000000000 Au
atom 14.6694873700000006 30.5622254099999999 2.5685018700000000 Au
atom 17.4123032299999991 30.6609351399999994 2.5578661500000002 Au
atom 20.1013247399999990 30.4462639800000012 2.5971327099999999 Au
atom 22.9012018600000005 30.5751622699999999 3.0467758500000000 Au
atom 25.8413894699999993 30.6133913399999997 2.5616025499999999 Au
atom 0.5073854800000001 30.4286133200000002 2.5806720799999998 Au
atom 3.2883306000000001 30.5299693800000007 2.8311275400000002 Au
atom 6.1095468799999999 30.6002425799999997 2.7796042500000002 Au
atom 7.5459319100000002 32.9641574400000010 2.3363513600000001 Au
atom 10.3510022399999997 32.8746736700000000 2.4058267700000000 Au
atom 13.0249101100000004 32.8365642999999992 2.4848917300000002 Au
atom 15.8806758299999995 32.8437694300000018 2.1464094399999998 Au
atom 18.4795133500000013 33.1300068600000017 2.5504631400000002 Au
atom 21.4735570600000010 32.8515307199999995 2.8822320900000000 Au
atom 24.3492264700000014 32.9681684399999995 2.8018251300000001 Au
atom 27.1927079300000010 33.0906454400000030 2.5401945000000001 Au
atom 1.9987394599999999 32.9042891300000022 2.5557188300000000 Au
atom 4.9387929599999998 32.9000928600000009 2.8418580000000002 Au
atom 9.1428225699999999 35.3501755300000013 2.5545934099999998 Au
atom 11.7798328600000008 35.3560278599999975 2.4946865200000001 Au
atom 14.4973857600000002 35.3094628799999981 2.3817036599999999 Au
atom 17.4184909800000014 35.4787957699999978 2.5466985800000002 Au
atom 20.2027917799999983 35.3594089199999999 2.8870870900000001 Au
atom 22.7293656000000013 35.3224471500000021 2.6246096300000001 Au
atom 25.6901117300000017 35.5342387000000031 2.6759744099999998 Au
atom 0.3116616100000000 35.4729860699999975 2.5508795300000000 Au
atom 3.2410039199999998 35.6730377000000018 2.1402798500000002 Au
atom 6.0858241199999998 35.5637202799999983 2.5155457000000001 Au
atom 7.6074270000000004 38.0300668200000018 2.4822878899999998 Au
atom 10.4065459899999997 37.6655326699999975 2.5616471399999998 Au
atom 13.1296504899999995 37.9266197600000012 2.4493384100000002 Au
atom 15.8954877900000007 37.7632130499999974 2.6881895099999999 Au
atom 18.7706666200000001 37.9479526399999969 2.5335551999999999 Au
atom 21.5814267099999988 37.7393173800000028 2.9124365299999999 Au
atom 24.3054466600000012 37.9424129000000008 2.6233163799999999 Au
atom 26.9147752900000015 37.9628824400000013 2.4975450000000001 Au
atom 1.4561140400000001 37.7651792099999994 2.4146994099999999 Au
atom 4.7783551299999996 37.9195735600000035 2.7511988199999999 Au
atom 8.9990856800000003 0.8111877100000000 2.6669758600000000 Au
atom 11.5686896000000008 0.8310419200000000 2.4375500500000000 Au
atom 14.7774538000000000 0.9754180200000000 2.8200259800000000 Au
atom 17.1984308299999995 1.1348254700000000 2.7661533600000001 Au
atom 20.1518803800000015 0.8430242900000000 2.6658228300000002 Au
atom 22.8254701699999991 0.9212129000000000 2.6748199700000002 Au
atom 25.5421430799999989 0.8581181000000000 2.4517656500000000 Au
atom 0.5214640699999999 0.8649060800000000 2.5215786400000000 Au
atom 3.2578995100000001 0.9193666400000000 2.9350314700000002 Au
atom 6.3184646899999999 0.9590209400000000 2.9709469400000001 Au
atom 7.4503462599999999 3.3838779500000000 2.7264755799999998 Au
atom 10.4515501400000002 3.4513733499999999 2.4307096600000002 Au
atom 13.0928690499999991 3.3581062400000001 2.7367801699999998 Au
atom 15.9548352999999992 3.1945939100000000 2.6998980399999999 Au
atom 18.9423282499999992 3.3733047900000002 2.6283864200000000 Au
atom 21.5036128300000016 3.2665451800000000 2.5418800799999999 Au
atom 24.3646735399999983 3.4673262500000002 2.8266596700000002 Au
atom 27.5030561700000007 3.3645162300000000 2.5524622600000000 Au
atom 1.7182649600000000 3.1680150100000000 2.8506044099999999 Au
atom 4.7471372599999997 3.3700244700000002 3.0482642100000001 Au
atom 8.8125553700000001 5.7565798600000004 2.7328271300000000 Au
atom 11.6760601699999995 5.6198305900000003 2.6788199700000002 Au
atom 14.4105086799999995 5.8310811100000004 2.7688900200000002 Au
atom 17.3437531400000005 5.7912651100000003 2.7580703799999999 Au
atom 20.0324847000000013 5.8263485700000004 2.7720623500000001 Au
atom 22.9043262399999996 5.8618680300000001 2.6979465199999999 Au
atom 26.0247512400000005 5.9264176099999997 3.0494364900000002 Au
atom 0.6542742200000000 5.6831315000000000 2.7926872700000001 Au
atom 3.3330256700000001 5.8433791599999996 3.0068731600000000 Au
atom 6.2651256200000001 5.8098278600000004 2.7808598299999998 Au
atom 7.5758170500000004 8.2475780400000005 2.7957519899999999 Au
atom 10.4575043900000004 8.1155164299999996 2.8874808500000002 Au
atom 13.0198074899999998 8.3827192499999992 2.7856246400000000 Au
atom 16.0272644600000014 8.3844022900000006 2.8109122000000002 Au
atom 18.9097210400000009 8.3763625699999995 2.7311933200000000 Au
atom 21.5399371200000012 8.4792902899999998 2.3662038700000001 Au
atom 24.6809885499999986 8.4266134400000006 2.6270830599999999 Au
atom 27.3746553000000006 8.2666502099999999 2.6943339499999999 Au
atom 1.8239051200000000 8.3251369600000000 2.7324411700000000 Au
atom 4.7172168000000001 8.1215008700000002 2.5831597500000001 Au
atom 9.0321820699999993 10.7536171800000009 2.6919065700000000 Au
atom 11.7920922600000004 10.6642469700000007 2.7592887199999998 Au
atom 14.5192474699999998 10.6988538000000002 2.5952527000000001 Au
atom 17.4950391399999994 10.7833266400000003 2.6009830599999999 Au
atom 20.0700223899999983 10.5372514499999994 2.4864765000000002 Au
atom 22.9679673099999988 10.8166869800000001 2.2962251899999999 Au
atom 25.8337428100000004 10.8013099300000004 2.6726040300000000 Au
atom 0.4295333700000000 10.8569319400000008 2.5962417599999998 Au
atom 3.3467773900000002 10.6630264799999992 2.6053569799999998 Au
atom 6.2367612000000001 10.6963611099999998 2.4651166099999999 Au
atom 7.4359656699999999 12.9861047999999997 5.6567768500000000 Cl
atom 7.3665712200000000 15.8953553299999992 8.3569097499999998 Cl
atom 7.3488824099999999 12.8378583600000002 8.2986499200000008 Na
atom 7.3570206599999999 15.7797903700000006 5.4588929700000000 Na
atom 7.3362100999999997 18.5181586299999985 5.5143130600000001 Cl
atom 7.5672802299999997 21.3751257800000012 8.2787447000000007 Cl
atom 7.2770002099999997 18.5486388700000013 8.1942402899999998 Na
atom 7.3794729800000001 21.5655487800000003 5.8036966000000003 Na
atom 7.1391728299999997 24.1198715600000000 5.3866552900000002 Cl
atom 7.2866080999999996 27.0065918799999984 8.5127169499999997 Cl
atom 7.3337834500000003 23.9534292399999984 8.5660320500000005 Na
atom 7.3287018200000000 26.9282911100000000 5.7123410100000003 Na
atom 7.1457680899999998 29.6340417500000015 5.5605546199999996 Cl
atom 7.2825784699999998 32.6694578999999976 8.3302797599999998 Cl
atom 7.4035134999999999 29.7619631799999986 8.3661782599999999 Na
atom 7.3177604699999996 32.5348817599999975 5.6976840700000002 Na
atom 7.4388695699999996 35.5506208600000022 5.3912380000000004 Cl
atom 7.4470663500000001 38.4883490699999982 8.5365307999999995 Cl
atom 7.3247641999999997 35.6005034800000004 8.3011184500000006 Na
atom 7.5598514000000003 38.1375699800000021 5.9409224600000003 Na
atom 7.4126237899999996 1.5489171399999999 5.8129274999999998 Cl
atom 7.3409321099999998 4.3263879300000001 8.7492740500000004 Cl
atom 7.4846741600000000 1.5501566700000000 8.3616642999999993 Na
atom 7.1798750900000003 4.5193498400000003 6.0575181499999999 Na
atom 7.3898873299999996 7.2531112200000001 5.9042714299999997 Cl
atom 7.3619955600000004 10.1851999600000003 8.4084965100000009 Cl
atom 7.5447753400000002 7.3720241099999999 8.3478868399999993 Na
atom 7.5799393100000003 10.1825236199999996 5.8253160499999996 Na
atom 10.0944283699999993 12.8795222400000000 5.7219585600000000 Na
atom 12.9728916499999993 12.8422935700000007 5.9382719599999998 Cl
atom 10.1470542399999992 15.7890901499999998 8.2257227400000001 Na
atom 13.0403928400000009 15.6947423199999996 8.5148775600000004 Cl
atom 12.8037818500000000 12.7539896400000003 8.4617119200000008 Na
atom 10.2321002100000005 13.1193703100000008 8.6771639100000009 Cl
atom 12.8997566900000002 15.6892145200000002 5.6844256800000004 Na
atom 10.2837020300000006 15.7092197500000008 5.6731144200000001 Cl
atom 10.3976649600000002 18.4110026200000014 5.6701699400000001 Na
atom 13.0500342899999993 18.4889013599999998 5.8435073700000002 Cl
atom 10.0834729500000009 21.1993295000000010 8.2792482100000004 Na
atom 12.7672396100000007 21.3872925599999988 8.6650053800000002 Cl
atom 13.2470822600000009 18.3287799599999985 8.4587552299999995 Na
atom 10.2010016100000005 18.3747789399999988 8.6374196100000002 Cl
atom 12.8271234599999993 21.1798986499999984 5.8931238300000004 Na
atom 10.1564866800000004 21.4664780700000009 5.5233530799999997 Cl
atom 10.3200726500000002 24.2893844899999998 5.9992822200000004 Na
atom 13.0274720700000000 24.2419441099999986 5.9252307200000001 Cl
atom 9.7813478400000005 27.0566277900000003 8.2448533699999995 Na
atom 12.7301557100000000 26.9534368399999984 8.6743829800000007 Cl
atom 13.0613098300000008 24.1039707199999995 8.4014546200000009 Na
atom 10.1932361999999994 24.1984814300000011 8.4287772699999994 Cl
atom 12.8838556900000007 26.8494919900000006 5.7958479499999997 Na
atom 10.0197414699999996 26.8812934199999987 5.7942652700000004 Cl
atom 10.2803941299999995 29.5415428700000007 5.5845815500000002 Na
atom 13.0251967499999992 30.0648773799999987 5.6183803799999996 Cl
atom 10.2446603899999999 32.4957456599999972 8.2032947400000005 Na
atom 12.8914131600000008 32.5860160399999970 8.4691478799999995 Cl
atom 12.8223317300000001 30.0363050499999993 8.1023194099999998 Na
atom 10.0344146399999996 29.6505158100000017 8.4680382900000009 Cl
atom 12.9772628599999997 32.5208234899999979 5.6492720099999998 Na
atom 10.0085699899999998 32.3247218400000023 5.5513831099999997 Cl
atom 10.6706171300000001 35.3272616200000016 5.9189585100000004 Na
atom 13.0816736099999993 35.5582334599999967 5.5366966700000004 Cl
atom 10.2892355700000007 38.5111506499999976 8.3785093100000001 Na
atom 12.9599398099999998 38.3334294100000008 8.4386576000000009 Cl
atom 12.8530668400000003 35.2376499599999988 8.6091732899999993 Na
atom 10.2268480299999993 35.3416659299999978 8.5690175800000006 Cl
atom 13.3579335799999992 38.3634314999999972 5.7087638500000004 Na
atom 10.1286350800000005 38.4608919799999995 5.5652019700000004 Cl
atom 10.2558758900000004 1.6763547299999999 5.7320531099999998 Na
atom 13.0730394099999998 1.7340452300000000 5.9738882699999998 Cl
atom 10.4567714600000006 4.2689772799999997 8.4157200299999992 Na
atom 12.9576176699999994 4.2514151000000000 8.8176006499999993 Cl
atom 13.1561745999999999 1.4109842399999999 8.4553673899999993 Na
atom 10.3528698000000006 1.6413321999999999 8.6396578200000000 Cl
atom 13.0188358500000003 4.4877712100000000 6.2157585299999996 Na
atom 10.2805936399999993 4.4882528199999996 5.6958439399999996 Cl
atom 10.1887540899999998 7.4267961900000001 5.8705549399999999 Na
atom 12.9895107700000008 7.1741353500000002 5.8824154200000001 Cl
atom 10.1155960999999994 10.1742950400000005 8.3413560499999999 Na
atom 13.1248357599999999 10.0186246400000005 8.6912936399999996 Cl
atom 13.0463768299999998 7.1599195900000003 8.5437997299999999 Na
atom 10.3260090200000008 7.4003350599999997 8.7328632899999992 Cl
atom 13.0433038600000000 9.9187117600000008 5.7317808699999997 Na
atom 10.1864827899999995 9.9604560000000006 5.9920455400000003 Cl
atom 15.5652151199999995 12.6515888200000006 5.9783127399999998 Na
atom 18.6078492500000010 12.9039247800000005 5.4456573700000002 Cl
atom 15.9319680199999993 15.6621442000000002 8.4993142699999993 Na
atom 18.6347362399999987 15.4786960600000008 8.4385187599999991 Cl
atom 18.5977611399999994 12.7667324400000002 8.4244961299999996 Na
atom 15.8940790199999995 12.6260722899999998 8.3417065600000004 Cl
atom 18.5094060899999988 15.6134145899999996 5.6648944200000004 Na
atom 15.4966007300000008 15.5725623700000000 5.4627255200000002 Cl
atom 15.5373069600000004 18.2597643199999986 5.9135059999999999 Na
atom 18.7240776000000011 18.3362700899999993 5.6081129599999997 Cl
atom 15.6144438700000006 21.2909288100000005 8.2776033899999995 Na
atom 18.8551810499999988 20.9173773999999995 8.6517456799999994 Cl
atom 18.4420176900000001 18.5165705699999990 8.2805018799999992 Na
atom 15.6627384599999999 18.3538729399999987 8.4835195599999995 Cl
atom 18.6713394100000016 21.1121315400000000 5.9953102600000001 Na
atom 16.0741217700000014 21.2492534500000012 5.6495497300000004 Cl
atom 15.8886755599999994 24.0428839500000002 6.0590672699999999 Na
atom 18.5601510300000001 23.9634964900000007 6.0787077700000003 Cl
atom 15.5211132799999998 27.2041602500000010 8.7782481499999996 Na
atom 18.6324807700000008 27.0612130499999992 8.7680786400000006 Cl
atom 18.2877878900000006 24.1676767999999988 9.0630119300000000 Na
atom 15.7625860400000004 24.3198125999999988 8.7382491299999998 Cl
atom 18.7226638799999989 26.9756358399999989 6.2771167800000001 Na
atom 15.8545576799999992 27.0776964199999988 5.7896774799999999 Cl
atom 15.7181214899999997 29.8394509399999990 5.8891128699999999 Na
atom 18.7729620699999984 29.8002904700000002 5.8479190799999996 Cl
atom 15.6488236100000009 32.4571513100000004 8.5699698699999995 Na
atom 18.6301847100000018 32.8769025699999986 8.5982664500000006 Cl
atom 18.4987272300000001 29.8426545400000016 8.3750464699999991 Na
atom 15.5677776699999999 30.0342445699999985 8.5078977499999997 Cl
atom 18.8388795800000004 32.7454983100000021 5.7032506500000002 Na
atom 15.9778842700000006 32.6005786599999965 5.5820582600000002 Cl
atom 15.9674139999999998 35.4544289299999988 6.0300662300000001 Na
atom 18.7968519200000017 35.5089153300000007 5.6631827000000001 Cl
atom 16.0013101599999992 38.2511031100000025 8.2866696500000003 Na
atom 18.7641286500000000 38.1275651300000007 8.5765922299999993 Cl
atom 18.6545252700000006 35.4452124900000030 8.2842058999999999 Na
atom 15.6041799599999997 35.5885136699999975 8.7286439599999994 Cl
atom 18.5607731099999995 38.2392910599999993 5.8178188000000004 Na