#===============================================================================
# Created using the Atomic Simulation Environment (ASE)

# Tue Dec 23 21:42:32 2025

#=======================================================
lattice_vector 28.1999999999999993 0.0000000000000000 0.0000000000000000 
lattice_vector 0.0000000000000000 39.4799999999999969 0.0000000000000000 
lattice_vector 0.0000000000000000 0.0000000000000000 62.3296083400000001 
atom 7.5097112399999997 14.8177457100000005 -0.1937910900000000 Au
atom 10.2450417799999993 14.8062478800000008 -0.2529259400000000 Au
atom 13.1516255199999996 14.8401061100000007 -0.3201949100000000 Au
atom 16.0379110500000017 14.8474692699999995 -0.0967776800000000 Au
atom 18.8603069599999991 14.7331323300000001 -0.1388924800000000 Au
atom 21.6471316700000003 14.7941469699999999 -0.1047914200000000 Au
atom 24.4733129200000015 14.7642926200000009 -0.0996838600000000 Au
atom 27.3438996600000017 14.8044300500000006 -0.0128005700000000 Au
atom 1.8950472000000000 14.7788172600000003 0.0857557000000000 Au
atom 4.7157341900000000 14.7637425600000007 0.0735398000000000 Au
atom 8.9391571699999997 17.2848703599999993 0.0503909500000000 Au
atom 11.7879602299999995 17.3858575799999997 -0.1815116500000000 Au
atom 14.5546409499999996 17.3163795799999995 -0.1576344700000000 Au
atom 17.3835182699999997 17.3385694599999987 -0.1655243400000000 Au
atom 20.1314929999999990 17.2185597199999982 -0.0686918000000000 Au
atom 23.0335911300000014 17.2732872999999998 0.1213441600000000 Au
atom 25.8490986499999984 17.2034423099999998 0.0119636400000000 Au
atom 0.5351188300000000 17.2012121200000010 0.0108923600000000 Au
atom 3.3334222699999998 17.2638916599999988 0.0271994700000000 Au
atom 6.1705417300000001 17.2955514800000003 0.1066569400000000 Au
atom 7.5448226800000002 19.7142322999999990 0.1922975300000000 Au
atom 10.3433974299999996 19.8512011400000006 0.0709315200000000 Au
atom 13.1364234300000007 19.8629250000000006 -0.0318120400000000 Au
atom 15.8967879300000003 19.7481743499999993 -0.3153567100000000 Au
atom 18.7464677299999991 19.7900558099999984 -0.1250170500000000 Au
atom 21.5386611600000002 19.7824087300000002 0.0480567700000000 Au
atom 24.3203246899999996 19.7822188600000004 0.3431579400000000 Au
atom 27.1655485799999994 19.6714715600000005 0.1712037200000000 Au
atom 1.8092736899999999 19.6676539800000008 0.1148656900000000 Au
atom 4.6855607099999999 19.6709781200000009 -0.0170297700000000 Au
atom 8.9067302999999995 22.1833410800000017 0.0638168000000000 Au
atom 11.6874658799999995 22.2955797000000011 0.0549293600000000 Au
atom 14.5213405400000006 22.2799258400000006 -0.0730791500000000 Au
atom 17.2931288700000003 22.2220971399999989 0.0513952200000000 Au
atom 20.1096010700000001 22.2765592300000002 0.0510222400000000 Au
atom 22.9771999600000001 22.2391250300000003 0.1427199900000000 Au
atom 25.8305047999999999 22.2107707999999988 0.1666558600000000 Au
atom 0.4604143200000000 22.1500241600000010 0.0378574400000000 Au
atom 3.2511906900000000 22.1131433500000014 -0.0201442600000000 Au
atom 6.1285852399999996 22.1787245700000000 -0.0552192000000000 Au
atom 7.4677165099999998 24.7097781800000007 -0.0338167300000000 Au
atom 10.2947374400000005 24.7208249100000010 -0.0062542000000000 Au
atom 13.1540758100000001 24.7143459599999993 -0.0782656900000000 Au
atom 15.9283365499999991 24.6913365599999999 -0.0462599600000000 Au
atom 18.7789461200000005 24.6418920700000008 0.3075424300000000 Au
atom 21.6084207100000008 24.7765340999999992 0.1049529700000000 Au
atom 24.4453011999999994 24.7025103500000007 0.2095601400000000 Au
atom 27.2746946399999999 24.6661645599999986 0.2281116300000000 Au
atom 1.8558246700000001 24.6252660100000007 -0.0564291500000000 Au
atom 4.6756832599999996 24.6541443700000009 -0.1314775000000000 Au
atom 8.9065394199999997 27.1086174500000006 -0.1250896900000000 Au
atom 11.7358785799999996 27.1606345299999994 0.0509973800000000 Au
atom 14.5544306799999994 27.1579526099999988 -0.0407134200000000 Au
atom 17.3813198699999987 27.0476303800000011 0.2970614100000000 Au
atom 20.2267809199999995 27.1693690600000011 0.1318977900000000 Au
atom 23.0154018499999999 27.1593255599999992 0.1708421100000000 Au
atom 25.8171806000000004 27.1618117300000002 0.1019157800000000 Au
atom 0.4356288600000000 27.0868323999999987 0.0785517200000000 Au
atom 3.2320819099999998 27.1115860799999986 -0.1024281900000000 Au
atom 6.0426959099999999 27.1777329700000010 -0.1492355300000000 Au
atom 7.5120666500000004 29.5886287000000010 -0.1697561600000000 Au
atom 10.2980707999999996 29.5821637200000005 -0.1628006500000000 Au
atom 13.2219114300000005 29.6006425600000007 -0.0005048900000000 Au
atom 15.9930004399999994 29.5961908700000009 0.1362820900000000 Au
atom 18.8128854200000006 29.5812215300000005 0.0064837600000000 Au
atom 21.6676208999999993 29.5579893200000008 0.0077039600000000 Au
atom 24.4866820700000005 29.6223828500000010 -0.0214522100000000 Au
atom 27.2575674600000006 29.6247002399999992 0.1669198900000000 Au
atom 1.8428082699999999 29.5111361400000014 -0.0155272200000000 Au
atom 4.6484289600000004 29.5166699799999996 -0.0506008500000000 Au
atom 8.8996094899999996 32.0586517699999973 -0.2208731500000000 Au
atom 11.7230378300000009 32.1142435399999968 -0.2009014000000000 Au
atom 14.5517765600000004 32.0203667800000034 0.1497180500000000 Au
atom 17.3904575600000015 32.0543081100000009 0.0502776700000000 Au
atom 20.2540141399999989 32.0201724599999977 0.1054968800000000 Au
atom 23.0270594099999997 32.0698527899999988 -0.0856923600000000 Au
atom 25.7892142299999989 32.1025161399999988 0.1332432100000000 Au
atom 0.4454045900000000 32.0728348399999987 0.2119111500000000 Au
atom 3.2100190600000000 32.0299353099999990 0.0136404900000000 Au
atom 6.0493091600000000 32.0388539300000019 -0.1069608300000000 Au
atom 7.4573626800000001 34.5347935799999988 -0.1192001000000000 Au
atom 10.2936411799999998 34.5405467400000035 -0.0899748900000000 Au
atom 13.1424041200000001 34.4919039400000003 -0.0425760800000000 Au
atom 15.9933010600000003 34.4924551599999987 0.1359240900000000 Au
atom 18.7814237400000010 34.5140795800000006 0.0654824900000000 Au
atom 21.5810856099999988 34.5153579199999996 0.0693643400000000 Au
atom 24.3941232499999998 34.6100188300000013 -0.0883701200000000 Au
atom 27.2147340000000000 34.5557075899999973 0.0429842000000000 Au
atom 1.8824024900000000 34.5283857000000012 -0.1239378100000000 Au
atom 4.6644684900000000 34.4565499799999984 0.1573694000000000 Au
atom 8.8935798199999994 37.0338697400000001 -0.0269086500000000 Au
atom 11.7234494199999997 36.9074931800000030 -0.0202446300000000 Au
atom 14.5781103200000004 36.9382065900000001 -0.0612245200000000 Au
atom 17.3225223899999996 37.0449373800000004 0.0292283100000000 Au
atom 20.2086698300000016 36.9588441499999973 0.1982739800000000 Au
atom 22.9815817399999993 37.0323502500000004 0.0406871700000000 Au
atom 25.8394496800000013 37.0631979999999999 0.0076940200000000 Au
atom 0.4744020900000000 36.9694958099999980 0.0164143800000000 Au
atom 3.3174840200000002 37.0169196100000022 -0.0660354500000000 Au
atom 6.1334891699999998 36.9698240399999989 0.1426708700000000 Au
atom 7.4621948199999997 0.0007172500000000 0.1211362100000000 Au
atom 10.3591561199999997 -0.0777727400000000 -0.1142759300000000 Au
atom 13.1416237500000008 -0.0520950100000000 -0.0216971900000000 Au
atom 15.9527198299999995 -0.0126147000000000 0.1337658700000000 Au
atom 18.7920922099999999 0.0322619600000000 0.0446698600000000 Au
atom 21.5651387200000002 -0.0326280500000000 0.0977140900000000 Au
atom 24.4240074699999994 0.0535433000000000 0.0924095300000000 Au
atom 27.2814046999999995 0.0125189600000000 -0.0256568800000000 Au
atom 1.8697196500000000 0.0304982500000000 0.0440470800000000 Au
atom 4.6908368300000003 0.0103491400000000 0.1437948100000000 Au
atom 8.9678217100000008 2.4451324500000000 0.2029395100000000 Au
atom 11.7474152600000004 2.5093519500000001 -0.0342888000000000 Au
atom 14.5596921500000001 2.4503903199999999 -0.0639384400000000 Au
atom 17.3776114700000015 2.4893963499999998 -0.0746952600000000 Au
atom 20.2248990199999987 2.4883609500000001 0.0685626500000000 Au
atom 23.0785467400000002 2.4350428200000001 -0.0811792400000000 Au
atom 25.9094904799999988 2.4581958600000000 0.1811969800000000 Au
atom 0.5145582500000000 2.5169312000000001 0.1922192000000000 Au
atom 3.2554199399999999 2.4457984700000002 0.1667622300000000 Au
atom 6.1020955700000004 2.4421232399999999 0.2136263100000000 Au
atom 7.4910568700000004 4.9350287799999997 0.2182581400000000 Au
atom 10.2953141099999996 4.9643562200000000 0.1623733400000000 Au
atom 13.1293602000000007 4.9746371199999997 -0.0289706600000000 Au
atom 15.9642153100000002 4.9271227299999998 0.0924860200000000 Au
atom 18.8190585500000012 4.9351992300000003 -0.0387581700000000 Au
atom 21.7036319199999994 4.9263938300000003 0.0905032600000000 Au
atom 24.4738611599999984 4.9143161600000003 0.1526599800000000 Au
atom 27.2854926400000011 4.8858045399999996 0.1894184900000000 Au
atom 1.9012642700000000 5.0029798400000001 0.0776116400000000 Au
atom 4.6507943699999998 4.8898300399999997 0.3029285600000000 Au
atom 8.9081203500000008 7.4018673599999998 0.0966920100000000 Au
atom 11.7320976399999992 7.4090125300000000 0.1601231700000000 Au
atom 14.5217364599999996 7.3431888100000000 0.0268586600000000 Au
atom 17.4081414099999989 7.3623355200000002 -0.1309147500000000 Au
atom 20.2467139299999985 7.3297659399999997 -0.0209851800000000 Au
atom 23.1323653000000000 7.3820451299999998 0.0048375800000000 Au
atom 25.9235941799999985 7.3015497700000003 0.0603065800000000 Au
atom 0.4523275100000000 7.3999764499999996 -0.0119257800000000 Au
atom 3.2767952400000002 7.3945960900000003 0.3358507500000000 Au
atom 6.1452129400000004 7.3374756600000000 0.2486211600000000 Au
atom 7.4753602099999998 9.8188248700000003 0.0697030900000000 Au
atom 10.3160670000000003 9.8453563400000004 -0.0097460800000000 Au
atom 13.1788800399999992 9.8146275400000000 -0.2060704700000000 Au
atom 16.0259016099999982 9.8132735499999999 -0.2380981200000000 Au
atom 18.8642881100000004 9.7635984300000001 -0.2438238400000000 Au
atom 21.6835965600000016 9.8239482999999996 -0.0599440900000000 Au
atom 24.5915106100000003 9.8070564999999998 0.0206098900000000 Au
atom 27.3531522699999989 9.9012814099999993 0.1057728800000000 Au
atom 1.9168561000000000 9.9081752200000004 0.3097070000000000 Au
atom 4.7034190300000001 9.8219334699999994 0.1685800300000000 Au
atom 8.8883649200000008 12.2951887499999994 -0.2630152300000000 Au
atom 11.7664094099999996 12.3572321699999996 -0.0851426300000000 Au
atom 14.5927944299999997 12.2934114700000006 -0.1110853100000000 Au
atom 17.3481023699999994 12.2382985499999997 -0.2060570100000000 Au
atom 20.1504021800000004 12.2955929699999995 -0.1521663900000000 Au
atom 23.0633093199999983 12.3016452699999999 -0.0261264400000000 Au
atom 25.8944865399999991 12.3020920700000005 0.0946496500000000 Au
atom 0.4947285200000000 12.4066719899999995 0.0351180800000000 Au
atom 3.3390473699999998 12.2966297600000001 0.1150918900000000 Au
atom 6.1509864299999997 12.2572614699999995 -0.0905857700000000 Au
atom 7.5484835900000000 13.1746095899999993 2.5048904900000002 Au
atom 10.3656608699999992 13.1635860900000008 2.4360070199999999 Au
atom 13.2581331900000006 13.2366860000000006 2.4284179099999998 Au
atom 16.0438000699999996 13.2043633899999993 2.4669310699999998 Au
atom 18.7981449100000013 13.2529998800000008 2.4604176899999999 Au
atom 21.5577226999999993 13.2117772299999992 2.5374730500000000 Au
atom 24.3996601899999987 13.1815607600000000 2.7028056399999998 Au
atom 27.2840723199999999 13.2471880300000002 2.4872439399999999 Au
atom 1.9436956100000000 13.1468252799999998 2.6807647999999999 Au
atom 4.7184677400000004 13.1534700200000003 2.6143773600000002 Au
atom 8.9293032900000000 15.5948542200000002 2.4795273099999999 Au
atom 11.7632250700000007 15.5827076299999998 2.2898849100000001 Au
atom 14.6052488599999997 15.6954258099999997 2.3250131700000001 Au
atom 17.4566129500000002 15.7100772400000004 2.5198498499999999 Au
atom 20.2311893699999992 15.7095671899999996 2.6121675600000001 Au
atom 23.0263987400000012 15.6356730800000001 2.4918794900000001 Au
atom 25.9011535200000012 15.6116548999999996 2.6596848899999999 Au
atom 0.5926594200000000 15.6333913800000008 2.6939810199999998 Au
atom 3.4321248099999999 15.6598500200000004 2.6742569100000000 Au
atom 6.1228355399999996 15.6302860599999995 2.6265117299999998 Au
atom 7.5149707399999999 18.0553436800000000 2.8765792399999999 Au
atom 10.3464058800000007 18.0724288100000017 2.6539300099999998 Au
atom 13.1108425499999992 18.0465116600000002 2.4467373100000001 Au
atom 15.9921877400000003 18.0987157699999983 2.3634133199999998 Au
atom 18.7835577499999999 18.1524536900000015 2.5786768000000002 Au
atom 21.5968819200000013 18.1521561399999989 2.6976425900000001 Au
atom 24.4748652299999989 18.0738772300000008 2.7406936100000001 Au
atom 27.2927728999999992 18.1780285200000016 2.6217767500000000 Au
atom 1.9193429300000000 18.0424557400000012 2.7471904500000002 Au
atom 4.6892866700000004 18.1669974900000000 2.5394287599999998 Au
atom 8.8657048799999991 20.5562296599999996 2.7543687900000000 Au
atom 11.7045460200000004 20.5209914100000006 2.7395370400000001 Au
atom 14.5436281899999997 20.5520962900000015 2.4361798100000001 Au
atom 17.3889396599999984 20.6041734199999986 2.4730378700000002 Au
atom 20.1592837200000012 20.6070540599999994 2.6615931300000000 Au
atom 22.9683213600000009 20.6260571400000003 2.8409871099999999 Au
atom 25.7295103999999988 20.5952344799999985 2.9096369100000001 Au
atom 0.4886113700000000 20.6141671200000012 2.8024278200000001 Au
atom 3.2417023600000001 20.5634446699999991 2.5672868900000001 Au
atom 6.0372094199999999 20.5972015900000009 2.6186873899999998 Au
atom 7.5241186000000004 23.0717406199999999 2.6515457400000000 Au
atom 10.3502267600000000 23.0237242299999991 2.6755521600000001 Au
atom 13.1861117500000002 23.0363247199999996 2.6060846799999999 Au
atom 15.9420922800000007 23.0855093499999988 2.5422235899999999 Au
atom 18.7677028099999994 23.0249111199999987 2.8626756100000001 Au
atom 21.6009417200000016 23.1289742999999994 2.6145934500000001 Au
atom 24.3316657899999989 23.0647597200000014 2.7158535300000000 Au
atom 27.2022714800000003 23.1184410500000013 2.7194046599999999 Au
atom 1.8933362000000000 23.0811388800000010 2.5683399100000002 Au
atom 4.7447240800000001 23.0630622400000007 2.4441195300000000 Au
atom 8.9332790899999992 25.5257731700000008 2.6532301800000000 Au
atom 11.7425833799999992 25.5270002500000004 2.6633719100000000 Au
atom 14.5325194599999996 25.6032246999999984 2.6069924100000001 Au
atom 17.2940078499999998 25.5844968900000005 2.9005941399999999 Au
atom 20.1555395200000014 25.5608832200000009 2.8362442099999998 Au
atom 22.9847175200000002 25.5653296599999997 2.7773728800000002 Au
atom 25.7743714200000014 25.5099492000000012 2.8430004499999999 Au
atom 0.4904764100000000 25.6150807699999987 2.8330813400000001 Au
atom 3.3499172800000001 25.6228038900000001 2.4855275899999998 Au
atom 6.1398704100000003 25.5490877699999999 2.5566705199999999 Au
atom 7.4895203099999996 28.0504317800000003 2.4768538100000002 Au
atom 10.3052390599999999 27.9922058999999983 2.6125630100000001 Au
atom 13.0723271600000004 28.0382339700000003 2.6899749000000002 Au
atom 15.8606146999999993 28.0392381999999998 2.7387854200000001 Au
atom 18.7010291399999993 28.0819189099999988 2.6964750199999998 Au
atom 21.5671641500000000 28.0134351399999986 2.7374748400000000 Au
atom 24.4480616700000013 27.9697990800000014 2.7201161900000002 Au
atom 27.2616981000000003 27.9387216800000004 2.7199114899999999 Au
atom 1.8583896600000001 27.9720093600000013 2.5424207000000001 Au
atom 4.6950540500000004 28.0463073200000004 2.6288980400000002 Au
atom 8.9038864800000006 30.4866573800000005 2.3884234000000002 Au
atom 11.6689327299999999 30.4652471600000005 2.4078776799999999 Au
atom 14.4870401199999996 30.4626110300000015 2.8088661699999999 Au
atom 17.2968107499999988 30.5324766300000014 2.6572851300000000 Au
atom 20.1757738499999988 30.4323346800000003 2.6606718900000002 Au
atom 22.9463277699999999 30.4178171299999995 2.6267255000000000 Au
atom 25.7853174400000000 30.4637618799999998 2.6231886499999999 Au
atom 0.4806924600000000 30.4101943299999995 2.6784235000000001 Au
atom 3.3000803699999999 30.4930701000000006 2.6450221400000000 Au
atom 6.0720489300000002 30.4984027600000012 2.4048200000000000 Au
atom 7.4754365800000002 32.9309941799999990 2.4200977199999998 Au
atom 10.2704541999999996 32.9508929300000020 2.4524261500000000 Au
atom 13.1106895100000003 32.8423439299999984 2.6207338299999998 Au
atom 15.9345506700000001 32.9496948000000032 2.6589068100000000 Au
atom 18.6930553800000006 32.9479005500000000 2.6098960000000000 Au
atom 21.5962999800000013 32.8551188200000013 2.7318551900000001 Au
atom 24.4365655100000012 32.8785583599999995 2.5460776900000002 Au
atom 27.2621710200000003 32.8435445799999997 2.7773198600000000 Au
atom 1.8466163900000001 32.9196981600000029 2.5924621399999999 Au
atom 4.6916842900000004 32.9044309900000016 2.6177341400000000 Au
atom 8.8351736800000005 35.3598456499999969 2.5796095600000002 Au
atom 11.6701574200000007 35.3518967799999970 2.6537576100000000 Au
atom 14.4429074600000007 35.3663106099999993 2.6096871500000001 Au
atom 17.2987128599999984 35.4881181299999966 2.6369122300000001 Au
atom 20.0807392100000008 35.4028309600000028 2.6908367700000002 Au
atom 22.9488491299999993 35.3808277799999971 2.4917721099999999 Au
atom 25.8507028199999986 35.3524243900000030 2.6234646000000001 Au
atom 0.4433399300000000 35.3730832500000005 2.7222615800000001 Au
atom 3.2717453399999998 35.4204270600000015 2.5106651200000001 Au
atom 6.0910770400000001 35.4395443700000001 2.7152626299999998 Au
atom 7.5398465699999999 37.8957545199999970 2.7559338200000001 Au
atom 10.2965367600000004 37.8400467199999966 2.5560930499999999 Au
atom 13.1254090100000003 37.8895197499999981 2.4502256700000000 Au
atom 15.8989092000000003 37.8677025300000025 2.7074054400000001 Au
atom 18.6999497900000016 37.9019298199999994 2.6491299700000002 Au
atom 21.5464765199999988 37.8060903300000035 2.8394217899999998 Au
atom 24.4554255500000011 37.8910538700000004 2.6395922600000001 Au
atom 27.2791951700000013 37.8491219900000004 2.5747469299999999 Au
atom 1.8562696700000001 37.8409497800000025 2.5698694299999998 Au
atom 4.7187256499999997 37.9100188500000002 2.5806123699999999 Au
atom 8.9302779900000004 0.8018873300000000 2.6460949700000000 Au
atom 11.7095078800000003 0.8594763800000000 2.5908356900000000 Au
atom 14.5243589800000006 0.8857194300000000 2.6291929500000002 Au
atom 17.3830592300000006 0.8804753000000000 2.6336789100000000 Au
atom 20.1705788300000002 0.8377590600000000 2.6007110500000001 Au
atom 23.0500684999999983 0.8406763700000000 2.6731440700000002 Au
atom 25.8807786899999996 0.8080139800000000 2.7477375300000002 Au
atom 0.4573361400000000 0.8437972100000000 2.7425431300000001 Au
atom 3.2928393499999999 0.8392610600000000 2.7547202700000000 Au
atom 6.1006497599999996 0.8533971900000000 2.8262586299999999 Au
atom 7.5137023699999999 3.4022444799999998 2.7412586000000001 Au
atom 10.2631408099999994 3.3034046799999999 2.7239724500000002 Au
atom 13.1195690200000001 3.3380589500000002 2.4705394200000002 Au
atom 15.9133086000000006 3.2752996099999998 2.5559679499999999 Au
atom 18.8041725600000014 3.3490660999999999 2.5812448300000002 Au
atom 21.5730508699999994 3.3096386899999999 2.6030272900000000 Au
atom 24.4364196900000010 3.3489568699999999 2.6750004500000002 Au
atom 27.3211853699999985 3.4305506700000001 2.7877027600000002 Au
atom 1.8679819400000000 3.4132808600000000 2.7756929499999998 Au
atom 4.7140086099999996 3.3310391099999999 2.8101184300000002 Au
atom 8.9785274299999998 5.7951872900000003 2.8375382500000002 Au
atom 11.8222998799999992 5.7859485599999996 2.6932162800000001 Au
atom 14.5838925600000007 5.8053112100000002 2.7541238799999999 Au
atom 17.4248870499999988 5.8368428899999998 2.6927134100000001 Au
atom 20.1938027300000016 5.8363581399999998 2.6223696300000001 Au
atom 23.0608658400000017 5.8387948900000000 2.7361346800000002 Au
atom 25.8535143000000005 5.7885656799999996 2.8302319800000002 Au
atom 0.5369357200000000 5.9121164899999998 2.6206336100000001 Au
atom 3.2825005900000002 5.8638477000000000 2.8840849099999999 Au
atom 6.1457335600000000 5.8424655699999999 2.9253153699999999 Au
atom 7.5358438400000001 8.2315241799999992 2.8800790699999999 Au
atom 10.3708115500000009 8.2239537200000008 2.7205491099999999 Au
atom 13.2479597200000008 8.3094650399999992 2.6152681800000002 Au
atom 16.0505854200000009 8.3147545399999991 2.5053681700000001 Au
atom 18.8419529399999988 8.3039944800000001 2.4435506999999999 Au
atom 21.6677649800000012 8.2981876099999994 2.5920495899999998 Au
atom 24.4934973499999984 8.3018953199999999 2.7947708800000002 Au
atom 27.2429174100000004 8.2887125200000007 2.5939199700000000 Au
atom 1.8899829200000000 8.3370002599999999 2.8062320700000001 Au
atom 4.7136555700000002 8.3328986199999999 2.8127918699999999 Au
atom 8.9986158900000000 10.6411064700000004 2.5192541400000001 Au
atom 11.7903946899999994 10.6738289500000008 2.5173535100000000 Au
atom 14.5854855299999997 10.6962375900000008 2.3965527999999998 Au
atom 17.3458871700000010 10.7618290000000005 2.4122395700000001 Au
atom 20.1721251200000005 10.7574816900000005 2.3503544199999999 Au
atom 22.9194596100000005 10.7255959999999995 2.6310755399999999 Au
atom 25.8148930700000001 10.7533863200000006 2.6359596399999998 Au
atom 0.4288144200000000 10.8064785299999997 2.8180588800000002 Au
atom 3.3125958400000002 10.7576795399999998 2.9714711800000000 Au
atom 6.1682853499999997 10.6855909300000000 2.6717697700000000 Au
atom 7.5366381100000002 13.2708774599999995 5.7836022700000003 Cl
atom 7.3703990499999996 16.0879692699999985 8.6749280199999994 Cl
atom 7.5125579000000000 13.2740691399999999 8.5080261700000008 Na
atom 7.4595342200000001 16.0948895699999994 5.7111419400000001 Na
atom 7.6424822399999996 18.9241172700000000 5.7681849700000001 Cl
atom 7.3556569600000001 21.7248885799999982 8.7185174700000001 Cl
atom 7.4062476200000003 18.9973467199999995 8.3526263499999995 Na
atom 7.4564636499999999 21.6574288300000006 5.9490387299999998 Na
atom 7.4933307300000003 24.3262516700000013 5.6993029300000000 Cl
atom 7.3981025599999999 27.2315141300000008 8.5302865099999998 Cl
atom 7.4392533500000004 24.4089397699999999 8.3634571700000002 Na
atom 7.4649404400000003 27.1432700599999990 5.7118317799999998 Na
atom 7.5622087100000002 29.9302160199999996 5.6575649800000001 Cl
atom 7.5005035800000002 32.8681248899999972 8.5582687699999997 Cl
atom 7.5052415400000001 30.0949032800000005 8.3040403400000002 Na
atom 7.5729423499999999 32.8068165700000023 5.7483643999999998 Na
atom 7.5301532399999997 35.6645332399999972 5.5659239100000004 Cl
atom 7.5386987000000003 38.5082107899999997 8.5185408400000000 Cl
atom 7.5562695900000003 35.5970378499999995 8.2768288299999995 Na
atom 7.5654930599999997 38.5701713699999971 5.8601283400000002 Na
atom 7.5536425600000001 1.8267549000000001 5.7978464499999998 Cl
atom 7.5283830399999996 4.5625289899999997 8.5715152999999997 Cl
atom 7.5555813000000001 1.8551341400000001 8.4268991900000003 Na
atom 7.5108140099999998 4.7462465399999996 5.8711099500000001 Na
atom 7.4506834199999998 7.5512655200000003 5.8785915500000003 Cl
atom 7.5734452200000000 10.4721671599999997 8.7043622599999999 Cl
atom 7.4880807899999997 7.5176044700000002 8.5195208900000008 Na
atom 7.5080357500000003 10.3707659900000007 5.9622309099999997 Na
atom 10.2361951100000006 13.3004036299999999 5.9023475000000003 Na
atom 13.3268467000000008 13.3648549499999998 5.6502936200000002 Cl
atom 10.0029223999999992 16.0436906999999991 8.7375002500000001 Na
atom 13.1919657899999994 16.0112792000000006 8.8070784500000006 Cl
atom 13.2016118400000000 13.2843403999999996 8.5033919200000003 Na
atom 10.3597905800000003 13.2208592800000009 8.6010635700000009 Cl
atom 13.1451090100000005 16.0894499800000013 5.9661379800000001 Na
atom 10.2567882299999997 16.2196127399999988 5.8012162500000004 Cl
atom 10.3601974099999996 18.7967095399999984 5.8913876700000003 Na
atom 13.1678092600000003 18.6948273100000009 5.7052031000000003 Cl
atom 10.2826267599999994 21.6332485599999984 8.4803075400000001 Na
atom 13.0130085100000006 21.5102713299999984 8.5433079000000003 Cl
atom 13.0213358600000007 18.7757206699999983 8.6028302599999993 Na
atom 10.2609820599999999 18.8810434700000016 8.5630930000000003 Cl
atom 13.1255620099999994 21.6734290799999982 5.7905495900000004 Na
atom 10.2997186200000002 21.5262438299999985 5.7962144000000002 Cl
atom 10.3277206100000001 24.3913230500000004 5.8587421800000001 Na
atom 13.1261086799999998 24.4682541100000002 5.6629222500000003 Cl
atom 10.3285101499999996 27.2253695200000010 8.2558566199999994 Na
atom 13.1465154000000002 27.2069506600000004 8.4200813700000001 Cl
atom 13.1857009800000000 24.5088143599999988 8.4339355699999992 Na
atom 10.3097638200000006 24.4040352700000014 8.6055780800000008 Cl
atom 13.1438447699999994 27.2319958699999987 5.6428106299999996 Na
atom 10.2697976400000002 27.1921206700000013 5.7068534099999999 Cl
atom 10.2611901200000002 29.9993802999999986 5.7823192499999996 Na
atom 13.1324241900000001 30.0111038400000005 5.6516478699999997 Cl
atom 10.3652043700000007 32.8993677400000024 8.3799898600000002 Na
atom 13.1527187199999993 32.8941242000000003 8.6756923399999994 Cl
atom 13.0826158299999999 29.9368506500000002 8.3558814399999992 Na
atom 10.2249046299999993 30.0256166700000016 8.5679046400000001 Cl
atom 13.1601733000000003 32.8623381399999985 5.9393060899999996 Na
atom 10.5042843000000001 32.8090575900000019 5.7316039500000002 Cl
atom 10.3629195700000007 35.7335520700000018 5.7967336500000002 Na
atom 13.1828283299999995 35.6970124300000009 5.7661889400000002 Cl
atom 10.4104181699999998 38.5214361800000020 8.3808267399999998 Na
atom 13.1417844200000005 38.6395063100000016 8.4608613399999992 Cl
atom 13.2230292299999999 35.8119305800000021 8.3572778099999994 Na
atom 10.3394600800000003 35.7802791399999975 8.5224282000000002 Cl
atom 13.1230628500000002 38.5118243900000010 5.7301256299999999 Na
atom 10.3523387299999996 38.5408265399999976 5.8622568399999997 Cl
atom 10.3031999100000000 1.8686052399999999 5.8009658300000000 Na
atom 13.1094636300000005 1.9430814199999999 5.6847174300000001 Cl
atom 10.3377133899999993 4.5968388100000004 8.4448275499999994 Na
atom 13.0806185799999994 4.6713995099999996 8.6014277600000000 Cl
atom 13.2178601899999997 1.9003267800000001 8.3274199600000003 Na
atom 10.3635913800000008 1.8460449600000000 8.6339652400000002 Cl
atom 13.0924491700000001 4.6771909899999997 5.9014166599999998 Na
atom 10.2700989200000006 4.6436181999999997 5.7778498300000001 Cl
atom 10.2516567199999997 7.4215841100000004 5.8100166299999998 Na
atom 13.1624256600000002 7.4062630699999996 5.5202528700000002 Cl
atom 10.2548820999999997 10.3479965600000003 8.4156558300000004 Na
atom 13.0389888500000009 10.2463050899999999 8.4414336199999997 Cl
atom 13.0379730100000000 7.5340840199999999 8.3017416599999994 Na
atom 10.4297519699999999 7.5305369899999999 8.5846483599999992 Cl
atom 13.1047316899999995 10.3873536299999998 5.6772082900000003 Na
atom 10.2983769699999996 10.3768395800000004 5.7553405800000004 Cl
atom 15.9976222999999997 13.2358657300000004 6.0275576400000004 Na
atom 18.6740184800000009 13.2698553900000000 5.8646570400000000 Cl
atom 15.9929281900000007 16.0263026800000006 8.7189297200000002 Na
atom 18.7324688799999990 15.9531102300000001 8.8627335600000006 Cl
atom 18.7071134100000016 13.1521263299999998 8.4406530800000006 Na
atom 15.8819529700000004 13.0959899199999992 8.7142464900000007 Cl
atom 18.7277051800000010 16.0103039000000003 6.0635580500000001 Na
atom 15.9621972000000003 16.0438801099999999 5.8991344100000003 Cl
atom 15.9441315800000005 18.6991409900000001 5.9879721400000001 Na
atom 18.7345982999999983 18.7968686399999996 5.8908557799999999 Cl
atom 15.8860717299999994 21.5984118199999990 8.5729245899999995 Na
atom 18.9028757300000017 21.6495707700000004 8.7433771999999994 Cl
atom 18.7883698599999995 18.8268315699999995 8.6082687700000005 Na
atom 15.9250655099999996 18.8281448900000008 8.7089170800000009 Cl
atom 18.6779475499999990 21.6266866200000010 6.0197330500000001 Na
atom 15.9193552500000006 21.4588773900000014 5.8739080299999999 Cl
atom 15.8852139599999997 24.3237615299999987 5.9462263699999998 Na
atom 18.7246244900000001 24.3799428700000007 5.9141359299999996 Cl
atom 15.9495207499999996 27.4720286300000005 8.7163528899999996 Na
atom 18.8998788399999995 27.2039559299999993 8.4904328000000007 Cl
atom 18.5920079800000018 24.4942416899999991 8.5794531599999999 Na
atom 15.8199566199999992 24.2802323999999992 8.5774549800000006 Cl
atom 18.8135851199999991 27.2350658099999983 5.8768001900000000 Na
atom 15.9757919000000008 27.2878519900000001 5.8147256399999998 Cl
atom 15.9458736400000003 30.0356537199999991 5.8128146300000001 Na
atom 18.8484297299999994 30.2245069400000013 5.7061592599999997 Cl
atom 15.9484711400000005 32.9876794899999979 8.4884407799999995 Na
atom 18.7580429600000009 32.9124148399999967 8.6497037999999993 Cl
atom 18.9409320799999996 30.0823183000000007 8.3483006399999997 Na
atom 15.9828129299999997 30.0558345799999991 8.4691308700000008 Cl
atom 18.7167215099999993 32.9869186600000006 5.9109138899999998 Na
atom 15.8730164400000007 33.0060830199999984 5.8709318899999996 Cl
atom 15.8938959999999998 35.7661646600000012 5.7839081999999999 Na
atom 18.6522475599999993 35.8317570700000019 5.7827582399999997 Cl
atom 16.0684124299999986 38.6143754599999980 8.3157477100000001 Na
atom 18.8791986600000001 38.7366558200000028 8.6377107899999999 Cl
atom 18.8352387400000012 35.7976884699999971 8.4755726100000004 Na
atom 16.0697791700000003 35.8978596099999976 8.6963017899999997 Cl
atom 18.8713142800000000 38.5789634699999979 5.8628657100000003 Na