#===============================================================================
# Created using the Atomic Simulation Environment (ASE)

# Tue Dec 23 21:43:02 2025

#=======================================================
lattice_vector 28.1999999999999993 0.0000000000000000 0.0000000000000000 
lattice_vector 0.0000000000000000 39.4799999999999969 0.0000000000000000 
lattice_vector 0.0000000000000000 0.0000000000000000 62.3296083400000001 
atom 7.6789313799999999 14.9270948099999998 -0.0636951400000000 Au
atom 10.3551167700000004 14.8678791799999992 -0.2286697200000000 Au
atom 13.0767752599999998 14.8000344599999991 0.0351333700000000 Au
atom 15.8513550700000003 14.7304858999999997 0.0378789300000000 Au
atom 18.7670870900000004 14.7993846199999997 -0.2070445500000000 Au
atom 21.5813053000000004 14.7620184999999999 -0.2314744900000000 Au
atom 24.4882618500000007 14.7395808899999992 -0.1279659200000000 Au
atom 27.3460109299999985 14.8238973400000003 -0.0580436700000000 Au
atom 2.0556681600000002 14.7522246999999993 0.2318404500000000 Au
atom 4.9163677400000001 14.8646056600000005 -0.1286536700000000 Au
atom 8.9452108500000005 17.4436647700000016 -0.1324460900000000 Au
atom 11.7430696399999999 17.2519202299999996 -0.0074072600000000 Au
atom 14.4435465500000007 17.2616934099999995 0.2662925800000000 Au
atom 17.2410597999999986 17.1331260699999994 0.0241883700000000 Au
atom 20.1114985799999992 17.2773011099999998 -0.0840754900000000 Au
atom 23.0152285399999990 17.2537515900000002 -0.1210253800000000 Au
atom 25.8695695599999986 17.2591799899999998 -0.0395605500000000 Au
atom 0.5750587200000000 17.1635814800000013 0.0481224800000000 Au
atom 3.4025923100000002 17.1497905400000015 0.2120494500000000 Au
atom 6.0960610900000001 17.3596076600000018 -0.0406766500000000 Au
atom 7.5588106899999996 19.8521454700000000 0.1558817300000000 Au
atom 10.4209154999999996 19.7975503699999997 0.0531180700000000 Au
atom 13.1763345500000000 19.7378849599999988 0.2987897700000000 Au
atom 15.9015580300000003 19.7899110100000009 0.4667602800000000 Au
atom 18.6766362400000006 19.5740969900000010 0.4549978800000000 Au
atom 21.4997841600000008 19.7437303499999999 -0.0095349900000000 Au
atom 24.3555663600000010 19.7572646899999995 -0.1903000600000000 Au
atom 27.2640030700000011 19.7559819099999991 0.2010453400000000 Au
atom 1.9755956500000000 19.5435405799999984 0.1006146100000000 Au
atom 4.7395022000000004 19.8002411400000007 -0.0649593300000000 Au
atom 8.9208779899999993 22.2495453699999999 0.1342937800000000 Au
atom 11.7096868300000008 22.1190923999999995 0.4858238700000000 Au
atom 14.5950958899999996 22.2130336499999999 0.7085770000000000 Au
atom 17.4185490899999991 22.0945222200000018 0.5448908500000000 Au
atom 20.1073697399999993 22.2264089899999995 -0.0163858000000000 Au
atom 22.9024629799999992 22.2225230700000012 0.2774240800000000 Au
atom 25.7688477099999993 22.1746660999999996 0.0021942200000000 Au
atom 0.4769995100000000 22.1083857500000001 -0.0017100000000000 Au
atom 3.2446459700000001 22.1833547700000011 0.1575961100000000 Au
atom 6.1063131799999999 22.3027878900000012 -0.1498132300000000 Au
atom 7.5620695800000002 24.8459225100000012 -0.1588579200000000 Au
atom 10.3533954200000000 24.6390802399999984 -0.0536404300000000 Au
atom 13.1638616699999993 24.5601558199999985 0.1442816400000000 Au
atom 16.0001661099999986 24.5564245200000002 0.3077499400000000 Au
atom 18.8645972700000009 24.7421130200000015 0.0835894300000000 Au
atom 21.6285782799999993 24.6593989299999983 0.4064625300000000 Au
atom 24.4161596600000017 24.6963137999999987 0.2892168100000000 Au
atom 27.1778531799999996 24.6386788800000005 -0.0009653500000000 Au
atom 1.7525969800000001 24.7812978599999987 -0.1277074100000000 Au
atom 4.6348347099999998 24.7838977400000005 0.1085519400000000 Au
atom 9.0695768200000000 27.2154890099999989 -0.0394076500000000 Au
atom 11.7473967899999998 27.1597333200000008 0.1215030800000000 Au
atom 14.6172243999999996 27.0532445599999996 0.2919360400000000 Au
atom 17.4082247899999984 27.1618956500000017 0.3676902800000000 Au
atom 20.2895965999999994 27.1615829899999994 0.3509071900000000 Au
atom 23.0223121000000006 27.0825974100000018 0.4140996800000000 Au
atom 25.8357743599999985 27.0720647800000016 0.3595814800000000 Au
atom 0.4766615500000000 27.2190395699999996 0.1083224100000000 Au
atom 3.2718828100000001 27.2273977900000013 -0.0132185500000000 Au
atom 6.1699541199999999 27.2103666299999993 -0.2169141300000000 Au
atom 7.4882767000000001 29.6214469800000018 -0.1343267200000000 Au
atom 10.3564425199999999 29.7072416799999992 -0.3136092500000000 Au
atom 13.2161593600000007 29.6100744599999999 -0.1991731100000000 Au
atom 15.9792348799999999 29.5804130900000004 0.0756446700000000 Au
atom 18.8718692099999998 29.6252445800000004 0.2039978600000000 Au
atom 21.6402219199999983 29.5591208300000012 0.0798232900000000 Au
atom 24.3620135399999995 29.5268380700000002 -0.0231273400000000 Au
atom 27.1489374800000007 29.5005995299999988 0.0913767700000000 Au
atom 1.8999294400000000 29.6799964699999990 -0.0556008800000000 Au
atom 4.6982018999999999 29.6082864400000005 -0.3052019700000000 Au
atom 8.9315207099999991 32.1200674999999976 -0.4163550500000000 Au
atom 11.7513423699999997 32.1642659500000008 -0.1543146600000000 Au
atom 14.5424261399999999 32.1790233400000005 -0.0726488900000000 Au
atom 17.4007478300000002 32.1523258300000023 0.0036412400000000 Au
atom 20.2558952499999982 32.0990551000000011 0.0874544800000000 Au
atom 22.9835339400000009 32.0791302499999986 0.0279325100000000 Au
atom 25.8074307699999999 32.0378288499999968 -0.0856476300000000 Au
atom 0.5185168999999999 32.0790555499999996 -0.0439983200000000 Au
atom 3.3486175899999999 32.0993786100000023 -0.2133421600000000 Au
atom 6.1436000399999999 32.0829988099999994 -0.2632892700000000 Au
atom 7.5697547399999996 34.5982231699999971 -0.1972867500000000 Au
atom 10.3081595999999998 34.5818695099999971 -0.0629137700000000 Au
atom 12.9663812899999993 34.6263054799999992 0.1489735500000000 Au
atom 15.9472141700000005 34.6005335199999990 -0.0156048700000000 Au
atom 18.8165609700000012 34.6013589000000010 0.0951965400000000 Au
atom 21.4695688599999990 34.5694079399999978 0.0024262000000000 Au
atom 24.3387097799999985 34.5982476100000014 -0.0444379300000000 Au
atom 27.2320506400000006 34.5128516899999980 0.0105923700000000 Au
atom 1.8227278000000000 34.4405618799999971 -0.0194295100000000 Au
atom 4.7399943599999999 34.5667243700000029 -0.2883157100000000 Au
atom 8.8856646900000005 37.0311085000000020 0.1541187200000000 Au
atom 11.6624014299999992 37.1055887600000034 0.1727904700000000 Au
atom 14.4785201699999995 37.0478979700000011 0.3268291600000000 Au
atom 17.3256164499999983 37.0693887600000025 0.1130427500000000 Au
atom 20.0881702199999985 37.0330620100000019 0.3578781600000000 Au
atom 22.9191946500000014 36.8499440000000007 0.1605618200000000 Au
atom 25.8052731400000006 36.9871485600000014 0.0170254900000000 Au
atom 0.2884965600000000 37.0061406000000019 -0.0285269700000000 Au
atom 3.1883437500000000 36.9368318000000002 0.1118032500000000 Au
atom 6.1055803400000004 37.0669091999999978 -0.1264796600000000 Au
atom 7.3841920200000004 0.0443661100000000 0.1866514400000000 Au
atom 10.2069933699999993 0.0518198200000000 0.4010017700000000 Au
atom 13.0691868600000003 0.0507428600000000 0.3709460400000000 Au
atom 15.9564731900000005 0.0054513200000000 0.3816823300000000 Au
atom 18.7387621399999986 -0.0329762600000000 0.5617193900000000 Au
atom 21.6187868300000012 -0.0794263300000000 0.3620374000000000 Au
atom 24.3632996900000016 -0.0699535300000000 0.0253328400000000 Au
atom 27.1755673699999996 -0.0244641300000000 -0.1926910600000000 Au
atom 1.8336736800000000 -0.1104880800000000 -0.2793317500000000 Au
atom 4.6030566000000004 -0.0464002100000000 0.0908303400000000 Au
atom 8.9040879000000004 2.5209737500000000 0.0399881700000000 Au
atom 11.6599781900000004 2.4810165700000000 0.1990758200000000 Au
atom 14.3728788900000009 2.3901032700000000 0.2207153200000000 Au
atom 17.2424988699999986 2.5676227300000001 0.2778079000000000 Au
atom 20.0551329000000003 2.3169985099999999 0.3970892800000000 Au
atom 22.9045656700000002 2.4753406000000000 0.5770882000000001 Au
atom 25.7374998599999998 2.4275380400000000 0.0896925500000000 Au
atom 0.4041994300000000 2.3094427300000002 0.0003979600000000 Au
atom 3.1515800600000001 2.3282680400000002 0.1085298100000000 Au
atom 6.1098811000000000 2.4410110800000000 0.1594370900000000 Au
atom 7.5312035499999999 4.8769436099999997 0.3786077100000000 Au
atom 10.2367364100000007 5.1092360100000001 0.1589041300000000 Au
atom 13.0955897500000003 4.9707626899999999 0.0740764300000000 Au
atom 15.8547482199999994 4.9372125899999997 0.2252798500000000 Au
atom 18.7667119800000002 4.9388585699999998 -0.1299994900000000 Au
atom 21.4706828999999999 4.8438245999999996 0.1667275300000000 Au
atom 24.2513457199999998 4.8390088100000002 0.0985585200000000 Au
atom 27.2560087200000005 4.8426185300000002 -0.1055820500000000 Au
atom 1.8179069200000000 4.7220641199999998 -0.2665352000000000 Au
atom 4.6382866199999997 4.7030871999999997 -0.1099316600000000 Au
atom 8.8396718700000001 7.3222237799999998 -0.4267833300000000 Au
atom 11.7962232199999999 7.4360586199999998 -0.1423612400000000 Au
atom 14.5541713200000000 7.3605705500000003 0.2036038100000000 Au
atom 17.3984083299999988 7.4591500100000001 0.1656125800000000 Au
atom 20.3428877899999989 7.4498271899999997 0.0212965800000000 Au
atom 23.0568260699999996 7.2903093900000000 -0.1652842800000000 Au
atom 25.7704328400000016 7.3155624599999998 -0.1158460900000000 Au
atom 0.4536120600000000 7.3156999899999997 -0.2779783800000000 Au
atom 3.2536790099999999 7.2162968999999997 -0.2260165600000000 Au
atom 6.0345754500000002 7.1794456899999997 -0.2203259600000000 Au
atom 7.2978900700000002 9.8993185199999996 -0.4418138400000000 Au
atom 10.2129716300000002 9.8950331600000005 -0.4978960500000000 Au
atom 13.1909045099999993 9.8890619799999993 -0.2272620300000000 Au
atom 16.0228787500000003 9.8269414600000005 0.0403687400000000 Au
atom 18.8714892399999989 9.8262556900000000 -0.1253334500000000 Au
atom 21.8247466599999989 9.9035809700000001 -0.2762504300000000 Au
atom 24.6430979999999984 9.7126507400000008 0.0629886700000000 Au
atom 27.4075528400000010 9.9402684099999998 0.1750271000000000 Au
atom 1.8834063900000000 9.7771258000000003 -0.1214583100000000 Au
atom 4.5185144800000003 9.6997652300000006 -0.4650515500000000 Au
atom 8.9395083999999994 12.3820619999999995 -0.3226042000000000 Au
atom 11.7441217000000009 12.3543696500000006 -0.4105251700000000 Au
atom 14.4846866399999996 12.2698529799999996 -0.1119766300000000 Au
atom 17.3638616500000005 12.2844441900000003 -0.2118755900000000 Au
atom 20.2855251999999986 12.3248563200000003 -0.3479242200000000 Au
atom 23.1306399899999988 12.2810730899999996 -0.1266639200000000 Au
atom 25.9460803099999993 12.3905897100000004 0.0388282300000000 Au
atom 0.5702468100000000 12.2863197500000005 0.1644615200000000 Au
atom 3.3299069700000001 12.2594177799999997 -0.1782624600000000 Au
atom 6.0986467800000002 12.2941542599999991 -0.3706299400000000 Au
atom 7.5677749600000004 13.2477607600000002 2.3603445000000001 Au
atom 10.3217992800000005 13.2444551700000002 2.2449664999999999 Au
atom 13.0660708200000002 13.2000004099999995 2.6893326599999998 Au
atom 15.9516419599999999 13.0517253100000001 2.5478080599999999 Au
atom 18.7453212299999983 13.0225214299999994 2.2617380200000001 Au
atom 21.7038945699999992 13.1459156000000004 2.2715696200000002 Au
atom 24.4870184799999997 13.2021781699999998 2.6530786499999999 Au
atom 27.3721803799999996 13.1390013200000002 2.4741748200000000 Au
atom 1.9891170700000000 13.1270430999999999 2.7615068200000001 Au
atom 4.7801566900000001 13.2443703900000003 2.2728282300000000 Au
atom 8.9723448000000001 15.6186611699999993 2.3955517400000002 Au
atom 11.7268534599999992 15.6974417499999994 2.4809292100000002 Au
atom 14.5435683400000002 15.4414315400000000 2.7700471400000000 Au
atom 17.5050116299999985 15.5239041899999997 2.5437610400000001 Au
atom 20.1978244099999991 15.4790279799999997 2.5409112299999999 Au
atom 23.0347150099999993 15.6052912700000004 2.5128695699999999 Au
atom 25.8164182400000008 15.5697917500000003 2.5861781700000002 Au
atom 0.5062902600000000 15.5118234000000008 2.7029532299999999 Au
atom 3.3566436999999998 15.5266012399999997 2.9467773099999999 Au
atom 6.1878393100000002 15.7222234400000005 2.6310750100000000 Au
atom 7.5444297100000002 18.1250585400000013 2.5707546799999998 Au
atom 10.3655494499999996 18.1721078499999997 2.4042210399999999 Au
atom 13.2242820000000005 18.0748645600000017 2.9594670100000000 Au
atom 15.9587614700000007 18.0472116699999994 2.8219458300000002 Au
atom 18.7439556500000002 17.8673599299999992 2.6797005899999999 Au
atom 21.5818762500000005 17.9878133399999989 2.4518384000000002 Au
atom 24.4985475100000016 18.0115412699999986 2.4005789000000002 Au
atom 27.2529513200000011 18.0175015599999995 2.6034105799999998 Au
atom 1.9335987200000000 18.0206422699999997 2.7106790100000002 Au
atom 4.7171209500000000 18.1659301199999987 2.5470243199999998 Au
atom 8.8444915999999996 20.6256006599999999 2.7275467999999998 Au
atom 11.7235231100000004 20.5804844200000012 2.7366073100000001 Au
atom 14.5017473100000007 20.5577286400000006 3.2133191200000000 Au
atom 17.3153730500000016 20.4479268199999993 3.1224660399999999 Au
atom 20.2135141599999990 20.5153127899999994 2.6909052199999999 Au
atom 22.9499742600000012 20.4299750799999984 2.6826188499999999 Au
atom 25.7471139200000003 20.6395336100000009 2.7145823899999999 Au
atom 0.4667051300000000 20.6032069299999989 2.7481636900000002 Au
atom 3.2923366800000000 20.5269613200000016 2.5960881900000001 Au
atom 6.0996185299999999 20.6707525200000006 2.7084848899999998 Au
atom 7.6238591299999996 23.1610241399999985 2.4404442500000001 Au
atom 10.3494686999999992 23.0174167700000005 2.7248608100000000 Au
atom 13.2430691700000001 23.1161588599999988 3.0440541400000001 Au
atom 16.1156831999999994 23.0095234200000007 3.1969465900000000 Au
atom 18.8824144199999999 23.1133779100000005 2.8122944699999999 Au
atom 21.7186941199999985 23.0003202400000006 2.9524843800000000 Au
atom 24.5524926000000008 23.0956738500000007 2.6461720299999998 Au
atom 27.2963608200000003 23.1220992699999996 2.5502562700000002 Au
atom 1.9857618600000000 23.2125636700000015 2.5818468399999999 Au
atom 4.8099079099999997 23.1189941700000006 2.6664683800000000 Au
atom 9.0004780800000006 25.5505097399999990 2.6457359800000000 Au
atom 11.8067377699999998 25.4780603899999996 2.5036752400000002 Au
atom 14.6391053499999995 25.4577232299999991 2.9967109600000001 Au
atom 17.5164963399999998 25.4386030699999992 2.9531783400000000 Au
atom 20.2612883900000007 25.4694237399999999 3.0520016900000000 Au
atom 23.0035974600000017 25.5374974100000003 3.1133429200000000 Au
atom 25.9082822999999998 25.5971452500000005 2.8528457800000000 Au
atom 0.4210462200000000 25.5310273700000003 2.6015149900000001 Au
atom 3.3205560599999999 25.6468486899999988 2.5722922300000000 Au
atom 6.1916399799999997 25.6298233000000018 2.4006231599999999 Au
atom 7.6390610499999996 28.0498304999999988 2.4085741000000001 Au
atom 10.4558207500000009 28.0289608799999996 2.7685277199999998 Au
atom 13.2079455100000001 27.9809507000000011 2.6096224499999998 Au
atom 15.9693910500000005 27.9763943799999986 2.9099219299999999 Au
atom 18.8506932599999999 27.9672121599999990 2.8646911199999998 Au
atom 21.6409810500000006 27.9628459800000009 2.8673026899999998 Au
atom 24.5202507899999986 28.0940574800000000 2.7905469599999999 Au
atom 27.4165552000000012 28.0155452199999999 2.8913724599999999 Au
atom 1.9708467700000001 28.0963267099999996 2.5550379900000002 Au
atom 4.7673701900000003 28.1796600800000014 2.3411313900000001 Au
atom 9.0281919500000001 30.5302165000000016 2.1902790099999998 Au
atom 11.8135839199999992 30.5661195200000009 2.4151525100000000 Au
atom 14.6599763799999998 30.5089049299999999 2.5366496700000001 Au
atom 17.3889536000000007 30.3883639000000016 2.7295237999999999 Au
atom 20.1805397900000010 30.4390239999999999 2.6674271300000001 Au
atom 22.9774364499999990 30.5391136799999998 2.4750793799999999 Au
atom 25.7677108900000000 30.4694146000000003 2.6029069200000001 Au
atom 0.4143909500000000 30.6435609599999985 2.5884292900000001 Au
atom 3.2956318599999999 30.5532995999999990 2.5519712200000000 Au
atom 6.1420714199999997 30.5772330399999994 2.3366326900000001 Au
atom 7.7115553900000000 32.8970829000000009 2.2261884200000002 Au
atom 10.4808993099999999 32.9000465599999998 2.4123019200000000 Au
atom 13.2641736500000000 32.9678736799999967 2.6430245900000000 Au
atom 15.9936462600000002 33.0359791400000020 2.8144038999999998 Au
atom 18.7922602300000001 32.8825368099999977 2.7157609900000002 Au
atom 21.5372573900000006 32.9369788200000002 2.5511559799999999 Au
atom 24.3961557800000008 32.9478224799999992 2.5446515700000001 Au
atom 27.2514960899999998 32.9622473900000017 2.4581171999999998 Au
atom 1.9421266100000001 32.9039741400000025 2.4630492600000000 Au
atom 4.7075102299999996 32.8780469599999989 2.3625991000000002 Au
atom 8.9413645699999993 35.2978636899999998 2.5127517300000002 Au
atom 11.7590673700000004 35.3927837700000012 2.7412042200000002 Au
atom 14.5331080099999994 35.4112055699999999 2.7448340999999998 Au
atom 17.3202818000000001 35.3338646899999986 2.7024878499999998 Au
atom 20.1782592899999997 35.3953114099999979 2.8322562900000001 Au
atom 22.9617246000000002 35.3330791500000032 2.7191684700000001 Au
atom 25.7952102299999986 35.3601709599999978 2.7204565000000001 Au
atom 0.4171090800000000 35.3986988899999986 2.5551094299999999 Au
atom 3.2595973300000001 35.3216182099999969 2.4955809200000001 Au
atom 6.0734418300000002 35.2988074499999982 2.3662902600000000 Au
atom 7.5088631100000001 37.8174150500000010 2.6296695899999998 Au
atom 10.3532068099999996 37.8023854799999981 2.9415185400000001 Au
atom 13.1410883900000002 37.9089090499999983 2.9675196100000001 Au
atom 16.0050454299999991 37.8759512000000029 2.6773996699999998 Au
atom 18.7092960899999987 37.8619313100000028 2.9611931999999999 Au
atom 21.4462606399999984 37.8496186100000003 3.0040144099999999 Au
atom 24.4272458599999993 37.8073109099999982 2.5850240599999998 Au
atom 27.3189368799999990 37.8623273600000019 2.3732915499999998 Au
atom 1.9048292899999999 37.8112545999999980 2.7384297200000001 Au
atom 4.6817654299999996 37.6946593699999966 2.5506551700000002 Au
atom 8.8181536900000008 0.9499704200000000 2.7658885000000000 Au
atom 11.6075899000000007 0.9270754400000000 2.9670923700000000 Au
atom 14.4729398099999997 0.9852164400000000 2.9266486399999998 Au
atom 17.2644355999999988 0.9547098700000000 3.0448896400000001 Au
atom 20.1122640500000003 0.9061472300000000 3.1538138400000002 Au
atom 22.9585359099999984 0.6980259400000000 2.9264682099999999 Au
atom 25.8078309099999998 0.7529951499999999 2.6945736700000000 Au
atom 0.5706978100000000 0.8259552700000000 2.4484976700000001 Au
atom 3.3582630800000000 0.7712372500000000 2.8299006200000001 Au
atom 6.0955216600000002 0.7887986900000000 2.7751969000000001 Au
atom 7.3218707600000004 3.4231886999999999 2.9074407199999999 Au
atom 10.1082403099999993 3.4027175299999999 2.7296630799999999 Au
atom 12.9751551599999999 3.4990689200000000 2.7916340599999998 Au
atom 15.8825338800000004 3.4582092400000000 2.8834614699999999 Au
atom 18.7028150300000000 3.4432663699999999 2.7736527400000002 Au
atom 21.5241989300000007 3.2666195800000000 3.1462964400000000 Au
atom 24.4343275700000007 3.2514427800000001 2.8804231200000001 Au
atom 27.1563986499999999 3.2257495399999998 2.5161411800000000 Au
atom 1.7766387800000001 3.2463659400000000 2.7957174899999999 Au
atom 4.5821306399999999 3.3042312699999998 2.6352052399999999 Au
atom 8.8591283099999991 5.8920021399999998 2.6076772199999998 Au
atom 11.6208084500000002 5.9767930399999996 2.7562509400000001 Au
atom 14.4631743499999992 5.8954122000000000 2.8318573200000001 Au
atom 17.4012668800000014 5.7608125699999997 2.6287874100000002 Au
atom 20.1659035799999984 5.7606985699999997 2.6715903800000000 Au
atom 23.0216648200000016 5.7031090999999998 2.5782445200000002 Au
atom 25.8148459199999998 5.6646977600000001 2.4588844100000000 Au
atom 0.5234243600000000 5.6430573300000004 2.3014877299999998 Au
atom 3.2215206300000001 5.7549230400000004 2.3376327600000000 Au
atom 5.9705556599999996 5.8752436599999998 2.6457368600000000 Au
atom 7.4341657200000002 8.2600048499999996 2.2246441099999998 Au
atom 10.1823377100000005 8.3081834499999996 2.1618601399999999 Au
atom 13.1624678599999996 8.2933258999999993 2.5326610100000000 Au
atom 16.0172349400000016 8.2859310700000002 2.7746878000000001 Au
atom 18.8790208399999990 8.2400973799999999 2.7834980599999999 Au
atom 21.6833717300000011 8.1410114999999994 2.4871086000000000 Au
atom 24.5243440499999998 8.1847129800000005 2.6774336800000000 Au
atom 27.3370388899999988 8.0675466599999996 2.3072587900000001 Au
atom 1.9204531000000000 8.1855185600000002 2.5313003100000002 Au
atom 4.7178596800000001 8.3049879400000002 2.2379699500000001 Au
atom 8.7976464300000004 10.8354856599999998 2.2011228100000002 Au
atom 11.5753560499999999 10.7095433900000003 2.1037221800000001 Au
atom 14.4048724799999999 10.7553596200000001 2.4402949199999999 Au
atom 17.3504385799999987 10.6202980199999999 2.5517648999999998 Au
atom 20.3372397199999995 10.7130082200000007 2.2602414799999999 Au
atom 23.1237986500000012 10.6281133400000005 2.4892781300000002 Au
atom 25.9293501699999993 10.6397273800000001 2.5896304699999999 Au
atom 0.5719883500000000 10.6873626399999999 2.7573062300000002 Au
atom 3.3380340799999999 10.7742752399999997 2.3824580599999998 Au
atom 6.0466070099999998 10.7500518500000002 2.2969311000000001 Au
atom 7.5570174699999999 13.4111409500000001 5.4832275399999997 Cl
atom 7.2720445700000003 16.1464921699999984 8.3142976399999995 Cl
atom 7.3997584600000001 13.3033676300000003 8.1806610899999992 Na
atom 7.4369866299999998 16.2012265500000012 5.7042507799999997 Na
atom 7.4010850899999996 19.1021607799999984 5.6314897200000003 Cl
atom 7.3565657299999998 22.0184589899999992 8.3668783599999994 Cl
atom 7.2775813400000002 19.0131782999999999 8.3262373000000007 Na
atom 7.4651939599999997 22.0327148599999987 5.5953708600000001 Na
atom 7.5065758100000002 24.8757433600000013 5.4361928900000001 Cl
atom 7.4064658699999999 27.6478972200000008 8.4103328000000008 Cl
atom 7.4168752299999996 24.7922570299999983 8.1739173399999991 Na
atom 7.5428932099999999 27.7025813099999993 5.6871653499999999 Na
atom 7.6108030700000002 30.4205995899999984 5.5054728500000003 Cl
atom 7.4846815099999997 33.0383743399999972 8.2780730800000004 Cl
atom 7.5092943200000004 30.3369179299999985 8.2283834200000001 Na
atom 7.6717630500000000 33.2511216099999984 5.5706775200000003 Na
atom 7.4413406400000000 36.0135296099999991 5.5822275200000000 Cl
atom 7.3569501199999996 38.8606126900000035 8.4470328600000002 Cl
atom 7.3795264100000004 36.0249246899999989 8.1249812499999994 Na
atom 7.5020036499999998 38.9036811799999995 5.7568755200000004 Na
atom 7.5153315599999999 2.1442914000000002 5.8868488299999999 Cl
atom 7.5235949900000003 4.8793679299999999 8.4668770999999996 Cl
atom 7.4842613900000003 2.1538548300000002 8.4629847199999997 Na
atom 7.3938564900000001 4.9446500499999999 5.7610003399999998 Na
atom 7.4712598400000001 7.6445760600000003 5.6999210400000004 Cl
atom 7.4024479599999999 10.6314548299999991 8.4731246799999997 Cl
atom 7.3908784699999996 7.6179727699999997 8.2429695899999995 Na
atom 7.3828448199999999 10.7629361400000008 5.4374987499999996 Na
atom 10.2079439399999998 13.3570312100000006 5.5364633100000002 Na
atom 13.0736473300000000 13.3974459899999996 5.6319757299999997 Cl
atom 10.0844401799999996 16.2245007600000015 8.4215578400000002 Na
atom 12.8590500599999995 16.1815083299999998 8.4912525399999996 Cl
atom 13.0621855700000005 13.3404799300000008 8.2499137800000000 Na
atom 10.2284384300000006 13.2752966000000008 8.3017487899999995 Cl
atom 13.1518504800000002 16.2689986299999987 5.8877795800000001 Na
atom 10.2817685799999996 16.1283556499999996 5.7410442899999996 Cl
atom 10.3082600000000006 19.0062272000000014 5.8159794900000001 Na
atom 13.0907840899999997 18.9874944899999996 5.9246193500000004 Cl
atom 10.2600181799999994 22.0004922200000017 8.4323960499999995 Na
atom 13.0860867600000006 21.8588406299999995 8.6846930400000009 Cl
atom 13.1444003400000007 19.0656761000000010 8.5082872799999993 Na
atom 10.1297195200000001 19.1791766499999987 8.4946947000000002 Cl
atom 13.1252285299999993 22.2136735200000004 5.9791435200000000 Na
atom 10.3512094700000006 22.0038740699999984 5.8123208300000000 Cl
atom 10.3965745100000007 24.9105953100000015 5.7893221900000000 Na
atom 13.0456724899999994 24.9141560999999996 5.7499352000000004 Cl
atom 10.3325259200000001 27.6845068599999991 8.1627735000000001 Na
atom 13.0827388199999994 27.6018911799999991 8.5929861400000007 Cl
atom 13.0645876399999992 24.8555320799999997 8.4782760100000001 Na
atom 10.1615597799999993 24.8422794300000014 8.6073725000000003 Cl
atom 13.1466594800000003 27.5331795200000009 5.6830238599999996 Na
atom 10.2692521499999998 27.6978269700000013 5.5891392000000000 Cl
atom 10.3627548199999993 30.4817408299999997 5.6269311000000002 Na
atom 13.2137588200000007 30.2120306999999997 5.5425918100000002 Cl
atom 10.2460482899999992 33.2564583799999980 8.3921571799999999 Na
atom 13.1790700800000007 33.1514711299999973 8.5529096800000008 Cl
atom 13.0139192599999998 30.4407005599999998 8.2115129400000004 Na
atom 10.2617214699999995 30.3305563000000014 8.6025944800000005 Cl
atom 13.1770194600000004 33.2602177999999995 5.8579498499999998 Na
atom 10.5161533100000000 33.3365175599999972 5.5462938800000003 Cl
atom 10.4108372399999993 36.1236746900000014 5.9813257300000000 Na
atom 13.2458536200000001 36.1069416699999977 6.1013733800000001 Cl
atom 10.4764492699999998 38.8971420800000018 8.5282661900000001 Na
atom 13.1613111600000003 38.8400293300000001 9.0178092599999999 Cl
atom 13.1000353100000009 35.7779600900000005 8.7572632400000003 Na
atom 10.2069466299999991 36.0739369599999975 8.5263059000000005 Cl
atom 13.2785002799999994 38.7608630800000000 6.1790792000000003 Na
atom 10.4010286799999996 38.8930702099999976 6.0270673199999996 Cl
atom 10.3845103000000005 2.1953444900000001 5.8275294400000002 Na
atom 13.3040882499999995 2.0453572300000000 5.9251647800000002 Cl
atom 10.3436066899999997 4.8782415400000003 8.3634759800000005 Na
atom 13.1675734999999996 4.9335154899999996 8.6397412800000009 Cl
atom 13.0324466700000006 2.1992511399999999 8.6229016699999992 Na
atom 10.3387586999999996 2.2068846700000000 8.6178894699999997 Cl
atom 13.2744322100000005 4.7438025599999998 5.7859264399999999 Na
atom 10.3965978999999997 5.0132232500000002 5.6812763799999999 Cl
atom 10.4205223199999999 7.7028529499999996 5.8314882099999998 Na
atom 13.3236898499999992 7.5417862900000001 5.7780852100000004 Cl
atom 10.2332664399999995 10.4135951500000008 8.1394671400000007 Na
atom 13.2413242800000006 10.5293009200000007 8.2874556100000003 Cl
atom 13.0339757499999997 7.7250600599999997 8.3721550699999998 Na
atom 10.2312455500000006 7.6638341199999997 8.4947323600000004 Cl
atom 13.1296407100000003 10.4998148499999999 5.5930255400000002 Na
atom 10.1817124600000000 10.4673026900000004 5.4053519600000000 Cl
atom 15.9783461199999994 13.5103663399999991 5.6987099499999996 Na
atom 18.6269774699999999 13.4590899099999994 5.4262290499999999 Cl
atom 16.0077996599999999 16.2013375000000011 8.3275538699999991 Na
atom 18.9025192500000010 16.2504760899999994 8.3119566599999999 Cl
atom 18.7677120600000009 13.3856826299999998 8.0675006000000007 Na
atom 15.9260072600000004 13.5947431800000000 8.3978937499999997 Cl
atom 18.7992413300000010 16.1918433700000008 5.6781161000000004 Na
atom 16.0183429000000004 16.3141728099999987 5.5814029900000000 Cl
atom 16.0473759399999985 19.0823904499999983 5.8627850099999996 Na
atom 18.7229234700000013 19.0836816899999988 5.5361996400000004 Cl
atom 15.9484740600000006 21.7485758699999998 8.6927586199999993 Na
atom 18.8422908199999988 21.7653150599999989 8.5097453099999996 Cl
atom 18.9039966700000015 18.9952563000000012 8.4309373700000005 Na
atom 15.8885871000000005 18.9661835100000005 8.7705993499999995 Cl
atom 18.6159591599999992 21.8760022700000007 5.8260670299999999 Na
atom 15.7313595900000003 22.1845154999999998 6.0668630400000003 Cl
atom 15.9797606800000001 24.8879848899999985 6.0161272700000001 Na
atom 18.8358247699999986 24.6675433499999990 6.0860811799999999 Cl
atom 15.8969387199999996 27.6903634399999987 8.4069399100000002 Na
atom 18.7293872999999991 27.5993170100000000 9.0157747599999993 Cl
atom 18.7833573800000018 24.6626874399999991 8.6380232299999999 Na
atom 15.8300180000000008 24.9091400999999983 8.6603189599999997 Cl
atom 18.8314837299999986 27.5862645099999995 6.1119241600000001 Na
atom 15.9994359399999997 27.5987871300000016 5.9078189400000003 Cl
atom 15.9841797999999997 30.3791479799999991 5.7105812599999997 Na
atom 18.7592606300000000 30.2866146500000006 5.7349012999999998 Cl
atom 15.8714160399999997 32.9873383600000025 8.4609049299999999 Na
atom 18.6230373299999989 32.9870451399999993 8.6326163200000003 Cl
atom 18.6088683300000000 30.2941893700000016 8.5054601200000004 Na
atom 15.9109039299999999 30.2757577799999993 8.4588607499999995 Cl
atom 18.6640832199999984 33.1762620200000029 6.0276794999999996 Na
atom 15.8919601799999999 33.3239058999999997 5.8581068700000003 Cl
atom 16.0381612300000000 35.9976900099999995 5.9894885799999997 Na
atom 18.8356601400000017 35.8723785000000035 5.8283396200000004 Cl
atom 15.9334043899999998 38.8867000999999988 8.7725052800000007 Na
atom 18.9269926599999998 38.7059008800000015 8.9407731699999999 Cl
atom 18.4978439399999992 35.9909345200000033 8.5894198100000008 Na
atom 15.8565224499999999 35.9733589100000017 8.6506825200000002 Cl
atom 19.0126641700000008 38.7833321399999988 6.1599532999999997 Na