#===============================================================================
# Created using the Atomic Simulation Environment (ASE)

# Tue Dec 23 21:43:04 2025

#=======================================================
lattice_vector 28.1999999999999993 0.0000000000000000 0.0000000000000000 
lattice_vector 0.0000000000000000 39.4799999999999969 0.0000000000000000 
lattice_vector 0.0000000000000000 0.0000000000000000 62.3296083400000001 
atom 7.4503921399999999 14.8443346399999996 -0.0531776900000000 Au
atom 10.2986686200000008 14.8140028699999995 -0.0499567600000000 Au
atom 13.1128208700000002 14.7271859000000003 0.0599528400000000 Au
atom 15.9403989900000003 14.7695864900000000 0.0255145600000000 Au
atom 18.7648185400000003 14.8142548099999996 0.0231187900000000 Au
atom 21.5823709000000008 14.8510082200000006 -0.0623404800000000 Au
atom 24.3813917300000007 14.8064494199999999 0.1591447800000000 Au
atom 27.2457715100000009 14.8542332699999999 -0.0831243300000000 Au
atom 1.8973234299999999 14.8353268099999998 -0.0482691900000000 Au
atom 4.6496400600000003 14.8172688499999996 -0.0473510400000000 Au
atom 8.8401636999999997 17.2838468399999989 -0.0164228500000000 Au
atom 11.6825378600000001 17.2658404899999987 -0.0196755000000000 Au
atom 14.5269887999999998 17.2397031200000015 -0.0218170600000000 Au
atom 17.3403310300000015 17.2421503200000004 -0.0494009900000000 Au
atom 20.2065341200000006 17.2911371500000008 -0.1057266200000000 Au
atom 23.0607416200000017 17.3123748599999985 -0.0315734600000000 Au
atom 25.8349728499999998 17.2581901900000005 0.0439117000000000 Au
atom 0.4385118200000000 17.3235352099999993 0.0387231700000000 Au
atom 3.2744803199999999 17.3041179999999990 0.1378800000000000 Au
atom 6.0488659000000000 17.3144402200000016 -0.0456063000000000 Au
atom 7.5272583900000001 19.6966225600000016 0.2078878700000000 Au
atom 10.3143960900000007 19.7458118300000010 0.0576595700000000 Au
atom 13.1277887900000003 19.7048175299999997 0.0638419900000000 Au
atom 15.9899670399999998 19.7647318600000013 -0.0514097500000000 Au
atom 18.8186759300000013 19.7517951399999987 0.0612170600000000 Au
atom 21.6096002100000000 19.8158493600000014 -0.1108356100000000 Au
atom 24.4886054400000006 19.7845898600000005 0.1183387600000000 Au
atom 27.2834779400000009 19.8040008699999994 0.1079887900000000 Au
atom 1.9070518999999999 19.7700506199999992 0.1251035100000000 Au
atom 4.6845596199999999 19.7463122300000009 0.1989310100000000 Au
atom 8.9184917899999991 22.1585704800000016 0.1451326600000000 Au
atom 11.7093649000000006 22.2453608900000006 0.1413371700000000 Au
atom 14.5581870400000000 22.1752452600000005 0.0100251900000000 Au
atom 17.3708498999999996 22.2200983900000004 -0.0670776200000000 Au
atom 20.1654997400000013 22.2733661199999986 -0.0464923500000000 Au
atom 23.0474936700000015 22.2537313099999992 0.1922734600000000 Au
atom 25.8104709899999989 22.2636184499999992 0.0666368500000000 Au
atom 0.4858095300000000 22.2537339400000000 0.0703468200000000 Au
atom 3.2824955500000002 22.2049950799999998 -0.0436037800000000 Au
atom 6.0848997300000001 22.1908796499999994 0.0753300000000000 Au
atom 7.4699699800000001 24.6717678900000017 0.1094494400000000 Au
atom 10.2792936499999996 24.6979373399999993 0.1557189600000000 Au
atom 13.1190346400000006 24.6579740899999997 0.1112186800000000 Au
atom 15.9479885100000001 24.6707799600000008 -0.0071116900000000 Au
atom 18.7984476600000008 24.6918574799999995 0.0421917100000000 Au
atom 21.6300531400000011 24.6520289900000016 0.1795976200000000 Au
atom 24.4423548799999999 24.7481445800000017 0.1221181300000000 Au
atom 27.2162370600000010 24.6919457300000005 0.0163996500000000 Au
atom 1.8453010100000000 24.7440596500000005 0.0200896800000000 Au
atom 4.6217389799999999 24.6786865800000008 0.0601283000000000 Au
atom 8.8987606199999991 27.1077195899999985 -0.0267905500000000 Au
atom 11.7275201500000001 27.1579220899999996 0.0557438800000000 Au
atom 14.5656712400000004 27.0956917200000014 0.1108936800000000 Au
atom 17.3381964800000006 27.1842346299999988 0.0288073100000000 Au
atom 20.1999555400000013 27.1280147599999992 0.0716509500000000 Au
atom 22.9913641300000009 27.2002408799999991 0.0041280200000000 Au
atom 25.8565022999999989 27.2035745200000001 0.0727488100000000 Au
atom 0.4339683800000000 27.1522936699999988 0.0001960500000000 Au
atom 3.2560385200000002 27.1894173300000013 0.0652913000000000 Au
atom 6.0570286099999997 27.1305577199999988 0.0963954800000000 Au
atom 7.4720139899999998 29.5461602300000017 -0.1149644800000000 Au
atom 10.2726452699999999 29.5723778899999985 0.0041940400000000 Au
atom 13.1382898200000007 29.6266572500000009 -0.0000841600000000 Au
atom 15.9188740099999997 29.6180905099999983 -0.0289566400000000 Au
atom 18.7662784000000009 29.6087721500000001 0.0698591400000000 Au
atom 21.5450996199999985 29.6322443500000006 0.0949307800000000 Au
atom 24.3811730199999985 29.6428091699999996 0.0441909200000000 Au
atom 27.2100792200000008 29.6318157800000002 -0.0171489600000000 Au
atom 1.8242627800000000 29.5848935100000006 0.0857395700000000 Au
atom 4.6433135300000004 29.6294673099999990 0.0151677400000000 Au
atom 8.9218192599999995 32.0441438100000013 -0.0198865700000000 Au
atom 11.6895443900000000 32.0878490300000010 0.0002122700000000 Au
atom 14.5184487600000001 32.0893345200000013 -0.0918617000000000 Au
atom 17.3150364600000017 32.0611547399999992 -0.0000549400000000 Au
atom 20.1308220400000017 32.0401763899999992 0.1210588100000000 Au
atom 22.9388229599999995 32.0718952599999980 0.0212829100000000 Au
atom 25.7855963899999985 32.1285762199999994 0.0713341300000000 Au
atom 0.3703255600000000 32.0631240100000028 0.0475823300000000 Au
atom 3.2173331799999998 32.0610874199999998 -0.0157462500000000 Au
atom 6.1085219700000000 32.0795069500000025 -0.1044474500000000 Au
atom 7.4986084899999996 34.5109905400000017 0.0518884600000000 Au
atom 10.2787047400000002 34.5583377100000035 -0.0511722600000000 Au
atom 13.0807544500000006 34.5344688400000024 0.0026134900000000 Au
atom 15.9132963099999998 34.5210329700000003 -0.0847265100000000 Au
atom 18.7795286200000007 34.5169026700000003 0.1226890400000000 Au
atom 21.5711710799999992 34.5245148500000028 0.0327829700000000 Au
atom 24.3847392599999999 34.5578740799999977 -0.1469985500000000 Au
atom 27.2212662799999983 34.5391346899999974 -0.0090684300000000 Au
atom 1.8839018300000001 34.5542323999999965 -0.0254367800000000 Au
atom 4.6967858600000003 34.4923821100000012 0.0671769800000000 Au
atom 8.9303174300000006 36.9951731900000027 -0.1096210900000000 Au
atom 11.7574253300000002 37.0720954299999974 0.0248202000000000 Au
atom 14.5775043100000001 37.0099974099999969 0.0781522600000000 Au
atom 17.3395564600000007 36.9698108300000001 0.0881755500000000 Au
atom 20.1580747500000008 36.9629578099999989 0.0247843700000000 Au
atom 23.0054786699999987 36.9854510199999993 -0.1261016100000000 Au
atom 25.8549921299999994 37.0365376900000030 -0.0066770300000000 Au
atom 0.4833791600000000 37.0426689600000003 0.0054902700000000 Au
atom 3.3118057799999998 37.0002861400000000 0.1314766800000000 Au
atom 6.1140980899999997 37.0261215900000025 0.0864814700000000 Au
atom 7.5008853799999997 0.0126032000000000 -0.0549809300000000 Au
atom 10.3475908000000008 0.0292452300000000 0.0862654200000000 Au
atom 13.1801819699999996 0.0097483600000000 0.1280889900000000 Au
atom 16.0028918699999991 -0.0134996600000000 0.1386368700000000 Au
atom 18.8180872199999989 -0.0572642800000000 0.0669033800000000 Au
atom 21.6267004000000007 -0.0107760300000000 -0.0537750500000000 Au
atom 24.4130826799999987 0.0358475800000000 0.0453136800000000 Au
atom 27.2625384100000012 0.0185987600000000 0.0694076300000000 Au
atom 1.8960321200000001 0.0126109600000000 0.0814079500000000 Au
atom 4.6839764800000001 -0.0099101500000000 0.0567545500000000 Au
atom 8.8771211099999991 2.4918267599999999 0.0655029500000000 Au
atom 11.7555775400000009 2.5408299300000001 -0.0457232700000000 Au
atom 14.6122554900000008 2.3997893499999998 0.1009896200000000 Au
atom 17.4459555199999983 2.4622951700000000 0.1427283200000000 Au
atom 20.2853697199999985 2.4213025699999999 0.1824575300000000 Au
atom 23.0677772099999991 2.5253590300000002 0.0365204300000000 Au
atom 25.8562369499999996 2.4861896099999998 0.0289807100000000 Au
atom 0.4460775500000000 2.5025505099999998 0.0427727400000000 Au
atom 3.2736310999999998 2.4462640800000002 0.0833226900000000 Au
atom 6.0540339799999998 2.4696034600000001 -0.0335767300000000 Au
atom 7.4983578800000004 4.9130137800000000 0.1633394900000000 Au
atom 10.3111193199999995 4.9753413899999996 0.1036207000000000 Au
atom 13.1690707800000002 4.8977884200000004 0.0774687000000000 Au
atom 15.9590005200000000 4.8826125800000000 0.1673853100000000 Au
atom 18.8401024300000017 4.8655196299999997 0.0572646200000000 Au
atom 21.6023583499999994 4.9380053000000004 0.2740503100000000 Au
atom 24.5084224100000014 4.9497956099999998 -0.0000671400000000 Au
atom 27.2717992900000006 4.9955145400000003 0.1145790400000000 Au
atom 1.9119434200000001 4.9132702100000003 -0.1023356200000000 Au
atom 4.7177628100000000 4.9292165600000004 0.1948032500000000 Au
atom 8.8825110699999996 7.4671656300000002 0.0966279300000000 Au
atom 11.7661622999999995 7.3985494599999999 0.0513540600000000 Au
atom 14.5698041299999996 7.3704432300000002 0.0296359700000000 Au
atom 17.3684845800000005 7.3634280099999998 0.0721692600000000 Au
atom 20.2359967199999993 7.3970670800000002 -0.0432271400000000 Au
atom 23.0839105700000005 7.3329578099999999 0.0071549900000000 Au
atom 25.8816898699999989 7.4586231500000002 0.0511912700000000 Au
atom 0.5145344500000000 7.3735604199999996 0.0844346200000000 Au
atom 3.2629842099999999 7.3834367399999996 0.0053785200000000 Au
atom 6.1209323600000003 7.4050235799999999 0.1054054300000000 Au
atom 7.4675417800000004 9.8977351599999999 -0.0199173600000000 Au
atom 10.3654321300000003 9.8581325300000007 0.0002021700000000 Au
atom 13.1753463800000006 9.8276138500000005 0.0576244700000000 Au
atom 15.9824096699999991 9.8486698799999992 -0.0461766400000000 Au
atom 18.7911028699999996 9.8644891999999995 -0.2151819400000000 Au
atom 21.6354601700000018 9.8569145400000000 -0.0053892100000000 Au
atom 24.4016032500000009 9.9097116900000000 -0.0724434100000000 Au
atom 27.2611689199999994 9.9177468500000003 -0.0071780900000000 Au
atom 1.8581979099999999 9.8053819000000004 -0.0178042300000000 Au
atom 4.6823157300000000 9.8530395500000001 -0.0918068300000000 Au
atom 8.8400994799999992 12.3714473199999997 -0.1808905000000000 Au
atom 11.7188149300000006 12.3213420199999995 -0.0004486000000000 Au
atom 14.5405387899999994 12.3291621700000000 -0.0823849200000000 Au
atom 17.4201123399999993 12.3446734500000002 0.0546300400000000 Au
atom 20.1978576399999987 12.3061859200000008 0.0847318400000000 Au
atom 22.9589032199999998 12.3522186000000005 0.0169810200000000 Au
atom 25.8028555799999992 12.3454291000000005 -0.0013666100000000 Au
atom 0.4460998900000000 12.3411321800000007 0.0270692300000000 Au
atom 3.1939825000000002 12.3211099399999995 0.1061242000000000 Au
atom 6.0158787199999999 12.3867421499999999 -0.0087232900000000 Au
atom 7.5002758700000003 13.1379023999999998 2.5572784199999998 Au
atom 10.2495344999999993 13.2052650699999994 2.5027238700000001 Au
atom 13.0814522499999999 13.1709221200000002 2.6678410600000002 Au
atom 15.9078966800000003 13.1476367599999993 2.5306161800000000 Au
atom 18.7534201699999983 13.1824500600000007 2.7326395400000001 Au
atom 21.6208357199999988 13.1557806599999996 2.5654113500000002 Au
atom 24.4444533799999988 13.1908040799999995 2.6776398600000002 Au
atom 27.2413865599999987 13.1921080899999996 2.5182480500000000 Au
atom 1.9091763700000000 13.2062148900000000 2.7715434800000001 Au
atom 4.7204697600000003 13.1847330399999993 2.6420248499999999 Au
atom 8.9098018999999997 15.6337789600000008 2.5440659499999998 Au
atom 11.7115993100000004 15.6788936099999994 2.5802735499999998 Au
atom 14.5575194299999993 15.6489238499999992 2.6099127700000002 Au
atom 17.3982652199999990 15.6443080299999995 2.6644624200000000 Au
atom 20.2351285400000016 15.6289855800000002 2.5452641499999999 Au
atom 23.0254356999999992 15.6545825999999995 2.7170835499999999 Au
atom 25.8914856899999997 15.6704091299999995 2.6256619500000000 Au
atom 0.5072683600000000 15.6144590500000007 2.4941976499999998 Au
atom 3.3095289600000002 15.5824067900000003 2.6290303300000000 Au
atom 6.1516259299999998 15.6469767500000003 2.5290362100000001 Au
atom 7.5600232700000003 18.0972546600000008 2.7995856500000000 Au
atom 10.3523690899999998 18.1650805800000015 2.5611730399999999 Au
atom 13.1522542300000005 18.0623713799999983 2.6361310200000001 Au
atom 16.0182914399999987 18.1370472499999984 2.4786283000000000 Au
atom 18.8351263300000014 18.0745640099999996 2.5956608100000000 Au
atom 21.6266670400000010 18.1530075000000011 2.5161345200000000 Au
atom 24.4204320499999987 18.0791642500000016 2.7208404900000001 Au
atom 27.2588816999999999 18.0925267800000000 2.6548824299999998 Au
atom 1.8789832600000000 18.0873262900000000 2.7457522600000002 Au
atom 4.6806009099999999 18.1267775200000010 2.7252407900000000 Au
atom 8.9426989999999993 20.6429843099999992 2.8549939800000002 Au
atom 11.8053206900000003 20.5679552799999996 2.6777983100000000 Au
atom 14.6144667399999992 20.5621430600000004 2.6298707600000002 Au
atom 17.4213397599999986 20.5602286099999993 2.6705485699999998 Au
atom 20.2631572700000007 20.6279186500000016 2.6718910500000002 Au
atom 23.0586917199999988 20.5669633300000001 2.7152276899999999 Au
atom 25.8595471500000009 20.5847492400000007 2.7040210099999999 Au
atom 0.5106870300000000 20.5998607599999985 2.6974887800000000 Au
atom 3.3138098899999999 20.6556755800000005 2.7942603400000001 Au
atom 6.1223982699999997 20.5970834600000003 2.7405674800000002 Au
atom 7.5384274099999997 23.0210332300000005 2.6893710899999999 Au
atom 10.3730081900000002 23.1148924099999995 2.7635644099999999 Au
atom 13.2323149799999999 23.0036587200000007 2.7281577000000001 Au
atom 16.0235179800000012 23.1050106500000005 2.6354282599999999 Au
atom 18.8067227899999985 23.0783163699999996 2.5373817000000001 Au
atom 21.6009231799999988 23.0497853799999994 2.7550608799999998 Au
atom 24.3957204800000014 23.0597425600000001 2.7478453200000001 Au
atom 27.2778936600000002 23.0824029800000012 2.6532033300000002 Au
atom 1.9173455100000001 23.0787255400000006 2.6377581200000000 Au
atom 4.6552813799999999 23.1658375300000010 2.6326771800000000 Au
atom 8.8725191100000007 25.5392825200000004 2.7267986000000000 Au
atom 11.7529753199999991 25.5474407200000009 2.7356566700000000 Au
atom 14.6055956800000004 25.5030761900000016 2.6109932200000001 Au
atom 17.4221314400000011 25.5711633300000010 2.6320606400000002 Au
atom 20.2252712800000012 25.5330627700000008 2.7281412999999999 Au
atom 23.0171434300000008 25.5506213399999993 2.7261567300000000 Au
atom 25.8837331100000014 25.5106794999999984 2.6487849500000000 Au
atom 0.4933528500000000 25.5009598000000004 2.6493509899999999 Au
atom 3.2737518500000000 25.5769086600000009 2.7419983499999998 Au
atom 6.0924197500000004 25.5750346099999994 2.7093338100000000 Au
atom 7.5469548000000000 28.0283997499999984 2.5134465300000000 Au
atom 10.3520052499999995 28.0179411000000016 2.6210591200000000 Au
atom 13.1762917399999999 28.0449507099999984 2.6220870999999999 Au
atom 15.9966289800000006 28.0689664699999994 2.6587208599999999 Au
atom 18.7971239700000012 27.9967704799999986 2.6468621799999998 Au
atom 21.6436883699999996 28.0271797900000017 2.7023245600000001 Au
atom 24.4345455700000009 27.9843551300000009 2.5842478000000000 Au
atom 27.2647593800000010 27.9958470699999999 2.6341326000000000 Au
atom 1.8361579900000000 28.0146730099999992 2.6701406900000002 Au
atom 4.6699552100000004 28.0474612000000008 2.6822675700000000 Au
atom 8.9134349400000001 30.4543120999999992 2.5063394600000000 Au
atom 11.7336314999999995 30.4694042799999991 2.6075016600000001 Au
atom 14.5920381599999995 30.4946505600000002 2.5801302499999998 Au
atom 17.4286827100000004 30.4793770399999993 2.5996413199999999 Au
atom 20.2347194500000001 30.4742632899999997 2.7202026799999999 Au
atom 22.9999824699999991 30.4993624799999985 2.6650345899999999 Au
atom 25.7735342100000011 30.4757229500000015 2.6776285400000002 Au
atom 0.3942243700000000 30.5184085600000010 2.6269512700000002 Au
atom 3.2209273000000000 30.4995419900000009 2.6356049499999998 Au
atom 6.1050309199999999 30.4565443100000017 2.4891590699999999 Au
atom 7.5195524799999998 32.9251231599999983 2.6298179300000002 Au
atom 10.3375432099999998 32.9314040100000014 2.6219321799999999 Au
atom 13.1784049299999992 32.9370170199999990 2.6199966600000000 Au
atom 15.9806429699999999 32.8864014700000027 2.5412489200000001 Au
atom 18.8012851199999993 32.9333920099999986 2.6791211700000002 Au
atom 21.6058977399999996 32.9267680100000035 2.7415047499999998 Au
atom 24.3804643699999986 32.9752238399999982 2.5636397999999998 Au
atom 27.2551632899999987 32.9179553399999989 2.7013062500000000 Au
atom 1.8911481600000000 32.9358378100000024 2.5988221199999999 Au
atom 4.7147217599999998 32.9004777299999986 2.5673491199999998 Au
atom 8.8558194399999994 35.4324407599999986 2.5766431100000000 Au
atom 11.7207071700000007 35.4026054200000004 2.5304157699999998 Au
atom 14.5174560300000000 35.3604721900000030 2.7017903599999999 Au
atom 17.3445176900000000 35.3570555200000030 2.6591603300000002 Au
atom 20.1955531400000012 35.3656107300000002 2.6891262100000000 Au
atom 23.0126340399999982 35.4187801500000035 2.6436650899999998 Au
atom 25.8355805300000014 35.3512704600000021 2.4825567199999998 Au
atom 0.4474005400000000 35.3979662799999986 2.6020157799999999 Au
atom 3.2490141299999999 35.3513468299999971 2.7164758099999999 Au
atom 6.0548428400000001 35.3941268800000017 2.7089089400000002 Au
atom 7.4730546200000001 37.8891805499999990 2.5911585900000000 Au
atom 10.2901444499999997 37.8685725599999969 2.6213036399999998 Au
atom 13.1443866200000006 37.8773326499999996 2.7323686500000002 Au
atom 15.9522484400000000 37.7880922299999966 2.8045279700000001 Au
atom 18.7736397799999999 37.7703796199999999 2.5843045500000001 Au
atom 21.5656081899999990 37.8147773199999975 2.5132395700000001 Au
atom 24.4449244000000014 37.8440192400000015 2.6013421600000002 Au
atom 27.2281583900000008 37.8691523399999994 2.7348003900000002 Au
atom 1.8281333099999999 37.8291277800000003 2.6649015199999999 Au
atom 4.6511304999999998 37.8379385799999994 2.6566817000000000 Au
atom 8.9091174300000002 0.8830019800000000 2.6859755100000000 Au
atom 11.7421178600000005 0.8679441900000000 2.7370024100000001 Au
atom 14.5799525299999999 0.8399624700000000 2.7831866700000001 Au
atom 17.4022161199999985 0.8134084700000001 2.7133578900000002 Au
atom 20.1530899599999991 0.7845670100000000 2.6805264400000000 Au
atom 22.9283440399999989 0.8202966200000000 2.6669758699999999 Au
atom 25.7896184999999996 0.8646988600000000 2.5520171600000001 Au
atom 0.4491877500000000 0.8489114900000000 2.6516398699999999 Au
atom 3.2819612100000000 0.8152694700000001 2.7039355800000000 Au
atom 6.0882463199999997 0.8332862000000000 2.5671969300000002 Au
atom 7.4692028800000001 3.3312294499999999 2.7334279200000000 Au
atom 10.3273000400000008 3.3374176100000001 2.6223679600000001 Au
atom 13.1537185000000001 3.3357954599999999 2.5876427700000000 Au
atom 15.9777233600000006 3.3369590900000001 2.7941957099999999 Au
atom 18.7967199399999991 3.3525577200000001 2.7447764900000000 Au
atom 21.6232581699999997 3.3265781699999999 2.7657934800000001 Au
atom 24.4668009799999986 3.3702282700000001 2.6286325100000001 Au
atom 27.2470997900000000 3.3345747600000002 2.6597423999999998 Au
atom 1.9510974200000000 3.3439800700000002 2.5485604799999999 Au
atom 4.7037258000000000 3.2410476600000000 2.6329706800000001 Au
atom 8.8392799100000001 5.7336619000000004 2.7218733099999999 Au
atom 11.6596491899999997 5.8162286900000000 2.7165701699999998 Au
atom 14.4500537599999994 5.7834161300000000 2.7757753500000000 Au
atom 17.3500998300000013 5.8027678600000003 2.7281015499999999 Au
atom 20.2029605799999992 5.8606168299999997 2.7618182299999998 Au
atom 23.0109820999999997 5.8605466699999997 2.7374688599999999 Au
atom 25.8471649799999987 5.8224279399999999 2.6373450500000000 Au
atom 0.4346934100000000 5.7646456500000003 2.6648242799999999 Au
atom 3.2428577000000001 5.7969676400000001 2.6878831000000001 Au
atom 6.0564204600000000 5.7687303300000004 2.8516030699999999 Au
atom 7.4742475700000002 8.1978426599999992 2.7210255100000000 Au
atom 10.2540898400000007 8.2316489500000003 2.6366058400000001 Au
atom 13.0712058300000002 8.2552959000000001 2.6537184200000001 Au
atom 15.9506610000000002 8.2072074599999993 2.6308292299999998 Au
atom 18.8220998000000002 8.3057801999999992 2.4669041900000002 Au
atom 21.6600257700000007 8.2781801700000006 2.5172787300000001 Au
atom 24.4737020500000000 8.3157928000000005 2.5485906500000000 Au
atom 27.3135812999999992 8.3040148400000007 2.6960033700000001 Au
atom 1.8717946299999999 8.2910673599999996 2.7153682400000001 Au
atom 4.6407154600000000 8.2758985599999999 2.6138280300000001 Au
atom 8.8704268099999997 10.6701103300000000 2.4627285900000002 Au
atom 11.6502752199999993 10.7210649000000000 2.7233341400000000 Au
atom 14.5018903199999993 10.6678792100000006 2.4540675599999999 Au
atom 17.3738813699999994 10.6654387699999997 2.5504441600000001 Au
atom 20.1678120499999984 10.7499382699999995 2.5813936700000002 Au
atom 23.0007121400000010 10.7419676099999997 2.5364887600000001 Au
atom 25.8471405099999991 10.7370260099999992 2.5237255900000002 Au
atom 0.5097872300000000 10.7717205899999993 2.5822822900000002 Au
atom 3.3000826100000000 10.7613519600000007 2.6456169699999998 Au
atom 6.0636446099999999 10.6845876099999995 2.5728513600000000 Au
atom 7.5499874900000004 13.1352590700000000 5.7533547799999996 Cl
atom 7.4139723599999998 15.9243814799999992 8.5609920499999994 Cl
atom 7.4760986699999998 13.2214239700000000 8.4327961100000000 Na
atom 7.5693770499999999 15.9194711299999998 5.8311268900000002 Na
atom 7.4430725300000002 18.7538975800000003 5.7825169799999996 Cl
atom 7.5299538699999999 21.5681703899999988 8.6096794699999997 Cl
atom 7.5924853399999996 18.7257032400000014 8.4204097999999998 Na
atom 7.4758736099999998 21.5749517600000011 5.9070435600000000 Na
atom 7.4818230899999998 24.4388012000000003 5.8539928799999998 Cl
atom 7.5438704200000002 27.3080008300000010 8.6238484799999995 Cl
atom 7.5626562899999996 24.4696937900000009 8.5122827300000008 Na
atom 7.5703667599999998 27.3231867299999998 5.8836341399999998 Na
atom 7.4657969900000003 30.1435262799999997 5.7211351600000002 Cl
atom 7.5324224199999996 32.9521325199999993 8.6457133099999997 Cl
atom 7.4764895200000003 30.1252642199999983 8.4447361999999995 Na
atom 7.5375097999999996 32.9910172000000017 5.9032073799999996 Na
atom 7.4648158400000000 35.8241393699999975 5.7497864600000002 Cl
atom 7.5095151900000001 38.5285872999999981 8.6523333999999998 Cl
atom 7.5579707599999999 35.8361286499999991 8.4051919500000007 Na
atom 7.5052722899999997 38.6802460400000001 5.8929953199999998 Na
atom 7.5348981799999999 2.0076943500000000 5.8352383999999997 Cl
atom 7.5263127599999997 4.7572569600000003 8.6792130299999997 Cl
atom 7.4133400099999998 1.9100858999999999 8.5193842600000007 Na
atom 7.4462379500000004 4.6959598500000004 5.9330845900000000 Na
atom 7.4515159999999998 7.4224509000000003 5.7982613799999996 Cl
atom 7.5245943899999999 10.3009260099999995 8.7176493300000004 Cl
atom 7.4546139499999997 7.5591408800000002 8.5126109799999998 Na
atom 7.5247346300000002 10.3176612799999994 5.9645374999999996 Na
atom 10.3531238400000003 13.1637168199999994 5.9530984399999998 Na
atom 13.1059555599999999 13.1324704699999995 5.7696231999999998 Cl
atom 10.3643371399999999 15.9470216600000008 8.4500325099999998 Na
atom 13.0824302400000008 15.8866651799999996 8.6632622900000005 Cl
atom 13.2560632999999992 13.1210131600000004 8.3473911899999997 Na
atom 10.2161641900000006 13.1190650000000009 8.6880945599999997 Cl
atom 13.0402548199999995 15.9148295700000002 5.7464299399999996 Na
atom 10.3092890500000003 16.0839019800000003 5.7669726499999996 Cl
atom 10.2626021000000005 18.9139911500000011 5.8025380699999998 Na
atom 13.0663913500000000 18.7825146700000012 5.6795098599999996 Cl
atom 10.2539262000000004 21.6374938700000001 8.4462915200000008 Na
atom 13.0546743900000006 21.6545518900000005 8.6395661900000000 Cl
atom 13.0614528199999995 18.8561927599999990 8.3548538099999998 Na
atom 10.3452967000000005 18.7453988699999989 8.5544962499999997 Cl
atom 13.1605608499999995 21.6216533999999996 5.8370029900000002 Na
atom 10.3122871099999998 21.5887585699999995 5.7722170699999999 Cl
atom 10.3392044199999997 24.4320073600000001 5.8123383700000000 Na
atom 13.1282104499999992 24.4421797900000008 5.7028848099999996 Cl
atom 10.3017754400000001 27.2414561299999995 8.4304453800000001 Na
atom 13.1146093799999992 27.4377533100000015 8.5618233900000007 Cl
atom 13.1216115200000001 24.5776487800000005 8.3566395000000000 Na
atom 10.3635844000000006 24.4499800900000004 8.5954900999999992 Cl
atom 13.2168971099999997 27.2946683499999985 5.8066463600000002 Na
atom 10.2258738600000001 27.2063188300000007 5.8072154200000003 Cl
atom 10.3964159100000000 30.0782149899999993 5.7859659099999998 Na
atom 13.2719986599999995 30.1484927700000007 5.7041904499999996 Cl
atom 10.2965459700000004 32.8445929700000008 8.4411016900000000 Na
atom 13.1886823700000004 32.8752565899999993 8.6500545899999999 Cl
atom 13.2231162300000005 30.1161906500000001 8.3957990200000001 Na
atom 10.3046794399999992 30.0639419500000002 8.5782500400000004 Cl
atom 13.1400732999999992 32.9731301899999991 5.8301588600000001 Na
atom 10.2337373300000003 32.9567157199999983 5.7382927700000002 Cl
atom 10.3187405600000002 35.7728779799999970 5.8756603399999996 Na
atom 13.1103567999999999 35.8533767300000008 5.7986000600000001 Cl
atom 10.3573557100000002 38.6121504199999990 8.4295667499999993 Na
atom 13.1516380900000005 38.6004118099999971 8.6633010800000001 Cl
atom 13.1205397900000005 35.8361313799999976 8.4257951700000007 Na
atom 10.3118928099999998 35.8210405399999985 8.5650262099999992 Cl
atom 13.1121968399999993 38.7010288900000035 5.8422172999999997 Na
atom 10.3689733700000009 38.7195212100000035 5.7345717699999996 Cl
atom 10.2754249499999997 1.9792888900000001 5.8866639699999999 Na
atom 13.1461636800000008 1.9062789400000000 5.8815513499999996 Cl
atom 10.2505879300000000 4.7165837799999997 8.4996370500000005 Na
atom 13.1068148000000004 4.7455923799999997 8.6856945200000002 Cl
atom 13.0932640700000000 1.9123788799999999 8.5101128799999994 Na
atom 10.2750588199999999 1.9521041500000000 8.5923822500000000 Cl
atom 13.0284343400000004 4.6556543000000001 5.8994579099999997 Na
atom 10.2434611300000000 4.6868773099999999 5.8112760300000001 Cl
atom 10.2879520499999995 7.4904505900000000 5.9068489299999998 Na
atom 13.0180982400000005 7.4208997400000003 5.8134333199999997 Cl
atom 10.3399391200000004 10.3639186300000006 8.4279004200000003 Na
atom 13.1231992799999997 10.3280594000000008 8.5310758500000006 Cl
atom 13.0656450300000007 7.4982351600000001 8.4341441600000007 Na
atom 10.3273639799999994 7.5691270499999996 8.7089118299999999 Cl
atom 13.1390764200000003 10.2417417499999992 5.8257950899999997 Na
atom 10.2828127899999995 10.2702347300000003 5.8001751099999996 Cl
atom 16.0075114200000002 13.2961643299999999 5.6660026800000001 Na
atom 18.8601021899999992 13.1626115000000006 5.5097584299999998 Cl
atom 15.8477588199999992 15.9687630100000000 8.3920110799999996 Na
atom 18.7802260700000012 15.8870795800000000 8.5641632800000007 Cl
atom 18.8205910900000006 13.1598200100000007 8.2380575199999999 Na
atom 15.9618995500000000 13.1662478899999993 8.3637558300000006 Cl
atom 18.8562137300000003 16.2468853499999994 5.8136064100000002 Na
atom 16.0241551400000013 16.0538537999999988 5.5756394000000000 Cl
atom 15.8596893800000007 18.7814624300000013 5.6699542899999997 Na
atom 18.8470847799999994 19.0044275399999982 5.8358423300000002 Cl
atom 15.8080217899999997 21.6111186199999992 8.5257354299999992 Na
atom 18.9786708600000011 21.7813310999999992 8.8512513899999998 Cl
atom 18.6010605200000008 18.8330486099999987 8.5640833300000008 Na
atom 15.9243797399999991 18.6888672900000010 8.6258226899999997 Cl
atom 18.7202442900000001 21.7284746400000017 5.9323943500000000 Na
atom 15.9786250800000005 21.5401976499999996 5.8411098299999997 Cl
atom 15.9522165699999992 24.4147362600000015 5.8363366900000004 Na
atom 18.8227350400000013 24.4252937400000008 5.7689630200000002 Cl
atom 16.0120630999999989 27.3272948900000010 8.3141039299999999 Na
atom 18.8448447399999992 27.1900621099999995 8.4297505600000004 Cl
atom 18.9070712400000005 24.5337432399999997 8.3701790000000003 Na
atom 15.7929436299999999 24.4959840699999987 8.6754295599999995 Cl
atom 18.8328113100000003 27.3270386599999995 5.7566544300000002 Na
atom 16.1200352799999997 27.1085808200000002 5.6800999599999997 Cl
atom 16.0329097199999993 30.2190724999999993 5.7981267000000001 Na
atom 18.7724807499999997 30.1730359899999989 5.8179214600000000 Cl
atom 15.9676105499999998 33.0774342599999969 8.4997577999999994 Na
atom 18.8167705400000003 33.0640692599999966 8.7126895100000006 Cl
atom 18.7954319500000011 30.1863751600000008 8.4687295299999992 Na
atom 16.0611452800000016 30.1764699500000013 8.6114148999999998 Cl
atom 18.7801745699999998 33.1333775599999996 6.0187271700000000 Na
atom 16.0322297300000010 33.0495446299999998 5.8670130599999997 Cl
atom 15.9980057000000002 35.8265863499999995 5.9315290599999999 Na
atom 18.7567227299999999 35.9332584400000030 5.8574849400000000 Cl
atom 16.0391941100000004 38.6279325499999970 8.5136666400000003 Na
atom 18.8237756099999984 38.5772379499999971 8.7912302800000006 Cl
atom 18.7608971599999990 35.8370803999999978 8.5404424700000003 Na
atom 15.9821483099999995 35.8069004800000030 8.7452754800000001 Cl
atom 18.7683423500000011 38.6527803000000034 5.9772654699999999 Na