#===============================================================================
# Created using the Atomic Simulation Environment (ASE)

# Tue Dec 23 21:42:11 2025

#=======================================================
lattice_vector 28.1999999999999993 0.0000000000000000 0.0000000000000000 
lattice_vector 0.0000000000000000 39.4799999999999969 0.0000000000000000 
lattice_vector 0.0000000000000000 0.0000000000000000 62.3296083400000001 
atom 7.7405031500000003 14.7570274799999996 0.2081090700000000 Au
atom 10.4841585500000001 14.7705178799999999 0.2916071700000000 Au
atom 13.3522185199999992 14.7839024999999999 0.3065687000000000 Au
atom 16.1287604500000015 14.8442452100000004 0.1455739700000000 Au
atom 18.9029727799999989 14.7520259300000003 0.0759896400000000 Au
atom 21.6958453099999993 14.7637308899999997 0.1579762900000000 Au
atom 24.4731750999999988 14.8335412000000009 -0.1201813000000000 Au
atom 27.3363337000000008 14.7760266199999997 0.0106457800000000 Au
atom 2.0459501699999998 14.8078654400000005 -0.0495948200000000 Au
atom 4.9043988599999997 14.8078199700000006 -0.0837640500000000 Au
atom 9.0754981499999996 17.2123204600000008 0.0699200800000000 Au
atom 11.9987804800000006 17.2733788200000014 0.2488987300000000 Au
atom 14.7464864200000001 17.2618255599999983 0.3714671700000000 Au
atom 17.3755576900000008 17.2752676700000016 -0.0428328000000000 Au
atom 20.3008278699999991 17.1626271499999987 -0.1040353100000000 Au
atom 23.1568267900000002 17.3009637100000013 -0.0659596500000000 Au
atom 25.9746213799999985 17.3593112299999994 -0.1870406800000000 Au
atom 0.5777172100000000 17.2379116100000012 -0.3954564100000000 Au
atom 3.4882076600000000 17.2911958100000014 -0.0672714100000000 Au
atom 6.2703529500000004 17.2215699399999984 -0.2210167100000000 Au
atom 7.7846966599999998 19.6046166200000016 -0.0426368900000000 Au
atom 10.5212628299999995 19.5906202399999998 0.0578100900000000 Au
atom 13.2306979699999996 19.7901503199999986 0.1181444600000000 Au
atom 16.1517158400000014 19.8003943999999983 0.4014790700000000 Au
atom 18.8434754600000005 19.7550384299999990 -0.1984420500000000 Au
atom 21.7133222699999990 19.7110280099999997 -0.2210995100000000 Au
atom 24.6006160999999999 19.8014453300000000 0.0255669600000000 Au
atom 27.5039095300000014 19.7734845300000011 -0.0943754000000000 Au
atom 2.0102388200000001 19.6330917199999995 -0.1763364500000000 Au
atom 4.8524577100000004 19.7077313600000004 -0.0890750500000000 Au
atom 9.1185708800000000 22.0747789099999991 0.3081046700000000 Au
atom 11.8902930100000006 22.1827401500000008 0.1856788500000000 Au
atom 14.7869104100000008 22.2175090900000001 0.3940238700000000 Au
atom 17.6014378799999989 22.2593533000000008 0.0966144900000000 Au
atom 20.3210216599999995 22.2270213900000009 -0.4139516700000000 Au
atom 23.1410967099999993 22.2297459900000014 -0.3085289800000000 Au
atom 26.0772779499999992 22.2550630799999993 -0.2905999800000000 Au
atom 0.7370745000000000 22.1743725000000005 -0.1986032600000000 Au
atom 3.4736725200000000 22.1539409399999982 -0.0455645300000000 Au
atom 6.2600388899999997 22.2215108800000003 -0.1430075900000000 Au
atom 7.6987575699999997 24.6444863699999992 0.1238785700000000 Au
atom 10.5135984199999992 24.6771578699999985 0.1484727400000000 Au
atom 13.2999835199999996 24.5582091499999997 -0.1197847300000000 Au
atom 16.0946466599999987 24.6864031100000005 -0.2919287800000000 Au
atom 18.9813407800000000 24.6997073600000014 -0.2934121000000000 Au
atom 21.7628175599999985 24.6948632900000007 -0.4996203400000000 Au
atom 24.4727117900000017 24.7102497800000016 -0.1394539100000000 Au
atom 27.4517262600000009 24.6420052500000004 -0.0585892000000000 Au
atom 1.9685965800000000 24.6869486699999996 -0.2635719700000000 Au
atom 4.7980308799999998 24.6815064500000005 -0.0268104500000000 Au
atom 9.0525235199999994 27.0761439599999996 -0.3687009300000000 Au
atom 11.8195145900000007 27.0110680800000011 -0.2642670600000000 Au
atom 14.6627440799999995 27.1408318800000004 -0.3845733400000000 Au
atom 17.4712343300000015 27.1845945200000010 -0.5424513100000000 Au
atom 20.3880617000000015 27.1820474700000005 -0.5972831800000000 Au
atom 23.0900668600000003 27.0697877899999995 -0.2171128200000000 Au
atom 25.8956989200000010 27.1097997600000014 -0.2686306900000000 Au
atom 0.5428671700000000 27.1051386100000009 -0.1641487200000000 Au
atom 3.3600425299999999 27.0558131000000017 -0.3597523400000000 Au
atom 6.1979969400000003 27.2541108200000011 -0.2069690700000000 Au
atom 7.6009671599999997 29.5760845299999993 -0.2430303100000000 Au
atom 10.3520999200000006 29.5911326899999985 -0.1471336500000000 Au
atom 13.0421719100000004 29.5768353700000013 -0.3825402900000000 Au
atom 16.0427368399999999 29.6592684700000007 -0.2945000000000000 Au
atom 18.9255105199999996 29.7615716399999997 -0.3113268000000000 Au
atom 21.8141155699999985 29.5714232000000017 -0.0937313100000000 Au
atom 24.4590270799999985 29.6310139100000001 -0.1105427200000000 Au
atom 27.2171539200000012 29.5712670799999984 -0.3012194000000000 Au
atom 1.9167971699999999 29.6232972799999992 -0.1863974400000000 Au
atom 4.7008146200000001 29.7163143900000009 -0.2735516500000000 Au
atom 9.0558680500000008 32.1424918000000019 0.0079777400000000 Au
atom 11.8506144399999993 32.2026434300000020 0.0969003300000000 Au
atom 14.5572672599999997 32.0394050199999967 -0.1878129400000000 Au
atom 17.4128126200000004 32.0999564999999976 -0.2380884100000000 Au
atom 20.1777054000000007 32.0982447100000030 -0.1356839400000000 Au
atom 23.0412415899999985 32.0513747500000008 -0.0162912900000000 Au
atom 25.8487904399999984 32.0915082799999993 -0.1994511900000000 Au
atom 0.5401365100000000 32.0856470599999994 -0.2081316700000000 Au
atom 3.3602994800000001 32.0611103700000015 0.0488121300000000 Au
atom 6.3395111300000000 32.1690452799999989 -0.2689872800000000 Au
atom 7.7122700000000002 34.5987374899999978 0.0374858000000000 Au
atom 10.4414922899999993 34.5557867799999983 0.4352049300000000 Au
atom 13.1788119500000001 34.6234366400000013 -0.2937637700000000 Au
atom 16.0007659999999987 34.5869273300000017 -0.3023564100000000 Au
atom 18.9076733200000007 34.5607343699999987 0.2336907600000000 Au
atom 21.7032781999999997 34.5658658400000007 -0.0134292400000000 Au
atom 24.4497325299999986 34.6097633400000007 0.0200219800000000 Au
atom 27.2853868900000016 34.5493537300000000 -0.1292873200000000 Au
atom 1.9281013600000001 34.6192413500000029 0.0808698900000000 Au
atom 4.7848612399999997 34.5423312799999991 0.1145670400000000 Au
atom 8.9026996399999998 37.0650396200000003 0.3716548500000000 Au
atom 11.8209214700000000 37.0346521000000024 0.2492697800000000 Au
atom 14.6223584199999994 37.1336567099999968 -0.1799412800000000 Au
atom 17.3121981799999993 36.9135759500000020 0.3839451500000000 Au
atom 20.2297933500000013 37.0060405199999991 0.2729877800000000 Au
atom 23.0654875900000000 36.9326474599999983 0.3864028900000000 Au
atom 25.7853772100000000 37.0566371700000019 0.1945356000000000 Au
atom 0.5091172200000000 37.1037209799999985 -0.0966343100000000 Au
atom 3.3287443799999998 37.0219490300000018 -0.2388463300000000 Au
atom 6.1781208000000003 36.9882427399999969 0.0058244400000000 Au
atom 7.4549616399999996 0.0904484800000000 0.2319760000000000 Au
atom 10.2703683199999993 0.0376951400000000 0.2549590200000000 Au
atom 13.1427605700000001 0.0268196900000000 0.0946550300000000 Au
atom 15.9110820499999992 -0.1388934000000000 0.5716393400000001 Au
atom 18.7868777199999997 -0.1160125500000000 -0.0609909900000000 Au
atom 21.7824540700000000 -0.0424762700000000 0.0036660000000000 Au
atom 24.5227203600000010 0.0177687200000000 0.0533511700000000 Au
atom 27.3525579000000008 0.1763689500000000 0.1296433700000000 Au
atom 1.9148391400000000 0.0733450900000000 -0.1803813800000000 Au
atom 4.6414356400000001 0.0458228000000000 -0.1341123000000000 Au
atom 9.0068260200000001 2.5303019199999999 0.1284150200000000 Au
atom 11.7885133000000000 2.4996004300000001 0.1483573400000000 Au
atom 14.6332773799999991 2.4756172699999999 0.2543752600000000 Au
atom 17.5967252800000011 2.3195307999999999 0.3824885300000000 Au
atom 20.2458881300000009 2.3846038100000002 0.1114477000000000 Au
atom 23.0675062299999993 2.4724197999999999 0.4913101700000000 Au
atom 25.9067413600000016 2.6031510099999999 0.2768698700000000 Au
atom 0.5667437900000000 2.5420540500000000 0.2928134900000000 Au
atom 3.3454423400000000 2.5806792299999999 0.0838273800000000 Au
atom 6.1279955599999996 2.4806157299999998 0.1024687600000000 Au
atom 7.5313814600000004 4.9066292200000001 0.3527774200000000 Au
atom 10.4619295099999992 4.9134122700000002 0.3777465600000000 Au
atom 13.2110639400000007 4.9838873299999999 -0.0029352100000000 Au
atom 16.1170927800000001 4.8284374899999998 0.0287929100000000 Au
atom 18.8136216300000001 4.8377006700000003 0.1714689000000000 Au
atom 21.6206327400000013 4.7961574400000000 0.1493412000000000 Au
atom 24.4209978700000008 4.9893778400000004 0.2973944800000000 Au
atom 27.3090319900000011 5.0235142699999997 0.3919543500000000 Au
atom 1.9929869400000000 4.9663651700000004 0.1425854700000000 Au
atom 4.7601719999999998 4.9292838200000002 0.3126085200000000 Au
atom 9.0946791200000003 7.4290724900000003 0.2647088900000000 Au
atom 11.7743027799999993 7.3720321899999997 0.2800323900000000 Au
atom 14.6087222600000004 7.3432870299999999 -0.2434535400000000 Au
atom 17.4376458800000016 7.2721768100000004 -0.0332740500000000 Au
atom 20.3012697499999994 7.2949726699999999 0.1428151000000000 Au
atom 23.0691950900000009 7.3690586800000002 0.5162485800000000 Au
atom 25.9247882700000005 7.3980988500000002 0.2430733900000000 Au
atom 0.5338273600000000 7.5088261100000002 0.1837293400000000 Au
atom 3.3598324200000000 7.4313523999999997 0.1581011500000000 Au
atom 6.2047218800000001 7.3905320699999999 0.2499156500000000 Au
atom 7.5276665300000003 9.9033699399999993 0.4742439600000000 Au
atom 10.3858126800000008 9.7777366200000007 0.1721797300000000 Au
atom 13.1731909999999992 9.8418021899999992 0.1180632200000000 Au
atom 16.0749483600000005 9.8460450999999996 -0.1963340300000000 Au
atom 18.7768987000000003 9.8588742899999993 0.0931982500000000 Au
atom 21.5777288399999989 9.7318733099999992 0.0165241300000000 Au
atom 24.4340243100000016 9.7501968699999999 0.0353048300000000 Au
atom 27.3271398099999985 9.8902696399999996 -0.0763159400000000 Au
atom 1.9604001799999999 10.0086733100000007 0.0648602900000000 Au
atom 4.7185875599999996 9.7971482999999999 0.1509968300000000 Au
atom 9.0311821099999996 12.2508452200000004 0.2220896500000000 Au
atom 11.8523064999999992 12.3058824100000006 0.0633073700000000 Au
atom 14.6502177299999996 12.4084313399999999 -0.0874400500000000 Au
atom 17.4408975999999996 12.3460259800000003 -0.1574838200000000 Au
atom 20.2396142099999992 12.1446071599999996 -0.0227326800000000 Au
atom 23.0990578599999985 12.2496124000000002 0.1294146000000000 Au
atom 25.8795713999999997 12.3894196399999998 0.0718025100000000 Au
atom 0.5612018900000000 12.3805246499999999 0.1455825300000000 Au
atom 3.3856250999999999 12.3869940599999993 0.0976338800000000 Au
atom 6.2755753299999997 12.3419058300000000 0.1720491600000000 Au
atom 7.6075880299999996 13.2513837100000007 2.8061019100000002 Au
atom 10.3986382299999995 13.1259471399999992 2.8870192900000000 Au
atom 13.1964153399999997 13.0861229199999993 2.6890742400000001 Au
atom 16.0413001100000017 13.1334018900000000 2.4963900200000002 Au
atom 19.0001939600000007 13.1902682500000008 2.6018042499999998 Au
atom 21.7640453200000010 13.2158695300000009 2.6705280000000000 Au
atom 24.6161601899999987 13.3015783299999999 2.5242214700000001 Au
atom 27.2956564999999998 13.3014452700000003 2.6263654700000001 Au
atom 1.9796904099999999 13.3335878599999997 2.6875112900000002 Au
atom 4.8197254799999998 13.2618662000000000 2.6730713700000002 Au
atom 9.0822153100000005 15.6773090400000008 2.8346244700000001 Au
atom 11.8785832800000009 15.6118700900000000 2.8277749999999999 Au
atom 14.7278426899999992 15.5656105399999998 3.0782175899999999 Au
atom 17.5636580000000002 15.5867246399999999 2.7621399599999998 Au
atom 20.3659907999999987 15.7456589000000005 2.6280044800000000 Au
atom 23.1404264499999996 15.7193029800000001 2.5181956799999998 Au
atom 26.0379500999999998 15.7968425000000003 2.5605461699999998 Au
atom 0.5946934900000000 15.7081802899999996 2.4275666899999999 Au
atom 3.5783421899999999 15.6717952900000004 2.5453727599999998 Au
atom 6.2655914199999998 15.7487868700000000 2.7559036099999998 Au
atom 7.6199526200000003 18.0598541099999998 2.6894240500000000 Au
atom 10.5344204999999995 18.0508027499999990 2.5829958899999999 Au
atom 13.3028200600000002 18.0171637500000017 3.0307650800000001 Au
atom 16.1001469200000003 18.1069830299999985 2.8252880600000001 Au
atom 18.9027507600000000 18.1386630699999998 2.3588821900000001 Au
atom 21.8163325000000015 18.1823764899999993 2.4921628199999999 Au
atom 24.6017420499999986 18.1161714499999995 2.5542199299999999 Au
atom 27.4579754200000004 18.3170285600000007 2.5360976700000002 Au
atom 2.0841981299999999 18.1952565499999999 2.6472218199999999 Au
atom 4.8682559899999998 18.1877355099999996 2.5060372800000001 Au
atom 9.1077603899999993 20.6476051699999985 2.9053595500000000 Au
atom 11.9665561199999999 20.4638006200000007 2.6906835600000001 Au
atom 14.6384080300000008 20.5979815200000012 2.9420508200000000 Au
atom 17.6779021000000007 20.7297752499999994 2.7696978500000000 Au
atom 20.3952039099999993 20.6265941599999998 2.2399015400000000 Au
atom 23.0796863300000012 20.6086571700000007 2.4772202200000000 Au
atom 26.0163090500000003 20.7420673499999992 2.2858745699999998 Au
atom 0.7061742200000000 20.6108113999999993 2.4343262800000001 Au
atom 3.5187850799999998 20.7149719999999995 2.4989917899999998 Au
atom 6.3672219200000004 20.5996446199999994 2.3634496299999999 Au
atom 7.7829032199999997 23.0812318999999988 2.7499800799999998 Au
atom 10.5791599800000000 23.1845238699999996 2.9536390500000000 Au
atom 13.3090129899999994 23.2142753699999993 2.7843575899999999 Au
atom 16.1938287000000010 23.2246055600000005 2.7947626099999998 Au
atom 19.1480413200000008 23.1930502300000008 2.4346173900000001 Au
atom 21.8167606800000016 23.1610956399999992 2.2524206200000001 Au
atom 24.6072723999999994 22.9737048799999997 2.1518644299999998 Au
atom 27.4534363699999986 23.1244213499999987 2.4871198099999998 Au
atom 2.0865410500000001 23.1030860400000009 2.4346486100000000 Au
atom 4.9184928699999997 23.0331891499999983 2.6352869299999999 Au
atom 9.1021044199999999 25.6194609399999997 2.5520325000000001 Au
atom 12.1171200700000004 25.7608010400000005 2.8418498699999999 Au
atom 14.8501742399999994 25.7094070099999996 2.3103702099999999 Au
atom 17.6430975299999986 25.6102949899999999 2.2576657999999998 Au
atom 20.4650785299999995 25.5606429400000010 2.1171118999999998 Au
atom 23.1862938000000014 25.5698624599999995 2.4518992599999998 Au
atom 26.0497502499999989 25.6540940299999995 2.3323461000000001 Au
atom 0.6077065900000000 25.6486571599999991 2.5349726000000001 Au
atom 3.4676682799999998 25.5759090899999997 2.4952529999999999 Au
atom 6.2710887399999997 25.5844390699999984 2.6951298000000001 Au
atom 7.7379429999999996 27.9620939899999996 2.1929509000000000 Au
atom 10.5169194299999997 27.9382357200000015 2.4496102799999999 Au
atom 13.2200395700000009 28.0859871000000005 2.1550754699999999 Au
atom 16.2204859299999988 28.0420153300000017 2.2200265400000001 Au
atom 19.0076178700000007 27.8977992099999987 1.9498444399999999 Au
atom 21.7487465399999991 27.9710852299999999 2.5557342400000000 Au
atom 24.5029873699999996 27.9984485499999991 2.3240035200000002 Au
atom 27.3269233900000010 28.0151894800000001 2.4282977600000000 Au
atom 2.0635406700000001 28.0114778000000015 2.2266565699999998 Au
atom 4.9171529400000002 27.9531697799999996 2.3623562200000001 Au
atom 9.1074410799999992 30.4081994400000006 2.5326659800000000 Au
atom 11.8457491200000007 30.4897653700000006 2.4258401500000000 Au
atom 14.6280585199999997 30.4865105599999993 2.4760265200000000 Au
atom 17.3962547500000007 30.5159884000000012 2.3691824300000000 Au
atom 20.3775982999999989 30.3975914699999983 2.4300177700000001 Au
atom 23.1496468299999982 30.3955850000000005 2.6255110400000001 Au
atom 25.9431637200000011 30.4300047800000009 2.3607067200000000 Au
atom 0.5511700800000000 30.4534831699999984 2.3243345600000000 Au
atom 3.4393551699999998 30.4234354300000014 2.5988789200000002 Au
atom 6.2066862299999999 30.4383091599999993 2.2191408199999998 Au
atom 7.5645976599999996 32.9669016100000007 2.5503657000000000 Au
atom 10.3518317599999996 32.8561666700000004 2.8619500400000000 Au
atom 13.2615717100000001 32.9118351199999992 2.5805334000000002 Au
atom 16.0454169200000010 32.8693857299999976 2.3043586000000000 Au
atom 18.8881431199999987 32.7961690400000023 2.5861166099999999 Au
atom 21.7630961700000007 32.8381776700000003 2.4910605800000001 Au
atom 24.6427120399999993 32.8563715399999978 2.5361209800000002 Au
atom 27.3497024199999998 32.9144136999999972 2.3585278000000001 Au
atom 1.9312986800000000 32.9638836600000005 2.5371348700000000 Au
atom 4.7991959800000004 32.8934442899999979 2.6836412699999999 Au
atom 8.9479966799999993 35.3981314999999981 2.9162428999999999 Au
atom 11.8065184100000007 35.3402824400000029 2.9293296500000001 Au
atom 14.6413113700000004 35.3298360599999981 2.3958054299999998 Au
atom 17.3374452000000012 35.1462589100000002 2.8354820900000002 Au
atom 20.2564209599999998 35.2754082100000019 2.9193932700000000 Au
atom 23.0555894700000010 35.2854139499999988 2.8430040999999999 Au
atom 26.0035160199999993 35.4127221899999967 2.5488985899999999 Au
atom 0.6059730900000000 35.4279008800000028 2.8053088900000001 Au
atom 3.3772278299999998 35.3665230300000033 2.4524024799999999 Au
atom 6.1288253099999999 35.3322667300000006 2.9459051399999998 Au
atom 7.4166097100000004 37.8034926500000026 2.9180827400000000 Au
atom 10.3191480200000001 37.8687851800000033 2.9327738100000000 Au
atom 13.1666077599999998 37.8328047500000011 2.7084446999999998 Au
atom 15.8895289399999999 37.6517693799999975 3.1501927500000000 Au
atom 18.7061474600000004 37.8442846200000034 2.5913208100000000 Au
atom 21.6068488999999992 37.8284045099999986 2.7235999700000000 Au
atom 24.3852350400000013 37.8004168399999969 2.7648544500000001 Au
atom 27.3637552699999986 37.9327920799999987 2.5358920100000000 Au
atom 1.8921109899999999 37.8739470900000015 2.6283252099999999 Au
atom 4.7649333000000000 37.8247838899999991 2.3289308000000002 Au
atom 8.9111513000000002 0.8289873800000001 2.7793614000000000 Au
atom 11.6924613199999996 0.8540525100000000 2.7185360799999998 Au
atom 14.5116115600000004 0.8437333700000000 2.8491738600000001 Au
atom 17.4512848600000012 0.7915327300000000 3.0204897599999998 Au
atom 20.1566195400000012 0.8305645300000000 2.5553927200000000 Au
atom 23.0029577299999985 0.7355768499999999 2.8704786900000001 Au
atom 25.7585703499999994 0.8692405000000000 2.6782452600000002 Au
atom 0.5055855400000000 0.9268861500000000 2.6691067099999999 Au
atom 3.4045887300000000 0.8890847300000000 2.5169748300000001 Au
atom 6.1841684700000004 0.8922895800000000 2.7225605399999999 Au
atom 7.5581768900000004 3.3670489500000000 2.7566792000000002 Au
atom 10.2305317299999992 3.2632784300000002 3.0407034700000000 Au
atom 13.1327489600000007 3.2919674799999998 2.7491815499999999 Au
atom 16.0352815600000014 3.2226158699999998 2.6991102599999999 Au
atom 18.8997489099999996 3.2909646900000000 3.0692094700000001 Au
atom 21.6048560899999984 3.2688272299999999 3.0176456699999998 Au
atom 24.4906099399999988 3.3612886500000001 3.0855402800000000 Au
atom 27.3052999999999990 3.3428922100000000 3.1005130400000001 Au
atom 1.9271123400000001 3.4822246699999999 2.8708423399999998 Au
atom 4.7406046899999996 3.4319788899999999 2.7454316500000000 Au
atom 8.9693664500000008 5.9190245499999996 2.7697823900000000 Au
atom 11.7565665399999997 5.7375458400000001 2.8726363600000000 Au
atom 14.6152325500000000 5.7131094300000003 2.4978700900000002 Au
atom 17.3960359099999984 5.7134911400000004 2.8179672299999998 Au
atom 20.2467966799999992 5.7704624600000001 2.8071596500000000 Au
atom 22.9792375799999995 5.7439128699999999 2.8618793899999999 Au
atom 25.7798036699999997 5.8798190799999999 2.7796571700000001 Au
atom 0.3681792800000000 5.9244290700000004 2.8728693000000001 Au
atom 3.2972931299999999 5.9278379399999999 2.8306669699999998 Au
atom 6.1074820100000000 5.8586771300000002 2.9659227600000002 Au
atom 7.5849435400000003 8.2630345799999994 2.9255981000000002 Au
atom 10.3859184599999992 8.3393505599999997 2.8078111799999999 Au
atom 13.3754512600000002 8.1521372999999997 2.7116741300000000 Au
atom 16.0470271099999984 8.1612085699999994 2.4093627899999999 Au
atom 18.8799522899999985 8.2469259400000006 2.7084026799999998 Au
atom 21.5607792099999998 8.2622260000000001 2.9790120199999999 Au
atom 24.4401809199999995 8.2425695700000006 2.9865691900000000 Au
atom 27.2852274600000015 8.3746693499999996 2.6174564700000000 Au
atom 1.9658126300000001 8.4846464899999994 2.7488184699999998 Au
atom 4.7786909700000004 8.3546600600000005 2.8888424200000000 Au
atom 8.9471034199999995 10.8245869999999993 2.9515096800000000 Au
atom 11.8987305600000006 10.6471535799999995 2.7763104200000002 Au
atom 14.8001974700000005 10.6389350300000007 2.6709755199999998 Au
atom 17.5242043599999988 10.8044532199999992 2.6047480099999998 Au
atom 20.4361258799999987 10.7826924799999997 2.6708835400000002 Au
atom 23.1947531500000004 10.6990070900000003 2.6604580000000002 Au
atom 25.9361946900000007 10.7379454800000005 2.6923015600000002 Au
atom 0.5888025900000000 10.7916402900000001 2.8728781900000002 Au
atom 3.4005314400000000 10.8246326499999999 2.7492161500000001 Au
atom 6.2472053499999998 10.7542122599999992 2.7919254599999999 Au
atom 6.9287455600000003 13.2436944200000006 5.9397139299999999 Cl
atom 6.8755930599999999 16.1882873899999993 8.7208704400000006 Cl
atom 6.7664892999999999 13.2924047600000002 8.4963793100000000 Na
atom 6.9892368100000004 16.0752936999999996 5.8130410200000000 Na
atom 6.6706781199999998 18.9855704400000000 5.7428716299999998 Cl
atom 6.6097202299999998 21.8117520999999996 8.6472998800000003 Cl
atom 6.8121399000000000 18.8870934199999994 8.4144273700000003 Na
atom 6.7573861199999996 21.8328832099999985 5.8297614600000003 Na
atom 6.9149118400000003 24.5861828200000012 5.6649297699999996 Cl
atom 6.7027564699999997 27.6512105999999989 8.2402744999999999 Cl
atom 7.0940467199999997 24.6133272800000000 8.4811682499999996 Na
atom 6.8491610500000002 27.3637566499999991 5.6865570999999999 Na
atom 6.9298335399999997 30.6438405799999991 5.5906310200000000 Cl
atom 6.8274956700000002 33.1646663399999966 8.7796965799999995 Cl
atom 6.8740903900000001 30.5379571799999994 8.2537356899999992 Na
atom 6.8316934099999997 33.3029016799999980 5.7545081099999997 Na
atom 6.7158935299999998 35.8729564799999991 5.9454044899999996 Cl
atom 6.7473994299999998 38.3984994999999998 8.8056308800000007 Cl
atom 6.9604981500000003 35.9115338100000017 8.6640084500000007 Na
atom 6.9219566099999996 38.9055182299999984 6.0289777899999999 Na
atom 6.8663480899999998 2.0493060800000000 6.0820885400000000 Cl
atom 6.8630867499999999 4.9179820699999999 8.8481381700000004 Cl
atom 6.9044857999999998 1.9606676199999999 8.5822583800000007 Na
atom 6.7375550899999999 4.8512657600000004 5.9190525200000002 Na
atom 6.8305353899999997 7.7508827199999999 5.9706661399999996 Cl
atom 6.7458001799999998 10.5690001700000007 8.9019317800000000 Cl
atom 6.8205141999999999 7.6560170400000001 8.4967424400000002 Na
atom 6.9268346699999999 10.4434881700000002 6.0652073099999999 Na
atom 9.7734934899999999 13.4763498700000000 6.0584658800000000 Na
atom 12.5298551299999996 13.2872850099999997 5.8670196399999996 Cl
atom 9.6045372600000007 16.2014379800000015 8.4918499799999996 Na
atom 12.3992154600000006 16.1712532700000011 8.7888143700000008 Cl
atom 12.4473509000000000 13.4459737599999993 8.4613740499999999 Na
atom 9.6612026499999999 13.4779471900000001 8.7228417599999997 Cl
atom 12.5414299400000004 16.2778939899999990 5.9650802799999996 Na
atom 9.6912891900000009 16.2489633399999995 5.8489370300000001 Cl
atom 9.6145550300000000 18.9206290599999996 5.8410640500000000 Na
atom 12.6526965100000002 19.0704056800000004 6.0386926900000004 Cl
atom 9.5689114100000001 21.7119519899999993 8.5061481499999996 Na
atom 12.5594753299999997 21.9436017499999991 8.6418760900000002 Cl
atom 12.5181868299999994 18.8946949599999989 8.6515995300000004 Na
atom 9.6706791100000000 19.0406724099999991 8.6673197000000002 Cl
atom 12.4863984600000002 21.8519334399999998 5.8877111099999997 Na
atom 9.5320302100000003 21.7155797899999996 5.7250888499999997 Cl
atom 9.7270946200000008 24.5281630899999996 5.6759742299999996 Na
atom 12.4999682500000002 24.8014649399999989 5.6342644100000001 Cl
atom 9.7204196899999999 27.5485055599999988 8.0857440599999997 Na
atom 12.7633740400000004 27.5716081399999986 8.4298170799999994 Cl
atom 12.5610870699999992 24.7148835399999989 8.2988000399999997 Na
atom 9.6929844299999992 24.7924183499999984 8.3671736600000006 Cl
atom 12.7288581700000005 27.6801329600000017 5.6270755699999997 Na
atom 9.6513915099999998 27.3124466599999991 5.5861277300000003 Cl
atom 9.5576578399999992 30.2680572400000010 5.6876919199999998 Na
atom 12.6085680799999995 30.3301808999999984 5.6826497500000004 Cl
atom 9.7380861900000006 33.1914337500000016 8.3788245499999991 Na
atom 12.6570287599999993 33.3449467000000013 8.4962614199999997 Cl
atom 12.5710740600000008 30.1515268100000000 8.3143341900000003 Na
atom 9.9054686299999997 30.2114747199999982 8.3199224899999997 Cl
atom 12.6663039099999999 33.1695632300000014 5.7257126100000004 Na
atom 9.8432186999999995 33.4153944199999984 5.8733541799999998 Cl
atom 9.4890125100000002 36.2073055800000034 5.7490563999999997 Na
atom 12.6184002000000000 36.1555449700000011 5.7539159900000003 Cl
atom 9.5384441500000001 38.8518819900000025 8.6742094999999999 Na
atom 12.5271882100000003 38.8269226299999985 8.5911250100000007 Cl
atom 12.4622388399999995 36.0549084199999967 8.3659006999999992 Na
atom 9.7353596499999995 36.0551356699999985 8.5636768300000004 Cl
atom 12.3931501599999994 38.8885126999999997 5.8754821100000001 Na
atom 9.5577374400000004 38.9744247699999988 6.0090297899999996 Cl
atom 9.6749510599999997 2.2083471200000000 6.2203703399999997 Na
atom 12.4732031800000005 2.2126860200000000 5.9768012500000003 Cl
atom 9.7831891199999994 4.8074149799999999 8.6352689199999997 Na
atom 12.6923625500000004 5.0188451399999998 8.9320457399999995 Cl
atom 12.7695731699999993 1.9714057700000001 8.8099681000000007 Na
atom 9.6680359199999995 2.0269691800000000 8.9917034000000005 Cl
atom 12.5335797400000004 4.8070456400000001 6.2334335500000000 Na
atom 9.8448312599999994 4.8055191600000002 5.9662109499999998 Cl
atom 9.5943515200000000 7.5649203500000004 5.8401714699999996 Na
atom 12.3438235299999999 7.6297874700000001 5.9575051900000000 Cl
atom 9.6531782800000006 10.6276569700000003 8.6808869800000004 Na
atom 12.5339085299999997 10.6809688099999995 8.8856708399999995 Cl
atom 12.4473865200000002 7.6193724800000000 8.6240172800000003 Na
atom 9.5153877999999992 7.7143028500000002 8.8549725499999994 Cl
atom 12.4422210000000000 10.4008354000000001 6.0779503999999998 Na
atom 9.7821539499999997 10.5914870600000004 5.9986010900000002 Cl
atom 15.2304713399999994 13.3429146299999992 5.9493561200000000 Na
atom 17.8365352500000007 13.5042858900000002 5.6952230899999998 Cl
atom 15.4041287400000009 16.2867820600000002 8.5858160600000009 Na
atom 18.1639354600000011 16.1194550599999999 8.6652339099999995 Cl
atom 18.0441734700000005 13.4349486400000000 8.3540768799999992 Na
atom 15.2270005400000006 13.5462702499999992 8.7480211400000005 Cl
atom 18.0234096000000008 16.3507206700000012 5.7250465699999999 Na
atom 15.2204896400000003 16.2810722900000009 5.9389886599999997 Cl
atom 15.3194635899999998 19.2224342700000008 6.0425754400000002 Na
atom 18.0132109299999996 19.0897748199999988 5.7415370599999997 Cl
atom 15.3590685600000008 21.8976978799999991 8.3143109499999994 Na
atom 18.1145257700000002 21.8311449800000013 8.3921513999999995 Cl
atom 18.3301653999999985 18.9561899400000016 8.3806676000000007 Na
atom 15.2476588999999993 19.1725030600000004 8.8106997400000004 Cl
atom 18.0952679600000010 21.9572491499999991 5.7742682500000004 Na
atom 15.2917116499999999 21.8649510499999984 5.7733480400000001 Cl
atom 15.3825878100000004 24.7340152700000004 5.5656645200000003 Na
atom 18.0778930600000010 24.8291726600000011 5.6685286399999999 Cl
atom 15.4426915600000001 27.4709771899999993 8.1496013600000001 Na
atom 18.0272973299999997 27.5431756400000012 8.4001756400000005 Cl
atom 18.0461823800000012 24.7121458400000016 8.1203770500000001 Na
atom 15.2723435599999995 24.7396057499999991 8.5849431500000009 Cl
atom 18.1771642100000008 27.6403912200000015 5.7158884399999996 Na
atom 15.4460392199999994 27.5077373999999999 5.4988961300000003 Cl
atom 15.4780407699999998 30.3456307000000010 5.6318549300000003 Na
atom 18.2100745699999997 30.4018452400000001 5.6175748399999996 Cl
atom 15.3210075000000003 33.1545193400000002 8.3016493899999997 Na
atom 18.0935358400000013 33.1740725000000012 8.7038326500000007 Cl
atom 18.0715804999999996 30.2542974099999995 8.2911117799999996 Na
atom 15.4629868800000008 30.3113794399999996 8.4558496699999992 Cl
atom 18.2115434200000017 33.2670428300000012 5.8254517600000000 Na
atom 15.5443923900000005 33.1401428599999974 5.7121393899999999 Cl
atom 15.4340767099999994 35.9656439000000034 5.9359863600000002 Na
atom 18.2903438399999985 36.1455066899999977 5.7423364000000001 Cl
atom 15.4444232800000005 38.7527630900000020 8.5065716299999998 Na
atom 18.4434282200000013 38.6165623199999999 8.8982956600000005 Cl
atom 18.1065071099999990 35.9231278199999977 8.5533213200000002 Na
atom 15.4515088800000004 35.9623463599999980 8.6299678699999998 Cl
atom 18.4861864699999998 38.7675561699999989 5.9945439699999996 Na
atom 15.5304811100000002 38.7047704300000035 5.9637649300000000 Cl