#===============================================================================
# Created using the Atomic Simulation Environment (ASE)

# Sat Nov  1 21:48:32 2025

#=======================================================
lattice_vector 28.1999999999999993 0.0000000000000000 0.0000000000000000 
lattice_vector 0.0000000000000000 39.4799999999999969 0.0000000000000000 
lattice_vector 0.0000000000000000 0.0000000000000000 62.3296083400000001 
atom 7.5398446899999998 14.6907228799999992 0.0646554300000000 Au
atom 10.3889177400000001 14.7388234899999997 0.1551157900000000 Au
atom 13.0172957199999999 14.8484931000000007 -0.1949374500000000 Au
atom 15.9729101500000006 14.8428004900000001 0.0127136600000000 Au
atom 18.7466441699999997 14.9164987000000000 0.2068604900000000 Au
atom 21.6727687899999992 14.8526977999999996 -0.0165426900000000 Au
atom 24.4947054500000014 14.8128461700000003 0.0491053500000000 Au
atom 27.2589766100000013 14.8992873100000001 0.0652080300000000 Au
atom 1.8251611000000001 14.6374863899999994 0.0714444700000000 Au
atom 4.6307417299999996 14.7095391000000006 0.0919110300000000 Au
atom 8.9441851099999994 17.1331243600000001 0.1140050100000000 Au
atom 11.7353913799999994 17.1628541000000006 0.1000654100000000 Au
atom 14.6425128699999991 17.2772907499999988 0.0275368300000000 Au
atom 17.4151796899999987 17.2133715100000018 -0.0632288600000000 Au
atom 20.0120691899999983 17.0907353200000003 0.0696742100000000 Au
atom 23.0472676400000012 17.2042210799999999 0.2249252200000000 Au
atom 25.8361267699999999 17.3489286100000015 0.0095820700000000 Au
atom 0.6081763900000000 17.3294867600000018 0.0779981200000000 Au
atom 3.2476537900000002 17.2786468100000015 0.0114045400000000 Au
atom 6.2197770999999999 17.1461662200000013 0.1359308500000000 Au
atom 7.5243279899999997 19.5680214799999987 -0.0262257600000000 Au
atom 10.3065143700000004 19.7998570899999997 -0.0280699800000000 Au
atom 13.0479383000000002 19.7288773699999993 0.0093960500000000 Au
atom 15.9195054700000007 19.8717593999999984 0.1419479500000000 Au
atom 18.7097630499999994 19.8198219000000009 0.2212762000000000 Au
atom 21.6405991600000007 19.6460795200000007 -0.0519799300000000 Au
atom 24.3020254400000013 19.8152769500000012 0.1297057300000000 Au
atom 27.2328231199999991 19.8287715400000017 0.0862394500000000 Au
atom 2.0642871700000001 19.6899806899999987 0.0295430700000000 Au
atom 4.7379892300000002 19.8677522199999999 0.0254578800000000 Au
atom 8.9560837600000003 22.1493500700000006 -0.0337663500000000 Au
atom 11.5993616599999996 22.2309947799999996 0.0611952500000000 Au
atom 14.4498969400000004 22.2374214700000010 0.1638285600000000 Au
atom 17.5733520500000004 22.2038753500000006 0.0173442100000000 Au
atom 20.2359048100000010 22.2910007700000001 0.0997526500000000 Au
atom 23.1113876199999986 22.0136998800000008 -0.0220961900000000 Au
atom 25.9096463499999992 22.1746578599999999 0.0448616000000000 Au
atom 0.4610660800000000 22.1743842899999990 -0.0795220300000000 Au
atom 3.1918251600000001 22.2074500199999996 0.0129003500000000 Au
atom 6.0439182499999999 22.1508595600000007 0.0919643700000000 Au
atom 7.5277219600000000 24.9045383800000018 0.1497455700000000 Au
atom 10.4633161300000008 24.9332377200000010 0.0443540800000000 Au
atom 13.2251706900000006 24.5493224999999988 0.1269789700000000 Au
atom 15.9133727000000000 24.7333757399999996 0.2023267400000000 Au
atom 18.9120510499999988 24.6441380199999998 -0.0691345000000000 Au
atom 21.5651145900000003 24.5139832099999992 0.2143130200000000 Au
atom 24.3713652200000013 24.7438198299999996 0.0656113100000000 Au
atom 27.3286855700000011 24.8674051899999995 -0.0729975500000000 Au
atom 1.8456797100000000 24.8008860999999996 -0.0147486000000000 Au
atom 4.7172210699999999 24.6128733799999999 0.1660355400000000 Au
atom 8.9380134800000004 27.0807502599999985 -0.0197398100000000 Au
atom 11.7870572300000003 27.1809286099999987 0.1442639600000000 Au
atom 14.6039784000000008 27.1465050300000001 0.1490504200000000 Au
atom 17.4168466299999984 27.0109793200000006 0.0940730400000000 Au
atom 20.1146747999999995 27.2294484499999996 -0.1075261300000000 Au
atom 23.2514124399999993 27.1409736600000002 -0.0593466000000000 Au
atom 25.9166118999999995 27.0154181099999988 0.0048418800000000 Au
atom 0.5187052700000000 27.0588926500000007 0.0407247900000000 Au
atom 3.2516892500000001 27.0598411100000007 0.1132540800000000 Au
atom 6.0896844600000000 27.1824500499999999 -0.0089828000000000 Au
atom 7.5996642699999999 29.5155583899999989 -0.0645820100000000 Au
atom 10.3651118800000006 29.6205969600000003 0.1337892300000000 Au
atom 12.9540685500000006 29.6104570799999998 0.1491929200000000 Au
atom 15.9103747200000001 29.4959280399999990 0.0435128900000000 Au
atom 18.8799361599999997 29.5634726400000005 0.1801026900000000 Au
atom 21.5244005499999993 29.5195891300000000 0.2841810000000000 Au
atom 24.5136457300000004 29.6940908400000012 0.0611381100000000 Au
atom 27.0943827100000014 29.6843603099999989 0.0951013700000000 Au
atom 1.7919739100000001 29.5230891600000014 0.0545156500000000 Au
atom 4.6992839399999999 29.7052410599999988 -0.0397956600000000 Au
atom 9.0962498099999998 32.1286097300000009 0.0262391200000000 Au
atom 11.8202149399999996 32.0474132200000028 -0.1288315800000000 Au
atom 14.5012276799999995 32.1005069100000000 0.0942962700000000 Au
atom 17.2645124999999986 32.0616897499999993 0.1238485700000000 Au
atom 20.3174206999999996 32.1270697200000015 0.1370997400000000 Au
atom 22.9733278399999996 32.2721699800000010 -0.2201149700000000 Au
atom 25.9466800400000004 32.1798234399999998 0.1917027400000000 Au
atom 0.4389227200000000 32.1933618099999990 -0.1192108300000000 Au
atom 3.2681684999999998 32.0562250300000002 -0.0665684700000000 Au
atom 6.1652153299999997 32.2039349300000026 -0.0599657600000000 Au
atom 7.6247552100000000 34.6485841300000033 0.0241756400000000 Au
atom 10.3483262200000006 34.4820277700000020 0.1084608700000000 Au
atom 13.2082525499999992 34.6013717100000022 -0.0118823400000000 Au
atom 16.2004644700000000 34.5361602300000001 0.0447509800000000 Au
atom 18.6628410299999992 34.5212057500000000 0.0945482500000000 Au
atom 21.5649512600000008 34.7301091400000033 0.0281086400000000 Au
atom 24.4337786399999999 34.5872665500000025 0.0339167600000000 Au
atom 27.2946816599999984 34.4517610400000009 0.0004805600000000 Au
atom 1.7894615599999999 34.4558547600000011 -0.0018044700000000 Au
atom 4.7994977700000003 34.4643441899999985 0.1587451300000000 Au
atom 8.9500918899999995 37.0700822700000003 0.1495194400000000 Au
atom 11.6690357099999993 37.1168226799999985 -0.0217562000000000 Au
atom 14.4725440200000008 37.0561518499999991 -0.0172079000000000 Au
atom 17.4753897199999990 37.1938875900000028 0.0468317600000000 Au
atom 20.3208624399999991 36.8682366099999967 0.0870181100000000 Au
atom 23.1539707099999994 36.9145793900000001 -0.0938477300000000 Au
atom 25.8508650399999986 36.7645396400000024 0.1902464700000000 Au
atom 0.6118866500000000 37.1331466199999980 0.1451045900000000 Au
atom 3.2085766300000000 36.9725227099999998 0.1268141100000000 Au
atom 5.9953359500000003 36.8620092499999998 -0.0021118800000000 Au
atom 7.6024558500000001 -0.0867039900000000 -0.1291655100000000 Au
atom 10.3048217999999991 0.1287793600000000 0.1866465000000000 Au
atom 13.0714048700000003 0.0704216200000000 0.1010364900000000 Au
atom 15.9539799200000001 -0.0582693000000000 -0.2227955000000000 Au
atom 18.8734338999999984 -0.0558058300000000 0.1435410200000000 Au
atom 21.5084964399999983 -0.0491466800000000 0.2264747600000000 Au
atom 24.2177666699999996 -0.3227996800000000 0.0187626900000000 Au
atom 27.3452665800000005 0.2203085000000000 0.1599827100000000 Au
atom 1.8865802599999999 0.0831429400000000 0.2157754600000000 Au
atom 4.4205354300000002 0.0746270600000000 0.1652364300000000 Au
atom 9.0454452100000005 2.5050776199999998 0.1374534200000000 Au
atom 11.6899390899999993 2.5352130599999998 -0.0107997200000000 Au
atom 14.6212741400000006 2.4584410100000000 0.1932136900000000 Au
atom 17.5359507500000014 2.5679401500000001 -0.0744104600000000 Au
atom 20.3112312199999998 2.3984356899999999 0.0890740200000000 Au
atom 22.9323330100000007 2.6686749500000002 0.0686732600000000 Au
atom 25.7296285100000013 2.5651280700000001 -0.0267009700000000 Au
atom 0.3994397700000000 2.5299694599999998 0.1299845500000000 Au
atom 3.2592013099999999 2.5092429799999998 -0.0723475200000000 Au
atom 6.1293760900000001 2.5143998200000000 -0.0145763600000000 Au
atom 7.5619880799999999 4.9230151500000003 0.1790822100000000 Au
atom 10.4996961500000001 4.9529637299999996 0.1861974200000000 Au
atom 12.9785332600000007 4.7651076200000002 0.1385272400000000 Au
atom 15.9111598300000008 4.9535967200000002 0.0844461500000000 Au
atom 18.9233899900000004 4.9683061999999998 0.1016558500000000 Au
atom 21.4443292999999997 5.0292795400000001 0.3058362800000000 Au
atom 24.5381211700000001 4.8443805900000001 0.0295475500000000 Au
atom 27.2197707400000013 4.7972842900000003 0.2435256700000000 Au
atom 1.7968488499999999 4.8384257599999998 0.0565362400000000 Au
atom 4.6754404000000003 5.0980212199999997 0.0871068800000000 Au
atom 8.8977053700000006 7.4354964099999998 -0.0622420900000000 Au
atom 11.7531625099999992 7.2846065199999996 0.0626337900000000 Au
atom 14.4573535399999997 7.5644512199999996 0.0940583700000000 Au
atom 17.3183647799999996 7.4661476999999996 -0.0142866800000000 Au
atom 20.0956146800000006 7.4270565199999998 0.1202817300000000 Au
atom 23.0633222400000015 7.5180204699999997 0.1968820800000000 Au
atom 25.8947712900000013 7.4580908199999998 -0.1366394700000000 Au
atom 0.4126575300000000 7.6072812799999996 0.1976340900000000 Au
atom 3.1903243899999998 7.5157061199999999 0.1636877700000000 Au
atom 6.0578125399999996 7.4504481499999997 0.2282006000000000 Au
atom 7.5306664400000001 9.8951065400000005 -0.1218661700000000 Au
atom 10.2939871099999998 9.8911949799999999 -0.0850150900000000 Au
atom 13.0246745199999996 9.9387613199999993 0.0390496500000000 Au
atom 15.9152909699999991 9.9921184299999997 0.1811651100000000 Au
atom 18.7686364899999987 9.9032692800000000 0.1340270700000000 Au
atom 21.5999428800000004 9.7898547100000002 0.0965818500000000 Au
atom 24.3050432399999998 9.9103764999999999 -0.0543550500000000 Au
atom 27.1827303200000010 10.0419647899999998 -0.1037678000000000 Au
atom 1.8715518200000001 9.8302571400000005 0.1990022500000000 Au
atom 4.8108270099999997 9.8382110300000001 0.0207813900000000 Au
atom 8.8809679500000005 12.3746248100000003 0.0195622400000000 Au
atom 11.6487782099999997 12.4730991499999995 -0.0729290100000000 Au
atom 14.3414374700000007 12.3343453099999998 -0.1780645200000000 Au
atom 17.2808827100000002 12.2130659799999997 -0.0679382100000000 Au
atom 20.0312232600000009 12.4400015199999991 -0.3049004800000000 Au
atom 23.1086133899999986 12.2616694200000005 0.0497797500000000 Au
atom 25.8701846000000018 12.1799160099999995 -0.0650654700000000 Au
atom 0.4002160500000000 12.5017917000000001 0.0324112000000000 Au
atom 3.4178291900000000 12.3170894900000008 -0.0005751500000000 Au
atom 6.2091648700000004 12.4896343299999995 -0.0520354500000000 Au
atom 7.2839388899999999 13.0374656200000008 2.5222334599999998 Au
atom 10.4269874700000003 13.1960890800000001 2.5088786999999999 Au
atom 13.3109507300000001 13.0153239000000003 2.7720633600000002 Au
atom 16.0561873099999985 13.0614826900000001 2.4011125500000001 Au
atom 18.9310030000000005 13.3773349499999998 2.7519666100000002 Au
atom 21.7204881100000016 12.9849787400000007 2.5673552599999998 Au
atom 24.5474499600000016 13.0926144400000002 2.4638299199999998 Au
atom 27.4020714500000011 13.3287367200000002 2.7778227200000001 Au
atom 2.0271292700000001 13.1924900100000002 2.6458012399999999 Au
atom 4.6654329199999998 13.1522825900000004 2.6088222800000000 Au
atom 8.8453813300000004 15.7800520599999992 2.7416336600000002 Au
atom 11.7103624100000001 15.6530939100000008 2.4559773200000001 Au
atom 14.5031151999999999 15.6280697600000007 2.5497223800000000 Au
atom 17.5678483700000001 15.5244452000000006 2.7950224100000001 Au
atom 20.0991767199999991 15.6151837499999999 2.7531203400000002 Au
atom 23.0557654700000008 15.6032548099999993 2.4850672399999998 Au
atom 26.0439250899999983 15.5548999899999991 2.6574810000000002 Au
atom 0.4388860900000000 15.8731851099999997 2.3458407399999999 Au
atom 3.2543634500000000 15.5685004300000003 2.6121140899999999 Au
atom 5.9051622000000004 15.5958726700000003 2.5391075399999998 Au
atom 7.5614008000000004 18.0541521600000010 2.6900638300000002 Au
atom 10.2598700100000002 18.2982946400000017 2.5968492200000002 Au
atom 12.9722837700000007 18.1525997299999986 2.6214975500000000 Au
atom 15.8942531999999996 18.2668537300000011 2.6723238000000000 Au
atom 18.7534948700000008 18.1202698300000016 2.5617328100000001 Au
atom 21.5876867300000015 18.0725308099999999 2.7948540899999998 Au
atom 24.3520806599999986 18.0079221099999991 2.5806863899999999 Au
atom 27.1411762299999992 18.0702478699999993 2.6486214399999999 Au
atom 1.7437968900000000 18.1365985899999984 2.7184097500000002 Au
atom 4.5269581099999998 18.1476037499999983 2.5245594900000001 Au
atom 8.9477568400000003 20.4196479300000000 2.7270667700000000 Au
atom 11.7883996300000007 20.4306319099999989 2.7354699600000001 Au
atom 14.6438014600000006 20.4834160899999986 2.8277069199999998 Au
atom 17.2580308900000006 20.5652496400000011 2.6499113500000000 Au
atom 20.0543630600000000 20.6294790500000005 2.5704513699999998 Au
atom 23.0135280400000006 20.7437862799999984 2.5844114899999999 Au
atom 25.7434648199999998 20.6943896599999988 2.6154642799999999 Au
atom 0.4237395300000000 20.5299150499999996 2.5980840199999999 Au
atom 3.3293783700000001 20.5930256500000013 2.5735069099999999 Au
atom 5.9823463500000003 20.5630824799999985 2.6542453600000000 Au
atom 7.5558061600000004 23.1371238699999999 2.5863503799999998 Au
atom 10.2399131000000008 23.3024770900000000 2.7447289300000000 Au
atom 13.2312329900000005 23.1621705300000009 2.6850909199999999 Au
atom 16.1337621999999996 23.0044968200000000 2.6621661900000002 Au
atom 18.8090620299999998 23.0456444599999983 2.6925889700000001 Au
atom 21.4657527700000017 23.0542871299999987 2.7284735900000001 Au
atom 24.5120315700000013 23.0316434600000015 2.6177383600000002 Au
atom 27.2004452199999989 23.1961597200000007 2.6103755300000002 Au
atom 1.9530703599999999 22.8167703999999993 2.7009484700000002 Au
atom 4.5774555599999998 23.1473466999999999 2.6319795799999999 Au
atom 9.0029296700000003 25.4379637400000007 2.5290485299999999 Au
atom 11.7542765399999993 25.4863897299999991 2.5506823299999999 Au
atom 14.6285684699999994 25.4635216399999997 2.7948233400000002 Au
atom 17.2959622199999998 25.5491050900000012 2.7582671500000000 Au
atom 20.1428931200000001 25.4774640800000007 2.6821445900000001 Au
atom 22.8735697500000015 25.4781513400000001 2.6757483400000002 Au
atom 25.8801421100000013 25.5781908800000011 2.7994624799999999 Au
atom 0.5098641900000001 25.4594725299999993 2.6873001400000001 Au
atom 3.3830554300000002 25.4984933399999996 2.7320602400000000 Au
atom 6.0169267299999998 25.6661929099999995 2.8631939599999998 Au
atom 7.4889470400000002 27.9256937500000006 2.6386114500000000 Au
atom 10.3102438799999998 27.9788088700000017 2.6553623100000001 Au
atom 13.0231635200000007 28.1269575200000013 2.5499459600000001 Au
atom 16.0556056600000012 28.0833865600000010 2.6041066800000001 Au
atom 18.8899219500000015 28.0440920300000016 2.6984491500000001 Au
atom 21.6891197899999995 28.1567457999999995 2.7300109300000002 Au
atom 24.3584716000000014 27.7563315199999998 2.6324651000000001 Au
atom 27.2673670100000010 28.1715376999999982 2.6216130700000000 Au
atom 2.0338181099999999 28.0245563400000002 2.5844480600000002 Au
atom 4.7729096599999998 27.9981191500000008 2.8556142800000002 Au
atom 8.9236542100000005 30.4859533200000001 2.6722953800000000 Au
atom 11.8290780200000007 30.3568241500000013 2.7168832799999998 Au
atom 14.5341896800000008 30.5657428899999992 2.5135875099999998 Au
atom 17.4472365399999987 30.6225722299999994 2.6269100299999999 Au
atom 20.3714673300000015 30.5752273000000017 2.6343402199999999 Au
atom 22.8434509100000014 30.5748630100000014 2.7386100299999998 Au
atom 25.6969576199999992 30.2995116099999997 2.5287779600000002 Au
atom 0.4656184600000000 30.4843631399999992 2.4754921099999998 Au
atom 3.3091370300000000 30.4693585400000018 2.6761839100000002 Au
atom 6.0578148699999996 30.4346978399999983 2.5418955699999999 Au
atom 7.4539785700000003 32.8331646000000035 2.3601428599999998 Au
atom 10.3996469200000003 32.9844538899999975 2.7998595499999999 Au
atom 13.1814589800000004 33.1671364700000026 2.4985089399999998 Au
atom 15.9602865299999994 32.9599816799999985 2.7112739900000000 Au
atom 18.7415351600000015 32.8394602899999981 2.5146586900000001 Au
atom 21.6108361199999983 32.9191054400000027 2.4343039599999998 Au
atom 24.5674869399999984 32.9995220799999984 2.6162179700000001 Au
atom 27.1714895100000007 32.8963874200000035 2.8303127400000001 Au
atom 1.7009016500000000 32.8248338100000012 2.4742490699999999 Au
atom 4.7111826900000002 32.9730874099999980 2.5335540000000001 Au
atom 8.9530515200000007 35.2908567300000016 2.7417500000000001 Au
atom 11.7167813200000008 35.4754385999999968 2.6590403399999998 Au
atom 14.6140215900000001 35.4124418999999975 2.5312744199999999 Au
atom 17.4347270999999999 35.4106648699999980 2.5935126500000001 Au
atom 20.2692686900000005 35.4400088599999989 2.4235191700000001 Au
atom 23.0259034299999996 35.3760874600000008 2.5348046000000002 Au
atom 25.9124545600000005 35.3506331999999972 2.5874125700000001 Au
atom 0.4472816200000000 35.4693864799999972 2.5755099800000001 Au
atom 3.4238344600000001 35.3716647899999970 2.6821422400000001 Au
atom 6.0820603100000001 35.4994258400000007 2.7300242300000002 Au
atom 7.3898984199999997 37.7852899700000009 2.5717056500000002 Au
atom 10.3473026800000003 38.0065156499999972 2.7186667500000001 Au
atom 13.2547598600000001 37.9590603600000023 2.5450517800000001 Au
atom 15.9843164899999994 37.9387498500000007 2.6511342199999999 Au
atom 18.9684078999999990 37.9572735100000003 2.5057006899999998 Au
atom 21.5514157799999992 37.8909889800000030 2.6142121700000001 Au
atom 24.5399666500000002 37.9575607199999965 2.8434411300000000 Au
atom 27.1904453400000001 37.8635347199999970 2.7597644799999999 Au
atom 1.9861780400000000 37.9325499799999974 2.7074572300000002 Au
atom 4.7194605100000002 37.8562763099999984 2.6946561199999999 Au
atom 9.1089490400000006 0.8413462600000000 2.7821439600000000 Au
atom 11.8554730199999998 0.8378544800000000 2.5662717100000001 Au
atom 14.6397967599999994 0.7200414600000000 2.7637993199999999 Au
atom 17.3021164899999995 0.9710520800000000 2.8573757700000000 Au
atom 20.1862397099999988 0.9240624000000000 2.7969501499999998 Au
atom 22.9508817699999987 0.6902870600000000 2.7522916300000002 Au
atom 25.7571140300000003 0.9178659200000000 2.6864324800000001 Au
atom 0.4562035100000000 0.9785918800000000 2.8486481900000000 Au
atom 3.3721176800000001 0.7644415900000000 2.6170822700000000 Au
atom 6.0395478599999999 0.8777178000000000 2.6590194299999999 Au
atom 7.5814275300000000 3.3764002899999999 2.7468460900000000 Au
atom 10.4549158000000002 3.2932269299999999 2.8146728300000001 Au
atom 13.0488379099999996 3.2409344299999998 2.7074282400000000 Au
atom 15.9171035300000003 3.2354134299999999 2.6949399000000001 Au
atom 18.8033111400000017 3.4701800800000000 2.5487362199999999 Au
atom 21.7643451600000013 3.3830099300000001 2.6849484900000000 Au
atom 24.4692131300000000 3.0979387300000001 2.6558149900000001 Au
atom 27.1079135200000003 3.2477893700000000 2.5074399100000000 Au
atom 1.9017595000000000 3.3761253099999999 2.5972653600000002 Au
atom 4.6555248699999998 3.2951576700000000 2.8793351199999999 Au
atom 8.9724304900000007 5.7532335000000003 2.6945926999999998 Au
atom 11.8035083000000007 5.9505854700000000 2.8219720599999998 Au
atom 14.5257015299999992 5.8304776399999998 2.8916600500000000 Au
atom 17.1942225600000000 6.0112437999999999 2.6399313400000000 Au
atom 20.2623660000000001 5.7959820200000003 2.6800880700000000 Au
atom 22.9700253100000005 5.9132441399999998 2.6066343700000001 Au
atom 25.8211514499999986 5.6300961500000000 2.7327915200000001 Au
atom 0.4729127300000000 5.6316629499999999 2.6197007100000000 Au
atom 3.4901908200000000 5.8253826499999999 2.9701078000000001 Au
atom 6.0396488300000000 5.7732278199999998 2.6575282200000001 Au
atom 7.3755779700000001 8.4393894199999995 2.7053542699999999 Au
atom 10.3591701799999996 8.2762106600000003 2.5212799299999999 Au
atom 13.0298915999999991 8.2438056500000005 2.6274257099999998 Au
atom 15.8176653799999993 8.2598909299999992 2.6695922099999998 Au
atom 18.6934593999999983 8.4061889300000008 2.6596379699999999 Au
atom 21.6449822500000018 8.1554744100000001 2.5217448700000000 Au
atom 24.5164791999999991 8.3901175699999992 2.5451352400000000 Au
atom 27.3980612900000011 8.2380181500000003 2.5595296500000000 Au
atom 1.8487440399999999 8.2416756899999992 2.6975197700000000 Au
atom 4.8183751800000003 8.2842658399999998 2.3980412400000000 Au
atom 8.9631540899999997 10.9058517399999992 2.7338002000000001 Au
atom 11.7317223800000008 10.7589895799999997 2.5945165600000002 Au
atom 14.4427346700000001 10.8219156000000005 2.6319721199999999 Au
atom 17.3387032999999988 10.8389542500000005 2.5894049899999998 Au
atom 20.1869154900000005 10.9308330500000004 2.5724783200000001 Au
atom 22.9540399800000010 10.8581751900000008 2.5007642799999998 Au
atom 25.6747508499999988 10.8736056100000003 2.6316341099999998 Au
atom 0.3506685900000000 10.6105364600000005 2.6113625699999998 Au
atom 3.3038931800000002 10.8608552899999999 2.4768281200000000 Au
atom 6.1777250600000002 10.5966983100000007 2.6610135499999998 Au
atom 7.3358929300000000 12.9358772500000008 5.7470320099999999 Cl
atom 7.3171136499999996 15.7675500799999995 8.5903517300000001 Cl
atom 7.5891856400000002 13.1521940900000001 8.4753688700000005 Na
atom 7.5388069800000004 15.9146783700000007 5.6763587199999996 Na
atom 7.6108821000000004 18.9250479799999987 5.7855485399999997 Cl
atom 7.6360798000000001 21.7248134499999992 8.5788697500000008 Cl
atom 7.5036812900000003 18.9224712699999991 8.7279919600000007 Na
atom 7.4534142299999999 21.6014408300000014 5.7620632599999997 Na
atom 7.4624583299999996 24.4016424900000004 5.8297357300000003 Cl
atom 7.4600192700000001 27.0433841800000003 8.4385727900000003 Cl
atom 7.4713402300000000 24.5345193899999998 8.3446981000000005 Na
atom 7.5780922600000000 27.1909501499999990 5.9175231400000001 Na
atom 7.5083995000000003 30.1025146100000001 5.6936074799999998 Cl
atom 7.3502560800000003 32.9161074900000017 8.6733927299999998 Cl
atom 7.5417494899999999 30.0813157800000006 8.4734221099999996 Na
atom 7.4632365199999997 32.8814296500000012 5.7725635500000001 Na
atom 7.6834987000000003 35.6924809400000029 5.6964890700000002 Cl
atom 7.6485618799999999 38.3965584199999981 8.6486725700000004 Cl
atom 7.3255805000000001 35.7761148199999965 8.2857810199999999 Na
atom 7.4950691400000000 38.4847940000000008 6.0737038999999999 Na
atom 7.4595711500000004 1.9013236700000000 5.9026798300000003 Cl
atom 7.3714578099999999 4.6945311800000002 8.5743799999999997 Cl
atom 7.5072472699999997 1.8080853699999999 8.3744363199999992 Na
atom 7.5401226599999998 4.7866834799999998 5.6839473399999996 Na
atom 7.5410912300000001 7.6660601399999999 5.7832384299999999 Cl
atom 7.6002313499999996 10.4464731700000009 8.7427448499999993 Cl
atom 7.4133554600000000 7.5490697899999999 8.3202268999999998 Na
atom 7.4541049099999999 10.2075199399999992 5.7934069299999997 Na
atom 10.3872513400000006 13.2909367700000001 5.7504905600000003 Na
atom 13.1986703500000004 13.2017230899999998 5.6600207800000000 Cl
atom 10.3549091499999992 16.0627248199999997 8.3895348500000004 Na
atom 13.1274622200000000 15.9422471500000000 8.5125239300000004 Cl
atom 12.9993031800000001 12.9982117099999996 8.4294281499999997 Na
atom 10.4173319200000005 13.0434539800000007 8.5253416699999995 Cl
atom 13.1104681999999997 16.1343005400000017 5.6028570799999997 Na
atom 10.2206022500000007 15.9261497900000002 5.5851857200000001 Cl
atom 10.3073168899999992 18.8212662799999997 6.1435741100000003 Na
atom 13.1504791500000007 18.8669925899999988 5.5593428800000000 Cl
atom 10.3193668200000008 21.4835339199999993 8.5433480700000004 Na
atom 13.2921574400000004 21.5028978600000009 8.6469352500000003 Cl
atom 13.3025174600000007 18.8673476499999992 8.3902822799999992 Na
atom 10.4592187400000007 18.9526041099999993 8.5463699700000006 Cl
atom 13.1805980199999997 21.7006582100000003 5.9989983599999999 Na
atom 10.3849373200000006 21.5587745200000001 5.7117497300000002 Cl
atom 10.4059931199999998 24.4838033000000017 5.8203405899999998 Na
atom 13.2571809100000007 24.3850162200000007 5.8178514500000000 Cl
atom 10.1836808300000001 27.1944315100000011 8.2120195000000002 Na
atom 13.0631160099999999 27.1822435899999988 8.7724483899999992 Cl
atom 13.3362992699999996 24.5126836399999988 8.3720015100000005 Na
atom 10.3649151400000008 24.3299576000000002 8.5420644600000006 Cl
atom 12.9491887699999992 27.3361908999999983 5.6779225599999998 Na
atom 10.2523268800000000 27.2739512700000013 5.8200011900000002 Cl
atom 10.5005021400000000 30.1523256900000014 5.7404331199999996 Na
atom 13.1139918800000004 30.1686156499999996 5.7679710100000001 Cl
atom 10.4270089699999993 32.8846107199999977 8.3689693599999995 Na
atom 12.9971887899999992 32.8762264599999980 8.7521931599999991 Cl
atom 12.9496911499999996 30.0600729499999986 8.3765268800000001 Na
atom 10.1571996400000000 29.9489797200000005 8.4930113400000007 Cl
atom 13.2446364400000007 33.1148249700000008 5.8890059900000002 Na
atom 10.1477277099999998 33.0674457900000007 5.8071416899999999 Cl
atom 10.1384682500000007 35.6568004399999978 5.6567914100000003 Na
atom 13.0892891500000008 35.7850438600000018 5.8249612400000004 Cl
atom 10.3955467600000002 38.6426747900000009 8.4391569600000000 Na
atom 13.1863030699999992 38.3988814699999992 8.5553705799999999 Cl
atom 13.2262572699999996 35.6997819500000020 8.2757695899999995 Na
atom 10.4319980300000008 35.7354321199999987 8.5716584299999994 Cl
atom 13.1374542499999993 38.5494530699999984 5.7289512299999998 Na
atom 10.3310941900000000 38.5524370500000018 5.9583105200000004 Cl
atom 10.2800186999999994 1.8186391399999999 5.7865910200000004 Na
atom 13.2799897999999992 1.8492612500000001 5.8513773799999997 Cl
atom 10.5575443900000003 4.6780939600000000 8.3619810099999992 Na
atom 13.1121000599999995 4.8878013100000004 8.6169197999999998 Cl
atom 13.0810803500000006 1.9004588499999999 8.4400690800000007 Na
atom 10.4427446199999991 2.0268161500000001 8.7576484400000005 Cl
atom 12.9492931500000008 4.7698655099999998 5.4794335600000004 Na
atom 10.4171077699999994 4.7952025799999998 5.8788845600000004 Cl
atom 10.1046671799999999 7.4293403199999997 5.7844248499999997 Na
atom 13.1266496700000008 7.4237291299999999 5.7876157499999996 Cl
atom 10.1478781199999997 10.4481128499999993 8.5358285600000006 Na
atom 13.1458290699999996 10.2088289000000003 8.5881105000000009 Cl
atom 13.1200328800000001 7.4034050999999996 8.3592182200000007 Na
atom 10.2576906799999996 7.5948263000000003 8.3573400800000002 Cl
atom 13.0156598199999998 10.2684724900000006 5.7826260999999999 Na
atom 10.4959267100000009 10.1420695100000007 5.7786601900000001 Cl
atom 15.8391255300000005 13.2466745499999998 5.7125620899999996 Na
atom 18.8289921100000015 13.2454179100000005 5.8340471599999999 Cl
atom 15.9437303499999992 15.8994723199999992 8.3558408199999992 Na
atom 18.8551789700000008 15.7959505500000006 8.4928079899999993 Cl
atom 18.8809300100000002 13.3076845200000005 8.3834342599999996 Na
atom 15.9660685400000002 13.1076765700000006 8.3971624299999998 Cl
atom 18.9049663899999985 16.2081090100000011 5.6843386200000001 Na
atom 15.8734246999999993 15.9274309100000000 5.8530004299999998 Cl
atom 15.9171901600000005 18.8347113099999994 6.0546434199999997 Na
atom 18.7903265300000015 18.7336763399999988 5.8616722899999996 Cl
atom 15.9758111100000004 21.7659130800000007 8.3450280699999997 Na
atom 18.8417077699999993 21.6558466100000011 8.5260621899999993 Cl
atom 18.9146107800000003 18.9029803500000000 8.3503825400000000 Na
atom 15.8918210299999991 18.8891763200000007 8.5909645999999995 Cl
atom 18.9219959200000005 21.6887312700000017 5.7021225800000002 Na
atom 16.1263237900000007 21.6737856800000017 5.8243180499999996 Cl
atom 15.7980218200000007 24.5407017200000013 5.7809528999999999 Na
atom 18.8436422800000010 24.4358645800000005 5.6663775400000000 Cl
atom 15.9630787200000004 27.2707081199999983 8.3375874799999998 Na
atom 18.8375749900000002 27.2607077699999998 8.6826988699999994 Cl
atom 18.6572552999999992 24.2985324499999997 8.3790864299999992 Na
atom 15.8977945199999997 24.3705873500000010 8.4862209800000006 Cl
atom 18.6859697999999987 27.4235933400000000 6.0859013900000001 Na
atom 16.0218210100000000 27.3538427900000016 5.6882472999999996 Cl
atom 15.8549390700000004 29.9546792599999989 6.1127831900000000 Na
atom 18.8040115099999987 30.1855087200000014 5.8875079200000000 Cl
atom 16.0024012400000011 32.6926400799999968 8.4459243199999996 Na
atom 18.8198682899999987 32.8262512499999985 8.4335643999999998 Cl
atom 18.9324207899999983 30.0980823099999988 8.4596891500000009 Na
atom 15.6882061900000007 30.0428233599999999 8.5728435899999997 Cl
atom 18.7748317399999998 33.0327531499999978 5.8221280499999999 Na
atom 16.0026830199999992 32.8145052100000001 5.6748588399999997 Cl
atom 16.1148053299999994 35.8253994100000028 5.8733128800000003 Na
atom 18.8887032599999998 35.6264985899999971 5.6848905900000002 Cl
atom 16.1309518400000016 38.6133629300000010 8.4876916399999995 Na
atom 18.7556490599999997 38.3698340400000006 8.5385018099999996 Cl
atom 18.8400945200000010 35.7876278099999965 8.2011671600000007 Na
atom 15.9772538199999996 35.7055867400000011 8.4409014199999994 Cl
atom 18.7678848100000017 38.6914277899999988 5.9813270500000000 Na