#===============================================================================
# Created using the Atomic Simulation Environment (ASE)

# Tue Dec 23 22:26:13 2025

#=======================================================
lattice_vector 28.1999999999999993 0.0000000000000000 0.0000000000000000 
lattice_vector 0.0000000000000000 39.4799999999999969 0.0000000000000000 
lattice_vector 0.0000000000000000 0.0000000000000000 62.3296083400000001 
atom 7.4273386900000000 14.7269441299999997 0.0930490300000000 Au
atom 10.2178497499999992 14.9505928000000008 0.0356180000000000 Au
atom 13.0062767099999999 14.9456232900000003 -0.0506143700000000 Au
atom 16.0309303800000009 14.7487411599999998 0.1264359700000000 Au
atom 18.8632472399999997 14.8188780599999994 0.0503098600000000 Au
atom 21.6871706999999994 14.8640700399999997 -0.0063456600000000 Au
atom 24.3450392499999992 14.7154224700000000 -0.1022027700000000 Au
atom 27.2303127099999998 14.7794188099999992 0.1511186400000000 Au
atom 1.8174227300000001 14.8057810900000000 -0.1714517100000000 Au
atom 4.8266951100000002 15.0171370700000004 0.1973134400000000 Au
atom 8.7703926600000006 17.4115064900000007 0.0202306500000000 Au
atom 11.7504441400000008 17.2185005300000000 0.0307712700000000 Au
atom 14.6345569999999991 17.1255861299999985 -0.0338330400000000 Au
atom 17.3613228900000003 17.2562232900000012 0.0512482700000000 Au
atom 20.1116109099999996 17.3918915200000015 -0.0069574900000000 Au
atom 23.0288747499999999 17.3196577299999994 0.1162877900000000 Au
atom 25.8251909899999994 17.3334764800000016 0.0398119100000000 Au
atom 0.4541592400000000 17.3547543100000006 0.3284050400000000 Au
atom 3.3089817899999998 17.3787994200000000 -0.0336916600000000 Au
atom 6.1700202500000003 17.4141277499999987 0.0751367300000000 Au
atom 7.5738676299999996 19.7930360400000005 0.1313985200000000 Au
atom 10.4000804700000007 19.5078601999999997 0.0169500100000000 Au
atom 13.0272248099999999 19.6903509399999983 0.1041809600000000 Au
atom 15.9073661400000006 19.8552487199999987 0.0065775200000000 Au
atom 18.7501829800000017 19.8001648800000005 0.0624253100000000 Au
atom 21.5163544100000017 19.8612143400000001 0.1107999100000000 Au
atom 24.5239383000000011 19.7754006199999992 -0.2300670900000000 Au
atom 27.1944216599999997 19.7860690699999999 0.0897790100000000 Au
atom 1.6937253400000001 19.5643705499999996 0.0635092100000000 Au
atom 4.8244207799999996 19.6178859199999991 -0.0613781500000000 Au
atom 8.8860884000000002 22.2188999900000006 0.0067591200000000 Au
atom 11.7193690000000004 22.2056983099999989 0.1061547900000000 Au
atom 14.4056837499999997 22.1069086500000012 0.0886879100000000 Au
atom 17.3484004499999998 22.3064302099999985 0.0869702400000000 Au
atom 20.1169940599999997 22.2632518200000007 -0.0529382200000000 Au
atom 23.0203346499999988 22.1148740100000012 0.1724788800000000 Au
atom 25.9568542399999984 22.1770954399999987 0.1505142400000000 Au
atom 0.4942318500000000 22.2361519799999989 0.1748405900000000 Au
atom 3.1832511800000001 22.1815737800000008 0.3122807000000000 Au
atom 6.1812565700000004 22.2126769599999996 0.0500268700000000 Au
atom 7.4126536900000000 24.8438996000000003 0.0760586900000000 Au
atom 10.4192745000000002 24.8076767599999997 0.2764410400000000 Au
atom 13.2665246900000007 24.6945460600000004 -0.0109120800000000 Au
atom 15.8045903299999999 24.6278026300000015 0.2505686200000000 Au
atom 18.6392359399999989 24.7915825800000000 0.0666881400000000 Au
atom 21.5745226999999993 24.7509511899999985 0.1008725500000000 Au
atom 24.2798506200000013 24.7926271400000005 0.0590864400000000 Au
atom 27.3143509800000004 24.5189188800000011 -0.0099958000000000 Au
atom 2.0198458000000001 24.3869485200000007 0.0612563900000000 Au
atom 4.7852208500000000 24.7955452600000008 0.0252550400000000 Au
atom 9.0813146600000003 27.3431211000000012 -0.1295717100000000 Au
atom 11.7068270499999993 27.2307042899999985 0.0933282800000000 Au
atom 14.4805629400000004 27.2667656100000002 0.1384753300000000 Au
atom 17.3868863800000000 27.0109321300000005 -0.0967492900000000 Au
atom 20.0979841599999993 27.0015210299999993 -0.0030729000000000 Au
atom 22.9070251499999991 27.2695257399999988 0.0099049600000000 Au
atom 25.9332305000000005 27.1324503700000008 0.2705023000000000 Au
atom 0.3772164700000000 26.9747640299999993 0.0353298000000000 Au
atom 3.3994328600000001 27.1434578699999989 0.1047198900000000 Au
atom 6.0242607300000000 27.1161176899999994 0.1961133800000000 Au
atom 7.5481535099999997 29.6153649700000017 -0.0225524200000000 Au
atom 10.2200687899999991 29.6836587399999985 0.1650529600000000 Au
atom 13.1246156900000006 29.5712441900000016 -0.0384210100000000 Au
atom 15.8621811400000006 29.6192779100000010 -0.0163489600000000 Au
atom 18.8231257499999991 29.6109292699999997 0.0474144800000000 Au
atom 21.4347379599999996 29.6448534600000002 -0.0226938500000000 Au
atom 24.2586058899999983 29.4601266899999992 -0.1172002500000000 Au
atom 27.3614466599999986 29.6649534599999996 -0.0913600300000000 Au
atom 1.9843751199999999 29.6258212900000011 -0.1314377100000000 Au
atom 4.6997285199999999 29.4738456500000012 0.1764235000000000 Au
atom 8.8499673800000007 31.8301304700000003 0.0447283300000000 Au
atom 11.7437505600000005 32.0281232000000031 0.0047094700000000 Au
atom 14.5691582000000004 32.0581708100000000 0.0022999400000000 Au
atom 17.3496501800000011 32.1109270999999978 0.0275740200000000 Au
atom 20.1306748599999992 32.2625841799999975 -0.0852963300000000 Au
atom 23.1506216599999988 32.2060715699999989 0.1213454300000000 Au
atom 25.8212528900000002 32.2692024600000025 -0.0810714900000000 Au
atom 0.3969025300000000 32.0352457700000031 -0.0256089400000000 Au
atom 3.2882458400000001 32.1542503699999997 -0.0316484000000000 Au
atom 6.1681532299999997 32.2563352499999993 -0.0413282500000000 Au
atom 7.3135453600000000 34.6431393299999968 -0.1119150300000000 Au
atom 10.4430485199999996 34.6558597900000009 -0.0209791300000000 Au
atom 13.1997901500000001 34.6650198700000018 -0.2199153600000000 Au
atom 15.8754471000000006 34.5619649599999974 -0.0189921700000000 Au
atom 18.8418109899999990 34.6455086400000027 -0.0174496300000000 Au
atom 21.4438332799999998 34.3980359899999968 0.0461642400000000 Au
atom 24.5245809000000001 34.6350143000000017 -0.0759434000000000 Au
atom 27.3137523999999985 34.5828721999999971 -0.0831472300000000 Au
atom 1.7836653600000001 34.6086103499999993 -0.0824570800000000 Au
atom 4.6078906999999996 34.4199847800000001 0.0536347200000000 Au
atom 9.2437175099999997 37.0796708299999977 -0.0602183700000000 Au
atom 11.6724560600000000 36.9513761099999982 0.0204713000000000 Au
atom 14.4002995499999997 37.1105444299999974 -0.0148370400000000 Au
atom 17.2992123000000007 37.0927465600000019 0.1310220900000000 Au
atom 19.9981262000000015 37.0582143900000034 -0.0250231000000000 Au
atom 23.0202969999999993 37.1443704300000022 0.2453950300000000 Au
atom 25.7527358900000003 36.8740926500000015 0.0841201000000000 Au
atom 0.4618143600000000 37.1452362599999972 -0.0795124700000000 Au
atom 3.3399284699999998 37.2127002000000005 -0.0390583300000000 Au
atom 6.1059876199999996 37.0444385799999978 -0.0230296000000000 Au
atom 7.7368938800000002 0.1281719600000000 -0.0713124400000000 Au
atom 10.0667866200000002 -0.0739100100000000 0.0298601500000000 Au
atom 12.9865234600000008 -0.0385018000000000 0.0939088100000000 Au
atom 15.9500989799999999 0.1605967600000000 0.1332449500000000 Au
atom 18.7859471300000003 -0.0535394700000000 -0.0332269300000000 Au
atom 21.6284881599999999 -0.1015234600000000 0.0757538800000000 Au
atom 24.3968105699999995 0.0604003600000000 -0.0860950600000000 Au
atom 27.2173642800000017 0.0268117500000000 0.2493647300000000 Au
atom 1.7999591600000000 -0.0220295900000000 0.0330862500000000 Au
atom 4.6254096300000000 -0.1101770500000000 0.2370017000000000 Au
atom 9.0847270400000006 2.5029639299999999 0.1386047800000000 Au
atom 11.7943230000000003 2.5749082500000000 0.0086228100000000 Au
atom 14.4860591000000003 2.5015285500000002 0.0039343000000000 Au
atom 17.3944009100000017 2.4276377400000002 0.1218057200000000 Au
atom 20.1975588899999998 2.4969747500000001 0.0664994700000000 Au
atom 23.1108237500000016 2.3381931699999998 0.0411884300000000 Au
atom 25.8687817699999982 2.4664104700000000 0.0923356500000000 Au
atom 0.5726911099999999 2.5624075400000002 0.1446642200000000 Au
atom 3.1777643699999998 2.7542899799999998 0.1163008700000000 Au
atom 6.1423946999999997 2.6320901399999999 -0.2336630600000000 Au
atom 7.4931113600000003 4.8588182700000004 0.0486618200000000 Au
atom 10.2778890500000006 5.1116052500000002 0.0365809700000000 Au
atom 13.1333910700000001 5.0100386200000004 0.1141620300000000 Au
atom 15.9566472899999994 4.8094945200000003 0.1786532500000000 Au
atom 18.8664488000000006 4.9299111299999998 0.0543866700000000 Au
atom 21.8153077499999988 4.7744322700000001 0.1318905200000000 Au
atom 24.4119352599999999 5.2139116999999997 0.1345305600000000 Au
atom 27.2293231800000015 4.8437520200000002 0.0440877900000000 Au
atom 1.7644529300000000 4.9267008099999998 0.2514783700000000 Au
atom 4.5741794599999999 4.9504012399999997 0.1071578000000000 Au
atom 8.8499790100000002 7.3927330800000002 0.0913114000000000 Au
atom 11.7249655199999996 7.2910899200000001 0.0926802000000000 Au
atom 14.5359355299999997 7.3491864900000001 0.0198956600000000 Au
atom 17.3122373799999991 7.2127758399999999 0.0537528000000000 Au
atom 20.0781337399999984 7.5592308399999997 0.1469563000000000 Au
atom 22.9204788800000010 7.5043518100000002 -0.0755348100000000 Au
atom 25.6749724599999993 7.4085578500000002 0.2767045200000000 Au
atom 0.4808513600000000 7.5061394999999997 0.0918986400000000 Au
atom 3.2863833200000001 7.5260592300000004 0.0280443700000000 Au
atom 6.0947418899999999 7.4578193300000004 0.0379586700000000 Au
atom 7.4457179199999999 9.7833048999999992 -0.0430966900000000 Au
atom 10.1346297100000005 9.8113919700000007 -0.1009644400000000 Au
atom 13.1168678100000005 9.8496825200000000 0.0843603500000000 Au
atom 16.0109128600000012 9.9001192899999992 0.1191038300000000 Au
atom 18.8293149699999987 9.9103807499999998 -0.1496848600000000 Au
atom 21.7540136000000004 9.8473955100000001 -0.0445669400000000 Au
atom 24.6708099700000005 9.8342851099999997 0.1112445300000000 Au
atom 27.2137397900000018 9.8475148099999998 -0.0001767600000000 Au
atom 1.8039860500000000 9.7742798900000007 0.0569973300000000 Au
atom 4.6908785300000000 9.9947382600000001 0.0167785700000000 Au
atom 9.0166423699999996 12.4744441800000008 0.1017211500000000 Au
atom 11.4710473700000009 12.3237053000000003 -0.0483217700000000 Au
atom 14.5443560900000008 12.3781302800000006 0.0008161300000000 Au
atom 17.5334498699999983 12.3581628200000004 -0.1109765400000000 Au
atom 20.0657920099999991 12.4094624499999995 -0.1904809600000000 Au
atom 22.9220008499999999 12.5223842600000008 0.0775014100000000 Au
atom 25.6591670200000017 12.2190730799999994 -0.0159514600000000 Au
atom 0.4805708600000000 12.3905038199999993 0.1455642500000000 Au
atom 3.3603676199999999 12.3193506199999998 -0.1226932600000000 Au
atom 6.1038737300000001 12.4412865600000000 -0.0682187300000000 Au
atom 7.8583210699999997 13.3779940199999992 2.6602971499999999 Au
atom 10.2822781400000007 13.1332316400000000 2.5455402899999999 Au
atom 12.9364553699999991 13.2443760699999995 2.7497789500000001 Au
atom 15.9132677299999994 13.1164975800000008 2.5547130899999999 Au
atom 18.8354272599999994 13.0063436600000006 2.8335209400000001 Au
atom 21.6702150200000005 12.9637757300000001 2.3860653100000002 Au
atom 24.4418210199999990 13.1749574700000007 2.8943525800000001 Au
atom 27.1985634699999999 13.2213869099999997 2.5306013200000002 Au
atom 1.8112927299999999 13.2085389000000006 2.7055704700000001 Au
atom 4.7022753799999997 13.3852288900000005 2.5260524200000001 Au
atom 8.8061111800000003 15.5328002499999993 2.6281171099999998 Au
atom 12.0179889800000002 15.5571337500000002 2.7956490199999999 Au
atom 14.5109990900000003 15.6511866200000007 2.6236823600000001 Au
atom 17.2677111900000000 15.5610189900000009 2.6270045299999998 Au
atom 20.3377054800000003 15.6054703799999999 2.6191042100000002 Au
atom 22.8793100699999989 15.8101003799999997 2.6493513800000001 Au
atom 25.7855307600000003 15.6297313199999994 2.6261644799999999 Au
atom 0.2405324800000000 15.7554626899999999 2.7313229400000001 Au
atom 3.2957539499999999 15.7445846800000009 2.6487749699999998 Au
atom 6.0241405300000004 15.6799037000000006 2.5106671899999999 Au
atom 7.4990581399999998 18.2949435399999984 2.6099392899999998 Au
atom 10.4048662200000006 18.2951027599999989 2.6494068799999999 Au
atom 13.3110363799999991 18.1892024100000000 2.6942658399999999 Au
atom 15.8665700699999999 18.1926143799999984 2.7245500100000002 Au
atom 18.8069566600000009 18.1683190600000017 2.7681850099999998 Au
atom 21.7295780900000004 18.0871831699999994 2.7794746799999999 Au
atom 24.4348880000000008 18.1054139099999993 2.6884098200000000 Au
atom 27.2244778499999995 18.3506695700000009 2.6140121399999998 Au
atom 1.7599623600000001 18.1401846599999992 2.7131419600000002 Au
atom 4.5679102800000004 18.1607713000000004 2.6670877599999998 Au
atom 8.9468850100000008 20.4778336100000011 2.7577786400000002 Au
atom 11.6396280999999995 20.4836248599999990 2.6004275600000000 Au
atom 14.6586781399999992 20.5491598199999999 2.7302696800000001 Au
atom 17.4102982799999992 20.6394134300000012 2.7710000799999999 Au
atom 20.1534957000000006 20.3690797299999993 2.6992417899999999 Au
atom 23.1709076500000002 20.4780952200000002 2.8217710800000000 Au
atom 25.8163778700000002 20.5853037000000008 2.7759651000000001 Au
atom 0.4843707500000000 20.4870873200000005 2.7608580900000002 Au
atom 3.2424412999999999 20.6818485299999999 2.7114378200000000 Au
atom 6.0781533799999998 20.6577874600000015 2.6973319600000001 Au
atom 7.5155481000000002 23.2067846200000005 2.7548267300000000 Au
atom 10.2920909700000003 23.0236861700000013 2.5683290400000001 Au
atom 13.1070168900000006 23.1395129699999984 2.7238663500000002 Au
atom 15.8688393800000007 23.0964702700000011 2.6497759699999999 Au
atom 18.6691548699999998 22.9506705000000011 2.6370054800000000 Au
atom 21.5551048999999999 22.8718467899999993 2.6010847899999998 Au
atom 24.4418257899999993 22.9771157899999992 2.6483531000000000 Au
atom 27.2622566400000004 22.9809381799999990 2.5895234299999998 Au
atom 1.6947830100000001 23.0570574199999996 2.6180448400000000 Au
atom 4.7386361800000003 23.2719560100000002 2.4119566699999999 Au
atom 8.9993722199999997 25.4299176200000012 2.7096442800000000 Au
atom 11.6973526400000001 25.5294768400000009 2.8183638800000002 Au
atom 14.4810606300000000 25.5524959900000006 2.6344758800000001 Au
atom 17.1570151700000011 25.4821878899999987 2.6733197600000000 Au
atom 20.2479692600000014 25.6608527899999999 2.6258135299999998 Au
atom 22.9132308500000015 25.5510619599999984 2.6989715099999998 Au
atom 25.9352350399999985 25.5515436600000001 2.6612246000000002 Au
atom 0.3765220800000000 25.5577822700000006 2.7601300499999999 Au
atom 3.2328175600000000 25.6844719300000008 2.6970564000000001 Au
atom 6.2755327899999997 25.3633281000000004 2.7940059499999998 Au
atom 7.5752195999999996 27.8613390500000015 2.7015163699999998 Au
atom 10.3062573299999993 28.0568297199999996 2.6126236299999999 Au
atom 12.9758443000000003 28.0764315199999999 2.4492091100000000 Au
atom 15.8929955300000003 28.0371279599999994 2.5818895899999998 Au
atom 18.6666083399999998 27.8830357699999993 2.6100677499999998 Au
atom 21.5388088999999994 28.0706654200000010 2.7196691600000000 Au
atom 24.4416311300000011 28.0701627800000004 2.6789846599999998 Au
atom 27.2905045900000012 28.0927568500000007 2.7617925400000001 Au
atom 1.8685901899999999 28.0418964300000013 2.5838257100000002 Au
atom 4.8311812300000003 27.7288025500000010 2.6969545899999998 Au
atom 8.9235115900000004 30.5502468000000000 2.7553551700000001 Au
atom 11.6724426799999996 30.6124942100000013 2.6413589000000002 Au
atom 14.3852440399999999 30.4525107999999989 2.7517154300000000 Au
atom 17.4005444599999990 30.4285517500000005 2.9362192199999999 Au
atom 20.2549009399999989 30.3560727200000002 2.5567857799999998 Au
atom 23.0992435100000009 30.6305980399999989 2.7664947199999999 Au
atom 26.0231739200000014 30.4615408199999997 2.5481048199999998 Au
atom 0.5277282200000000 30.5073474199999986 2.6404946499999999 Au
atom 3.1867636799999999 30.5436837600000004 2.5517164999999999 Au
atom 6.3502371499999999 30.1449599600000013 2.7197554300000002 Au
atom 7.6605902600000002 33.0056228700000034 2.6068744100000001 Au
atom 10.4844596100000000 33.0004945900000024 2.7251705799999999 Au
atom 13.0167973299999993 32.7350349600000001 2.5454804800000002 Au
atom 16.1236658599999991 32.9086753099999996 2.7328342499999998 Au
atom 18.8785545799999994 32.9559302700000032 2.6527965899999999 Au
atom 21.6391699399999986 32.9486855000000034 2.6646820000000000 Au
atom 24.5401394699999997 32.9328885700000029 2.5575612500000000 Au
atom 27.1357728199999997 32.9536997599999992 2.7398981600000001 Au
atom 1.9534123699999999 33.0504533000000009 2.4771416300000002 Au
atom 4.6703850500000001 32.9465044499999991 2.7576405199999998 Au
atom 9.0662344800000003 35.3042918399999976 2.7342329900000002 Au
atom 11.6091195299999992 35.4365342199999986 2.5390126700000000 Au
atom 14.4042773999999998 35.5219862000000006 2.9131379200000000 Au
atom 17.2586042800000001 35.4214408699999979 2.5474370300000002 Au
atom 20.2719972199999994 35.4047540199999986 2.7211976199999999 Au
atom 23.1031450199999995 35.4500768300000004 2.6455360799999998 Au
atom 25.9057646599999991 35.1653839000000019 2.5507297800000002 Au
atom 0.7356929600000000 35.2848396600000029 2.6304810399999998 Au
atom 3.0950211500000000 35.2555456799999973 2.6318710300000001 Au
atom 6.1278628099999999 35.4351069699999996 2.7095108300000001 Au
atom 7.5393000600000004 37.8971116299999977 2.6356282300000000 Au
atom 10.1818392499999995 37.9976342699999989 2.6956345700000002 Au
atom 13.2435773900000004 37.9605390199999988 2.6933525999999999 Au
atom 16.0945309300000012 37.9776615600000014 2.6488074500000001 Au
atom 18.7481597499999992 37.8593574900000007 2.4723923900000000 Au
atom 21.5714480299999991 37.7457502299999987 2.7761162300000000 Au
atom 24.4241002499999986 37.8052128699999983 2.5212713400000002 Au
atom 27.2935936499999983 37.9123132799999993 2.7674561700000000 Au
atom 1.9245380500000000 37.9478370300000023 2.7690447599999999 Au
atom 4.7508754000000000 37.7029826799999981 2.6446976599999998 Au
atom 9.1422536999999995 0.9718123500000000 2.6699752499999998 Au
atom 11.8620009500000005 0.9681299700000000 2.7155263800000000 Au
atom 14.5119111800000002 0.9987850100000000 2.5992626200000002 Au
atom 17.3131453200000003 0.7938161500000001 2.6909186799999998 Au
atom 20.4174190300000014 0.8159749900000000 2.7111184900000000 Au
atom 23.1764740099999997 0.9381242300000000 2.6660279500000001 Au
atom 25.8829400499999984 0.9450723100000000 2.7029459199999999 Au
atom 0.3190483400000000 1.0906269600000000 2.6550388400000000 Au
atom 3.2318130200000001 0.9779786800000000 2.8719844200000000 Au
atom 6.0482521399999998 1.0456829599999999 2.8521352900000001 Au
atom 7.2670561999999999 3.3675763800000000 2.7286735100000001 Au
atom 10.4225243699999996 3.1680269499999998 2.6297001299999998 Au
atom 13.1469042399999996 3.4349288200000001 2.5931570499999999 Au
atom 15.9798830699999996 3.3446124500000001 2.7070855900000002 Au
atom 18.6908412700000000 3.2546906600000001 2.5670575699999998 Au
atom 21.6419770299999996 3.2275285100000000 2.5689179200000001 Au
atom 24.3834836899999985 3.2688159600000000 2.8324944799999998 Au
atom 27.2017729400000015 3.3715490899999998 2.5127983899999999 Au
atom 1.9832944100000001 3.2868177200000002 2.8995597700000002 Au
atom 4.6330069299999996 3.2827610900000002 2.7309372999999999 Au
atom 8.8806461799999994 5.9204076700000003 2.8857623600000002 Au
atom 12.0237368300000007 5.7491584299999996 2.7667583900000001 Au
atom 14.6402063400000007 6.0093341100000002 2.6594585300000002 Au
atom 17.3883920100000005 5.6928801199999999 2.8173509200000000 Au
atom 20.0866621099999989 5.7891794299999999 2.6404407100000000 Au
atom 22.9738511999999986 6.0147651700000004 2.6885611500000000 Au
atom 25.9314149000000000 5.8271842300000003 2.9237432700000001 Au
atom 0.3975990800000000 5.8428945299999997 2.7216037900000001 Au
atom 3.2204815600000001 5.6985609400000001 2.7600680500000001 Au
atom 5.9956929800000003 5.6613366999999997 2.6199995800000000 Au
atom 7.4936969600000003 8.4327052699999996 2.7584526100000000 Au
atom 10.4342473099999999 8.1755158800000007 2.7142092299999998 Au
atom 13.0814158500000008 8.3042877300000004 2.7152566500000002 Au
atom 15.8734677000000008 8.3490230499999996 2.7486261999999999 Au
atom 18.9027429100000006 8.3505559199999997 2.6497058099999999 Au
atom 21.6317721100000000 8.0766075199999996 2.6469347299999999 Au
atom 24.5437512600000005 8.2327826900000005 2.6698008700000000 Au
atom 27.2375774399999990 8.3014238799999998 2.7140622300000001 Au
atom 1.8402373800000000 8.3221961300000000 2.7991250700000001 Au
atom 4.6252468000000002 8.5160091900000001 2.6529878899999999 Au
atom 8.7675123500000005 10.7629661199999997 2.6092527699999999 Au
atom 11.8774224600000000 10.9082637400000007 2.6986954999999999 Au
atom 14.5966681200000004 10.7599116499999994 2.4764811799999999 Au
atom 17.3428873299999999 10.8067805099999994 2.5819549400000001 Au
atom 20.2984167299999996 10.7503448699999993 2.8273786500000000 Au
atom 23.1261416299999993 10.7776508799999995 2.7623705500000000 Au
atom 25.6617193700000001 10.6727548300000006 2.7235793300000002 Au
atom 0.5773112400000000 10.8285846899999996 2.4535957599999998 Au
atom 3.2596731700000001 10.5782404700000008 2.7001262599999998 Au
atom 6.0304408000000000 10.7124208599999999 2.5589010700000001 Au
atom 7.4567743399999999 13.1142093200000005 5.5158510400000003 Cl
atom 7.3427087699999998 15.8685244300000008 8.6640000599999993 Cl
atom 7.4191947000000003 13.0953298300000007 8.3800038099999998 Na
atom 7.5913994799999998 15.8209397400000000 5.9605254099999998 Na
atom 7.3074415000000004 18.4148826399999983 5.2955993200000000 Cl
atom 7.8594887099999999 21.4451925000000010 7.6376658099999997 Cl
atom 7.3340320900000000 19.0798491500000011 7.8443776300000003 Na
atom 7.5816717899999997 21.6143484699999995 5.0427872000000002 Na
atom 7.4006461999999997 24.5160282500000015 5.4883489399999998 Cl
atom 7.2735884200000003 27.3018227600000003 8.5183180699999994 Cl
atom 7.1576293299999998 24.2607682400000009 8.2125788800000006 Na
atom 7.5751027300000002 27.2276014400000008 5.9470405499999996 Na
atom 7.3676122099999999 30.1411957599999987 5.8931081900000004 Cl
atom 7.3193065500000003 32.8580042399999996 8.4947681799999994 Cl
atom 7.4109603999999996 30.1021617500000005 8.3334434399999999 Na
atom 7.4662516900000000 32.9067473200000009 5.8112639100000001 Na
atom 7.5351976699999996 35.7994942899999984 5.7743854399999996 Cl
atom 7.5871803599999996 38.6480550699999981 8.5312871599999998 Cl
atom 7.3025051599999999 35.6428231699999998 8.4010241000000008 Na
atom 7.3764683099999999 38.5454313899999974 5.7807710600000002 Na
atom 7.3843887099999996 2.0349680299999999 5.6898638500000001 Cl
atom 7.4562353999999997 4.7797367900000003 8.5970377599999992 Cl
atom 7.5109848100000001 2.0023528000000002 8.3994792500000006 Na
atom 7.5440497700000000 4.7210559500000002 5.7562192100000003 Na
atom 7.3332236399999999 7.4012145100000000 5.8196512900000004 Cl
atom 7.5919553300000002 10.2743633899999995 8.5382058900000004 Cl
atom 7.6318078500000004 7.6410333499999998 8.3625339099999998 Na
atom 7.4768963199999998 10.2873201200000004 5.6683630500000000 Na
atom 10.3653739999999992 13.1990737199999995 5.5726883699999998 Na
atom 13.1108580200000002 13.0848051699999992 5.5693706199999999 Cl
atom 10.4238634599999997 16.1849961200000010 8.2404116799999994 Na
atom 13.5734798500000000 15.4295649800000003 8.0392563599999995 Cl
atom 13.3857204000000003 12.7857642699999996 8.2225424399999998 Na
atom 10.3917671299999999 13.1565458399999997 8.5746149299999992 Cl
atom 13.0726998400000003 16.0803025300000009 5.2833299599999997 Na
atom 10.3584707700000003 15.7943421300000004 5.6204902700000003 Cl
atom 10.2942258500000001 18.9543926700000007 5.1557814300000002 Na
atom 13.2204588600000008 18.7932991999999999 5.7943651699999998 Cl
atom 10.5879848400000007 21.7748498999999995 7.8147175500000001 Na
atom 13.0537092399999999 21.6619989100000012 8.6972705200000000 Cl
atom 13.2715319399999991 18.6072018200000002 8.1732098700000009 Na
atom 10.0829009799999998 18.8651345600000013 7.9442531399999998 Cl
atom 13.2903529099999993 21.8496287799999998 5.6843046800000003 Na
atom 10.5855838799999997 21.9764976899999986 5.2538830200000000 Cl
atom 10.2377381300000003 24.4433129099999995 5.5834123699999996 Na
atom 13.1485617700000006 24.6037878700000014 5.7300671599999999 Cl
atom 10.2966713399999996 27.2975663799999992 8.2980731900000002 Na
atom 13.1887541400000003 27.4077035600000016 8.5040438799999993 Cl
atom 13.2184132000000005 24.5977739399999997 8.3183892799999999 Na
atom 10.2243481700000007 24.7186556099999990 8.2544821499999994 Cl
atom 13.2186659500000001 27.3746255500000011 5.7864935099999997 Na
atom 10.4443278900000003 27.4691997599999986 5.5246842899999997 Cl
atom 10.2657900000000009 30.1608386800000012 5.7763490400000004 Na
atom 13.3200461000000008 30.1590047299999995 5.6068372100000001 Cl
atom 10.3116366399999997 32.8634826799999971 8.1534657799999994 Na
atom 13.0570575099999999 32.8522891000000001 8.6651289299999998 Cl
atom 13.0909423700000005 30.1336902299999991 8.3766584000000002 Na
atom 10.3452590200000003 30.0769865799999998 8.5798605999999999 Cl
atom 12.9504270300000002 32.8137030999999979 5.8551861100000000 Na
atom 10.1929800900000007 33.0470512099999993 5.6927076300000001 Cl
atom 10.2718461899999998 35.8681011700000028 5.8554052499999996 Na
atom 13.0960085399999997 35.6736332400000009 5.7964614200000000 Cl
atom 10.3532361799999997 38.6355868699999974 8.5972764500000007 Na
atom 13.2035982799999996 38.5141402699999986 8.6768546099999995 Cl
atom 12.9764798399999997 35.5548810000000017 8.3143783199999994 Na
atom 10.3313367700000001 35.7185247099999970 8.6488351199999993 Cl
atom 13.2857255599999995 38.6359725200000028 5.7465642900000002 Na
atom 10.3814488399999991 38.3344036700000004 5.6833327699999998 Cl
atom 10.2772308199999998 2.0703504499999998 5.8954877000000003 Na
atom 13.2111145299999997 1.9622097599999999 5.8341295200000003 Cl
atom 10.2567527599999995 4.8360420800000004 8.2969402599999995 Na
atom 13.2150606899999996 4.8183637700000004 8.6226316199999999 Cl
atom 13.2766522400000007 1.9605659000000000 8.2915721500000004 Na
atom 10.1320404100000001 1.8051073799999999 8.6812537600000006 Cl
atom 13.1934904000000000 4.7314486599999999 5.7380852300000003 Na
atom 10.3856581899999991 4.7786002200000004 5.7517372800000004 Cl
atom 10.2183644499999993 7.6662045399999998 5.6651071000000002 Na
atom 13.1310824200000003 7.3229871299999996 5.8102654400000002 Cl
atom 10.2196592800000001 10.3240078099999995 8.3395134599999992 Na
atom 13.0365249799999994 10.1539404399999995 8.5333763499999993 Cl
atom 13.2121192099999991 7.4509500400000004 8.3626381799999994 Na
atom 10.3537381899999996 7.5300177000000001 8.5087291700000005 Cl
atom 13.0338739300000004 10.4244646799999998 5.6716802199999998 Na
atom 10.2383645100000003 10.1966573700000005 5.5949260499999998 Cl
atom 16.0431216700000014 13.2228476799999992 5.8392877199999997 Na
atom 18.8665224599999988 13.2307527799999995 5.8415995699999996 Cl
atom 15.9076158599999999 15.8007347800000009 8.2515657499999993 Na
atom 18.8779668700000016 16.0747022800000003 8.6150905699999996 Cl
atom 18.7997922099999997 13.2367672899999995 8.4343491400000001 Na
atom 16.2323319700000006 12.9411471700000007 8.4690216300000003 Cl
atom 18.9977242699999991 15.8756834599999994 5.7237702199999996 Na
atom 16.2993825699999988 15.8161438899999993 5.7164321200000003 Cl
atom 16.0090584800000002 18.8753938599999991 5.5277143999999998 Na
atom 18.7767715700000011 18.7795240099999994 5.4277887399999996 Cl
atom 15.9504666600000000 21.6374577899999991 8.3298533300000006 Na
atom 18.6731495800000005 21.6733170299999998 8.4901603100000003 Cl
atom 18.7777881300000011 18.9159865300000014 8.1305616700000005 Na
atom 16.0180163200000010 18.6819592499999985 8.3021144600000003 Cl
atom 18.8258042400000001 21.6108049499999986 5.7493991199999996 Na
atom 16.0753541499999990 21.7512021500000010 5.9734837799999996 Cl
atom 16.0051859299999997 24.3732755200000000 5.7998843400000002 Na
atom 18.8544680800000002 24.4183578700000012 5.6372741599999996 Cl
atom 15.8195178100000007 27.3204693200000008 8.3918756999999999 Na
atom 18.9720228199999994 27.2593986500000014 8.5474084599999998 Cl
atom 18.8042575999999997 24.5665129299999982 8.2825372900000005 Na
atom 15.9970794900000008 24.4137103199999999 8.2463101299999995 Cl
atom 18.8001488099999996 27.1623649799999995 5.8222671500000001 Na
atom 16.1398490300000006 27.3454261199999991 5.8483359899999998 Cl
atom 16.0647655000000000 30.0889714300000009 5.8451758399999996 Na
atom 18.6929520800000013 30.0010112000000007 5.7294895800000001 Cl
atom 16.1928759599999985 32.9414994400000012 8.3828005700000006 Na
atom 18.9898654100000002 32.8059306899999967 8.5912274899999996 Cl
atom 18.9113563900000017 30.0241356300000000 8.3756266299999993 Na
atom 15.8548678600000006 30.2738972699999991 8.7231045500000004 Cl
atom 18.6074185099999987 33.0125720899999990 5.7919182500000002 Na
atom 15.8448575900000002 32.9217261300000033 5.8420761399999996 Cl
atom 15.9446627700000008 35.7322443500000020 5.5383620699999998 Na
atom 18.7062625800000006 35.9421348500000022 5.6570095100000000 Cl
atom 15.7827485000000003 38.7752734299999986 8.2995864499999996 Na
atom 18.6833549400000010 38.4159231599999984 8.6626681199999993 Cl
atom 18.8466001500000004 35.7244870399999996 8.3827890099999998 Na
atom 15.9595701400000003 35.8068058300000018 8.5272364300000003 Cl
atom 18.5812746599999983 38.6262114199999971 5.6626303399999998 Na