#===============================================================================
# Created using the Atomic Simulation Environment (ASE)

# Sat Nov  1 21:48:35 2025

#=======================================================
lattice_vector 28.1999999999999993 0.0000000000000000 0.0000000000000000 
lattice_vector 0.0000000000000000 39.4799999999999969 0.0000000000000000 
lattice_vector 0.0000000000000000 0.0000000000000000 62.3296083400000001 
atom 7.5157869499999999 14.7962142900000000 0.0254800400000000 Au
atom 10.3192525400000008 14.8201494000000000 -0.0324676100000000 Au
atom 13.1345431099999992 14.8456145700000004 0.0589235000000000 Au
atom 15.9627057099999998 14.8077657299999998 -0.0250138300000000 Au
atom 18.7769286400000013 14.7860262200000001 0.0785375700000000 Au
atom 21.6041360400000002 14.8149294800000000 0.0024229300000000 Au
atom 24.4210189200000016 14.7920846200000007 0.0340679300000000 Au
atom 27.2124627600000011 14.7081909199999998 -0.0080574200000000 Au
atom 1.8439661700000001 14.8540998000000002 0.0268170500000000 Au
atom 4.6674843499999996 14.8276099200000004 -0.0465282300000000 Au
atom 8.8828740800000006 17.2904433600000011 0.0453516100000000 Au
atom 11.7391577399999996 17.3033414999999984 0.0392883900000000 Au
atom 14.5160084600000001 17.2750432899999993 0.0322844300000000 Au
atom 17.3812627500000012 17.2947364999999991 0.0427072500000000 Au
atom 20.1873997600000017 17.2642417899999998 0.0569996800000000 Au
atom 23.0070708800000006 17.2918667299999989 0.0724377200000000 Au
atom 25.8126971500000018 17.3465517200000008 -0.0462051700000000 Au
atom 0.4535170700000000 17.3844705399999988 0.0536535100000000 Au
atom 3.2452132300000001 17.2872149499999992 0.0586367200000000 Au
atom 6.1323650100000000 17.2641482599999989 0.0206827500000000 Au
atom 7.5330331299999997 19.7684298100000007 0.0995574900000000 Au
atom 10.3408573100000005 19.7320460900000008 0.0436632400000000 Au
atom 13.1562817100000000 19.7531183699999993 0.1139381900000000 Au
atom 15.9493460299999992 19.7585366100000002 0.0334828900000000 Au
atom 18.7940556799999996 19.7675945999999989 0.0851837300000000 Au
atom 21.6145640099999987 19.7663929799999991 0.0931738500000000 Au
atom 24.4454508699999984 19.7698624299999999 0.1251816500000000 Au
atom 27.2652872600000009 19.8005783499999986 -0.1189078600000000 Au
atom 1.8627399499999999 19.8522753799999983 0.0600864500000000 Au
atom 4.6603644400000004 19.7825807299999994 0.0769820400000000 Au
atom 8.9090829100000004 22.1969236800000012 0.0841233800000000 Au
atom 11.6952971100000003 22.1834772899999990 0.1024938100000000 Au
atom 14.5637490599999992 22.2170506699999990 0.0827409300000000 Au
atom 17.3479455400000013 22.2079547800000014 0.0758570600000000 Au
atom 20.1636767399999997 22.2190067400000011 0.0669779000000000 Au
atom 23.0019458599999993 22.2217456400000017 0.0742011200000000 Au
atom 25.8209091499999985 22.2351120699999996 0.0365519200000000 Au
atom 0.4840944800000000 22.1769399400000005 0.1055675100000000 Au
atom 3.2647863099999999 22.2059247699999993 0.1034485000000000 Au
atom 6.1126753000000003 22.2303519200000004 0.0739252900000000 Au
atom 7.4865957999999999 24.6501339500000007 0.1027715800000000 Au
atom 10.3302002200000000 24.7122898299999996 0.1010543200000000 Au
atom 13.1689356199999992 24.6940372199999985 0.0854793400000000 Au
atom 15.9573282299999999 24.6849053599999984 0.0994021300000000 Au
atom 18.8221649299999996 24.7044590299999989 0.1475775300000000 Au
atom 21.6140279799999995 24.7100527099999994 0.0798651300000000 Au
atom 24.4232954100000015 24.7108852100000007 0.1323980000000000 Au
atom 27.2195012500000004 24.7920085599999993 0.2168163000000000 Au
atom 1.8803426700000001 24.6534145500000008 0.1349868500000000 Au
atom 4.7164880699999996 24.6677681600000014 0.1121918000000000 Au
atom 8.8978621300000000 27.1599785199999992 0.0639651500000000 Au
atom 11.7158387000000008 27.1266296599999990 0.0820016700000000 Au
atom 14.5686789700000006 27.1471704100000011 0.0648403000000000 Au
atom 17.3724460699999987 27.1787785900000003 0.0502402200000000 Au
atom 20.2014136200000003 27.1282719999999991 0.0590357100000000 Au
atom 23.0242280500000014 27.1697488500000013 0.1092113400000000 Au
atom 25.8379422800000000 27.1807340900000014 0.1131834000000000 Au
atom 0.4675695800000000 27.1710552800000009 0.1416134900000000 Au
atom 3.2923457300000001 27.1564702300000000 0.0558867500000000 Au
atom 6.0946553400000001 27.1424588000000000 0.0624175700000000 Au
atom 7.4780388699999998 29.6172023600000003 0.0315704800000000 Au
atom 10.3180702800000006 29.6160760699999983 0.0636674400000000 Au
atom 13.1439015000000001 29.6128074300000002 0.0244129200000000 Au
atom 15.9403397699999996 29.6095698399999989 0.0519875200000000 Au
atom 18.7618520000000011 29.6330075700000002 0.0011834500000000 Au
atom 21.6043182400000013 29.5969778699999999 0.0432340200000000 Au
atom 24.4284894399999999 29.6131898199999988 -0.0000386600000000 Au
atom 27.2527833199999989 29.7224466800000009 0.2043320300000000 Au
atom 1.8494920200000000 29.5522786999999987 0.0858280800000000 Au
atom 4.6873239299999998 29.6050495500000004 0.0592691400000000 Au
atom 8.9085484099999999 32.0836880700000009 0.0132990100000000 Au
atom 11.7046527000000005 32.1187281699999971 0.0547717000000000 Au
atom 14.5481958099999993 32.0929160800000020 0.0026935800000000 Au
atom 17.3905653499999993 32.0735196099999982 0.0317027300000000 Au
atom 20.2162548099999988 32.0928513400000028 0.0138217600000000 Au
atom 23.0065263900000012 32.0976127799999986 0.0119327700000000 Au
atom 25.8695656599999992 32.0618194700000032 0.0766353500000000 Au
atom 0.4453997400000000 32.0997140099999996 -0.0026648200000000 Au
atom 3.3010733299999999 32.0787070200000031 0.0179087300000000 Au
atom 6.0917554300000001 32.0764157099999991 0.0195442800000000 Au
atom 7.5124044600000000 34.5318281400000018 0.0205974700000000 Au
atom 10.3438641300000000 34.5757496299999971 0.0314602700000000 Au
atom 13.1379072499999996 34.5847206299999996 0.0189968500000000 Au
atom 15.9972886499999998 34.5811218300000007 0.0353501700000000 Au
atom 18.7685033499999996 34.5664045299999998 0.0139001500000000 Au
atom 21.6370706199999994 34.5876201000000023 0.0590060500000000 Au
atom 24.4131057300000016 34.5795952799999995 -0.0324035000000000 Au
atom 27.2469569800000002 34.5372791599999971 0.0823589800000000 Au
atom 1.8571757000000000 34.6480181000000016 0.0054296600000000 Au
atom 4.6827694199999996 34.5637445500000027 0.0252406500000000 Au
atom 8.8698549999999994 36.9958908500000021 0.2236783800000000 Au
atom 11.9676498099999993 37.0078460100000015 0.0661306700000000 Au
atom 14.6414429500000001 37.0372236600000022 -0.0608921200000000 Au
atom 17.3908500100000012 37.0305637800000014 0.0586017400000000 Au
atom 20.1751374599999984 37.0363760799999966 -0.0504174100000000 Au
atom 23.1203088600000015 37.0451813299999984 -0.0051116100000000 Au
atom 25.6982401699999983 37.0252455400000002 0.0931883500000000 Au
atom 0.3970206000000000 37.0271637800000022 -0.0030849600000000 Au
atom 3.1602672900000002 37.0321990500000027 0.0440039300000000 Au
atom 6.0562372399999997 37.0128897900000027 0.0510697800000000 Au
atom 7.4008166700000002 0.0384318300000000 0.3723597000000000 Au
atom 10.4415299299999997 0.0134377700000000 0.1116382300000000 Au
atom 12.8334127700000007 0.0536717000000000 -0.1259188100000000 Au
atom 16.0301018800000001 0.0232214600000000 0.1399945400000000 Au
atom 18.7232371700000009 0.0165053300000000 -0.0121180700000000 Au
atom 21.5564669299999991 0.0381536500000000 0.2389272400000000 Au
atom 24.3826080199999993 0.0631485300000000 0.0098954700000000 Au
atom 27.2708320999999998 -0.0833449100000000 -0.0215726100000000 Au
atom 1.9567162600000001 0.1006657900000000 -0.0615189000000000 Au
atom 4.6557580200000004 0.0090142500000000 0.0763475600000000 Au
atom 8.9300762700000007 2.4730664299999998 0.0667886400000000 Au
atom 11.7460354500000008 2.4481707199999998 0.1227831200000000 Au
atom 14.5494656599999992 2.4992370600000000 0.0842040800000000 Au
atom 17.3563877700000013 2.4908271499999999 0.0708972400000000 Au
atom 20.2017559800000015 2.5098623000000000 0.0901209200000000 Au
atom 23.0080639399999995 2.4914198600000002 0.0813052200000000 Au
atom 25.8357844499999985 2.5161395199999999 0.1246994100000000 Au
atom 0.4318619700000000 2.4485562000000001 0.0298862600000000 Au
atom 3.2722250200000000 2.4750173900000001 0.0708173600000000 Au
atom 6.0960267500000000 2.4908503299999998 0.0798252200000000 Au
atom 7.5163639299999998 4.9543780999999996 0.0616840000000000 Au
atom 10.2902908600000007 4.9603465099999999 0.1109197500000000 Au
atom 13.1425999900000008 4.9478831100000003 0.1092231400000000 Au
atom 15.9747485400000002 4.9545780900000000 0.1167695700000000 Au
atom 18.7489466100000008 4.9534813099999999 0.0960807700000000 Au
atom 21.6296029599999997 4.9353716700000003 0.0938345100000000 Au
atom 24.4018821300000006 4.9446415799999999 0.0946619500000000 Au
atom 27.2498821800000002 4.8070901299999997 0.1021366000000000 Au
atom 1.8985540599999999 4.9884287000000000 0.1444641100000000 Au
atom 4.6690479500000004 4.9454403899999999 0.1048675600000000 Au
atom 8.9159015600000000 7.4124762899999999 0.0640944500000000 Au
atom 11.7265353599999997 7.4047439400000004 0.0654074100000000 Au
atom 14.5613007700000008 7.3906166100000004 0.0754803500000000 Au
atom 17.3838216099999983 7.4274243699999998 0.0844606400000000 Au
atom 20.1960886700000017 7.4055209599999996 0.0859485400000000 Au
atom 22.9884556700000005 7.4426225700000002 0.0343290400000000 Au
atom 25.8533317599999997 7.4020132800000003 0.0684230100000000 Au
atom 0.4791795100000000 7.4556480299999999 -0.0573933200000000 Au
atom 3.2589927900000002 7.4196693399999996 0.0771700600000000 Au
atom 6.0952651299999996 7.4095522300000001 0.0622398400000000 Au
atom 7.5144568400000002 9.8846581699999998 0.0547812200000000 Au
atom 10.3015601100000005 9.9134765599999994 0.0314545400000000 Au
atom 13.1331032200000006 9.8824390599999994 0.0998377700000000 Au
atom 15.9385134900000001 9.8426274399999993 0.0098042100000000 Au
atom 18.7787817200000013 9.8936288799999996 0.0595173700000000 Au
atom 21.6021587199999985 9.8393493099999993 -0.0151553300000000 Au
atom 24.4098972600000010 9.8810900999999998 0.0544599900000000 Au
atom 27.2588147300000010 9.8315382299999996 0.0222640600000000 Au
atom 1.8574391800000001 9.8754375299999992 0.0661930400000000 Au
atom 4.6958097700000003 9.8776152100000001 -0.0007011800000000 Au
atom 8.8948737599999994 12.3582926099999995 0.0052051900000000 Au
atom 11.7269548100000005 12.3485176299999999 0.0143520900000000 Au
atom 14.5525320100000002 12.3820768999999995 0.0225694600000000 Au
atom 17.4015017199999988 12.3912468899999997 -0.0032432300000000 Au
atom 20.1814105200000000 12.3498196900000003 0.0509427100000000 Au
atom 23.0031783099999991 12.3312981100000005 0.0089207000000000 Au
atom 25.8380415200000009 12.3675643700000002 0.0086583600000000 Au
atom 0.4298049600000000 12.3582505600000001 -0.0739574500000000 Au
atom 3.2731100700000000 12.3563042700000008 0.0014723400000000 Au
atom 6.0921026600000001 12.3379887600000000 -0.0027402000000000 Au
atom 7.4970582600000002 13.1878511399999994 2.6939424900000000 Au
atom 10.3292382499999995 13.2029633099999995 2.5675254199999999 Au
atom 13.1376449700000002 13.1660424799999998 2.6171654599999998 Au
atom 15.9454965099999999 13.2122077800000000 2.5267680800000001 Au
atom 18.7965453499999988 13.1744650500000002 2.6446140200000001 Au
atom 21.5895698500000002 13.2281081700000005 2.5176977400000000 Au
atom 24.4217282400000002 13.1736892599999997 2.6357911199999999 Au
atom 27.2494337599999987 13.1963157199999994 2.6988188499999999 Au
atom 1.8501461100000001 13.1808666399999996 2.6752877800000001 Au
atom 4.6932837100000002 13.1724025499999993 2.5461780799999998 Au
atom 8.9267305399999994 15.6962150299999994 2.6169727200000001 Au
atom 11.7216235700000002 15.6604502300000004 2.6415778599999999 Au
atom 14.5403240799999995 15.6093904400000003 2.6219152999999999 Au
atom 17.3811868300000008 15.6400570800000001 2.6348636100000000 Au
atom 20.1960697099999997 15.6659621599999994 2.6511740700000002 Au
atom 22.9851040399999995 15.6499302300000007 2.6472016599999999 Au
atom 25.8572823499999984 15.6815201900000005 2.5853181200000002 Au
atom 0.4379962200000000 15.6177660399999994 2.5557368199999999 Au
atom 3.2890873300000001 15.6262359400000008 2.6443868300000002 Au
atom 6.0973941199999997 15.6233174500000001 2.6504503599999998 Au
atom 7.5013018999999996 18.0759419200000018 2.7054024299999999 Au
atom 10.3109854599999995 18.1153975199999984 2.6018381900000001 Au
atom 13.1651604500000001 18.1102983500000008 2.7093156999999999 Au
atom 15.9693810500000009 18.1142523799999999 2.5778258900000002 Au
atom 18.7816727400000012 18.1035139100000002 2.6936450600000001 Au
atom 21.5986674000000001 18.1115959000000011 2.5748571999999998 Au
atom 24.4489915800000013 18.1043516500000017 2.6845131699999998 Au
atom 27.2234035100000007 18.2095418299999992 2.7420748399999999 Au
atom 1.8603515300000000 18.1465236999999995 2.7340712900000002 Au
atom 4.6840336200000001 18.1345028399999997 2.5637425100000000 Au
atom 8.9198920099999999 20.5782828699999989 2.7138256599999999 Au
atom 11.7239028199999993 20.5992362299999989 2.6815352600000000 Au
atom 14.5160075400000004 20.5691882499999998 2.7140297699999998 Au
atom 17.3678666799999988 20.5984866900000014 2.6932272700000000 Au
atom 20.1948877799999984 20.5518113500000013 2.7115932300000001 Au
atom 23.0192695900000004 20.5604481300000010 2.6941442300000000 Au
atom 25.8177800600000005 20.5832954500000014 2.7328737799999998 Au
atom 0.4405757600000000 20.6060298300000007 2.6716078900000002 Au
atom 3.2740065299999999 20.6003732900000003 2.6908818800000001 Au
atom 6.1231514899999997 20.5947767100000014 2.7115547200000001 Au
atom 7.4899780099999997 23.0360325199999991 2.7034909699999998 Au
atom 10.3607012100000002 23.0491047800000004 2.6723043999999998 Au
atom 13.1370258799999995 23.0648160900000008 2.6471451400000001 Au
atom 15.9726204599999999 23.0617672800000015 2.6714014499999998 Au
atom 18.8324556600000008 23.0326261999999993 2.6859516000000001 Au
atom 21.6200356499999984 23.1042248500000014 2.6806613100000001 Au
atom 24.4589137100000009 23.0619483500000015 2.6833843700000002 Au
atom 27.2282738699999989 23.0164579700000012 2.6151716800000000 Au
atom 1.8752069200000001 23.0214834999999987 2.6615356600000002 Au
atom 4.6826540200000002 23.0511416500000017 2.7023078800000002 Au
atom 8.9054527799999992 25.5350253299999999 2.7233262100000002 Au
atom 11.7272702700000000 25.5556884400000008 2.7503793800000000 Au
atom 14.5252008000000004 25.5259038499999988 2.6976296899999999 Au
atom 17.3996677999999996 25.5186827600000008 2.6840880399999998 Au
atom 20.1558043900000001 25.5614020099999983 2.7085285600000000 Au
atom 23.0339216600000007 25.5305288099999999 2.7282960699999999 Au
atom 25.8157549899999985 25.4914378200000016 2.7529162100000000 Au
atom 0.4651396100000000 25.5379496000000010 2.6786259000000001 Au
atom 3.2691957899999999 25.5316042199999984 2.7379000200000001 Au
atom 6.0545571699999998 25.5267379400000003 2.7147293299999999 Au
atom 7.5188708599999998 27.9892689499999996 2.6175327099999999 Au
atom 10.3433305000000004 28.0228900000000003 2.6973061600000001 Au
atom 13.1419221799999999 27.9914008299999999 2.6052612200000000 Au
atom 15.9439599100000002 28.0056545800000016 2.6552643499999999 Au
atom 18.7825761000000000 28.0090156499999985 2.6092207900000002 Au
atom 21.6253578799999993 28.0049454400000002 2.6811988699999998 Au
atom 24.4279820799999996 27.9678892300000008 2.6035350099999999 Au
atom 27.2559849099999987 27.9123316599999995 2.7018344999999999 Au
atom 1.8483455900000001 27.9803734300000002 2.6024221399999998 Au
atom 4.6808793499999997 27.9968464700000013 2.6905497299999999 Au
atom 8.9433013799999994 30.4837269299999996 2.6368776000000000 Au
atom 11.7337544200000004 30.4353744000000006 2.6494442000000000 Au
atom 14.5776716400000002 30.4718094099999988 2.6180559900000002 Au
atom 17.3816718600000009 30.4608096800000006 2.6402609699999999 Au
atom 20.1696576299999997 30.4704351600000010 2.6312795300000000 Au
atom 23.0214884300000016 30.4606182799999985 2.6576325299999999 Au
atom 25.8419103200000002 30.4869340300000005 2.6931865699999999 Au
atom 0.4395617500000000 30.4128113000000013 2.6742458500000001 Au
atom 3.3109087599999998 30.4573338400000004 2.6330834799999998 Au
atom 6.0833232700000002 30.4264081799999992 2.6147659800000000 Au
atom 7.4701584900000002 32.9076406900000009 2.5613484600000000 Au
atom 10.3330389000000000 32.9450887300000019 2.6599082200000002 Au
atom 13.1393728299999992 32.9283611999999977 2.5752344200000001 Au
atom 15.9727742799999994 32.9246284600000010 2.6189244700000001 Au
atom 18.7759441799999998 32.9155032399999996 2.5951144199999998 Au
atom 21.6010603400000001 32.9317033100000032 2.6516330699999999 Au
atom 24.3722042799999983 32.9159026800000021 2.5577219900000001 Au
atom 27.2366646800000005 33.2000790900000027 2.3963420400000000 Au
atom 1.8632891400000000 32.9250771600000007 2.5570188500000000 Au
atom 4.6651299100000001 32.9260550999999992 2.6640739600000001 Au
atom 8.9013289800000006 35.3331558400000034 2.6355966600000000 Au
atom 11.7607889100000005 35.3881258999999986 2.6485537899999998 Au
atom 14.5507657500000001 35.3860681600000007 2.6359753700000002 Au
atom 17.3649039499999986 35.4016938600000017 2.6166113900000001 Au
atom 20.1593310499999987 35.3989341600000031 2.6653052800000001 Au
atom 22.9881996000000015 35.3745765299999988 2.6370148000000002 Au
atom 25.8194831899999997 35.3500009600000027 2.5969710600000000 Au
atom 0.4568098200000000 35.4417608299999998 2.6136923599999999 Au
atom 3.2707146300000001 35.3785164299999977 2.6587424600000000 Au
atom 6.0986414599999996 35.3935994899999997 2.6487862299999998 Au
atom 7.4730471300000003 37.8679669099999998 2.6204593900000002 Au
atom 10.3247571300000001 37.8413751399999967 2.6857856000000000 Au
atom 13.3459659599999991 37.8508772100000002 2.5457439200000000 Au
atom 16.0269499700000004 37.8227539100000030 2.7019684599999998 Au
atom 18.6136421500000004 37.8634073899999990 2.6943380700000001 Au
atom 21.6161271699999986 37.8264401100000001 2.7463955699999998 Au
atom 24.6623931499999998 37.8522153500000016 2.4927309300000000 Au
atom 27.1398614900000013 37.7914428400000020 2.6327522600000002 Au
atom 2.2069723600000000 37.8051448200000024 2.7835241499999999 Au
atom 4.7028932599999997 37.8304020699999981 3.1138560599999998 Au
atom 8.9599203900000006 0.7857954800000000 2.5876038700000001 Au
atom 11.7147070000000006 0.8204711600000000 2.6639846999999999 Au
atom 14.5413285299999995 0.8187116900000000 2.7115400300000001 Au
atom 17.3426392900000010 0.8315107400000000 2.7383628999999998 Au
atom 20.2151552599999995 0.8426714100000000 2.7474796800000001 Au
atom 23.0328625199999983 0.8661390300000000 2.8154414000000001 Au
atom 25.8632095699999986 0.8659171800000000 2.6506323699999998 Au
atom 0.4641894500000000 0.7759657599999999 2.7142489599999999 Au
atom 3.3310587300000001 0.8374841300000000 2.6877609200000001 Au
atom 6.1265384200000002 0.8268422500000000 2.7049077200000000 Au
atom 7.4847357800000003 3.3322441100000000 2.6748030900000002 Au
atom 10.3145061600000005 3.3326128499999998 2.6787622600000001 Au
atom 13.1827204600000005 3.3186984200000000 2.6720977200000000 Au
atom 15.9530543999999992 3.2858300499999999 2.6642066899999999 Au
atom 18.7750140799999983 3.3033451600000001 2.7235152500000002 Au
atom 21.5935755500000006 3.3322867199999999 2.6935305899999999 Au
atom 24.4338078699999990 3.3285607100000001 2.6995389699999999 Au
atom 27.2367405100000006 3.1386357299999998 2.8563737900000001 Au
atom 1.8532890799999999 3.3399908200000001 2.6564632499999998 Au
atom 4.6621304600000002 3.3030639599999998 2.6963451100000002 Au
atom 8.9044770700000004 5.8071041499999998 2.7109919900000001 Au
atom 11.7296831400000006 5.8083412399999998 2.7010209700000001 Au
atom 14.5106628099999995 5.7979560399999999 2.7248553400000000 Au
atom 17.3619942999999992 5.7956799200000004 2.7320594100000002 Au
atom 20.1879047100000015 5.7787454900000004 2.7354707700000001 Au
atom 23.0110087800000009 5.8159225299999999 2.7265179000000002 Au
atom 25.8188409800000009 5.7915444500000000 2.7303783099999999 Au
atom 0.4579154700000000 5.8068679699999999 2.8428914100000000 Au
atom 3.2462793599999999 5.7991440100000000 2.7071274399999998 Au
atom 6.0929556399999996 5.7640080600000001 2.6993289900000002 Au
atom 7.5082546199999998 8.2821094700000000 2.7003368900000000 Au
atom 10.3514737900000000 8.2680722299999996 2.6152794300000002 Au
atom 13.1528114800000004 8.2563538600000008 2.7423006499999998 Au
atom 15.9716751299999995 8.2751851799999994 2.6261590400000001 Au
atom 18.7615213300000008 8.2356909300000005 2.7077202699999998 Au
atom 21.6062408400000017 8.2411916499999993 2.6270811599999999 Au
atom 24.4097920299999984 8.2649025199999997 2.7310430000000001 Au
atom 27.2122554699999988 8.2414357099999993 2.6002415299999999 Au
atom 1.8609861500000000 8.2740111899999995 2.7773833799999998 Au
atom 4.6698451499999996 8.2599154699999993 2.6047652000000001 Au
atom 8.8964584500000008 10.7133402100000001 2.6371227600000000 Au
atom 11.7536263999999999 10.7122222499999999 2.6350535599999998 Au
atom 14.5317835300000002 10.7267668500000006 2.6405716500000000 Au
atom 17.3698427399999993 10.7273345199999994 2.6413700800000002 Au
atom 20.2205629900000012 10.7344021600000001 2.6645194299999999 Au
atom 22.9911039700000011 10.7361713999999999 2.6301274299999999 Au
atom 25.8382934800000008 10.8010633499999997 2.6370932400000000 Au
atom 0.4358688700000000 10.6897988000000002 2.5904803300000001 Au
atom 3.2548653399999998 10.7220814499999992 2.6427606799999999 Au
atom 6.0959838199999998 10.7144104400000000 2.6240793600000001 Au
atom 7.4913440600000003 13.1697829500000001 5.6591091999999996 Cl
atom 7.4980841700000003 15.9821453200000008 8.5849424699999997 Cl
atom 7.5094482300000003 13.1764103200000005 8.3131178299999995 Na
atom 7.5047556200000001 15.9948884600000003 5.8246604000000000 Na
atom 7.5070940000000004 18.8053505399999992 5.6682757400000003 Cl
atom 7.5003976699999999 21.6074360699999986 8.6142985500000009 Cl
atom 7.5300281699999996 18.8279109700000014 8.3839582900000007 Na
atom 7.5241852800000002 21.6154298000000011 5.8095317900000003 Na
atom 7.5156404700000001 24.4369483000000010 5.7605552299999996 Cl
atom 7.4929225700000002 27.2650721500000017 8.5682839699999995 Cl
atom 7.4744008600000003 24.4284689700000008 8.3937971900000008 Na
atom 7.4730586099999998 27.2716068699999994 5.8341567000000003 Na
atom 7.5048318800000002 30.0748619800000014 5.7141924800000004 Cl
atom 7.4973272199999998 32.8958792299999985 8.5451571099999999 Cl
atom 7.4996890599999997 30.0596832099999993 8.3676830399999993 Na
atom 7.5035915600000003 32.9036984999999973 5.8382487400000000 Na
atom 7.4878514400000000 35.7325543400000001 5.7090083800000002 Cl
atom 7.5284835899999996 38.5806187000000023 8.6026274800000007 Cl
atom 7.4656373000000000 35.7398333499999978 8.3795492300000003 Na
atom 7.3650353500000003 38.5562642200000028 5.8224531300000004 Na
atom 7.3616470899999999 1.8918353100000000 5.6692219799999997 Cl
atom 7.5004510299999998 4.7340907100000003 8.5867886099999993 Cl
atom 7.4657378599999999 1.8895999500000000 8.3859343000000006 Na
atom 7.5111403399999999 4.6985717999999999 5.8121805599999998 Na
atom 7.4893213300000001 7.5267626200000004 5.7348913200000000 Cl
atom 7.5033481100000001 10.3411179200000003 8.5653007500000005 Cl
atom 7.5138437500000004 7.5229250099999998 8.3983994000000006 Na
atom 7.5156002800000001 10.3209561999999995 5.8122583900000002 Na
atom 10.3243818500000000 13.1518449600000000 5.8694382899999997 Na
atom 13.1318423499999994 13.1656090300000006 5.6712658899999999 Cl
atom 10.3468308800000006 15.9958511899999998 8.3849900900000005 Na
atom 13.1378216000000005 15.9898544099999995 8.5355709100000006 Cl
atom 13.1355270199999996 13.1946041300000001 8.3726042899999999 Na
atom 10.3318063099999993 13.1748702800000004 8.5636884200000001 Cl
atom 13.1549443499999992 16.0115294299999995 5.8047037499999998 Na
atom 10.3130379600000008 15.9965945299999994 5.7133827100000003 Cl
atom 10.2904009199999997 18.8253812899999993 5.8562923700000002 Na
atom 13.1423074399999997 18.8337116400000006 5.7470527200000001 Cl
atom 10.3569200600000002 21.6474098999999995 8.4350284700000007 Na
atom 13.1522611000000005 21.6112592100000001 8.5901578000000001 Cl
atom 13.1299357000000008 18.7987575100000015 8.3623755099999997 Na
atom 10.2956291699999998 18.8086945400000012 8.5923870600000001 Cl
atom 13.1300904500000009 21.6216217899999990 5.8046846299999997 Na
atom 10.3245776300000003 21.6411705999999988 5.7627780000000000 Cl
atom 10.3025428600000009 24.4401232600000000 5.8444928200000001 Na
atom 13.1458871199999994 24.4338999299999990 5.7117586700000000 Cl
atom 10.3206719800000002 27.3065892999999988 8.3952417300000004 Na
atom 13.1081972499999999 27.2544683600000006 8.5935499100000001 Cl
atom 13.1430357999999998 24.4067979100000017 8.4320753600000007 Na
atom 10.3309740600000008 24.4515559200000006 8.5749243300000000 Cl
atom 13.1359883800000006 27.2302316900000001 5.8630349700000002 Na
atom 10.3141530100000001 27.2464975100000011 5.7492791600000004 Cl
atom 10.3134931600000002 30.0274014499999993 5.7662739900000002 Na
atom 13.1422872399999999 30.0707062200000017 5.7111159400000000 Cl
atom 10.3074332700000006 32.9036158500000013 8.3607461399999998 Na
atom 13.1478332699999996 32.9056905599999965 8.6002449799999994 Cl
atom 13.1170168900000004 30.0739488900000005 8.3578831299999994 Na
atom 10.3165465699999999 30.0850090899999998 8.5576718700000001 Cl
atom 13.1130111500000002 32.9054000900000005 5.8604253999999996 Na
atom 10.3218473599999996 32.8926821299999972 5.7111961800000000 Cl
atom 10.3625577599999996 35.7684755200000026 5.8098147600000001 Na
atom 13.1107034999999996 35.7356450199999998 5.7323886399999999 Cl
atom 10.3460429200000004 38.5382223699999997 8.3614722900000000 Na
atom 13.2451126299999995 38.5456660400000004 8.4729124599999999 Cl
atom 13.1264814899999998 35.7464479100000005 8.3520853600000002 Na
atom 10.3166993399999996 35.7234794100000030 8.5444254399999995 Cl
atom 13.2143789700000003 38.5951220299999989 5.9004211800000004 Na
atom 10.3077274299999999 38.5542643799999993 5.6697917499999999 Cl
atom 10.3296100099999997 1.9079681300000000 5.8243637399999999 Na
atom 12.9633935099999995 1.9040342100000001 5.6895843499999996 Cl
atom 10.2838303100000008 4.6752579100000000 8.3799145700000004 Na
atom 13.1512062299999997 4.7137658099999999 8.5625756499999994 Cl
atom 13.2550691100000009 1.9328164200000000 8.4954139600000005 Na
atom 10.3924987600000005 1.8841082199999999 8.4028519599999996 Cl
atom 13.1251520799999994 4.6938220599999996 5.8277683099999997 Na
atom 10.3033311899999998 4.6931820300000000 5.7838016300000001 Cl
atom 10.3345456599999999 7.4684016199999999 5.8409145999999996 Na
atom 13.1583949600000008 7.5084574899999996 5.7646978100000004 Cl
atom 10.3172397799999995 10.3416047700000000 8.3827593100000009 Na
atom 13.1296089200000008 10.3521300400000005 8.5222857399999992 Cl
atom 13.1398500800000004 7.5378833299999997 8.3996692300000007 Na
atom 10.3138885299999998 7.5271523199999999 8.5871688400000004 Cl
atom 13.1202910799999994 10.3351289000000008 5.8040228699999998 Na
atom 10.3101053799999995 10.3368702700000004 5.7187272299999998 Cl
atom 15.9454673000000007 13.1599455899999995 5.7929333700000001 Na
atom 18.7558965999999998 13.1602578500000007 5.7107168200000000 Cl
atom 15.9685354700000008 15.9707739100000001 8.3508120600000009 Na
atom 18.7684001400000007 15.9812815900000000 8.5199771000000002 Cl
atom 18.7962550600000000 13.1639071899999998 8.3737064700000001 Na
atom 15.9658994300000003 13.1629624100000004 8.5668044299999995 Cl
atom 18.7498034000000011 16.0047221099999994 5.7809787100000003 Na
atom 15.9733957899999996 15.9881675699999999 5.7048446799999999 Cl
atom 15.9554781400000003 18.8331008000000004 5.8396575000000004 Na
atom 18.7634372899999988 18.8122314099999990 5.7470280599999999 Cl
atom 15.9841031299999994 21.6248961000000008 8.3677824399999992 Na
atom 18.7711261500000006 21.6122310999999989 8.5573449900000007 Cl
atom 18.8266606000000003 18.8245851600000016 8.4045371899999992 Na
atom 15.9613614599999991 18.8101759599999987 8.5589070899999999 Cl
atom 18.7811110100000001 21.6313920300000007 5.8029170800000003 Na
atom 15.9801013899999997 21.6272047399999998 5.7406423899999997 Cl
atom 15.9551406000000000 24.4231603100000001 5.7846879400000004 Na
atom 18.7860039699999994 24.4417218799999993 5.7284475800000001 Cl
atom 15.9175635000000000 27.2404446500000006 8.3602106299999992 Na
atom 18.7739879700000003 27.2738538400000010 8.5719015699999996 Cl
atom 18.7885269100000016 24.4327768100000000 8.3876119500000001 Na
atom 15.9468850100000008 24.4475126899999999 8.5590889200000007 Cl
atom 18.7711521999999995 27.2407955699999995 5.8414516799999996 Na
atom 15.9437886700000000 27.2495359800000010 5.7592518000000004 Cl
atom 15.9418649000000006 30.0989904700000004 5.8352079799999998 Na
atom 18.8066502799999995 30.0766060999999993 5.7196278600000001 Cl
atom 15.9786822300000004 32.8837340199999986 8.3522574800000005 Na
atom 18.7593866499999997 32.9065705200000025 8.5644326700000004 Cl
atom 18.8007857899999991 30.0806335099999984 8.3709374099999998 Na
atom 15.9585460200000000 30.0897211200000001 8.5382450500000004 Cl
atom 18.7692024199999992 32.8883658999999966 5.8571191599999999 Na
atom 15.9740022899999996 32.9006590600000024 5.6977551799999997 Cl
atom 15.9424768100000005 35.7335904299999996 5.7846094800000003 Na
atom 18.7811910500000003 35.7335323100000011 5.7352189500000001 Cl
atom 15.8576014000000001 38.5667699299999995 8.2439465599999995 Na
atom 18.8171188700000016 38.5617072300000032 8.5772243899999996 Cl
atom 18.7426657500000005 35.7470886400000012 8.3407426499999993 Na
atom 15.9577105499999998 35.7241356999999979 8.5306480400000009 Cl
atom 18.7768892100000002 38.5591387300000008 5.9392450700000001 Na
atom 15.9940247800000002 38.5581323400000002 5.8543940100000000 Cl