#===============================================================================
# Created using the Atomic Simulation Environment (ASE)

# Sat Nov  1 21:48:38 2025

#=======================================================
lattice_vector 28.1999999999999993 0.0000000000000000 0.0000000000000000 
lattice_vector 0.0000000000000000 39.4799999999999969 0.0000000000000000 
lattice_vector 0.0000000000000000 0.0000000000000000 62.3296083400000001 
atom 7.5321387599999996 14.8417025599999999 0.0595478300000000 Au
atom 10.3387654199999997 14.8273054299999991 0.0132295600000000 Au
atom 13.1365691600000005 14.8212011500000003 0.0557758700000000 Au
atom 15.9677357200000003 14.7789948199999994 -0.0167234900000000 Au
atom 18.7841096599999986 14.8121791700000003 0.0777233700000000 Au
atom 21.6024942499999995 14.8227709000000001 -0.0162589300000000 Au
atom 24.4116942899999998 14.8196077499999994 0.0401021200000000 Au
atom 27.2492427200000016 14.9358831700000003 0.0444549700000000 Au
atom 1.8600178999999999 14.8385839799999992 0.1034976900000000 Au
atom 4.7124844799999996 14.7800681300000001 -0.0243972200000000 Au
atom 8.9304169899999994 17.2452399199999995 0.0612097500000000 Au
atom 11.7068913800000001 17.2758904800000010 0.0260765000000000 Au
atom 14.5425869500000005 17.3141889300000003 0.0300391100000000 Au
atom 17.3654175600000009 17.3145798000000006 0.0311655400000000 Au
atom 20.1862741200000002 17.2944043799999996 0.0309557000000000 Au
atom 23.0264337700000006 17.2977922500000005 0.0070679800000000 Au
atom 25.8411237999999983 17.3162378900000000 0.0728706300000000 Au
atom 0.4653858300000000 17.3605999100000012 -0.0385018100000000 Au
atom 3.2570600999999999 17.3068329500000004 0.0357959700000000 Au
atom 6.0851092500000004 17.2823973299999984 0.0331201300000000 Au
atom 7.4675261900000001 19.7352367999999991 0.1171406900000000 Au
atom 10.3179491900000002 19.7661761499999997 0.0269453100000000 Au
atom 13.1351003899999998 19.7811162899999999 0.1190893500000000 Au
atom 15.9562488800000004 19.7931944000000009 0.0281009800000000 Au
atom 18.8147107600000005 19.7315156400000014 0.1251255500000000 Au
atom 21.6020754900000007 19.7812324799999999 0.0404429400000000 Au
atom 24.4238724400000002 19.7563016699999991 0.1204408300000000 Au
atom 27.2406214400000017 19.9860896699999984 0.1565058600000000 Au
atom 1.8392990700000000 19.7496805100000010 0.1416571500000000 Au
atom 4.6999838599999997 19.7610272199999990 0.0584251500000000 Au
atom 8.9458667500000004 22.2126297500000014 0.1167132100000000 Au
atom 11.7271760399999998 22.2081100700000000 0.0805455100000000 Au
atom 14.5415969399999998 22.2236230699999986 0.0531443800000000 Au
atom 17.3840416799999993 22.2317511799999998 0.0616131900000000 Au
atom 20.1878025100000009 22.1961551399999983 0.0782392400000000 Au
atom 23.0343151900000009 22.2252799500000009 0.1013084800000000 Au
atom 25.8160913699999988 22.1993721000000015 0.1789462600000000 Au
atom 0.4608444200000000 22.2908148900000000 0.0475152500000000 Au
atom 3.2581177100000001 22.2184128399999992 0.0891951700000000 Au
atom 6.1096578299999997 22.2332006100000008 0.1120300000000000 Au
atom 7.4739744100000003 24.6731052800000015 0.0955825000000000 Au
atom 10.3449200700000006 24.7067469600000003 0.1092493900000000 Au
atom 13.1648227200000001 24.6598946900000016 0.0675032600000000 Au
atom 15.9900947299999991 24.6908622499999986 0.0767699700000000 Au
atom 18.8117732999999987 24.6999818699999985 0.0872852300000000 Au
atom 21.6088851999999996 24.6578407999999989 0.0846887200000000 Au
atom 24.4465564499999992 24.7238165999999993 0.0684872100000000 Au
atom 27.2363502000000004 24.7714067799999995 0.0675644200000000 Au
atom 1.8536459999999999 24.6823075799999998 0.1580896800000000 Au
atom 4.6916952800000002 24.6750097799999999 0.1256556900000000 Au
atom 8.9151706399999995 27.1351050299999983 0.0623885400000000 Au
atom 11.7710908799999991 27.1618927100000001 0.0559154800000000 Au
atom 14.5662909500000008 27.1617391099999992 0.0750524100000000 Au
atom 17.3434771900000015 27.1745565300000003 0.0331723400000000 Au
atom 20.1612111600000006 27.1330456300000016 0.0635699700000000 Au
atom 23.0016798400000013 27.1628849700000004 0.0686582400000000 Au
atom 25.8185411599999988 27.1854909000000013 0.0592362100000000 Au
atom 0.4355653600000000 27.0245423699999989 0.2534990800000000 Au
atom 3.2883272899999998 27.1727098200000015 0.0592828100000000 Au
atom 6.0998159100000002 27.1585202700000004 0.0659470800000000 Au
atom 7.5135816200000001 29.6432667300000006 -0.0122810900000000 Au
atom 10.3227628300000003 29.6148192600000009 0.0904015100000000 Au
atom 13.1509779699999996 29.6175901199999991 -0.0075788800000000 Au
atom 15.9305582900000005 29.6231425100000010 0.0812489000000000 Au
atom 18.7920847600000016 29.6491159199999998 0.0427456800000000 Au
atom 21.6050968800000014 29.5921829500000015 0.0664314800000000 Au
atom 24.4341737999999999 29.6201309700000017 0.0246926000000000 Au
atom 27.2544177500000018 29.5480827400000017 0.0357880300000000 Au
atom 1.8451566300000000 29.5879122000000017 0.0846799400000000 Au
atom 4.6796463599999996 29.6221765499999989 0.0951115200000000 Au
atom 8.9281206799999993 32.1015631900000002 0.0205071200000000 Au
atom 11.7388171200000002 32.0880059500000030 0.0361996300000000 Au
atom 14.5286686700000001 32.0832213799999977 0.0120391200000000 Au
atom 17.3777273799999996 32.1062088999999986 0.0138525800000000 Au
atom 20.1985019900000005 32.0816051299999998 0.0106644000000000 Au
atom 22.9907294799999988 32.1009278100000017 0.0216176100000000 Au
atom 25.8377748199999999 32.0981261299999971 0.0645471900000000 Au
atom 0.4546507600000000 32.0772903599999992 0.0528342400000000 Au
atom 3.2752432699999998 32.0930044899999984 0.0018009200000000 Au
atom 6.1146643799999998 32.0863893800000000 0.0114016900000000 Au
atom 7.4481811400000000 34.5314780799999994 -0.0092726300000000 Au
atom 10.3048892900000002 34.5842298700000015 0.0532691200000000 Au
atom 13.1423468499999991 34.6066178499999992 -0.0156816500000000 Au
atom 15.9496048899999998 34.5542482899999968 0.0723844500000000 Au
atom 18.7902860300000007 34.6008238200000022 0.0255747100000000 Au
atom 21.6254127499999989 34.5707076899999990 0.0488335500000000 Au
atom 24.4241265200000015 34.5548599400000001 -0.0336187000000000 Au
atom 27.2417722699999985 34.3509396500000008 -0.0064235200000000 Au
atom 1.8333424199999999 34.5741140200000032 -0.0208573900000000 Au
atom 4.6659546100000000 34.5426398299999988 0.0296290900000000 Au
atom 8.9361375899999995 37.0498391900000001 0.0198961500000000 Au
atom 11.7278115300000003 37.0032193999999990 0.1175705700000000 Au
atom 14.7005458200000003 37.0491744300000008 0.1132664000000000 Au
atom 17.3174118200000002 37.0577560700000035 0.0074586700000000 Au
atom 20.2240523299999992 37.0289445399999977 0.0413212500000000 Au
atom 22.9259024499999988 37.0097846600000011 -0.0031986400000000 Au
atom 25.8767351499999982 36.9796784999999986 -0.0534317400000000 Au
atom 0.6117428400000000 37.0320634999999996 0.0490789700000000 Au
atom 3.0480874199999999 37.0280140799999984 0.0574643500000000 Au
atom 6.0001154000000003 37.0294530800000032 0.0480418200000000 Au
atom 7.4428360199999997 0.0151078100000000 0.1048238200000000 Au
atom 10.2274399599999999 0.0145300300000000 0.1590793800000000 Au
atom 13.3482133800000007 0.0365155200000000 0.1028003800000000 Au
atom 15.9418997200000003 0.0352344300000000 0.4085095500000000 Au
atom 18.9270913800000002 -0.0035442700000000 0.0660690100000000 Au
atom 21.7229720200000003 0.0213388700000000 0.1543721400000000 Au
atom 24.5244708200000012 0.0088429500000000 0.0148257000000000 Au
atom 27.3594735799999995 0.1154712500000000 0.0052117100000000 Au
atom 1.6634354000000000 0.0280933300000000 0.1375410200000000 Au
atom 4.8068490600000002 0.0360478400000000 0.1374502100000000 Au
atom 8.9233051099999994 2.4779027000000000 0.0927535100000000 Au
atom 11.7254511200000007 2.4833071000000002 0.1000172400000000 Au
atom 14.5696427300000000 2.4981331199999999 0.0891180000000000 Au
atom 17.3837505499999985 2.4658511000000001 0.1132496500000000 Au
atom 20.2142550900000018 2.4911036700000002 0.0880614300000000 Au
atom 22.9993200299999998 2.5118546099999999 0.0849050200000000 Au
atom 25.8166091299999998 2.4628750400000001 0.0169991500000000 Au
atom 0.4387904000000000 2.3898528300000002 0.0421127800000000 Au
atom 3.2593099799999998 2.4921372100000001 0.0860835000000000 Au
atom 6.0980666899999996 2.4985774100000002 0.0877456400000000 Au
atom 7.5230044100000004 4.9975768399999998 0.0897383300000000 Au
atom 10.3082504499999992 4.9284678399999997 0.0793905500000000 Au
atom 13.1388542499999996 4.9388287499999999 0.1104905700000000 Au
atom 15.9754474399999999 4.9829717999999996 0.0977398500000000 Au
atom 18.7559089400000012 4.9396820200000002 0.0935378300000000 Au
atom 21.5950861600000010 4.9784809000000001 0.0777277700000000 Au
atom 24.4540723500000006 4.9428492500000001 0.1045190900000000 Au
atom 27.2388614099999984 4.8734221700000004 0.1492956700000000 Au
atom 1.8845522699999999 4.9149861799999996 0.0098668600000000 Au
atom 4.6991846600000002 4.9369631099999998 0.0971207200000000 Au
atom 8.9451608399999998 7.4136653800000003 0.0769332400000000 Au
atom 11.7200051399999996 7.4199244899999997 0.0506418300000000 Au
atom 14.5704654199999997 7.4146894699999999 0.0730671300000000 Au
atom 17.3877253500000002 7.4064195599999998 0.1067269400000000 Au
atom 20.1809491799999989 7.3981732200000003 0.0842713900000000 Au
atom 23.0303320599999992 7.3964764499999998 0.0771886200000000 Au
atom 25.8238120100000010 7.4224647900000003 0.0262298600000000 Au
atom 0.4394651100000000 7.3023612399999998 0.2193794400000000 Au
atom 3.2416206600000002 7.3989593700000000 0.0834453900000000 Au
atom 6.0632864399999997 7.4156913900000001 0.0659586700000000 Au
atom 7.5056563599999997 9.8445034099999997 0.0623532100000000 Au
atom 10.3230129700000006 9.9181178600000006 0.0000469800000000 Au
atom 13.1638213799999999 9.8744360300000000 0.0477000400000000 Au
atom 15.9668086400000000 9.8904950399999993 0.0325136600000000 Au
atom 18.7922903400000010 9.8716294599999994 0.0731579600000000 Au
atom 21.6052578100000012 9.8805614800000008 0.0069191000000000 Au
atom 24.4506643699999984 9.8718933799999995 0.0551244700000000 Au
atom 27.2371489199999992 9.9151796500000007 0.0160668300000000 Au
atom 1.8948854600000000 9.8825565599999994 0.0289749300000000 Au
atom 4.6647665900000002 9.8846554799999993 0.0025620300000000 Au
atom 8.9164048499999993 12.3368710999999998 -0.0042009700000000 Au
atom 11.7355026999999996 12.3673004500000001 0.0302588100000000 Au
atom 14.5357317599999991 12.3399883700000004 0.0358748800000000 Au
atom 17.3624989700000008 12.3468279800000005 0.0269753700000000 Au
atom 20.1451690799999987 12.3301238099999999 0.0142757200000000 Au
atom 23.0061030899999999 12.3437940800000003 0.0123307600000000 Au
atom 25.8289323000000017 12.2643155999999998 0.1212458200000000 Au
atom 0.4670585500000000 12.3034580099999999 0.0916938900000000 Au
atom 3.2957175099999998 12.3426756900000001 -0.0033912600000000 Au
atom 6.1400771000000001 12.3563615500000008 0.0041143400000000 Au
atom 7.5022187100000002 13.1971706100000006 2.6691873899999998 Au
atom 10.3322984699999996 13.1652836600000001 2.5578551900000002 Au
atom 13.1315240099999997 13.2047477099999995 2.6673906299999999 Au
atom 15.9740762099999998 13.1677805600000006 2.5468100599999999 Au
atom 18.7846306200000015 13.1749875599999999 2.6678686200000001 Au
atom 21.6012863199999998 13.1755469400000003 2.5788551300000000 Au
atom 24.4223621900000012 13.1650735200000000 2.6563936699999999 Au
atom 27.2637836600000014 12.9603977900000000 2.5045001700000000 Au
atom 1.8782413099999999 13.1794672199999994 2.6331409899999998 Au
atom 4.6721047599999999 13.1959289900000005 2.5559374099999999 Au
atom 8.8996170100000001 15.6080951700000004 2.6829436000000002 Au
atom 11.7087318000000007 15.6921339000000000 2.6648473199999998 Au
atom 14.6048946700000002 15.6250763799999994 2.6483397499999999 Au
atom 17.3797924399999992 15.6462715699999997 2.6502716300000002 Au
atom 20.2125441700000010 15.6261969000000001 2.6230171499999999 Au
atom 22.9592702200000005 15.6638988200000000 2.6538466399999998 Au
atom 25.8475501299999983 15.5368329500000009 2.6576684500000001 Au
atom 0.4586896600000000 15.5731871799999997 2.6289554900000001 Au
atom 3.2681291799999999 15.6297671800000000 2.6372579900000002 Au
atom 6.0674906399999999 15.6290149599999992 2.6613000499999999 Au
atom 7.4965102500000000 18.1004465100000012 2.6579365199999998 Au
atom 10.3417543100000007 18.0616382500000014 2.5845657000000002 Au
atom 13.1448871300000008 18.0910314399999983 2.6972055400000001 Au
atom 16.0066529700000011 18.1222877500000017 2.6006586299999999 Au
atom 18.8044052800000010 18.0638057699999983 2.6552652700000001 Au
atom 21.6237619099999989 18.1008994299999983 2.5927160400000000 Au
atom 24.4354791099999993 18.0926927100000015 2.7243046400000002 Au
atom 27.2418335200000001 18.0900412700000004 2.6572956400000001 Au
atom 1.8557224400000001 18.1048969399999997 2.7301370500000002 Au
atom 4.7064408400000000 18.1126638100000008 2.5860432100000001 Au
atom 8.8867311499999992 20.5505467400000015 2.7132493000000002 Au
atom 11.7290387599999999 20.5595791800000001 2.7438054500000000 Au
atom 14.5636115900000007 20.5485460800000013 2.6669640399999999 Au
atom 17.3482982899999989 20.6173490900000012 2.7106215400000000 Au
atom 20.1965086400000011 20.5818812000000015 2.7013818700000001 Au
atom 23.0430645699999985 20.5912316500000010 2.7231570399999998 Au
atom 25.8430884899999995 20.6131456100000001 2.7097689200000001 Au
atom 0.4469671500000000 20.5639059999999994 2.7320163800000001 Au
atom 3.2689534199999999 20.5936199299999991 2.7407430100000001 Au
atom 6.0897791300000002 20.5799817599999990 2.7191710499999999 Au
atom 7.4890723599999998 23.0579745400000000 2.7210014100000000 Au
atom 10.3137518000000004 23.0952837500000001 2.6894742500000000 Au
atom 13.1537867899999998 23.0366200700000014 2.6714830599999999 Au
atom 15.9599068200000005 23.0887432399999994 2.6676898300000000 Au
atom 18.7742189099999983 23.0237754199999998 2.6747116399999999 Au
atom 21.6076761799999986 23.0229717700000016 2.6881876299999998 Au
atom 24.4588840400000009 23.0143524799999994 2.6590790000000002 Au
atom 27.2368855500000002 23.1463191799999990 2.8096753799999998 Au
atom 1.8747533900000000 23.0576784100000012 2.7199481200000002 Au
atom 4.6812669299999996 23.0895159099999994 2.7032567900000002 Au
atom 8.9062076200000000 25.5306429699999988 2.7027900400000000 Au
atom 11.7342914999999994 25.5244331399999993 2.7394716099999998 Au
atom 14.5393963300000006 25.5497438499999987 2.7588044699999998 Au
atom 17.3678936800000017 25.4825970099999992 2.7067755800000000 Au
atom 20.2028590000000001 25.4981497600000004 2.7062699900000000 Au
atom 23.0177398500000017 25.5360350700000005 2.7244237800000000 Au
atom 25.8235270200000002 25.5615261400000016 2.6722684600000002 Au
atom 0.4517671100000000 25.6802498700000008 2.6877160099999999 Au
atom 3.2410733500000002 25.5605149500000017 2.7092864099999998 Au
atom 6.1016190500000000 25.5216842300000017 2.7234916199999999 Au
atom 7.4741931599999996 27.9996788099999989 2.6222708400000001 Au
atom 10.3375688799999992 28.0147485500000002 2.6871932599999999 Au
atom 13.1659773700000002 27.9833617500000003 2.6002679999999998 Au
atom 15.9283409299999992 27.9737377800000004 2.7019716499999999 Au
atom 18.7976706100000008 27.9771320299999999 2.6313733899999998 Au
atom 21.6268268900000002 28.0089525399999992 2.7075423299999999 Au
atom 24.4096413100000014 28.0132282600000018 2.5972184199999999 Au
atom 27.2431743900000001 28.0093162000000007 2.7253933400000001 Au
atom 1.8635526899999999 28.0249107799999990 2.6295754300000000 Au
atom 4.6784189200000004 27.9854710400000002 2.6897521800000002 Au
atom 8.9066805599999999 30.4482028500000013 2.6452196500000000 Au
atom 11.7092148399999996 30.4492985099999984 2.6594745999999998 Au
atom 14.5661335300000001 30.4866297000000017 2.6555610500000002 Au
atom 17.3672040699999997 30.4698616499999986 2.6378762199999999 Au
atom 20.1899461400000000 30.4712755100000017 2.6283685299999999 Au
atom 23.0164755599999999 30.4687264000000013 2.6275061700000002 Au
atom 25.8481864899999998 30.4471777500000016 2.6913903800000001 Au
atom 0.4477498400000000 30.6303430600000013 2.7318436199999998 Au
atom 3.2953822100000001 30.4377184599999993 2.6066768400000000 Au
atom 6.0826552400000002 30.4611389499999987 2.6410092100000000 Au
atom 7.4700737000000004 32.9389304099999976 2.5482134900000002 Au
atom 10.3222179900000004 32.9042225999999971 2.6405229299999999 Au
atom 13.1633649899999998 32.8822559099999978 2.5802273800000002 Au
atom 15.9823503700000007 32.9284038699999968 2.6914505900000001 Au
atom 18.7778324000000012 32.9289172300000033 2.5656555499999998 Au
atom 21.6282810300000001 32.9363894399999992 2.6648769699999999 Au
atom 24.4556068700000004 32.8996914499999988 2.5823353700000000 Au
atom 27.2237225800000004 33.0672738499999994 2.6589943699999998 Au
atom 1.8724220800000000 32.8903706700000029 2.5876086100000002 Au
atom 4.6603440699999998 32.9207243700000021 2.6978262399999999 Au
atom 8.9216366800000007 35.4009297300000014 2.6468513400000000 Au
atom 11.7601788500000008 35.3832802700000002 2.6399097800000000 Au
atom 14.5842438199999993 35.3887521799999973 2.6414767299999999 Au
atom 17.3844574399999985 35.3953349200000034 2.6273327700000002 Au
atom 20.1856076400000006 35.3975219499999980 2.6364152000000001 Au
atom 23.0040487400000018 35.3982779500000007 2.6185982900000000 Au
atom 25.8567435900000007 35.3317936199999991 2.6714550199999998 Au
atom 0.4605096000000000 35.3822054600000016 2.7304454100000002 Au
atom 3.2659814400000000 35.3582543699999974 2.6536480999999998 Au
atom 6.0900234900000001 35.3541046599999973 2.6439043299999998 Au
atom 7.5203897499999997 37.8505571700000019 2.5817593400000001 Au
atom 10.5007896200000008 37.8423528100000013 2.5547123200000001 Au
atom 13.1671058799999994 37.8823693699999993 2.5647715600000001 Au
atom 16.0217905599999995 37.8560029599999979 2.4278636800000002 Au
atom 18.5786150399999990 37.8506962000000016 2.4768800999999998 Au
atom 21.9175973699999993 37.8427572100000020 2.4618696299999998 Au
atom 24.5676198700000015 37.8544212600000023 2.5390483900000000 Au
atom 27.1219514900000007 37.7597173899999987 2.7338760999999998 Au
atom 2.0696550999999999 37.8313471499999991 2.6849190200000002 Au
atom 4.8877550300000001 37.8310721400000034 2.7226695500000000 Au
atom 8.8789762299999992 0.8516529900000001 2.7987753700000000 Au
atom 11.5945729699999998 0.7882845600000000 2.8235318600000001 Au
atom 14.5493136399999994 0.8372056700000000 2.7053388400000000 Au
atom 17.2624515900000013 0.8408829300000000 2.7996025499999999 Au
atom 20.2065015999999993 0.8557439800000000 2.6656341900000000 Au
atom 23.0500817399999995 0.8536010100000000 2.6831627100000000 Au
atom 25.8544308700000016 0.9152880500000000 2.7781430000000000 Au
atom 0.4792005500000000 0.7970927200000000 2.8549607699999999 Au
atom 3.1836235600000000 0.8264313200000000 2.8074633100000002 Au
atom 6.0649325100000002 0.8286206900000000 2.7842980100000001 Au
atom 7.5111530599999998 3.3406285100000002 2.6672224999999998 Au
atom 10.3127628599999994 3.2938820600000001 2.7124241100000002 Au
atom 13.1544814500000005 3.2961678800000000 2.6601039599999998 Au
atom 15.9598761899999992 3.3019101000000002 2.6799129900000001 Au
atom 18.7824317200000017 3.3325911300000000 2.7055492200000000 Au
atom 21.6296625200000001 3.3395518700000002 2.7094758400000001 Au
atom 24.4213196199999985 3.2980663899999998 2.7007204200000001 Au
atom 27.2500417100000014 3.1850548200000000 2.7556691199999999 Au
atom 1.8768968600000000 3.3051754700000000 2.6757545000000000 Au
atom 4.7009195899999998 3.2766532499999999 2.6864180400000000 Au
atom 8.9258837199999999 5.8165132499999999 2.7511406799999998 Au
atom 11.7214967800000007 5.7814397199999998 2.7247598800000001 Au
atom 14.5438449999999992 5.7568740099999998 2.7106450600000001 Au
atom 17.3687867699999998 5.7982852600000001 2.6966092000000002 Au
atom 20.1918693500000010 5.7776072999999997 2.7157635600000001 Au
atom 23.0343780699999989 5.7967246899999996 2.6779401699999998 Au
atom 25.8482261899999983 5.7196667699999999 2.6671234500000001 Au
atom 0.4468788900000000 5.8348279500000002 2.6887136900000002 Au
atom 3.2710193699999999 5.7763052699999999 2.7246894500000001 Au
atom 6.1003381900000004 5.7858673999999999 2.7448572200000001 Au
atom 7.4989511799999997 8.2875443900000008 2.7161962399999999 Au
atom 10.3197171300000008 8.2660554699999995 2.6017592899999999 Au
atom 13.1483160399999992 8.2433023399999996 2.6812236999999999 Au
atom 15.9484001499999994 8.2312289900000000 2.6277013400000002 Au
atom 18.8100744199999994 8.2500192000000006 2.7147091200000002 Au
atom 21.6132176300000012 8.2481938100000001 2.5960727700000001 Au
atom 24.4328864999999986 8.2535284400000002 2.7054412200000000 Au
atom 27.2277586499999984 8.1064594299999992 2.7122978600000001 Au
atom 1.8488449800000000 8.2824229099999993 2.7473780200000002 Au
atom 4.6964816400000000 8.2386989800000006 2.6083973100000000 Au
atom 8.8993834300000003 10.7321041899999994 2.6689942000000002 Au
atom 11.7236771500000003 10.7156046000000007 2.6332311200000000 Au
atom 14.5588011900000005 10.7375711400000000 2.6241416100000001 Au
atom 17.3692316499999997 10.7217173700000004 2.6528734400000000 Au
atom 20.1846011599999997 10.7384167799999997 2.6496570799999999 Au
atom 23.0456195000000008 10.7379785600000002 2.6594923700000002 Au
atom 25.8260723900000002 10.8087283799999998 2.6685837499999998 Au
atom 0.4445932900000000 10.7781664399999997 2.5711607299999999 Au
atom 3.2823786799999999 10.7340602999999994 2.6086128999999998 Au
atom 6.1040020300000002 10.7129693600000007 2.6246537299999999 Au
atom 7.5070546699999996 13.1476916100000008 5.6702997300000000 Cl
atom 7.4980943599999996 16.0059339600000001 8.5544981700000005 Cl
atom 7.5479022999999996 13.1799537900000008 8.3722590199999996 Na
atom 7.5060084600000003 16.0286901399999984 5.8001021100000001 Na
atom 7.4973406699999998 18.8010191700000000 5.7145055100000004 Cl
atom 7.5217777400000001 21.6245674799999996 8.5996178600000004 Cl
atom 7.5104446500000002 18.8180225999999990 8.3396525300000004 Na
atom 7.5395766499999999 21.6329169800000010 5.8106423300000003 Na
atom 7.5034013200000000 24.4497545599999988 5.7524947500000003 Cl
atom 7.4606445800000003 27.2759104000000008 8.5650698500000004 Cl
atom 7.4953276500000001 24.4163899499999992 8.3962674899999996 Na
atom 7.4865989600000002 27.2666448199999998 5.8111171400000003 Na
atom 7.4801956799999996 30.0801435800000014 5.7371200499999997 Cl
atom 7.5052785899999996 32.9241348299999999 8.5477468400000003 Cl
atom 7.4728129499999998 30.0494659499999983 8.3524050299999999 Na
atom 7.4946862599999999 32.9031899900000013 5.8277953199999999 Na
atom 7.5014434000000003 35.7426929200000032 5.7283015199999996 Cl
atom 7.6502771000000003 38.5544110299999971 8.5792727800000002 Cl
atom 7.4774909999999997 35.7357631100000006 8.3454229600000005 Na
atom 7.3957200500000004 38.5782964899999996 5.9334324199999999 Na
atom 7.5617527800000000 1.9074857900000000 5.7666354300000000 Cl
atom 7.4697682299999997 4.7001887599999996 8.5681926500000003 Cl
atom 7.5180596099999999 1.8895418100000001 8.3699414300000008 Na
atom 7.4932134899999996 4.7204188599999997 5.8112212599999999 Na
atom 7.4939178000000002 7.5144484000000000 5.7557787800000000 Cl
atom 7.5027147799999998 10.3593364200000000 8.5762029000000002 Cl
atom 7.4812100099999999 7.5301810099999997 8.3912137399999995 Na
atom 7.4749264300000000 10.3336491899999992 5.8222334599999996 Na
atom 10.3251121999999995 13.1828652099999992 5.8066422700000002 Na
atom 13.1448298500000007 13.1710248799999992 5.7029444700000003 Cl
atom 10.3253898599999996 15.9913459600000003 8.3739747300000005 Na
atom 13.1335305699999996 15.9763819900000001 8.5408254699999997 Cl
atom 13.1131915100000001 13.1793358499999993 8.3926977500000000 Na
atom 10.3236342299999997 13.1622347699999995 8.5782544800000000 Cl
atom 13.1429979600000006 16.0007544000000017 5.7834338799999996 Na
atom 10.3030356300000001 16.0014920700000012 5.7121756399999999 Cl
atom 10.3238183200000009 18.8383550799999995 5.8124194600000001 Na
atom 13.1466277799999993 18.8275864400000010 5.7349451100000000 Cl
atom 10.3422969800000004 21.6558099199999994 8.3669186599999996 Na
atom 13.1596250300000008 21.5905065500000006 8.5579536100000002 Cl
atom 13.1307380200000008 18.8107966900000001 8.3866221299999992 Na
atom 10.3189904499999994 18.8168206299999987 8.5581226299999997 Cl
atom 13.1090625000000003 21.6272373100000017 5.8092370000000004 Na
atom 10.3179288099999997 21.6352936000000007 5.7433697700000002 Cl
atom 10.3195017300000007 24.4493618400000017 5.8309984999999998 Na
atom 13.1314227399999996 24.4381271300000016 5.7495603500000003 Cl
atom 10.2908257899999995 27.2789058699999991 8.3765196999999993 Na
atom 13.1245935700000000 27.2775049900000006 8.5991214899999999 Cl
atom 13.1612124900000005 24.4708432699999996 8.4573751000000001 Na
atom 10.3218236999999995 24.4499793799999985 8.5647294699999996 Cl
atom 13.1212832699999993 27.2642949399999992 5.8303123599999997 Na
atom 10.2986659599999992 27.2542357799999984 5.7250476299999997 Cl
atom 10.3077874999999999 30.0585745300000013 5.8062399400000002 Na
atom 13.1396824700000003 30.0870502299999991 5.7194299400000004 Cl
atom 10.3257323599999999 32.9074971699999992 8.3793758100000009 Na
atom 13.1455411699999996 32.9000550700000005 8.5915281799999992 Cl
atom 13.1209860000000003 30.0757197800000000 8.3913988699999997 Na
atom 10.3221475399999996 30.0849562100000014 8.5687350000000002 Cl
atom 13.1239120299999996 32.8933951599999972 5.8384836000000000 Na
atom 10.3089519599999999 32.9003643499999967 5.6837235499999998 Cl
atom 10.3143534100000007 35.7535258899999988 5.7911283200000003 Na
atom 13.1300194999999995 35.7265595699999992 5.7240300299999998 Cl
atom 10.1233576999999997 38.5006083199999978 8.4553119599999995 Na
atom 13.1399291900000001 38.5356996399999971 8.5852883200000001 Cl
atom 13.1215247000000002 35.7529026799999983 8.3886836599999999 Na
atom 10.3062464800000004 35.7219547199999994 8.5561118900000004 Cl
atom 13.0089418600000002 38.5636023400000028 5.7543148100000003 Na
atom 10.1800867499999992 38.5532237299999991 5.8490296099999997 Cl
atom 10.3338308699999999 1.8972663999999999 5.9364325500000001 Na
atom 13.0580855600000003 1.9048826100000000 5.7765109900000002 Cl
atom 10.3227746299999996 4.6589687499999997 8.3846051599999996 Na
atom 13.1298733199999997 4.7158436100000003 8.5644403600000008 Cl
atom 13.1831211699999997 1.9063351200000000 8.4711516899999992 Na
atom 10.4111030000000007 1.8748404700000001 8.6215471099999998 Cl
atom 13.1064254299999998 4.6825842700000004 5.8084651500000000 Na
atom 10.3211788700000007 4.7123744700000003 5.7662239499999997 Cl
atom 10.2822054900000008 7.4782974900000001 5.8619913700000001 Na
atom 13.1446808700000002 7.5192149300000004 5.7557065200000004 Cl
atom 10.3166019999999996 10.3454390499999995 8.3701573600000003 Na
atom 13.1435359900000002 10.3533804800000002 8.5699073099999996 Cl
atom 13.1435478400000001 7.5051977200000000 8.3875902700000005 Na
atom 10.3067934700000006 7.5315528100000000 8.5857468699999995 Cl
atom 13.1561495199999996 10.3376816500000004 5.8093763400000000 Na
atom 10.3364488399999992 10.3363711699999996 5.7099149100000002 Cl
atom 15.9665797400000002 13.1770179100000000 5.8241818700000003 Na
atom 18.7975232500000011 13.1671882000000000 5.7083912400000001 Cl
atom 15.9836246200000005 15.9981877200000007 8.3883722800000005 Na
atom 18.7913828100000018 15.9794623700000002 8.5534957600000006 Cl
atom 18.7749536699999986 13.1690708799999996 8.3598046000000004 Na
atom 15.9735135100000001 13.1741692500000003 8.5912804400000002 Cl
atom 18.7813068899999998 15.9961401399999996 5.8057878000000001 Na
atom 15.9731534400000008 16.0025388699999986 5.7351597500000002 Cl
atom 15.9520447999999995 18.8128599100000002 5.8269672899999998 Na
atom 18.7628062500000006 18.8083545799999996 5.7269382799999997 Cl
atom 15.9912665100000009 21.6351130299999994 8.3670159700000006 Na
atom 18.8055088200000000 21.6155726799999997 8.5978423599999996 Cl
atom 18.8073397600000014 18.7799212299999994 8.3622431499999994 Na
atom 15.9747350699999995 18.8207928799999991 8.5603052799999997 Cl
atom 18.7815737799999987 21.6270593300000016 5.8112016700000000 Na
atom 15.9541083399999994 21.6300552000000010 5.7554571499999998 Cl
atom 15.9464906600000003 24.4563546299999999 5.8449716399999998 Na
atom 18.7689675099999995 24.4210128699999984 5.7792212999999997 Cl
atom 15.9289001900000002 27.2605278499999990 8.3694434599999994 Na
atom 18.7606382899999993 27.2538962799999993 8.6115529800000008 Cl
atom 18.7787014499999998 24.4346512800000006 8.4075661200000003 Na
atom 15.9509405300000005 24.4513420600000018 8.5675648899999999 Cl
atom 18.7784271700000005 27.2281269700000017 5.8230753100000001 Na
atom 15.9554542099999992 27.2480153700000010 5.7111237700000004 Cl
atom 15.9153398900000003 30.0672435000000000 5.8093926700000003 Na
atom 18.7762953099999983 30.0602229299999983 5.6853841100000002 Cl
atom 15.9500001900000008 32.9241674100000026 8.3799394399999994 Na
atom 18.7893055300000000 32.8957375999999968 8.5782959600000002 Cl
atom 18.7819414599999988 30.0834976599999990 8.3880381499999999 Na
atom 15.9508834600000000 30.0885089500000014 8.5522572599999993 Cl
atom 18.7637706400000006 32.9151282699999967 5.8125715099999997 Na
atom 15.9604027399999993 32.8982347800000028 5.6705100499999999 Cl
atom 15.9291869899999998 35.7149501900000033 5.8129619300000002 Na
atom 18.7677460399999987 35.7292855500000002 5.7392874000000003 Cl
atom 15.8724471900000008 38.5283795200000014 8.4629603899999992 Na
atom 18.7904603399999992 38.5400726100000028 8.5504488900000002 Cl
atom 18.8158786000000013 35.7132786800000019 8.3876818800000006 Na
atom 15.9462785000000000 35.7222590399999973 8.5492440599999995 Cl
atom 18.7849863200000016 38.5683364799999993 5.8037817699999996 Na
atom 15.9816287900000003 38.5532726200000013 5.5786153799999996 Cl