#===============================================================================
# Created using the Atomic Simulation Environment (ASE)

# Tue Dec 23 22:26:45 2025

#=======================================================
lattice_vector 28.1999999999999993 0.0000000000000000 0.0000000000000000 
lattice_vector 0.0000000000000000 39.4799999999999969 0.0000000000000000 
lattice_vector 0.0000000000000000 0.0000000000000000 62.3296083400000001 
atom 7.5196723900000002 14.9929201100000000 0.0336901600000000 Au
atom 10.3682279600000005 14.9717902699999996 -0.1295227800000000 Au
atom 13.0691948199999999 14.9596532700000004 -0.3810735600000000 Au
atom 15.8696805699999999 14.9296479699999995 -0.3019976800000000 Au
atom 18.5698456199999988 14.7636436399999997 0.0197998500000000 Au
atom 21.7389841200000014 14.7304981399999999 -0.2693538700000000 Au
atom 24.5705891500000000 14.8526862099999999 -0.1149693000000000 Au
atom 27.1397904399999987 14.9890603200000001 -0.2128726500000000 Au
atom 1.6955761400000000 14.7247904399999996 -0.1681688600000000 Au
atom 4.6282254900000002 14.7093543400000009 -0.1067285800000000 Au
atom 8.9458156700000000 17.2345844700000015 -0.1865555800000000 Au
atom 11.6410720699999999 17.3255211299999985 -0.3474234400000000 Au
atom 14.6289289999999994 17.2477850199999985 -0.2205377400000000 Au
atom 17.4769753200000011 17.4921449699999982 -0.1447732300000000 Au
atom 20.2303330700000004 17.2439470700000008 0.0563056700000000 Au
atom 22.8197758700000009 17.3714314899999991 -0.1479528800000000 Au
atom 25.7983670700000012 17.2741485300000015 -0.1372413200000000 Au
atom 0.2254003500000000 17.2781014500000012 -0.0239128600000000 Au
atom 3.3264624500000002 17.2455446499999994 -0.1799803500000000 Au
atom 6.0282471900000001 17.1325228199999984 -0.3831875000000000 Au
atom 7.3457999599999999 19.8216991500000006 -0.2767203300000000 Au
atom 10.3100286899999993 19.8842401899999999 -0.0942275500000000 Au
atom 13.1762688899999993 19.5939286199999998 -0.2413348300000000 Au
atom 16.0480256200000007 19.7141287799999994 -0.0878997500000000 Au
atom 18.6816948499999995 19.6766228500000011 -0.1580331300000000 Au
atom 21.7067645800000015 19.7753190600000011 -0.1782911700000000 Au
atom 24.4491091800000007 19.6079977200000002 0.1382898800000000 Au
atom 27.1896462999999997 19.9703812099999993 -0.0517473200000000 Au
atom 1.8277696100000000 19.8685715099999989 -0.2340910800000000 Au
atom 4.6319556300000002 19.7949141100000006 -0.1727072700000000 Au
atom 8.9725468399999997 22.2342346400000004 -0.2406130900000000 Au
atom 11.7272427799999992 22.1661827299999992 0.1251033200000000 Au
atom 14.4785519300000001 22.3374179999999996 -0.0858710000000000 Au
atom 17.3952021999999999 22.2566322300000010 0.1754033900000000 Au
atom 20.4488073399999983 22.3757131499999993 0.0796881800000000 Au
atom 23.0914107800000004 22.2390340000000002 0.0064577100000000 Au
atom 25.8153082900000008 22.2043483299999984 0.1893697200000000 Au
atom 0.3268827300000000 22.2193003100000013 0.1197977900000000 Au
atom 3.2383162799999998 22.2071299400000015 -0.1254151400000000 Au
atom 6.0921495700000001 22.1631816000000015 0.2412160900000000 Au
atom 7.6092341699999997 24.7173812899999987 -0.1415512000000000 Au
atom 10.3909370600000006 24.6800858400000003 0.2304935100000000 Au
atom 13.2255100500000005 24.7171889500000006 0.2790191100000000 Au
atom 15.9794889399999995 24.7322308500000005 0.1927468100000000 Au
atom 18.5990886899999985 24.8094717500000002 0.0195885500000000 Au
atom 21.5603872000000010 24.7637164500000004 0.3306098300000000 Au
atom 24.4728288099999993 24.7087112500000003 0.2711219200000000 Au
atom 27.2433149899999982 24.4714682699999990 0.5082219300000000 Au
atom 1.7964991900000000 24.7546370499999995 -0.1378526200000000 Au
atom 4.6080988800000000 24.7568708999999991 0.3452781900000000 Au
atom 9.0609654600000002 26.9863967799999998 0.2235775200000000 Au
atom 11.8129701300000001 27.3027961400000017 0.1615959600000000 Au
atom 14.5757174900000006 27.2266137800000010 0.1964398500000000 Au
atom 17.6878273200000002 27.2355799000000012 -0.0642236800000000 Au
atom 20.2344323700000004 27.1506701399999990 0.0695892600000000 Au
atom 23.1335344099999993 27.1836119200000006 -0.0233561300000000 Au
atom 25.7826412400000002 26.9940606199999991 0.0815071500000000 Au
atom 0.5688012900000000 27.2074943500000010 0.1443759900000000 Au
atom 3.4032738100000000 27.3916520900000009 0.1081000800000000 Au
atom 6.2045044699999998 27.2498493800000006 0.0711803500000000 Au
atom 7.7741706099999996 29.5826347600000013 0.0827636300000000 Au
atom 10.5673847999999992 29.7978936400000016 -0.1372739600000000 Au
atom 13.4182325900000006 29.6482723099999994 -0.0160244300000000 Au
atom 16.2314864199999995 29.5649343199999990 0.2490986200000000 Au
atom 18.8225654800000015 29.7928615699999995 -0.2601222700000000 Au
atom 21.6408920699999996 29.5328699800000010 -0.1445905500000000 Au
atom 24.6412189800000014 29.6749176500000011 -0.0107042100000000 Au
atom 27.2849601600000007 29.5732192000000005 -0.1034905400000000 Au
atom 1.9585181899999999 29.7337632700000007 0.0161377300000000 Au
atom 4.8088435399999998 29.6177702600000003 -0.2674815900000000 Au
atom 9.1042091799999998 32.4859371399999972 0.1053975800000000 Au
atom 11.7433690300000002 32.0930036099999967 -0.1233084100000000 Au
atom 14.6929294099999996 31.9948681099999988 0.0939266500000000 Au
atom 17.5571439100000006 32.0261389300000019 0.3198620500000000 Au
atom 20.1803911499999984 31.9105997700000010 -0.1100275900000000 Au
atom 23.0166802299999986 32.1732569899999987 -0.0358086900000000 Au
atom 26.1140973299999999 32.0131519600000018 0.0769626200000000 Au
atom 0.4775587300000000 31.9224764900000011 -0.1583937300000000 Au
atom 3.5258576000000001 32.2464695899999967 -0.0794837500000000 Au
atom 6.2653786900000004 32.3660823800000017 -0.2652617600000000 Au
atom 7.4883912099999996 34.7020201300000011 -0.1740229200000000 Au
atom 10.2194459200000001 34.4968120899999988 0.1305694300000000 Au
atom 13.2463241299999996 34.7320857500000031 -0.0041269500000000 Au
atom 15.9696764400000006 34.4243377800000019 -0.1955664300000000 Au
atom 18.9128364299999987 34.3041994499999987 0.0827332200000000 Au
atom 21.8772426399999986 34.5632684699999970 -0.4714555400000000 Au
atom 24.5353488700000000 34.5205505200000005 0.1413675500000000 Au
atom 27.3562686900000003 34.5446235699999988 0.0702331000000000 Au
atom 1.7698916800000000 34.5869421200000033 0.2381874200000000 Au
atom 4.6954392000000000 34.5641204900000005 -0.0945214300000000 Au
atom 8.9645225100000001 36.8875525300000007 -0.0921401700000000 Au
atom 11.8664666299999997 36.9556184599999966 -0.0463049900000000 Au
atom 14.8373903200000008 36.9525489600000014 -0.0052537400000000 Au
atom 17.3891708899999990 36.9337560600000003 0.1214265400000000 Au
atom 20.4005632100000014 37.1214375500000031 -0.0617922000000000 Au
atom 23.0812048700000005 36.9066007099999993 -0.1892879700000000 Au
atom 25.7811185800000011 37.0462377200000006 -0.0386833400000000 Au
atom 0.6084951000000000 36.9866415899999978 0.1867168400000000 Au
atom 3.3206716100000002 36.9748986800000026 -0.0560910800000000 Au
atom 6.1224778700000000 37.0500713300000015 -0.0300349000000000 Au
atom 7.3312275099999997 0.0761960400000000 0.0687143800000000 Au
atom 10.3306473600000004 0.0540638000000000 -0.0335226900000000 Au
atom 12.9089703999999994 -0.0132798800000000 0.1038878800000000 Au
atom 16.0350211899999984 -0.0404069300000000 0.2028066300000000 Au
atom 18.7994193600000017 -0.0980861400000000 0.0559542600000000 Au
atom 21.9259390900000000 0.0455936700000000 -0.1866844700000000 Au
atom 24.5236845400000014 -0.0334446700000000 0.0353757100000000 Au
atom 27.2219232799999986 0.0792033500000000 0.3008881200000000 Au
atom 2.0623533200000002 0.1358988100000000 0.0132467600000000 Au
atom 4.7058056800000001 -0.0243219100000000 0.4137125700000000 Au
atom 9.1383966099999991 2.5899436900000001 0.0940385300000000 Au
atom 11.7816584399999993 2.3867443200000000 0.0167724900000000 Au
atom 14.6613793900000005 2.4924396500000001 0.1227836400000000 Au
atom 17.4092666999999999 2.4775985800000000 0.0652716200000000 Au
atom 20.2392706699999998 2.5455053400000001 0.1019722300000000 Au
atom 23.0485621599999995 2.4780438600000001 0.0246342300000000 Au
atom 25.7724643499999999 2.4521449999999998 0.1624495500000000 Au
atom 0.5216439700000000 2.3978150000000000 0.0764076700000000 Au
atom 3.4016218600000001 2.4690391300000001 0.1706478400000000 Au
atom 6.0731416400000002 2.6193149400000002 0.0268598400000000 Au
atom 7.6335419900000003 4.8548892600000002 0.2694803600000000 Au
atom 10.3686679900000005 4.9046342899999997 0.1193925300000000 Au
atom 13.1269891800000007 4.9917576800000001 0.4089209400000000 Au
atom 16.0508570599999985 4.8624466300000000 0.1348615300000000 Au
atom 18.9310206699999988 4.9523631300000002 0.0871821300000000 Au
atom 21.5990214899999984 5.1067684599999996 0.1852840800000000 Au
atom 24.4787110400000003 5.1235602299999998 0.0303957800000000 Au
atom 27.2728953599999997 4.7954646299999997 0.1522655400000000 Au
atom 1.9012722099999999 5.0636735000000002 0.2102941700000000 Au
atom 4.6678237400000002 4.8871932100000004 0.3653457800000000 Au
atom 9.0196472399999994 7.7004872799999999 0.1685126200000000 Au
atom 11.7884668500000007 7.3003610600000002 -0.0533749800000000 Au
atom 14.6534144099999999 7.5229523199999999 -0.0029701000000000 Au
atom 17.4091051999999991 7.4363075800000003 -0.0363832400000000 Au
atom 20.2351946299999987 7.2670453000000004 0.0410109100000000 Au
atom 23.0640633400000006 7.4087560100000003 -0.0129975200000000 Au
atom 25.8119724899999987 7.3341219999999998 0.0935513400000000 Au
atom 0.5272389500000000 7.2267982599999998 -0.0587399700000000 Au
atom 3.0357661299999998 7.3699725999999997 0.1132901000000000 Au
atom 6.1466012499999998 7.5377052700000000 0.0219145700000000 Au
atom 7.4030373899999997 9.8848532099999993 -0.0776263800000000 Au
atom 10.2811769700000006 10.0380259400000007 0.1194301700000000 Au
atom 13.1164843300000005 9.9262997399999993 -0.0472988400000000 Au
atom 16.0956795600000007 9.8737506600000007 -0.0562188700000000 Au
atom 18.7204369499999999 9.9904494199999991 -0.0960831100000000 Au
atom 21.5335983900000016 9.9147557600000003 0.0718342800000000 Au
atom 24.5026971399999987 10.0100337100000001 -0.0224481100000000 Au
atom 27.3412497099999996 9.7445744199999993 0.3388486900000000 Au
atom 2.0578229399999999 9.7176103099999995 0.3211207500000000 Au
atom 4.7199606599999999 9.7489855399999996 0.3567850000000000 Au
atom 8.8987528099999995 12.3177171600000008 -0.0680742200000000 Au
atom 11.9820440999999995 12.5423205699999993 -0.0283438500000000 Au
atom 14.5740628900000004 12.2986938400000003 -0.3170384200000000 Au
atom 17.4113157299999983 12.1561846800000009 -0.3265882500000000 Au
atom 20.1663778600000008 12.4146342999999995 -0.2339201900000000 Au
atom 22.8905836200000010 12.2917079400000002 -0.2838977600000000 Au
atom 25.8587583599999995 12.3716100999999998 -0.1442053600000000 Au
atom 0.3108535000000000 12.2191852700000005 0.0284557500000000 Au
atom 3.2587046300000000 12.1848258499999993 0.1558734300000000 Au
atom 6.0850289399999999 12.3284515399999997 0.0276872400000000 Au
atom 7.5710071100000000 13.4874897800000006 2.5066334200000000 Au
atom 10.3754336800000004 13.1244351699999999 2.4030956400000001 Au
atom 13.1857349100000008 13.3970979999999997 2.3008858700000001 Au
atom 15.9553643199999993 13.3011691600000006 2.1623276699999998 Au
atom 18.7715168199999987 13.1978699299999995 2.5282311599999998 Au
atom 21.5909728399999992 13.2592641699999998 2.2244748699999999 Au
atom 24.4091708599999997 13.2376093699999995 2.5169259799999999 Au
atom 27.2768404300000000 13.1940768199999994 2.3868781200000000 Au
atom 1.8014856100000001 13.3450728900000009 2.7219308799999999 Au
atom 4.9979458799999996 13.1917021499999993 2.7290996100000000 Au
atom 8.8399031299999997 15.6248224699999998 2.7448115300000002 Au
atom 11.6970552199999993 15.4757079700000002 2.2597162399999999 Au
atom 14.6895933999999997 15.6494154099999996 2.3992247799999999 Au
atom 17.5363468000000005 15.8782679200000008 2.6937970299999998 Au
atom 20.1427210599999995 15.9055929500000008 2.5714851300000001 Au
atom 22.9638907100000011 15.7197731399999991 2.6120227699999998 Au
atom 25.7999897300000001 15.7178911400000008 2.5760060500000002 Au
atom 0.2752863600000000 15.7321596400000008 2.4474894800000002 Au
atom 3.1754236599999999 15.8957724000000002 2.3415814400000001 Au
atom 6.2498823999999997 15.7118100799999993 2.4015363000000001 Au
atom 7.4443267500000001 18.0348154399999991 2.3990411300000001 Au
atom 10.4730022500000004 18.1313953599999991 2.4632857499999998 Au
atom 13.1807266799999994 18.2805636599999985 2.1343621000000002 Au
atom 15.9825956900000001 18.0444812100000007 2.2489227899999999 Au
atom 18.7465802799999999 18.2826871699999991 2.4915279899999998 Au
atom 21.6102751499999997 18.1353053399999986 2.3505623199999999 Au
atom 24.3134478300000012 18.1381910200000007 2.5875350400000001 Au
atom 27.3129297800000010 18.0674348999999985 2.6560687100000000 Au
atom 1.9770059900000001 18.2766182099999988 2.2786140800000001 Au
atom 4.7070509800000000 18.3298190199999986 2.2659435100000000 Au
atom 8.8878637400000002 20.6520980600000001 2.5112309499999999 Au
atom 11.8013599399999993 20.6111871099999995 2.4994677300000001 Au
atom 14.3676754899999999 20.6241559899999984 2.3835511100000000 Au
atom 17.1867855200000008 20.7757938799999984 2.7586989399999999 Au
atom 20.2252323300000008 20.6823105799999993 2.5607250900000000 Au
atom 22.7840673699999989 20.5668299800000014 2.5801332000000001 Au
atom 25.6899215500000011 20.2497142900000000 2.7536436200000001 Au
atom 0.6019651700000000 20.6224454900000005 2.4047266500000002 Au
atom 3.4899809199999998 20.5048625199999996 2.4612584200000001 Au
atom 6.2487985699999999 20.5119567700000012 2.4049426100000000 Au
atom 7.5903588199999996 23.1881660799999985 2.5549157999999998 Au
atom 10.2632050600000007 22.9819804300000001 2.6070860300000001 Au
atom 13.2730933899999997 23.0221477000000014 2.7373346500000002 Au
atom 15.9997689500000000 23.1048995700000006 2.3518142599999998 Au
atom 18.6471179499999984 22.9206006799999997 2.7743516000000001 Au
atom 21.5321521199999992 23.0366976900000004 2.4776065300000001 Au
atom 24.2834184300000011 22.9465932600000002 3.0284434600000001 Au
atom 27.1029033599999991 23.0034157599999993 2.7935010199999999 Au
atom 1.7133015599999999 22.9742983099999982 2.4742509500000001 Au
atom 4.7522123000000001 22.9990530200000016 2.9573442499999998 Au
atom 8.8930196899999991 25.5064205900000012 2.9289794400000000 Au
atom 11.7532643599999993 25.4840716299999990 2.8392336000000000 Au
atom 14.7285884899999999 25.4022317800000010 2.8085017300000001 Au
atom 17.3440023500000002 25.7146944499999996 2.6966232500000000 Au
atom 20.0807355299999983 25.5960584400000002 2.8029685799999999 Au
atom 23.0381777499999991 25.7294430399999996 3.0753207599999999 Au
atom 25.9692536199999999 25.6857981600000009 2.9252319999999998 Au
atom 0.4817442000000000 25.4612661699999983 2.6102908600000001 Au
atom 3.3488861200000000 25.4581017000000003 2.6948456599999999 Au
atom 6.0772246599999997 25.5303486399999997 2.5983154599999998 Au
atom 7.6893303800000004 28.0758096500000001 2.7761284700000002 Au
atom 10.3704926999999998 27.9476535499999983 2.5419681700000001 Au
atom 13.1482976300000001 27.9936436200000003 2.9059488999999998 Au
atom 15.8640661600000001 27.8849010700000015 2.6549216599999999 Au
atom 18.7954174999999992 28.2745704999999994 2.6326516700000000 Au
atom 21.5583586099999991 28.0261844899999986 2.3735370900000001 Au
atom 24.5140819900000011 28.2194409399999984 2.8552109200000002 Au
atom 27.4475143599999996 28.1177063899999986 2.8124011400000000 Au
atom 1.9307364199999999 28.0338607499999988 2.6453194400000002 Au
atom 4.6998136300000004 28.2379812699999988 2.4415980099999999 Au
atom 8.9696590100000009 30.5391542899999990 2.5080338700000002 Au
atom 11.9447679900000008 30.5378581099999984 2.6410598699999999 Au
atom 14.6684027199999996 30.5107359000000002 2.5878262200000002 Au
atom 17.3916676599999995 30.4891680399999991 2.6872104499999998 Au
atom 20.4066086300000009 30.5451373000000004 2.5057222399999999 Au
atom 23.2007127299999993 30.6409179300000005 2.4600386500000000 Au
atom 26.0854113900000009 30.5302957699999986 2.5779669099999998 Au
atom 0.4878392100000000 30.4292103000000012 2.6028896399999999 Au
atom 3.5793758499999999 30.4090481200000013 2.2948930399999998 Au
atom 6.0276627100000004 30.4497792800000013 2.1792883500000002 Au
atom 7.6329444500000001 33.0342928600000008 2.5096523400000001 Au
atom 10.4751023500000002 33.0799228999999997 2.7189444200000001 Au
atom 13.0189103500000005 33.0878295699999967 2.5959652200000001 Au
atom 16.1132118300000009 33.1309131699999995 2.6303277500000002 Au
atom 18.7188923199999984 32.9996658800000020 2.7006244700000002 Au
atom 21.7976095500000007 33.1296340800000024 2.2411494400000000 Au
atom 24.6319849700000013 33.0895301199999992 2.5575760800000000 Au
atom 27.4124346099999983 32.6885790600000021 2.4815994500000000 Au
atom 2.0373648100000001 32.6799022699999995 2.4246287099999999 Au
atom 4.9323597100000001 32.7625259699999987 2.4282319900000000 Au
atom 9.0648743700000001 35.5515120700000011 2.7097784200000001 Au
atom 11.7268663800000006 35.3793730100000019 2.4580036000000001 Au
atom 14.5603414699999991 35.3394640499999966 2.6200215899999999 Au
atom 17.3963542099999984 35.4142832599999977 2.3876217099999999 Au
atom 20.2960931000000002 35.3814725800000005 2.4230726499999999 Au
atom 22.8415243399999994 35.5382394100000027 2.5324390000000001 Au
atom 25.8922154700000000 35.2349571100000034 2.4731611700000000 Au
atom 0.6904250400000000 35.4487526799999983 2.9033084900000001 Au
atom 3.4793902900000000 35.3513805500000018 2.6784541000000002 Au
atom 6.1361069099999996 35.3089517200000031 2.5739836399999998 Au
atom 7.3857195300000003 37.9346376299999974 2.5372579200000001 Au
atom 10.3042103100000002 37.8921548499999972 2.5539078700000002 Au
atom 13.0576039799999997 37.7598812000000024 2.9015467400000001 Au
atom 16.1075793199999993 37.8957716899999966 2.5240859400000000 Au
atom 18.9939644700000017 37.7823636899999968 2.5964594100000000 Au
atom 21.5654613700000013 37.9350491100000013 2.4967894700000000 Au
atom 24.4852867299999986 37.9609176000000019 2.6516358900000001 Au
atom 27.2907388900000001 37.8643384399999974 2.5063430300000000 Au
atom 2.0245797799999998 37.7156382900000011 2.4215803999999999 Au
atom 4.9548179399999999 37.7365217500000014 2.9575475899999999 Au
atom 8.9642780200000001 1.0124108700000001 2.7295073599999999 Au
atom 11.6622976299999994 0.7829409600000000 2.6381213300000002 Au
atom 14.4646534700000000 0.5698006600000000 2.8478765500000001 Au
atom 17.4388530499999987 0.8190584300000000 2.5708905500000001 Au
atom 20.2089111000000017 0.7018919800000000 2.8161052299999998 Au
atom 23.0848607399999999 0.8975167300000000 2.6274176499999999 Au
atom 25.8438554200000006 0.6356785000000000 2.7246017400000002 Au
atom 0.6364577200000000 0.7648820100000000 2.9201358800000001 Au
atom 3.1238328800000001 0.7286315300000000 2.5716101500000002 Au
atom 6.0496368800000004 0.9964017200000000 2.8253010800000000 Au
atom 7.4176004000000004 3.5003234299999999 2.8369861900000002 Au
atom 10.6396473900000004 3.4252538499999998 3.1122701899999998 Au
atom 13.2185121300000006 3.2331399699999999 2.8962059899999999 Au
atom 16.0158088999999997 3.4311979099999999 2.6405837499999998 Au
atom 18.7529913599999993 3.4555867600000001 2.8897806199999998 Au
atom 21.7220650999999982 3.2701778899999998 2.9061322199999999 Au
atom 24.4775927300000014 3.4301996899999998 2.9100885399999998 Au
atom 27.4608738899999985 3.4803952400000000 2.8449718000000002 Au
atom 2.0713164499999999 3.3318037700000001 2.5598819100000001 Au
atom 4.6928302799999999 3.3596734200000000 2.9633458400000001 Au
atom 9.1127795099999993 5.7393631699999998 2.7781612700000000 Au
atom 11.9475480800000007 5.8844643100000003 2.7440881099999999 Au
atom 14.7547005400000000 5.8028050999999996 2.7903790800000001 Au
atom 17.4965251799999990 5.9249527000000004 2.6857141499999999 Au
atom 20.2695944200000007 5.8059549199999996 2.9037259600000001 Au
atom 23.3314476500000012 5.8256879699999997 2.5639495499999998 Au
atom 25.8329660099999998 5.5482053999999996 2.8245185199999998 Au
atom 0.5390991300000000 5.9078559700000000 2.6039949800000000 Au
atom 3.4059087500000000 6.0261718300000000 3.0895393300000000 Au
atom 6.1779434899999996 6.0066236100000001 2.7260958300000002 Au
atom 7.5434385199999996 8.4106415800000001 2.6776485700000001 Au
atom 10.3451356099999998 8.4653074900000007 2.7532163500000002 Au
atom 13.0470202900000007 8.3114737299999994 2.2339906900000002 Au
atom 16.0274120000000018 8.2969209900000003 2.6942964599999999 Au
atom 19.0506620799999986 8.4741902699999994 2.8632942600000000 Au
atom 21.6914771500000008 8.0444071000000008 2.4067532400000000 Au
atom 24.4356788300000005 8.3341545400000001 2.6013721400000001 Au
atom 27.3372038199999992 8.4202242399999996 2.8950731699999999 Au
atom 1.8439593400000001 8.4523461399999995 2.5850752199999998 Au
atom 4.6832272499999998 8.3590512599999993 2.7628815200000001 Au
atom 9.0864990599999995 10.9284674899999992 2.6492337500000001 Au
atom 11.7145656400000000 10.7926742200000003 2.5558742200000002 Au
atom 14.5650788700000007 10.9939883999999992 2.6238712099999999 Au
atom 17.2754691399999984 11.1113158399999996 2.6668610500000001 Au
atom 20.3169585800000014 10.6424667999999993 2.6258038500000001 Au
atom 23.3167395500000012 10.7607462599999995 2.3961081900000001 Au
atom 25.6686204800000013 10.8385627099999997 2.7181869399999998 Au
atom 0.5061905900000000 10.7272630600000003 2.6749723200000002 Au
atom 3.3162223200000001 10.8832887899999999 2.6738249500000002 Au
atom 6.1728390700000002 10.7503667400000005 2.7497469500000000 Au
atom 7.2471434500000003 12.9221726700000001 5.6638647799999999 Cl
atom 7.2659816800000003 15.7278407199999997 8.3027468500000001 Cl
atom 7.0516201199999999 12.6223649200000008 8.3229486999999995 Na
atom 7.2705455099999998 15.5086937599999999 5.7193329899999998 Na
atom 7.4087304800000000 18.6227698100000012 5.1808192799999997 Cl
atom 7.3581507799999999 21.3598516700000012 8.6340374700000009 Cl
atom 7.2679708800000000 18.5185430300000000 8.1270145199999995 Na
atom 7.2744024300000003 21.2459660899999996 5.7479968899999996 Na
atom 7.0413872299999998 23.9383538400000013 5.8668521699999996 Cl
atom 7.2891183000000002 27.0528882599999996 8.3458377800000001 Cl
atom 7.1684658700000004 24.3498477999999992 8.4027222399999992 Na
atom 6.8750883800000002 26.9598523900000018 5.8243614399999997 Na
atom 6.8751790499999998 29.8087300999999982 5.5941514699999999 Cl
atom 7.1684145199999998 32.4346503100000021 8.6813623399999997 Cl
atom 7.2520215700000001 29.6115308299999995 8.3678491600000005 Na
atom 7.1239900399999998 32.4105617100000032 5.8196711600000004 Na
atom 7.1829190699999996 35.4367720799999972 5.9195753199999999 Cl
atom 7.1117666000000002 38.2866677900000028 8.5648252300000003 Cl
atom 7.1738699900000000 35.3851370100000011 8.5232712100000008 Na
atom 7.2867082800000000 38.5042810200000005 5.6909468299999997 Na
atom 7.5057569800000001 1.5180725200000000 5.7300666099999997 Cl
atom 7.2959716099999996 4.3715078900000002 8.7334114100000004 Cl
atom 7.3578579499999996 1.5373934199999999 8.4882225099999999 Na
atom 7.1927714800000002 4.3557188900000003 5.7162999900000004 Na
atom 7.3392285299999998 7.3272620799999997 5.7773125099999998 Cl
atom 7.3640925499999996 10.0254730300000006 8.3472423899999999 Cl
atom 7.0364166499999996 7.1697113000000003 8.3605229300000001 Na
atom 7.5229000199999998 9.9942351800000004 5.5815486999999999 Na
atom 10.1821570399999999 12.8818142000000009 5.6424228400000001 Na
atom 13.0062651099999993 12.9870184500000008 5.9123045699999999 Cl
atom 10.1110300199999994 15.7215159599999996 8.3534172400000006 Na
atom 13.0371570899999991 15.6031172199999997 8.1498937599999994 Cl
atom 12.9937304000000005 12.9759926500000002 8.3015623099999996 Na
atom 10.2590038499999991 12.9909338900000009 8.6932251300000001 Cl
atom 12.8412969700000001 15.7953367300000007 5.6307766700000004 Na
atom 10.1959577100000001 15.5603876200000002 5.8433378700000000 Cl
atom 10.1121021199999994 18.7358725700000015 5.7088061600000000 Na
atom 13.1723298900000003 18.4826058599999996 5.4662737400000001 Cl
atom 10.0141810800000002 21.1877680599999998 8.3693485499999998 Na
atom 13.0858450899999994 21.4040845200000014 8.2982311499999994 Cl
atom 13.0824652100000005 18.5222568800000005 8.1839614800000007 Na
atom 9.9362013499999993 18.7276941599999986 8.4147757500000004 Cl
atom 12.8527831399999997 21.7137475100000010 5.4996802799999998 Na
atom 9.8385006799999992 21.4886121699999997 5.5957786799999996 Cl
atom 9.9782169300000003 23.8790455299999991 5.9536977200000001 Na
atom 12.9064672700000003 24.2227286500000005 5.7150182200000001 Cl
atom 9.9277704999999994 26.9194062999999986 8.4801878300000002 Na
atom 12.6690109300000007 26.6632989000000009 8.4042525700000006 Cl
atom 12.9587539799999991 24.0609981200000007 8.1916237200000008 Na
atom 10.1439864899999996 24.0672599100000006 8.5312274499999994 Cl
atom 12.8759139000000005 27.0556165799999988 6.0001895100000002 Na
atom 10.1576615700000001 26.7406235199999998 5.8156318100000002 Cl
atom 9.8300379000000007 29.5927189599999991 5.6788804800000001 Na
atom 12.8483850400000001 29.8261437600000008 5.6956065400000000 Cl
atom 9.9640435899999993 32.5038446100000016 8.2231053200000002 Na
atom 12.7102494400000001 32.4771595400000024 8.4043188799999999 Cl
atom 12.7633558800000007 29.8310894799999993 8.0935805599999995 Na
atom 9.9059533599999998 29.6739054200000005 8.4943853399999991 Cl
atom 12.7946625100000002 32.5378005800000025 5.8454168400000004 Na
atom 9.8703537499999996 32.5356582100000011 5.7175560000000001 Cl
atom 9.9607711800000001 35.4547639399999994 5.9475644000000001 Na
atom 12.6354856499999997 35.2763020699999998 5.6129562100000001 Cl
atom 10.1814466199999991 38.1792633000000023 8.5749351100000002 Na
atom 12.9131640399999998 37.9643055700000005 8.6252752600000004 Cl
atom 12.7092674199999998 35.3210125199999965 8.3813225599999992 Na
atom 9.9056021199999993 35.1197121000000010 8.6193436800000001 Cl
atom 12.6537761799999995 38.1378017799999967 5.9169388700000001 Na
atom 10.1374812399999996 38.2347096900000025 5.5507784500000001 Cl
atom 9.8311053899999994 1.4952276300000000 5.7641225499999997 Na
atom 12.7316780200000004 1.5509283400000000 5.8738068600000002 Cl
atom 9.9900656100000003 4.6725290399999997 8.5413940400000001 Na
atom 12.7877995999999996 4.3485121900000001 8.7664674100000006 Cl
atom 12.8671088999999998 1.4969741700000001 8.5649080899999994 Na
atom 10.2158917200000001 1.5388101199999999 8.8876486200000002 Cl
atom 12.6728856600000004 4.5554560600000000 5.8346033100000003 Na
atom 10.0311471700000006 4.2353206500000002 5.9259073600000001 Cl
atom 10.0855050899999998 7.0467103099999999 5.7591345399999998 Na
atom 12.7891857899999994 7.2456991999999998 6.0112002400000000 Cl
atom 10.0205949400000005 10.1244513900000008 8.4624916500000005 Na
atom 12.8801153999999993 10.1394453099999993 8.4511344400000006 Cl
atom 12.4559195099999993 7.4003769999999998 8.4672501499999999 Na
atom 10.1007902299999994 7.3901415999999998 8.6574554700000004 Cl
atom 12.7682607800000003 9.9563648800000006 5.5892861500000004 Na
atom 10.1326174000000009 9.9902596599999995 5.7041268000000001 Cl
atom 15.4268920200000004 12.8418851400000005 5.9296289800000004 Na
atom 18.1920392900000003 12.6451088800000004 5.9185035399999997 Cl
atom 15.6859015500000005 15.5708348099999991 8.2991524000000005 Na
atom 18.2793861699999987 15.5743356500000001 8.4072059800000005 Cl
atom 18.2291345400000004 12.7867876000000003 8.2369602799999999 Na
atom 15.4964869400000005 12.8510289800000006 8.4676695199999994 Cl
atom 18.4906546100000000 15.3757722300000008 5.7009465500000003 Na
atom 15.5868775999999993 15.9631412600000004 5.6268294000000001 Cl
atom 15.6253415699999998 18.2696633999999989 5.5655295000000002 Na
atom 18.2666127600000010 18.7747163800000010 5.5350497000000001 Cl
atom 15.6107980600000005 21.3664585199999983 8.3603220300000007 Na
atom 18.5060466499999983 21.3676410700000012 8.6325718499999997 Cl
atom 18.4038360999999995 18.5982118499999984 8.0669598199999992 Na
atom 15.7749550000000003 18.3479962199999989 8.5013369300000008 Cl
atom 18.6035375000000016 21.4177634300000008 5.9130816800000003 Na
atom 15.9104798600000006 21.1955310200000007 5.3693279900000004 Cl
atom 15.6516016300000000 24.1718697700000007 5.8352891400000004 Na
atom 18.5340461199999993 24.2698025000000008 5.7405112000000003 Cl
atom 15.6331981100000004 26.9426777699999995 8.4827065000000008 Na
atom 18.5195100400000001 26.8693495899999988 8.6001543799999993 Cl
atom 18.5258550000000000 24.2287627199999989 8.5100179199999992 Na
atom 15.7589650100000007 24.1449790100000001 8.7376697900000000 Cl
atom 18.7642074399999998 27.1414726299999991 5.7278648700000003 Na
atom 15.6043018599999996 26.7878479100000000 5.7754359099999997 Cl
atom 15.7198428000000003 29.7187045999999988 5.8232043000000004 Na
atom 18.8035006699999983 29.5496677199999986 5.6948345199999997 Cl
atom 15.6770054600000002 32.7739392699999996 8.1644980999999994 Na
atom 18.6643390400000015 32.4384523700000003 8.4141244700000009 Cl
atom 18.4234514099999984 29.7046192299999987 8.3410809799999992 Na
atom 15.5987375400000001 29.4891359000000008 8.4906651100000001 Cl
atom 18.5418376000000009 32.3866618200000005 5.8088819899999997 Na
atom 15.8079834600000009 32.6372437099999999 5.7422097399999998 Cl
atom 15.5856089200000003 35.3418733900000035 5.7588419799999997 Na
atom 18.5867320900000017 35.2789075700000012 5.5478305700000003 Cl
atom 15.6745089400000008 38.2016415399999971 8.5673504900000008 Na
atom 18.2501964600000015 38.2184470199999993 8.4967104700000000 Cl
atom 18.6053474600000008 35.2538768599999983 8.3484058500000007 Na
atom 15.7679586300000008 35.3941777400000035 8.5089587800000004 Cl
atom 18.3683618600000003 38.3663121499999988 5.9371991299999998 Na