#===============================================================================
# Created using the Atomic Simulation Environment (ASE)

# Sat Nov  1 21:48:33 2025

#=======================================================
lattice_vector 28.1999999999999993 0.0000000000000000 0.0000000000000000 
lattice_vector 0.0000000000000000 39.4799999999999969 0.0000000000000000 
lattice_vector 0.0000000000000000 0.0000000000000000 62.3296083400000001 
atom 7.5062350100000002 14.8404830099999998 0.0729367300000000 Au
atom 10.3174777700000000 14.7947505100000001 -0.0346744200000000 Au
atom 13.1539372500000002 14.8164393200000006 0.0902246400000000 Au
atom 15.9605669599999995 14.8468189299999995 0.0285833500000000 Au
atom 18.8071108000000002 14.8212273000000003 0.0630829600000000 Au
atom 21.6069503099999984 14.8501166399999995 -0.0083494600000000 Au
atom 24.4226620700000012 14.8202030899999997 0.0653845700000000 Au
atom 27.2397793999999998 14.7284770300000005 -0.0362309000000000 Au
atom 1.8652338600000000 14.8344932899999993 0.0848248200000000 Au
atom 4.6796507700000003 14.8369220899999998 -0.0219697400000000 Au
atom 8.9333204800000008 17.2918432899999992 0.0533394200000000 Au
atom 11.7418989000000007 17.2977980400000000 0.0154033000000000 Au
atom 14.5705792499999998 17.2727067599999984 0.0156161400000000 Au
atom 17.3656290200000001 17.3087476000000002 0.0464433900000000 Au
atom 20.1788632700000008 17.3042641800000006 0.0492344800000000 Au
atom 23.0388339500000008 17.2917200099999988 0.0287233500000000 Au
atom 25.8387393100000011 17.2356500100000005 0.0732174700000000 Au
atom 0.4335802400000000 17.4129507200000013 -0.0345565400000000 Au
atom 3.2764031199999999 17.2907508400000012 0.0439858500000000 Au
atom 6.1040273200000001 17.2825112300000008 0.0341276700000000 Au
atom 7.5139897299999996 19.7413954300000007 0.0886353400000000 Au
atom 10.3699426399999997 19.7702844199999994 0.0548449700000000 Au
atom 13.1173419399999993 19.7722903700000003 0.1240881700000000 Au
atom 15.9355077999999999 19.7883191600000004 0.0535473000000000 Au
atom 18.7828386800000011 19.7724726799999999 0.1200948200000000 Au
atom 21.5906360200000016 19.7616429599999996 0.0332078900000000 Au
atom 24.4234053700000011 19.7627814999999991 0.1044072000000000 Au
atom 27.2158460600000005 19.8008499700000016 0.2479571300000000 Au
atom 1.8613544500000001 19.7757527000000017 0.0125238400000000 Au
atom 4.6835327700000002 19.7493374000000017 0.0776151800000000 Au
atom 8.9122325599999996 22.2407243399999999 0.0990414400000000 Au
atom 11.7561478299999997 22.2209948100000005 0.0943347500000000 Au
atom 14.5394131200000007 22.2206562199999986 0.0904202900000000 Au
atom 17.3393800499999990 22.2157350499999993 0.0707009300000000 Au
atom 20.1655818499999988 22.2204449199999985 0.0759356600000000 Au
atom 22.9916806099999995 22.2164842799999995 0.0625815200000000 Au
atom 25.8414908700000012 22.1790885499999995 0.1309471800000000 Au
atom 0.4921996200000000 22.1207125900000001 -0.0653092800000000 Au
atom 3.2648313799999999 22.2285525799999988 0.1136786700000000 Au
atom 6.0919249899999999 22.2286622600000001 0.1001261100000000 Au
atom 7.4876487799999998 24.7090464099999991 0.0928016700000000 Au
atom 10.3091238900000004 24.6852152899999986 0.0861802600000000 Au
atom 13.0921463199999994 24.6997939500000001 0.0706575600000000 Au
atom 15.9465655200000000 24.6897568300000003 0.1078393000000000 Au
atom 18.8028031400000017 24.6536146999999985 0.0747600000000000 Au
atom 21.5727131400000012 24.6571430599999992 0.1079359000000000 Au
atom 24.4512736400000001 24.7020283999999997 0.0895731200000000 Au
atom 27.2423891299999994 24.5797801999999983 -0.0442753000000000 Au
atom 1.8897147299999999 24.6653087500000012 0.1489198500000000 Au
atom 4.6804132400000000 24.7128672300000005 0.1140847900000000 Au
atom 8.8976514000000009 27.1336019099999994 0.0304387500000000 Au
atom 11.7440044199999996 27.1434111899999984 0.0890442700000000 Au
atom 14.5518937800000003 27.1478837300000002 0.0681936400000000 Au
atom 17.3681297199999989 27.1371819800000011 0.0894953800000000 Au
atom 20.1960275100000004 27.1321154799999995 0.0892497100000000 Au
atom 23.0001639500000010 27.1615589499999999 0.0850758800000000 Au
atom 25.8234968100000017 27.1712059799999999 0.1369935200000000 Au
atom 0.4486966800000000 27.0381742699999990 0.2143147500000000 Au
atom 3.2538397200000002 27.1241997999999995 0.0691834500000000 Au
atom 6.1017684599999997 27.1828968099999990 0.0599899900000000 Au
atom 7.4995487399999998 29.6501011299999995 0.0228328200000000 Au
atom 10.3304678200000009 29.6334169100000011 0.0501984000000000 Au
atom 13.1502056500000002 29.5920188899999985 0.0506683000000000 Au
atom 15.9754860099999991 29.6450807800000007 0.0358765700000000 Au
atom 18.7845668500000009 29.6239267499999990 0.0434512900000000 Au
atom 21.6174514299999991 29.6289621300000015 0.0710398100000000 Au
atom 24.4180387900000007 29.6234440700000015 0.0354896000000000 Au
atom 27.2103442300000005 29.6214370600000017 0.1069648300000000 Au
atom 1.8749129400000000 29.6212133599999987 -0.0022493300000000 Au
atom 4.7148397700000002 29.6058711400000014 0.0385905700000000 Au
atom 8.9618289299999994 32.0888995099999974 0.0381366600000000 Au
atom 11.7446096499999992 32.1040393600000016 0.0072840600000000 Au
atom 14.5541649799999995 32.0862977500000000 0.0212668900000000 Au
atom 17.3853746600000001 32.0882945600000014 0.0337927900000000 Au
atom 20.2104825499999983 32.0786149699999967 0.0094113000000000 Au
atom 23.0091535500000006 32.0826709899999969 0.0060044200000000 Au
atom 25.8488301199999988 32.0299102999999974 0.0334310500000000 Au
atom 0.4588711500000000 32.1648779000000005 -0.1426501200000000 Au
atom 3.2700048700000002 32.1002014800000026 -0.0196172900000000 Au
atom 6.0694214999999998 32.0668897600000022 0.0269940100000000 Au
atom 7.5016502799999998 34.5819579200000007 -0.0223002600000000 Au
atom 10.3310952799999995 34.5462406299999998 0.0529442300000000 Au
atom 13.1293751200000006 34.5939500499999966 -0.0160458800000000 Au
atom 15.9426542199999997 34.5581243499999999 0.0435435100000000 Au
atom 18.7800455600000014 34.5589864399999982 0.0002698900000000 Au
atom 21.5962931400000002 34.5584210900000031 0.0526348900000000 Au
atom 24.4134427900000013 34.5824871399999978 0.0182407800000000 Au
atom 27.2594219200000012 34.3496370700000000 0.1567780700000000 Au
atom 1.8655970300000000 34.5659922899999970 0.0632183700000000 Au
atom 4.6908035799999999 34.5365204900000009 0.0410820800000000 Au
atom 8.9793795999999997 37.0514462599999987 -0.0949051800000000 Au
atom 11.6004868200000004 37.0458124600000005 0.0347203200000000 Au
atom 14.3451321899999993 37.0249323000000032 0.0842849500000000 Au
atom 17.6119444300000012 37.0211616400000025 0.2073226900000000 Au
atom 20.0813341399999992 37.0176011499999973 -0.1624114700000000 Au
atom 22.9657422099999984 37.0078046100000009 0.1805094900000000 Au
atom 25.8273745800000007 37.0454462900000010 -0.0705637600000000 Au
atom 0.4289237500000000 37.1141459299999994 -0.1928380100000000 Au
atom 3.0874143799999998 37.0421897299999969 -0.0297021200000000 Au
atom 6.2559814300000003 37.0470206199999978 0.0042267000000000 Au
atom 7.5858601700000001 0.0282928000000000 0.4090159800000000 Au
atom 10.3329242499999996 0.0170198800000000 0.3846509700000000 Au
atom 13.1463482299999992 0.0178258700000000 0.1195243800000000 Au
atom 15.9738113199999994 0.0241587300000000 0.1530960300000000 Au
atom 18.9792464500000015 0.0328591400000000 -0.1192096000000000 Au
atom 21.4229988099999993 0.0195639800000000 -0.0970583200000000 Au
atom 24.3834842499999986 0.0064350400000000 0.2222622600000000 Au
atom 27.2042393900000015 -0.0240582500000000 0.1168045800000000 Au
atom 1.8757241700000000 0.0373611000000000 0.0261731500000000 Au
atom 4.6985773599999998 0.0210121600000000 -0.0491014100000000 Au
atom 8.9141865700000000 2.4820098800000001 0.0474508700000000 Au
atom 11.7432094800000009 2.4760762999999999 0.0788363700000000 Au
atom 14.5491282999999996 2.4612199200000000 0.0718195800000000 Au
atom 17.3923901000000001 2.4760828400000001 0.0883379700000000 Au
atom 20.2097269100000005 2.4847370199999999 0.1078713000000000 Au
atom 23.0276260400000012 2.4656534699999999 0.0896419900000000 Au
atom 25.8173944300000002 2.4388504599999998 0.0746800300000000 Au
atom 0.4545114200000000 2.5205832099999999 0.1679484300000000 Au
atom 3.2836425899999999 2.4735885999999998 0.0784339000000000 Au
atom 6.1011148200000003 2.4808466199999999 0.0724154000000000 Au
atom 7.5041290500000004 4.9308734599999999 0.1211237000000000 Au
atom 10.3130560599999992 4.9472058399999996 0.0844836600000000 Au
atom 13.1452843999999995 4.9368555799999996 0.0956220400000000 Au
atom 15.9713466900000007 5.0095061500000000 0.1221485200000000 Au
atom 18.7927107699999993 4.9472106299999998 0.1080159300000000 Au
atom 21.6027370000000012 4.9642723899999996 0.0684342900000000 Au
atom 24.4199530600000010 4.9382045000000003 0.1027221000000000 Au
atom 27.2552913600000011 4.9590475899999999 0.2371977800000000 Au
atom 1.8615800300000001 4.9365661200000002 0.0387732300000000 Au
atom 4.6720611600000002 4.9325662000000001 0.0901062900000000 Au
atom 8.9218328299999996 7.4278086600000002 0.0656607700000000 Au
atom 11.7603134399999991 7.4116020200000001 0.0468385800000000 Au
atom 14.5404763999999993 7.4077942600000002 0.0741045100000000 Au
atom 17.4033606499999998 7.4336486300000004 0.0674636900000000 Au
atom 20.2184332799999993 7.4330829400000002 0.0863339900000000 Au
atom 23.0324852699999987 7.4399288900000000 0.0859895600000000 Au
atom 25.8236079799999985 7.3670034500000003 0.1314786100000000 Au
atom 0.4696736900000000 7.2821873400000001 0.0430031300000000 Au
atom 3.2595447000000002 7.4324738200000002 0.0717463700000000 Au
atom 6.0646954500000003 7.4356312899999999 0.0254210700000000 Au
atom 7.5330093700000003 9.8813002300000008 0.0674532100000000 Au
atom 10.3328821899999994 9.8762608099999998 0.0220759600000000 Au
atom 13.1514448000000002 9.8967053499999995 0.0475907700000000 Au
atom 15.9646027200000002 9.8929509699999993 -0.0036041400000000 Au
atom 18.7580713699999997 9.8901048599999992 0.0837938300000000 Au
atom 21.6097820200000008 9.8815164800000002 0.0471213100000000 Au
atom 24.4339459199999993 9.8768554300000009 0.0662067700000000 Au
atom 27.2064657200000006 10.0678501399999991 0.0684835900000000 Au
atom 1.8713923900000000 9.9334051500000005 0.0544174100000000 Au
atom 4.6856286999999996 9.8760092600000000 0.0015754100000000 Au
atom 8.9281653199999997 12.3903120900000001 -0.0060295700000000 Au
atom 11.7297442200000006 12.3603035800000001 -0.0086627800000000 Au
atom 14.5712868499999999 12.3635019899999996 0.0103833200000000 Au
atom 17.3792365699999998 12.3606677299999994 0.0252291800000000 Au
atom 20.1803091999999999 12.3618570200000004 0.0100628200000000 Au
atom 23.0053392400000014 12.3412076699999993 0.0307427400000000 Au
atom 25.8366576899999991 12.3569770999999999 0.0888250800000000 Au
atom 0.4481212100000000 12.2675981800000002 -0.0615684700000000 Au
atom 3.2684988300000000 12.3565334700000005 0.0190276200000000 Au
atom 6.1003206700000003 12.3547079100000001 0.0034196400000000 Au
atom 7.5312704699999999 13.2164561000000003 2.6226439099999999 Au
atom 10.3383762099999998 13.1855506800000004 2.5600654000000000 Au
atom 13.1653303499999996 13.1656449700000007 2.6512488799999998 Au
atom 15.9224846299999996 13.1921565500000000 2.5515783000000001 Au
atom 18.7950438300000009 13.1897033500000003 2.6518309699999998 Au
atom 21.5688928599999983 13.1592822700000003 2.5759826900000000 Au
atom 24.4438431099999995 13.1828468399999998 2.6858037800000001 Au
atom 27.2563524900000012 13.1741088699999995 2.5264255900000001 Au
atom 1.8938960700000000 13.1712557399999994 2.6292009200000002 Au
atom 4.6732269999999998 13.2159347399999998 2.5477106799999998 Au
atom 8.9040495699999997 15.6394868299999992 2.6446308200000002 Au
atom 11.7254436999999996 15.6865447499999995 2.6139193999999999 Au
atom 14.5567129899999994 15.6422357099999996 2.6530299899999998 Au
atom 17.3539810699999997 15.6216092000000000 2.6371461599999999 Au
atom 20.1949923200000008 15.6701557000000005 2.6353032199999999 Au
atom 23.0283860400000009 15.6299213500000000 2.6165947300000001 Au
atom 25.8365292400000008 15.6493346100000004 2.7160021900000002 Au
atom 0.4722515800000000 15.6584426600000004 2.6882058400000002 Au
atom 3.2689466600000001 15.6437644000000002 2.6452942099999999 Au
atom 6.0905296299999998 15.6673652200000006 2.6186148700000000 Au
atom 7.4949555400000003 18.1047553699999995 2.6960083899999998 Au
atom 10.3052810200000007 18.1006260700000006 2.6153053300000000 Au
atom 13.1590367500000003 18.0894659299999994 2.6907880400000002 Au
atom 15.9985317699999996 18.0853208400000014 2.5837456300000001 Au
atom 18.7695158299999996 18.1116484900000003 2.6671506500000000 Au
atom 21.6261548700000006 18.0583461599999993 2.5738730099999998 Au
atom 24.4168932699999992 18.1007505199999983 2.6806266500000002 Au
atom 27.2355280099999995 18.1911532399999984 2.4929151500000000 Au
atom 1.8597337500000000 18.0738917100000016 2.7155358800000000 Au
atom 4.6689908100000004 18.1102804400000004 2.5851230500000000 Au
atom 8.8818801599999997 20.6114947000000015 2.6949473500000001 Au
atom 11.7359925500000006 20.5577556299999991 2.7103488800000002 Au
atom 14.5556362900000007 20.6159687299999987 2.6992054400000001 Au
atom 17.3675798999999991 20.5896652200000005 2.7063343999999998 Au
atom 20.1988021199999999 20.5954261699999996 2.7069279700000002 Au
atom 22.9900201099999997 20.5662538999999995 2.7083047499999999 Au
atom 25.8245423800000005 20.5286473899999997 2.6222196800000002 Au
atom 0.4301948900000000 20.5332964000000011 2.6185387699999998 Au
atom 3.2834786299999998 20.5782370400000012 2.7536632100000000 Au
atom 6.1147364800000004 20.5687224700000009 2.7182393600000001 Au
atom 7.5428833800000001 23.0697361600000015 2.6993583000000001 Au
atom 10.3318604799999996 23.0758691800000015 2.6864704599999998 Au
atom 13.1324279900000001 23.0216736500000003 2.6846528099999998 Au
atom 15.9730546100000002 23.0442654900000008 2.6763482100000000 Au
atom 18.8194336600000014 23.0218946200000012 2.6794100500000000 Au
atom 21.5807233099999998 23.0706245400000007 2.6965084300000002 Au
atom 24.4494980700000006 23.0159942599999994 2.6834023400000002 Au
atom 27.2451720600000016 22.9737572800000009 2.6731828200000001 Au
atom 1.8618143300000001 23.0648378500000000 2.6847937900000001 Au
atom 4.6984231899999997 23.0680304499999984 2.6802619299999999 Au
atom 8.9376951800000004 25.5589945299999997 2.7581855499999999 Au
atom 11.7507518199999996 25.5368351199999992 2.7299806599999998 Au
atom 14.5392901400000003 25.5093445299999999 2.6973178700000000 Au
atom 17.3976248200000008 25.5308463500000009 2.7475821200000001 Au
atom 20.1944799900000014 25.5276836299999985 2.6972356099999999 Au
atom 23.0178547100000017 25.5479046600000004 2.7157014899999998 Au
atom 25.8160577300000007 25.6038987200000001 2.7001941299999999 Au
atom 0.4642551400000000 25.6826412099999999 2.5522336800000001 Au
atom 3.2641594399999998 25.5161017200000018 2.7093316399999998 Au
atom 6.1076286299999998 25.5211180700000000 2.7212758199999998 Au
atom 7.5139879000000001 27.9984368000000003 2.5921458999999998 Au
atom 10.2877690000000008 28.0005948800000013 2.6950567099999998 Au
atom 13.1353613599999992 27.9937774899999994 2.6232585799999999 Au
atom 15.9461356900000002 28.0107308199999991 2.6904888499999999 Au
atom 18.7961787499999993 27.9829218399999995 2.6122875400000001 Au
atom 21.5869874800000012 27.9994643500000002 2.6642548300000000 Au
atom 24.4021299200000001 28.0019989600000017 2.6167419199999999 Au
atom 27.2627003700000010 27.9511184899999989 2.7092562000000000 Au
atom 1.8322532100000000 27.9628707600000013 2.6468164600000001 Au
atom 4.6684718399999996 27.9923306300000014 2.7212472000000001 Au
atom 8.9015063500000000 30.4703743399999993 2.6650568899999998 Au
atom 11.7470579300000004 30.4500720300000012 2.6448206600000002 Au
atom 14.5842463200000001 30.4438509599999989 2.6334108299999999 Au
atom 17.3688483600000012 30.4644039100000015 2.6324861799999999 Au
atom 20.1855945000000006 30.4634585199999997 2.6746736400000000 Au
atom 22.9909173299999985 30.4490937600000002 2.6427965699999998 Au
atom 25.8228170500000012 30.4359710399999983 2.7077776600000001 Au
atom 0.4805388600000000 30.6469488199999986 2.5943555900000002 Au
atom 3.2639358800000000 30.4771475199999990 2.6264173600000000 Au
atom 6.0951284000000001 30.4630669800000007 2.6460597699999999 Au
atom 7.5183156200000001 32.9232746899999995 2.5656812499999999 Au
atom 10.3439832000000003 32.9145845099999974 2.6752575799999998 Au
atom 13.1447638999999992 32.9313007499999983 2.5301021499999998 Au
atom 15.9462830199999992 32.9169584699999973 2.6731503600000002 Au
atom 18.7609403000000015 32.9394717300000011 2.5588206200000001 Au
atom 21.5889595400000012 32.9125192999999996 2.6823299100000000 Au
atom 24.4489567299999990 32.9257557600000013 2.5539462300000002 Au
atom 27.2250076400000012 32.9764901200000011 2.8014627000000001 Au
atom 1.8596001700000000 32.9120517100000001 2.5478086100000001 Au
atom 4.6968671500000001 32.9200237100000024 2.6810063099999999 Au
atom 8.8894034800000004 35.4337038700000022 2.6638751900000002 Au
atom 11.7496774899999998 35.3984943099999967 2.6390384400000002 Au
atom 14.5669453499999992 35.3671538700000028 2.6533924400000002 Au
atom 17.4026958799999996 35.3675064399999997 2.6220229100000001 Au
atom 20.1788811700000004 35.3960965999999999 2.6304325300000002 Au
atom 22.9909173100000004 35.3793608900000009 2.6439590000000002 Au
atom 25.8112330499999985 35.4226095400000034 2.5995248300000000 Au
atom 0.4414339200000000 35.4142771799999991 2.6718934399999998 Au
atom 3.2747213099999999 35.3885889100000028 2.6341100700000002 Au
atom 6.1003905600000001 35.3819080099999965 2.6473080900000001 Au
atom 7.5031751599999996 37.8196291400000035 2.5611800400000000 Au
atom 10.2300184200000004 37.8298501599999994 2.4550630999999998 Au
atom 13.0499696400000005 37.8460623200000015 2.6669215999999998 Au
atom 15.7114334099999997 37.8540137099999967 2.7998612600000001 Au
atom 19.1723477200000012 37.8545087600000016 2.4661489200000002 Au
atom 21.7173341700000009 37.8357458400000013 2.7248135599999999 Au
atom 24.3264520900000001 37.8503251500000033 2.7723176700000001 Au
atom 27.1622297599999989 37.9519084200000023 2.7339451900000000 Au
atom 2.0942721400000002 37.9806611799999985 2.7742953400000001 Au
atom 4.5666505199999996 37.8338797999999983 2.9834190000000000 Au
atom 8.8906430299999997 0.8351331800000000 2.7174461999999999 Au
atom 11.7098775499999999 0.8078688700000000 2.8672595699999999 Au
atom 14.4251718400000009 0.8636072200000000 2.6879060899999998 Au
atom 17.4194528200000001 0.8357481800000000 2.6231748600000002 Au
atom 20.2553010799999988 0.8283564700000000 2.7117356500000001 Au
atom 23.1079359400000008 0.8556804800000000 2.6355143399999998 Au
atom 25.8671242200000009 0.8333275100000000 2.6523684400000000 Au
atom 0.4108388600000000 0.9769444700000000 2.7402770699999999 Au
atom 3.2792353500000000 0.8417699600000000 2.8565769300000001 Au
atom 6.0375729400000004 0.8717376000000000 2.7403273700000002 Au
atom 7.4791430999999999 3.3211982400000002 2.6870197299999998 Au
atom 10.3212471800000003 3.2763674300000001 2.7125440200000002 Au
atom 13.1517562600000009 3.3368478300000000 2.6802914800000002 Au
atom 15.9639346000000000 3.2741641900000000 2.6713439299999999 Au
atom 18.7918321599999985 3.3564341299999998 2.7344929499999999 Au
atom 21.6075703099999998 3.3149666500000001 2.7063236000000002 Au
atom 24.4203697899999987 3.3493827199999999 2.6667030000000000 Au
atom 27.2394620299999985 3.3662530199999998 2.7838995000000000 Au
atom 1.8732833099999999 3.3826584600000000 2.6459845799999999 Au
atom 4.6647155099999997 3.3119084299999999 2.6810917000000001 Au
atom 8.9050365199999995 5.7719367500000001 2.6917225999999999 Au
atom 11.7100467100000003 5.7932934999999999 2.7036224899999999 Au
atom 14.5418433700000005 5.7659750100000000 2.7223780600000000 Au
atom 17.3699613699999986 5.8167492000000003 2.7205723499999999 Au
atom 20.2106773299999993 5.8248598800000000 2.7349084100000001 Au
atom 23.0046167900000000 5.7610504599999999 2.7151686700000002 Au
atom 25.8346881599999989 5.7929294599999999 2.7004305300000002 Au
atom 0.4786426100000000 5.8243537099999996 2.7726305400000002 Au
atom 3.3017711500000000 5.8168561900000002 2.7433528699999998 Au
atom 6.0754362999999998 5.7972834300000002 2.7056781999999999 Au
atom 7.5192154300000000 8.2149392100000007 2.7383338500000001 Au
atom 10.3214065999999995 8.2466402599999995 2.6041955899999998 Au
atom 13.1510178500000006 8.2467724699999998 2.6953324900000002 Au
atom 15.9811499300000008 8.2369493699999996 2.6112590299999998 Au
atom 18.7623644600000006 8.2584109199999993 2.6806698000000000 Au
atom 21.6102565999999996 8.2692740300000001 2.6385080200000002 Au
atom 24.4227653199999999 8.2654899700000009 2.6928811600000002 Au
atom 27.2477481799999985 8.3457625499999999 2.3732985400000000 Au
atom 1.8756812599999999 8.2720801099999992 2.6959560400000000 Au
atom 4.7101232199999998 8.2653868700000004 2.6234842899999999 Au
atom 8.8754420500000002 10.7343056499999996 2.6470898100000002 Au
atom 11.7510657199999997 10.7253855700000003 2.6613876099999998 Au
atom 14.5441331399999996 10.7438867800000004 2.6591638700000000 Au
atom 17.3901660400000004 10.6942750100000001 2.6252751399999998 Au
atom 20.1846738099999996 10.7391923400000007 2.6346713700000000 Au
atom 23.0038347399999985 10.7269664599999999 2.6427384900000002 Au
atom 25.8431360099999985 10.6548830500000005 2.6798734500000001 Au
atom 0.4511629100000000 10.6713945300000006 2.7871716700000002 Au
atom 3.2761594800000000 10.7257609600000006 2.6178495800000001 Au
atom 6.0879873900000003 10.7086705799999997 2.6417065800000001 Au
atom 7.4839716999999997 13.1832203400000001 5.6554552999999999 Cl
atom 7.4874405099999999 15.9763823800000004 8.5417514899999993 Cl
atom 7.4951200499999997 13.1697059500000009 8.3519194300000006 Na
atom 7.5002486099999999 16.0135301000000005 5.8000472199999997 Na
atom 7.4849273399999996 18.8258442099999996 5.7282254200000002 Cl
atom 7.4913232499999998 21.6208652100000016 8.5719314499999992 Cl
atom 7.4995523799999999 18.7878933199999985 8.3701100099999994 Na
atom 7.4854319000000000 21.6035334500000005 5.8375268699999996 Na
atom 7.5030053800000003 24.4207269499999988 5.7452379699999998 Cl
atom 7.4749475199999997 27.2609923000000016 8.5697938800000006 Cl
atom 7.5018001500000002 24.4532820800000010 8.4401828999999999 Na
atom 7.4901426799999999 27.2385538800000013 5.8438636900000001 Na
atom 7.4984439800000002 30.0813637400000005 5.7249253600000003 Cl
atom 7.4803052000000001 32.9186029199999979 8.5841874600000008 Cl
atom 7.5015407900000000 30.0650731299999983 8.3733095100000003 Na
atom 7.4716428400000003 32.8858143900000002 5.8379340700000002 Na
atom 7.4821311399999999 35.7515992399999973 5.7550613500000001 Cl
atom 7.5500880500000003 38.5481795299999987 8.6599973800000001 Cl
atom 7.5004524600000000 35.7334038799999973 8.3881943400000001 Na
atom 7.4902058000000000 38.5856168800000034 5.8577058299999996 Na
atom 7.6755971399999998 1.8940580700000000 5.6946156600000002 Cl
atom 7.4901794800000001 4.7227093599999996 8.5617980399999993 Cl
atom 7.5643797900000003 1.9095853599999999 8.3027216999999993 Na
atom 7.4807841699999997 4.7304668599999999 5.8146224399999999 Na
atom 7.5082704299999996 7.5219430200000001 5.7364956999999999 Cl
atom 7.5091721800000002 10.3551074599999993 8.5412178900000004 Cl
atom 7.5040945099999998 7.5248622200000002 8.3740020299999998 Na
atom 7.4899875500000004 10.3273635099999996 5.8138707900000002 Na
atom 10.3240520700000005 13.1795183199999997 5.8157795800000001 Na
atom 13.1372663799999998 13.1687369899999993 5.7166224100000003 Cl
atom 10.3424027299999999 15.9740556700000003 8.3566562100000006 Na
atom 13.1431641900000002 15.9865610999999994 8.5330445699999995 Cl
atom 13.1167994100000005 13.1824351600000007 8.3576580299999996 Na
atom 10.3163979000000001 13.1619725499999998 8.5566471499999999 Cl
atom 13.1862043599999996 16.0142622900000013 5.7867667799999998 Na
atom 10.3269248600000001 15.9987775100000000 5.6951879400000003 Cl
atom 10.3337806499999996 18.8429354700000005 5.8104179499999997 Na
atom 13.1506587100000001 18.8203063300000011 5.7155631400000004 Cl
atom 10.3249595700000008 21.6256197400000012 8.3538540799999996 Na
atom 13.1537847100000000 21.5968521299999985 8.5791703500000001 Cl
atom 13.1426248799999996 18.8168147700000006 8.3633848700000009 Na
atom 10.3322496699999995 18.8123077599999995 8.5757152699999999 Cl
atom 13.1370792800000000 21.6302143399999984 5.7921103499999997 Na
atom 10.3234186200000000 21.6257967700000009 5.7765653199999996 Cl
atom 10.3268625200000006 24.4599334299999995 5.8536407500000003 Na
atom 13.1301028199999994 24.4430292400000013 5.7388368200000004 Cl
atom 10.3274177500000004 27.2730863899999996 8.4162416100000002 Na
atom 13.1296174400000005 27.2359546500000000 8.5594398500000004 Cl
atom 13.1190355299999997 24.4076433900000005 8.3372591699999994 Na
atom 10.3189372299999995 24.4490807500000003 8.5696778699999996 Cl
atom 13.1324125899999995 27.2562337600000006 5.8445541399999996 Na
atom 10.3294864999999998 27.2601430399999991 5.7637409200000000 Cl
atom 10.3017895100000008 30.0508564000000007 5.8026919499999998 Na
atom 13.1448567199999999 30.0772780699999984 5.7207557800000002 Cl
atom 10.3350418299999998 32.9005117000000027 8.3917520000000003 Na
atom 13.1133232100000008 32.9021028100000024 8.5793041399999996 Cl
atom 13.1321399900000007 30.0665629599999988 8.3887833700000005 Na
atom 10.3153273900000002 30.0853281199999998 8.5490924699999997 Cl
atom 13.1137596100000007 32.8903737099999987 5.8500638000000000 Na
atom 10.3011007299999999 32.9171284900000032 5.6975716900000002 Cl
atom 10.3074591800000004 35.7481795599999970 5.8076483400000001 Na
atom 13.1214657599999995 35.7364134000000035 5.7262730399999997 Cl
atom 10.2370457300000002 38.5473722400000014 8.2938344700000002 Na
atom 13.2220696100000001 38.5324935699999997 8.5449005600000003 Cl
atom 13.1381996099999991 35.7312486599999986 8.3869771400000008 Na
atom 10.3087973599999998 35.7291239099999984 8.5421444199999996 Cl
atom 13.0845911899999994 38.5607630900000018 5.8514831200000001 Na
atom 10.2362005800000002 38.5593121200000013 5.7765882199999998 Cl
atom 10.4453784899999995 1.9011767100000001 5.6647364099999997 Na
atom 13.1697103400000000 1.9077805800000001 5.7423336599999999 Cl
atom 10.2542766899999993 4.7167057500000000 8.3661104300000009 Na
atom 13.1357307100000007 4.7202870700000004 8.5844802100000006 Cl
atom 13.2956588300000007 1.9148822100000000 8.5065071900000007 Na
atom 10.3289471699999993 1.8919398999999999 8.5776381100000005 Cl
atom 13.1681037399999994 4.7280209700000002 5.8365416999999997 Na
atom 10.3190598300000005 4.7052975100000003 5.7521182800000004 Cl
atom 10.3081456100000004 7.5060599600000000 5.8521623299999996 Na
atom 13.1400149800000001 7.5334851299999999 5.7434265199999999 Cl
atom 10.3073803300000009 10.3461020000000001 8.3349712900000004 Na
atom 13.1274732800000002 10.3616466400000000 8.5517881100000004 Cl
atom 13.0876814400000008 7.5211773300000004 8.3890924699999996 Na
atom 10.3088350299999991 7.5276005300000000 8.5894906599999992 Cl
atom 13.1188089800000007 10.3352567600000000 5.8035740699999998 Na
atom 10.3128893399999999 10.3391920499999994 5.7025351899999999 Cl
atom 15.9517706399999994 13.1598965900000007 5.8378135100000002 Na
atom 18.8020594900000013 13.1599998199999995 5.7311553000000002 Cl
atom 15.9585393799999995 15.9825587799999997 8.3792869799999998 Na
atom 18.7927838399999985 15.9840264199999993 8.5394155000000005 Cl
atom 18.7681176699999988 13.1634315199999996 8.3479183100000007 Na
atom 15.9535314300000000 13.1607923000000007 8.5404307300000006 Cl
atom 18.7810942800000014 16.0059031599999990 5.8017894099999996 Na
atom 15.9587165500000001 15.9978678799999994 5.7372249300000000 Cl
atom 15.9497642400000004 18.8479760100000000 5.8608309600000004 Na
atom 18.7848966299999987 18.7959936399999989 5.7106025799999998 Cl
atom 15.9523245300000003 21.6334373699999993 8.3938453400000004 Na
atom 18.7601898399999989 21.5883401699999986 8.5752624799999992 Cl
atom 18.8061552899999995 18.7865865700000008 8.3728315999999996 Na
atom 15.9696450700000003 18.8061339099999998 8.5616829499999998 Cl
atom 18.8221115099999992 21.6327210900000004 5.7772626100000002 Na
atom 15.9585483299999993 21.6276404900000010 5.7583190899999996 Cl
atom 15.9527866800000009 24.4437786899999985 5.7807848799999997 Na
atom 18.7759809000000004 24.4384012099999985 5.7467109199999999 Cl
atom 15.9301003199999993 27.2922118599999983 8.3769580300000008 Na
atom 18.7704577800000010 27.2177615400000015 8.5955355900000008 Cl
atom 18.7607949199999986 24.4489895699999984 8.3722343600000002 Na
atom 15.9514079500000001 24.4538003800000006 8.5494275900000005 Cl
atom 18.7859633399999986 27.2405748900000013 5.8243010699999997 Na
atom 15.9468230099999992 27.2512560499999985 5.7243745900000000 Cl
atom 15.9476400300000005 30.0965127499999987 5.7749304900000000 Na
atom 18.7777120500000017 30.0667238099999992 5.7537420099999999 Cl
atom 15.9245683400000004 32.9527974599999993 8.3474513800000008 Na
atom 18.7630768799999998 32.8968364600000029 8.5550400700000004 Cl
atom 18.7583166100000014 30.0759814500000005 8.3508177099999994 Na
atom 15.9375098699999995 30.0920578399999989 8.5580359500000007 Cl
atom 18.7798028099999996 32.8982690899999994 5.8353191400000002 Na
atom 15.9497595000000008 32.8953119900000033 5.7114163400000004 Cl
atom 15.9603496600000003 35.7582249399999981 5.8107497199999996 Na
atom 18.7861115100000013 35.7280130099999980 5.7354164100000000 Cl
atom 15.9601462099999996 38.5059245699999977 8.6366400999999993 Na
atom 18.6312674899999990 38.5378458200000011 8.6608472200000008 Cl
atom 18.7809851999999999 35.7251958800000011 8.3854216099999999 Na
atom 15.9291943699999994 35.7232016700000017 8.5699864699999999 Cl
atom 18.8049947899999985 38.5860340999999991 5.8568544100000004 Na
atom 15.8286117199999996 38.5582556000000025 5.6325391600000003 Cl