#===============================================================================
# Created using the Atomic Simulation Environment (ASE)

# Tue Dec 23 22:27:06 2025

#=======================================================
lattice_vector 28.1999999999999993 0.0000000000000000 0.0000000000000000 
lattice_vector 0.0000000000000000 39.4799999999999969 0.0000000000000000 
lattice_vector 0.0000000000000000 0.0000000000000000 62.3296083400000001 
atom 7.5597888800000002 14.8182861999999993 -0.2205895600000000 Au
atom 10.2904514700000007 14.8346625099999994 0.0135424300000000 Au
atom 13.2505578199999992 14.6903667599999999 -0.1495026300000000 Au
atom 16.1148868199999988 14.9264718700000003 -0.0594132700000000 Au
atom 18.6065510500000002 14.8225601900000008 -0.1032757300000000 Au
atom 21.7476436699999987 14.6057655099999995 -0.0874673000000000 Au
atom 24.4336952799999985 14.7884452599999996 -0.0986421000000000 Au
atom 27.2127289499999989 14.6744842700000007 0.0536175400000000 Au
atom 1.8570561299999999 14.8158746000000008 -0.0921158900000000 Au
atom 4.4975563100000002 14.7937286799999992 -0.1547253700000000 Au
atom 8.8118686600000000 17.2323621699999983 -0.3196428200000000 Au
atom 11.8377767899999995 17.1352380900000014 -0.4939186400000000 Au
atom 14.2706923400000001 17.2041805799999992 -0.3206292300000000 Au
atom 17.4950850699999982 17.3800225399999988 -0.2380424700000000 Au
atom 20.2584701500000008 17.4318531599999993 -0.4245605600000000 Au
atom 22.8904823800000017 17.3004027299999983 0.1547142900000000 Au
atom 26.0594124399999991 17.2292285099999987 0.0964145300000000 Au
atom 0.4690375900000000 17.1868088599999993 0.1546062500000000 Au
atom 3.2692840500000000 17.3444887500000000 0.0182353300000000 Au
atom 6.3216688300000001 17.1885714100000015 -0.0717889000000000 Au
atom 7.3741590500000003 19.8282633299999986 -0.4229938700000000 Au
atom 10.3836014100000007 19.7102683899999995 -0.2259835000000000 Au
atom 12.9111460000000005 19.8348693900000015 -0.2226795800000000 Au
atom 15.9342645100000002 19.7322226200000017 -0.1405145700000000 Au
atom 18.7309230699999993 19.6106846399999988 0.0084983500000000 Au
atom 21.6127105200000003 19.7333765800000016 -0.1833246000000000 Au
atom 24.4115948600000010 19.8917968999999992 0.2885862200000000 Au
atom 27.5211478800000009 19.6904103900000003 0.0387449700000000 Au
atom 1.9958075000000000 19.7227634999999992 -0.0387384600000000 Au
atom 4.9016615300000002 19.8387243200000007 0.0290034900000000 Au
atom 8.8938451000000001 22.2223829600000009 0.0135391600000000 Au
atom 11.8193192099999997 22.1200963900000005 -0.3254364500000000 Au
atom 14.7122088800000004 22.1332494000000004 -0.2807557800000000 Au
atom 17.5836241999999991 22.3925139100000017 0.0037135900000000 Au
atom 20.1965722399999983 22.1270384299999989 0.0133182500000000 Au
atom 22.8649130199999995 22.2032832099999986 0.1208921700000000 Au
atom 25.7115426499999984 22.2093744899999983 0.2243476200000000 Au
atom 0.3904689500000000 22.2152888600000011 -0.0111114300000000 Au
atom 3.1775747000000001 22.1948460200000000 -0.1588759900000000 Au
atom 6.0512187400000004 22.1429073599999988 0.3008134500000000 Au
atom 7.2960360800000004 24.7348933799999990 -0.1323836000000000 Au
atom 10.2136131599999995 24.7820092699999996 -0.3795147600000000 Au
atom 13.2461757900000006 24.5112603299999989 -0.1017791400000000 Au
atom 15.9876644300000006 24.6907188099999999 0.1063818100000000 Au
atom 18.7072854500000005 24.7782777000000003 0.0805091300000000 Au
atom 21.5661584899999994 24.6261331299999995 0.0584499800000000 Au
atom 24.3214407199999982 24.6076172600000014 0.0606650500000000 Au
atom 27.1874688099999986 24.6109182000000004 0.3311102500000000 Au
atom 1.8757463000000001 24.7196773000000007 0.2753008800000000 Au
atom 4.7764674600000001 24.8492705700000016 0.1034847700000000 Au
atom 8.8933448399999993 26.9609097300000009 -0.1134758200000000 Au
atom 11.7917111499999994 26.9563962100000012 -0.1953294000000000 Au
atom 14.5332432499999999 26.9927759999999992 0.0169798900000000 Au
atom 17.5236128200000003 27.2025357499999991 0.1141629300000000 Au
atom 20.0881017300000018 27.1859258100000005 -0.0038539000000000 Au
atom 23.1224885700000016 27.1181686299999996 0.1895981600000000 Au
atom 25.9250275899999991 27.1362056100000011 0.2710552200000000 Au
atom 0.4167979900000000 27.3033882800000001 0.3650800500000000 Au
atom 3.2829552999999998 27.1039121099999996 0.0640450900000000 Au
atom 6.1553961299999997 27.0115728100000005 0.2368064500000000 Au
atom 7.5170183399999999 29.6841335400000013 0.1634732400000000 Au
atom 10.4933226000000008 29.7191295199999992 -0.1756026300000000 Au
atom 13.0813925199999996 29.6397528200000018 -0.0505358800000000 Au
atom 15.9933600699999996 29.6421449700000004 0.0662012400000000 Au
atom 18.6949793600000014 29.6387386600000013 -0.1340784200000000 Au
atom 21.4585676200000002 29.4812148100000009 0.0504956500000000 Au
atom 24.4824179599999994 29.6706986899999983 -0.0533592500000000 Au
atom 27.3583253000000006 29.7747241299999992 0.1664188900000000 Au
atom 1.6751134299999999 29.6107560200000002 -0.1164843300000000 Au
atom 4.7776210900000002 29.5093539599999986 0.1909375400000000 Au
atom 8.5255893199999999 32.0382491299999970 0.1455875400000000 Au
atom 11.7032132699999991 32.2272333399999980 0.0756299100000000 Au
atom 14.5699831799999995 31.7660820599999987 0.0954342500000000 Au
atom 17.3666348500000005 32.0049538499999997 -0.0809000600000000 Au
atom 19.9743943100000010 32.0908252199999993 0.2312103800000000 Au
atom 22.9403879099999983 32.1000166600000014 0.0704177500000000 Au
atom 26.0284113300000008 32.0985294400000001 -0.0300498300000000 Au
atom 0.5396938300000000 32.0708254400000001 -0.0448102800000000 Au
atom 3.4994557300000002 32.0229316100000005 -0.1306999600000000 Au
atom 6.1545425199999997 32.0187104600000012 -0.0032950800000000 Au
atom 7.4461842799999998 34.5881506300000012 -0.1722681100000000 Au
atom 10.5320100700000001 34.3690824800000030 0.2927187500000000 Au
atom 13.1203424799999997 34.5466133799999966 0.1419212100000000 Au
atom 16.0241503999999999 34.5505674500000026 0.0315923200000000 Au
atom 18.9470373599999995 34.4394751700000015 -0.1426300800000000 Au
atom 21.7444100999999996 34.6492398399999999 -0.0089559100000000 Au
atom 24.5984491699999985 34.5796293200000022 0.1461831500000000 Au
atom 27.3432947999999989 34.6799069899999992 -0.1613717700000000 Au
atom 1.9720709500000000 34.7369932499999976 -0.2036731800000000 Au
atom 4.6382604000000001 34.4176874300000009 -0.1482149800000000 Au
atom 8.8950651100000009 36.9645752999999999 0.0870591100000000 Au
atom 11.5960183000000008 36.9972634599999992 -0.0395905300000000 Au
atom 14.8053279900000003 36.9881143100000003 -0.0748251600000000 Au
atom 17.5278352800000015 36.9659407600000023 -0.0083787700000000 Au
atom 20.2520434499999986 37.0781159900000006 0.1926205000000000 Au
atom 23.1419617700000018 36.9272478899999967 0.0353117000000000 Au
atom 25.8761918900000012 36.8369940500000013 0.1579454800000000 Au
atom 0.4425548700000000 37.0150526199999987 -0.0405000300000000 Au
atom 3.2398492999999999 37.0233901599999982 0.0634155400000000 Au
atom 6.3746291499999996 37.0696751500000019 0.1612584100000000 Au
atom 7.4376108199999997 -0.1117746600000000 0.2085256800000000 Au
atom 10.4365074999999994 -0.1067684800000000 -0.0310414400000000 Au
atom 13.1345169599999991 -0.1451771900000000 -0.0101141300000000 Au
atom 15.9108400000000003 -0.2794643600000000 0.2577694300000000 Au
atom 18.7699523399999997 -0.2643744000000000 -0.0818385000000000 Au
atom 21.6870732000000004 -0.0545000000000000 0.1007291700000000 Au
atom 24.4887363799999989 0.0623153300000000 0.1850157000000000 Au
atom 27.3365279200000018 -0.0217144700000000 0.0979001400000000 Au
atom 2.0237694799999999 -0.0282724500000000 -0.0058114300000000 Au
atom 4.9605369599999998 -0.0893490300000000 0.0496119500000000 Au
atom 8.8598998499999997 2.4561194600000000 -0.0127406600000000 Au
atom 11.8835821700000004 2.4423914299999998 0.1193885400000000 Au
atom 14.5338029599999992 2.4263010800000000 0.1926962300000000 Au
atom 17.4256170700000013 2.3882014400000000 0.1419236700000000 Au
atom 20.2919833999999994 2.4976454399999999 -0.1725248900000000 Au
atom 22.8415379499999993 2.4687869000000000 0.2119478400000000 Au
atom 25.7896171999999986 2.4927024200000001 0.2249427400000000 Au
atom 0.5387866600000000 2.4640830199999999 -0.0046455400000000 Au
atom 3.4470563900000002 2.6375808200000002 -0.0513777000000000 Au
atom 6.1030791400000002 2.4087976300000000 -0.2312867700000000 Au
atom 7.5047984999999997 4.8623192900000003 0.0903005300000000 Au
atom 10.3431881600000004 4.8088552800000004 -0.0022504600000000 Au
atom 13.4546498499999991 4.9536987899999998 -0.0905890000000000 Au
atom 15.9998623400000000 4.6299254400000001 0.2223312200000000 Au
atom 18.8288032600000008 4.8004771899999996 0.0918530900000000 Au
atom 21.6725947099999985 4.9604468900000001 -0.0911180700000000 Au
atom 24.4471243499999993 4.8661572099999999 0.2650844400000000 Au
atom 27.3131239100000016 4.8127758700000003 -0.0694211200000000 Au
atom 1.8539555500000000 4.9894951900000004 0.0876660200000000 Au
atom 4.6995351899999998 4.7167714099999998 0.0185546200000000 Au
atom 8.6514997099999995 7.4103249099999999 -0.1666843400000000 Au
atom 11.7060617600000008 7.4723884199999997 0.1517346900000000 Au
atom 14.6260103200000007 7.5497944900000000 -0.0691064900000000 Au
atom 17.2112854499999983 7.2455095099999998 0.0732510900000000 Au
atom 20.1302154900000012 7.4801107199999999 0.0704986000000000 Au
atom 22.9900839200000000 7.4863643599999996 -0.0707311700000000 Au
atom 25.8021620700000014 7.3551509199999998 0.1507337500000000 Au
atom 0.5040093300000000 7.3390182199999998 0.2343532700000000 Au
atom 3.2752708300000002 7.3224634599999998 0.1466315100000000 Au
atom 6.0944372400000004 7.3403215199999998 -0.0785611500000000 Au
atom 7.6251727300000001 9.8690716199999997 -0.0991111500000000 Au
atom 10.2199415400000007 9.9352966699999996 -0.0841389800000000 Au
atom 13.0576611099999997 9.8740756399999992 -0.0754537700000000 Au
atom 15.8159019599999997 9.8790732499999994 0.1312763900000000 Au
atom 18.7484828700000001 9.9331745900000001 -0.1707928200000000 Au
atom 21.6354276600000013 9.8661949100000008 0.0751804400000000 Au
atom 24.2840525900000017 9.7463529100000006 -0.1557765100000000 Au
atom 27.1918322000000003 9.6096551699999999 0.0569610200000000 Au
atom 1.8046495400000000 9.8728968899999998 -0.0723244000000000 Au
atom 4.7733995800000004 9.9487423600000007 -0.1237777200000000 Au
atom 8.9901856000000002 12.0131255299999999 -0.0721695300000000 Au
atom 11.7352869500000008 12.2453924399999998 0.2421433700000000 Au
atom 14.5285110900000003 12.3542079900000008 0.1306008600000000 Au
atom 17.5221601299999996 12.3488110800000008 -0.1352257500000000 Au
atom 20.3675775700000017 12.3709088499999993 0.0371257400000000 Au
atom 23.1331823800000009 12.3078713600000000 -0.0160691100000000 Au
atom 26.0101855700000009 12.2392384300000003 -0.2708521900000000 Au
atom 0.2277010000000000 12.2962878500000006 -0.0439610200000000 Au
atom 3.2552431799999999 12.4422668099999996 0.1407638000000000 Au
atom 6.0254514700000001 12.3153896199999995 -0.0638048500000000 Au
atom 7.4948915800000000 13.1532250000000008 2.3979077800000002 Au
atom 10.2369710800000000 13.1550867199999999 2.4808270399999999 Au
atom 13.0040011000000000 13.3935626600000006 2.5280307600000000 Au
atom 15.9877106799999993 13.3809580100000005 2.5860509800000000 Au
atom 18.8904229000000008 13.1695739199999995 2.6336742900000001 Au
atom 21.5500678100000016 13.3265730399999995 2.4789406899999999 Au
atom 24.2822597500000015 13.0651925400000000 2.7010638700000000 Au
atom 27.0968554700000013 13.0777451500000002 2.5417467800000000 Au
atom 1.9010880699999999 13.3148800200000004 2.5921159899999999 Au
atom 4.5072141099999996 13.1414374699999996 2.4193766999999999 Au
atom 9.0047230999999996 15.6642650400000001 2.2005862199999999 Au
atom 11.8016237700000008 15.8143924299999998 2.4971044000000000 Au
atom 14.5141669499999999 15.6899351399999993 2.4805080400000001 Au
atom 17.4423184599999992 15.5904694199999998 2.4385935800000000 Au
atom 20.3209766199999997 15.7177572199999993 2.4590191799999999 Au
atom 22.9362708499999997 15.7248146500000008 2.7115830100000000 Au
atom 25.8681524100000004 15.7232788800000005 2.6026160400000000 Au
atom 0.5162459200000000 15.5072281499999995 2.8411775100000001 Au
atom 3.3670832800000001 15.6038595099999995 2.7559906999999999 Au
atom 6.1383739200000003 15.7972488299999991 2.5096276700000000 Au
atom 7.4154322099999996 18.1569787600000012 2.2269269600000001 Au
atom 10.1889997500000007 18.0736083900000004 2.2159504000000001 Au
atom 13.1555317699999996 18.1395357799999992 2.3451400499999999 Au
atom 15.8112781899999995 18.2622769100000006 2.2067454999999998 Au
atom 18.6401277000000007 18.1284426699999983 2.4112379700000002 Au
atom 21.3728631799999995 18.2006318200000017 2.5980699899999999 Au
atom 24.2793485999999987 18.0562262099999984 2.8086349300000002 Au
atom 27.1784956700000002 18.1768101900000012 2.6192392099999999 Au
atom 1.8598971300000000 18.1828409099999995 2.8098776999999999 Au
atom 4.7094864100000002 18.0695529099999987 2.5176191000000001 Au
atom 8.9792559700000005 20.5266001399999993 2.1981066299999998 Au
atom 11.7947366200000001 20.6826970900000013 1.9840872899999999 Au
atom 14.5423816600000002 20.7547695999999995 2.3961171100000001 Au
atom 17.2944530500000013 20.6564248699999986 2.6203804700000002 Au
atom 20.0724461900000009 20.4964796800000002 2.5842200300000000 Au
atom 23.2005878099999983 20.3828755000000008 2.7774688200000002 Au
atom 25.8590392999999992 20.6346640299999997 2.7432858499999999 Au
atom 0.5588061200000000 20.6518146599999994 2.6198243600000000 Au
atom 3.3541189600000001 20.5489910699999996 2.7473824599999999 Au
atom 6.0617217600000002 20.5935914000000011 2.6406054399999999 Au
atom 7.4495906500000002 23.0862076400000014 2.4944368699999999 Au
atom 10.1651310200000005 23.1553514699999994 2.0857703700000001 Au
atom 13.1030708100000002 23.2161934400000014 2.4313894600000001 Au
atom 15.9445469899999992 23.1838272600000010 2.7684722499999999 Au
atom 18.7701219200000011 22.9380923199999991 2.5833379399999998 Au
atom 21.6126152299999994 23.1374208900000014 2.5032037699999998 Au
atom 24.4134543099999988 23.0216642699999987 2.7359419300000001 Au
atom 27.3557313499999992 23.0949294400000014 2.6738816999999999 Au
atom 1.8241272200000000 23.1881994899999988 2.7013981000000000 Au
atom 4.7715443200000003 23.2699309800000016 2.7428911299999998 Au
atom 8.7830659200000003 25.4953192900000012 2.4940649100000001 Au
atom 11.7485275700000003 25.3509884800000016 2.7141748699999999 Au
atom 14.7092801200000007 25.4979452199999983 2.6590326499999999 Au
atom 17.4050636400000016 25.5460429399999995 2.8925828600000001 Au
atom 20.2075486700000013 25.4873076300000001 2.6651371500000001 Au
atom 23.1090982899999986 25.4022098499999984 2.6416310500000000 Au
atom 25.8054817900000018 25.4514948600000004 2.7097832199999998 Au
atom 0.4655976300000000 25.6549562299999998 2.6234614399999998 Au
atom 3.1215278600000000 25.6963728899999992 2.5602599499999998 Au
atom 6.1558112300000003 25.6215913399999984 2.6329617299999999 Au
atom 7.4263528599999997 27.9599327700000018 2.6938541200000001 Au
atom 10.2693995999999999 27.8576027300000000 2.2742648399999998 Au
atom 13.1290776000000005 27.9094821400000015 2.6014126300000000 Au
atom 15.9391895600000009 28.0137807599999995 2.6578868500000001 Au
atom 18.6728966499999984 28.0480093299999993 2.4965591200000001 Au
atom 21.6939768499999985 28.1843488099999995 2.9964068699999999 Au
atom 24.5093724600000016 28.0602852899999995 2.6563121800000000 Au
atom 27.1974284900000001 28.1749332400000014 2.9085357900000002 Au
atom 1.6824804300000000 28.2194054899999998 2.6365697600000000 Au
atom 4.6270449400000002 28.1552731499999993 2.8431692200000001 Au
atom 9.0976823000000007 30.5448269699999990 2.4926775600000002 Au
atom 11.5478247399999994 30.5940678699999999 2.6893622900000000 Au
atom 14.4940920599999998 30.3650758100000004 2.7634028700000002 Au
atom 17.1398555799999990 30.6221591599999989 2.3663343600000002 Au
atom 20.1838112500000015 30.5249176800000015 2.5557980800000002 Au
atom 23.0101879999999994 30.3214518099999992 2.7283226400000000 Au
atom 25.7907333399999992 30.3078500800000015 2.6059376500000000 Au
atom 0.3193088100000000 30.5740947900000002 2.5081253700000001 Au
atom 3.2340956099999998 30.4286169599999994 2.5951173900000000 Au
atom 6.1109990400000003 30.2821896300000013 2.8812660100000000 Au
atom 7.3942306200000001 32.9638066899999984 2.5465499100000000 Au
atom 10.2660112699999999 32.9189732800000030 2.7618427200000002 Au
atom 13.0291299100000000 32.9788782400000002 2.6831530099999998 Au
atom 15.8361395799999993 32.9486386800000020 2.7262906400000002 Au
atom 18.7539319400000011 33.1036310300000025 2.5424302299999999 Au
atom 21.5664745400000015 32.7412750499999987 2.8852249599999999 Au
atom 24.1414747399999996 32.8867702300000033 2.5197464799999998 Au
atom 27.1872382600000009 32.9733146199999965 2.5700599199999998 Au
atom 1.6481640300000000 33.1202166400000024 2.5236737900000001 Au
atom 4.5221758799999998 33.0480093400000001 2.6311019899999999 Au
atom 8.8374355599999994 35.3465221700000001 2.7378754700000001 Au
atom 11.7043335899999992 35.4002597300000019 2.6320005700000002 Au
atom 14.3899881399999998 35.3456971100000032 2.6431049500000001 Au
atom 17.3607359000000017 35.4817991399999997 2.7665731999999998 Au
atom 20.3169774899999993 35.5264938500000014 2.6195426099999999 Au
atom 23.0450714000000012 35.2653327000000019 2.6829884599999998 Au
atom 25.8977082699999990 35.5018992500000010 2.7003077499999999 Au
atom 0.7356848200000000 35.2987163700000011 2.4951056899999999 Au
atom 3.2075029200000000 35.2537853700000028 2.5362502400000002 Au
atom 5.9168396699999999 35.4369258099999982 2.4705220400000001 Au
atom 7.4757910299999999 37.6161328900000029 2.6322676199999999 Au
atom 10.1942669200000005 37.6082633899999976 2.6343593400000000 Au
atom 13.2870995000000001 37.9457592500000018 2.5312603700000000 Au
atom 16.0186797200000015 37.8491574099999966 2.8546173600000002 Au
atom 18.8822419500000009 37.7447658800000028 2.5160537199999999 Au
atom 21.5024685499999997 37.9518114999999980 2.6653342699999998 Au
atom 24.3974284700000013 37.9696749100000019 2.7833329299999998 Au
atom 27.2103540399999986 37.8375756000000010 2.7976878799999998 Au
atom 1.8366655500000000 37.9921744800000027 2.6856874700000000 Au
atom 4.7765343199999997 37.9553109800000001 2.8427509199999998 Au
atom 8.7751954800000007 0.6528158700000000 2.6665957800000002 Au
atom 11.7873038200000000 0.8304991500000000 2.7774104899999998 Au
atom 14.4963635199999992 0.8043014400000000 2.8847819200000000 Au
atom 17.4527132300000005 0.7424558999999999 2.8459422800000000 Au
atom 20.1929926799999997 0.8748770200000000 2.7097941799999998 Au
atom 22.9526934300000001 0.7994645100000000 2.9539508400000001 Au
atom 25.7699846599999987 1.0382260200000000 2.8993656400000001 Au
atom 0.2724805100000000 0.5889624000000000 2.8875432700000001 Au
atom 3.2304895899999999 0.8790280000000000 2.6293394700000001 Au
atom 6.0509836899999998 0.7868030700000000 2.7866106799999999 Au
atom 7.5313662299999997 3.3370132699999999 2.5826251000000000 Au
atom 10.1978480999999999 3.2555788600000000 2.6091117499999998 Au
atom 13.1589926899999998 3.3937594600000001 2.6479478300000001 Au
atom 16.0765062100000016 3.0700960600000000 2.7194388799999998 Au
atom 18.7876240099999983 3.4533255500000002 2.5998260000000002 Au
atom 21.4959336699999994 3.2030795099999998 2.6025581600000001 Au
atom 24.3599070399999995 3.4977669300000001 2.9035339499999999 Au
atom 27.3432989999999982 3.4386924600000000 2.6432715999999998 Au
atom 1.9930414599999999 3.2890622000000000 2.5691903100000002 Au
atom 4.6706777800000001 3.3047318699999999 2.6503653100000002 Au
atom 9.0131858600000001 5.5393559600000000 2.4583176899999999 Au
atom 11.8396706399999996 5.7189269400000002 2.6807339200000002 Au
atom 14.6070992099999994 5.7353440000000004 2.6380107499999998 Au
atom 17.1540606199999992 5.6662102599999997 2.7778233299999999 Au
atom 20.1432327999999998 5.7667666799999999 2.8139270399999998 Au
atom 22.9978939300000000 5.7951044200000004 2.6103344399999999 Au
atom 25.7803952999999986 6.0009874999999999 2.8493415799999999 Au
atom 0.6221274600000000 5.7460296000000000 2.7879183500000000 Au
atom 3.3845921099999998 5.7465301899999996 2.9072110300000000 Au
atom 6.1252911100000000 5.8447334900000003 2.5931044000000001 Au
atom 7.4442613299999998 8.2312554900000006 2.6311214299999999 Au
atom 10.2255837100000004 8.1438888800000004 2.4988294899999999 Au
atom 13.0605074999999999 8.3658915999999994 2.4906476500000001 Au
atom 16.2161596900000013 8.3421742600000002 2.7635227900000001 Au
atom 18.7374534100000005 8.5080364399999997 2.6309551299999998 Au
atom 21.5553856999999986 8.3858518899999996 2.7438767799999999 Au
atom 24.4635362699999988 8.3060240299999997 2.7861715000000000 Au
atom 27.3939972000000012 8.2775261699999998 2.5139918500000000 Au
atom 1.9473307900000001 8.2988727499999992 2.9965007099999998 Au
atom 4.7896452399999996 8.3644364200000005 2.6319978300000000 Au
atom 9.0058402300000004 10.6799915500000004 2.5606999899999998 Au
atom 11.7848019500000003 10.6722633800000004 2.6442470800000000 Au
atom 14.5224378299999994 10.7656815399999992 2.6674706000000001 Au
atom 17.4161353400000003 10.8610706199999996 2.7338482200000001 Au
atom 20.1330643599999988 10.7231310799999999 2.7100951400000000 Au
atom 23.1503133199999986 10.7998093500000003 2.6413347500000000 Au
atom 25.6360503299999998 10.6761594599999992 2.6116388499999998 Au
atom 0.4210522200000000 10.5589330100000005 2.6303257400000000 Au
atom 3.4192115699999999 10.7089250699999994 2.5436835800000002 Au
atom 6.2606037099999998 10.7705886500000005 2.5995971700000000 Au
atom 7.6006383700000004 13.1396478499999994 5.4803854000000003 Cl
atom 7.3794948299999996 15.9412940899999995 8.2060484799999998 Cl
atom 7.5623927100000001 13.1350173600000009 8.5090611599999999 Na
atom 7.5711948299999996 15.9958789199999991 5.8085839899999998 Na
atom 7.1947878000000003 18.7734129699999990 5.9929987799999997 Cl
atom 7.6119910099999997 21.7925044999999997 8.7514115500000003 Cl
atom 7.5833693000000002 18.9169993500000011 8.4886709400000004 Na
atom 7.6363815700000002 21.5522471899999992 5.9642603500000000 Na
atom 7.6730656300000000 24.6946809999999992 5.7519731800000002 Cl
atom 7.5250961299999997 27.3853246900000009 8.7696634600000003 Cl
atom 7.5298876699999999 24.4161135099999989 8.6343531299999992 Na
atom 7.7028380299999997 27.3967956699999995 6.2588589900000002 Na
atom 7.6039162500000002 30.2967605999999989 5.6712135799999999 Cl
atom 7.7028839500000004 32.9903075799999996 8.4350644100000007 Cl
atom 7.7479702200000000 30.1355328200000017 8.1957131000000008 Na
atom 7.5438957699999998 33.0298326899999992 5.6542513400000001 Na
atom 7.5884147999999998 35.7618605299999999 5.6042387500000004 Cl
atom 7.4510514900000002 38.7645484900000028 8.7175451099999997 Cl
atom 7.7712829399999999 35.8401501499999995 8.2744914299999994 Na
atom 7.3997251700000000 38.5800092699999979 5.7801656599999998 Na
atom 7.5632407900000000 2.1620825300000002 5.5833777600000003 Cl
atom 7.5615833600000002 4.8045244100000000 8.4389328399999997 Cl
atom 7.4202675500000002 2.0094246899999999 8.5034546700000000 Na
atom 7.5015280799999999 5.1432934499999998 5.7346847600000004 Na
atom 7.3398642000000001 7.7750395399999999 5.7157687299999997 Cl
atom 7.6078954699999999 10.3431852699999993 8.5754536100000003 Cl
atom 7.5493107500000001 7.5348099199999998 8.5486572699999996 Na
atom 7.6878122600000003 10.3934763900000000 5.9208338800000000 Na
atom 10.4291109300000002 13.2969755900000006 5.9773907900000003 Na
atom 13.1823416000000009 13.2416926099999994 5.6165836699999998 Cl
atom 10.2739379000000000 15.9884071599999995 8.6859800299999996 Na
atom 12.8599985199999995 16.1275260399999993 8.6496121299999995 Cl
atom 13.0834631800000007 13.3050172399999997 8.4511616699999994 Na
atom 10.1402032700000007 13.3054067899999993 8.6990617199999996 Cl
atom 13.3923661599999999 16.0257385300000017 5.8820462999999998 Na
atom 10.3502650000000003 16.0319201999999983 5.6883776599999996 Cl
atom 10.4976011699999994 18.8291513700000017 5.5956224700000003 Na
atom 13.0921273599999992 18.9170673200000010 5.8363793299999998 Cl
atom 10.5501800400000008 21.7129024699999995 8.5142153500000006 Na
atom 13.1815541899999999 21.5314548499999994 8.8965409100000006 Cl
atom 12.8315709600000005 18.8008983100000009 8.5950186500000001 Na
atom 10.3836776400000002 19.0476695000000014 8.2768581900000004 Cl
atom 13.2677284499999999 21.8597895999999992 5.7679951100000002 Na
atom 10.4375562899999998 21.7240344100000016 5.8947439299999997 Cl
atom 10.1973814399999991 24.5480821700000007 5.9143030999999997 Na
atom 13.3858285600000002 24.5577123700000008 5.5225935699999997 Cl
atom 10.2245072199999996 27.4102053800000007 8.5798218100000003 Na
atom 12.9721735999999996 27.4065634699999983 8.5619424199999994 Cl
atom 13.2823954400000002 24.4447320200000000 8.7095598899999995 Na
atom 10.3846586100000007 24.6383674299999988 8.5700222999999998 Cl
atom 13.2900458799999992 27.2462394699999990 5.9519455700000004 Na
atom 10.5038677299999996 27.0544531500000005 5.8822875000000003 Cl
atom 10.3986908699999994 29.9963865399999996 5.7604841100000002 Na
atom 13.1854107000000003 29.9652172499999985 5.7496998399999999 Cl
atom 10.4670042999999993 32.9073173700000012 8.3239594199999996 Na
atom 13.1286729300000005 32.6903866899999969 8.5122062799999991 Cl
atom 13.0188220300000008 30.3048710200000002 8.5871308000000006 Na
atom 10.2768633000000005 30.2449748499999984 8.4894641100000001 Cl
atom 13.3090713699999998 32.9284885399999965 5.7566318100000000 Na
atom 10.4657158599999995 33.0352041299999968 5.5688614100000002 Cl
atom 10.4562448700000008 35.8777371500000015 5.6874226900000000 Na
atom 13.3336263299999995 35.7085778200000021 5.7701926500000003 Cl
atom 10.3894322900000002 38.5194868999999969 8.5139479300000005 Na
atom 13.0381199900000002 38.6925765800000008 8.7145193699999997 Cl
atom 13.1408510399999994 35.7864145400000027 8.4196171500000005 Na
atom 10.2788639300000000 35.6345982899999996 8.5495676100000004 Cl
atom 12.9980282099999993 38.6376997500000030 5.8930839900000000 Na
atom 10.4297556300000007 38.6505130399999999 5.8345464299999996 Cl
atom 10.1587888300000007 2.1851635400000000 5.6790729300000002 Na
atom 13.1797196999999997 1.9265943400000001 5.9603117599999997 Cl
atom 10.2172160499999993 4.5479714600000003 8.6715604600000002 Na
atom 13.0756023199999998 4.7319363499999998 8.7472248100000005 Cl
atom 13.1202408100000003 1.7307002000000000 8.5447272499999993 Na
atom 10.2833201100000000 1.9189711800000000 8.6148369900000006 Cl
atom 13.2950202700000002 4.8931773500000002 5.9496222200000002 Na
atom 10.1112387500000001 4.9274196100000003 5.7504786899999996 Cl
atom 10.4354254399999995 7.3693582099999997 5.9240311099999996 Na
atom 13.2110972699999998 7.5405033899999996 5.8131383100000003 Cl
atom 10.2778367900000003 10.3804948699999997 8.6127618500000001 Na
atom 12.9808004399999994 10.6941213499999996 8.5463997799999998 Cl
atom 13.3737003100000003 7.8041099799999998 8.5393076299999997 Na
atom 10.5423770900000005 7.3280258500000004 8.7157098499999996 Cl
atom 13.1833934199999998 10.2961527600000000 5.8528874499999999 Na
atom 10.4219935300000000 10.4673131999999995 5.9050416600000002 Cl
atom 15.8990514800000007 13.4114755500000005 6.0002723099999997 Na
atom 18.8544748400000017 13.0708134499999993 5.6776042999999996 Cl
atom 16.0035054599999995 15.8884451500000008 8.4183102499999993 Na
atom 18.8813408400000000 16.0565188799999987 8.2986127599999993 Cl
atom 18.6172468799999997 13.0004473699999998 8.3195777999999994 Na
atom 16.0651317999999996 13.2678868300000001 8.7527426199999994 Cl
atom 18.5699925199999996 16.2279043799999982 5.7822228000000004 Na
atom 15.8955690599999997 15.8659661799999991 5.9161050700000004 Cl
atom 15.7361179500000006 18.8286608000000015 6.0211663399999997 Na
atom 18.9170563700000010 18.8560482500000006 5.8750411900000001 Cl
atom 15.7809948599999998 21.6327700299999997 8.5951051799999991 Na
atom 18.6616541699999985 21.6621519499999984 8.7733408500000003 Cl
atom 18.8512077900000001 18.9140507000000007 8.6030937200000004 Na
atom 15.9975160899999995 18.8232869899999997 8.6265595499999996 Cl
atom 18.7289192600000014 21.9234574100000010 6.2972797800000002 Na
atom 15.8890713699999999 22.1079669599999988 5.6439382299999998 Cl
atom 15.9757508399999999 24.5560593300000001 5.7024666899999996 Na
atom 19.0260226500000016 24.6518180200000003 5.7473732200000001 Cl
atom 16.0920049600000006 27.2221810700000013 8.7409372500000000 Na
atom 18.6823123100000004 27.3507609500000015 8.6012502899999994 Cl
atom 18.9326792099999999 24.5948235199999985 8.5875522199999992 Na
atom 15.9487604100000002 24.4214403799999999 8.8454706000000005 Cl
atom 18.8009497500000009 27.3318366799999986 5.9890925700000004 Na
atom 15.9926557500000008 27.2088531700000011 5.8812134699999996 Cl
atom 15.9191511800000001 29.9417944799999987 5.9727682099999999 Na
atom 18.7194944599999999 30.0402565499999987 5.6493836999999996 Cl
atom 16.1933158500000012 32.9327182500000006 8.2517544699999998 Na
atom 18.9882399399999997 32.9526939699999986 8.6003670499999991 Cl
atom 18.7596101299999987 30.2607108199999999 8.4031915399999999 Na
atom 15.9433694300000006 30.2070250800000011 8.7079452600000007 Cl
atom 18.6613270399999998 33.0558474099999984 5.8848600199999996 Na
atom 15.8841408600000005 32.9201208300000019 5.7872522200000001 Cl
atom 15.9995571499999993 35.5242032100000031 5.8720007599999997 Na
atom 18.6748203199999985 35.8379084199999980 5.7426088200000001 Cl
atom 15.9573841200000004 38.4282320100000021 8.5004779700000004 Na
atom 18.7878176900000007 38.4362685600000020 8.6240024500000008 Cl
atom 18.7373283400000012 35.6007809800000032 8.5097453099999996 Na
atom 15.9922147199999998 35.5975389099999973 8.6368702299999995 Cl
atom 18.5880411099999989 38.5457238300000000 6.0579745599999999 Na