#===============================================================================
# Created using the Atomic Simulation Environment (ASE)

# Sat Nov  1 21:48:28 2025

#=======================================================
lattice_vector 28.1999999999999993 0.0000000000000000 0.0000000000000000 
lattice_vector 0.0000000000000000 39.4799999999999969 0.0000000000000000 
lattice_vector 0.0000000000000000 0.0000000000000000 62.3296083400000001 
atom 7.4641486199999996 14.8889146300000004 0.1452009500000000 Au
atom 10.3612062599999994 14.7262477900000004 0.0480536000000000 Au
atom 13.2151663199999998 14.8458277200000008 -0.0077808800000000 Au
atom 16.0356661600000017 14.8669239700000002 -0.3234332600000000 Au
atom 18.8510847599999991 14.6266069999999999 0.1233927100000000 Au
atom 21.5899399699999996 14.9446805400000002 -0.0192821800000000 Au
atom 24.3379427399999990 14.8033576199999999 0.1647296900000000 Au
atom 27.2465354899999994 14.8151025199999999 0.0638127500000000 Au
atom 1.8870390300000000 14.8175845899999992 0.1926856200000000 Au
atom 4.8403726400000000 14.8877558499999996 -0.0445470300000000 Au
atom 9.0616844099999998 17.4081329099999991 0.1062773700000000 Au
atom 11.6159692200000002 17.3040044900000005 -0.0412560300000000 Au
atom 14.5365822300000005 17.3133641199999992 0.0403903200000000 Au
atom 17.3311256100000008 17.4166094499999993 -0.1361917900000000 Au
atom 20.2661494500000003 17.1033341900000018 0.0758362800000000 Au
atom 22.9293818800000011 17.3775383400000010 0.0485776200000000 Au
atom 25.8583224700000009 17.1879864299999987 -0.0229345300000000 Au
atom 0.4772336000000000 17.3489564700000010 0.3351389600000000 Au
atom 3.2952816399999998 17.3883808199999983 -0.1136919500000000 Au
atom 5.9637966999999996 17.2546366700000000 -0.0794696500000000 Au
atom 7.6537093000000000 19.7191400100000003 0.2485715200000000 Au
atom 10.4737061800000006 19.7684425600000004 0.1056978400000000 Au
atom 13.1405429700000003 19.8139770499999983 0.1472249800000000 Au
atom 15.9522257799999991 19.8140714899999999 0.2223214700000000 Au
atom 18.8570201200000014 19.7914264099999997 0.1157701200000000 Au
atom 21.5048060200000002 19.6604343499999992 0.0909863200000000 Au
atom 24.2889075500000011 19.6828008200000006 0.2393094100000000 Au
atom 27.4363591699999994 19.5972996799999990 0.2276099300000000 Au
atom 1.8442119500000000 19.7585879099999993 0.1030547800000000 Au
atom 4.7928460900000003 19.6036801800000013 0.1117060100000000 Au
atom 8.8196043700000004 22.2803436899999987 0.2404536300000000 Au
atom 11.7356851199999994 22.2607874000000017 0.1195740700000000 Au
atom 14.4745925300000007 22.3737369199999989 0.2469031900000000 Au
atom 17.4459221199999988 22.2305968400000005 0.0326983700000000 Au
atom 20.1321782599999999 22.3937108900000013 0.2231566000000000 Au
atom 23.0095952699999984 22.0651961999999990 -0.1970150500000000 Au
atom 25.7267566499999987 22.2093010600000014 0.2282240600000000 Au
atom 0.3899352700000000 22.2739321900000000 0.2201294300000000 Au
atom 3.2872776199999998 22.2085301400000006 -0.0399128800000000 Au
atom 5.9754660800000003 22.2652152200000018 0.0698213800000000 Au
atom 7.5170644500000003 24.6882859799999999 0.1644980800000000 Au
atom 10.2469076099999992 24.6572233300000008 0.2909930600000000 Au
atom 13.0652965400000003 24.6650741599999996 0.0314455900000000 Au
atom 16.0101710399999995 24.7929135999999986 0.0481823100000000 Au
atom 18.7417918700000001 24.6654509399999995 0.1457775300000000 Au
atom 21.5323439800000003 24.6525284800000009 -0.1351450700000000 Au
atom 24.2863873000000012 24.6817324300000003 0.1869859600000000 Au
atom 27.2750357500000007 24.5797072900000018 -0.0357088800000000 Au
atom 1.8823853399999999 24.5272726500000005 0.2055321700000000 Au
atom 4.6918609499999997 24.5293368200000010 0.0090932900000000 Au
atom 8.8444285399999991 27.0753100199999999 -0.0804219400000000 Au
atom 11.6454723799999993 27.0856596399999994 -0.0030450400000000 Au
atom 14.6704785700000002 27.1641089099999995 -0.0311573300000000 Au
atom 17.3396185699999990 27.0657058200000016 0.0382852900000000 Au
atom 20.2847551400000015 27.1780670899999990 0.2974312400000000 Au
atom 23.0506745899999999 27.0615319499999991 0.1497501700000000 Au
atom 25.9450770300000002 27.2615869400000008 -0.0406106400000000 Au
atom 0.4376008200000000 27.2660677400000004 -0.1005236600000000 Au
atom 3.2269445399999999 27.0094784399999988 -0.0250595300000000 Au
atom 5.9922091399999999 27.2781477800000012 0.0453369000000000 Au
atom 7.4181913699999997 29.5213755700000000 0.0267047500000000 Au
atom 10.3249136000000004 29.7531834900000014 0.1155662600000000 Au
atom 13.0015831199999994 29.5628326900000005 0.1209554700000000 Au
atom 15.9042806900000002 29.7921877600000009 -0.0422016200000000 Au
atom 18.8418207899999999 29.5394002399999991 -0.0364895100000000 Au
atom 21.7161280599999991 29.6057005599999989 0.1479992000000000 Au
atom 24.4715233000000012 29.7005030499999982 -0.0754900000000000 Au
atom 27.2235254900000001 29.6606632400000017 -0.0198836500000000 Au
atom 2.0273380200000002 29.5470727099999984 -0.0184698100000000 Au
atom 4.5852242199999997 29.4042656700000009 0.2432672200000000 Au
atom 8.8969775799999997 32.0440536999999992 -0.0046083200000000 Au
atom 11.8746927200000005 31.9927595999999994 0.0849587600000000 Au
atom 14.5153198999999997 32.0293574900000024 0.0748044300000000 Au
atom 17.4716331800000013 32.0377614399999970 -0.0582412800000000 Au
atom 20.0805364299999987 32.1989217300000021 -0.0392876700000000 Au
atom 22.8276688199999995 32.2296180800000016 -0.1192454000000000 Au
atom 25.9156927699999997 32.1066443899999996 0.0456407000000000 Au
atom 0.3931988700000000 32.1252985200000012 -0.1512509800000000 Au
atom 3.3364056600000001 32.2441621400000002 0.1029864000000000 Au
atom 5.8905760899999997 31.9904436499999996 -0.0038958300000000 Au
atom 7.5528986700000003 34.5557777200000018 -0.0604675600000000 Au
atom 10.3857474900000000 34.6753374399999998 0.0340488200000000 Au
atom 13.2176093100000003 34.3083651500000002 -0.1030358900000000 Au
atom 15.9339279600000001 34.5097878300000005 0.0928184300000000 Au
atom 18.8859324400000013 34.6169701700000019 -0.0704786300000000 Au
atom 21.4541092599999992 34.6145312100000027 -0.1244059100000000 Au
atom 24.4894924100000004 34.5475011199999997 -0.1267153800000000 Au
atom 27.2746262500000007 34.5584638099999992 0.0547766200000000 Au
atom 1.8559600000000001 34.6082836799999995 0.0813628000000000 Au
atom 4.7356413399999999 34.6603916700000028 0.0519822000000000 Au
atom 9.0789641999999997 37.0879304500000018 -0.0142610400000000 Au
atom 11.6233486399999997 37.0508936000000020 -0.0897909400000000 Au
atom 14.4601471000000004 37.0544607400000032 -0.0194005100000000 Au
atom 17.2798970199999999 37.0268348500000002 0.0492444000000000 Au
atom 20.1765109000000002 36.9923904300000004 0.1270296700000000 Au
atom 23.0471005799999986 37.0075315599999968 0.2883302000000000 Au
atom 25.8569481500000009 37.1433631399999982 -0.0146418600000000 Au
atom 0.3156923000000000 36.9507423499999987 0.0142810200000000 Au
atom 3.2279130100000000 37.1640557200000003 0.0279640200000000 Au
atom 6.1390415000000003 37.0255269399999989 -0.0027766300000000 Au
atom 7.5086336400000002 0.1951030300000000 -0.0135608600000000 Au
atom 10.4024384300000001 -0.0830308700000000 0.0656313400000000 Au
atom 13.1454141599999996 0.0562996900000000 0.2113378100000000 Au
atom 15.9605362000000000 -0.0654473600000000 0.1765132700000000 Au
atom 18.7483249200000017 0.0470570200000000 0.0513503800000000 Au
atom 21.4116200799999987 0.0698689200000000 0.1694840000000000 Au
atom 24.5172560399999995 0.2033494900000000 -0.0564922500000000 Au
atom 27.2968634200000011 0.0600687600000000 0.0694439000000000 Au
atom 1.9048388900000000 0.0736945300000000 -0.0592359900000000 Au
atom 4.7102079200000002 -0.0720025600000000 0.0459761900000000 Au
atom 8.7380451400000005 2.4363534499999999 0.0686107300000000 Au
atom 11.7899325899999994 2.4827979800000000 -0.0652396200000000 Au
atom 14.6416503700000007 2.4716930499999998 0.1371921600000000 Au
atom 17.4717557200000009 2.6250550200000000 0.2839564900000000 Au
atom 20.1878557900000004 2.5143095700000000 -0.0204522300000000 Au
atom 23.1208236599999992 2.3641382700000002 -0.0929202600000000 Au
atom 25.9184522699999995 2.4310726400000000 0.1653731600000000 Au
atom 0.4947693300000000 2.3196745900000000 -0.1842746400000000 Au
atom 3.1660385400000002 2.4849139000000000 -0.0344453400000000 Au
atom 6.0296120000000002 2.3369371999999999 0.1062694700000000 Au
atom 7.5149534899999999 4.9016731000000000 0.2447852900000000 Au
atom 10.4751317700000008 5.0091516399999998 -0.0816161000000000 Au
atom 13.0359772700000001 4.9903995099999996 0.0426306300000000 Au
atom 15.9163658500000000 5.0427291600000004 0.1498005800000000 Au
atom 18.9167032800000001 4.9064838100000001 0.2418029500000000 Au
atom 21.5499528699999985 5.1026191100000000 0.1082203700000000 Au
atom 24.3388914199999995 4.7865209499999999 0.0734590800000000 Au
atom 27.2186574700000001 5.0383664000000001 0.0855797500000000 Au
atom 1.8220443799999999 5.0577123300000002 0.0805371400000000 Au
atom 4.6272577000000004 5.0100120300000004 0.0471890100000000 Au
atom 8.9795979300000006 7.3533980699999999 0.0445932100000000 Au
atom 11.7531304599999995 7.3748814100000004 0.0680343700000000 Au
atom 14.6351785200000002 7.4537873499999998 0.1192557000000000 Au
atom 17.3138658700000008 7.4975668500000001 0.1379649700000000 Au
atom 20.2933516400000009 7.3404057500000004 0.0526031400000000 Au
atom 23.0800618899999996 7.3512946399999999 0.0466407300000000 Au
atom 26.0248652400000005 7.6078642500000004 0.1912526000000000 Au
atom 0.5502436100000000 7.3100013600000002 0.1170059500000000 Au
atom 3.2366089699999998 7.3071791099999999 0.0129699700000000 Au
atom 6.1090462600000004 7.3577590400000004 0.0092726700000000 Au
atom 7.5851264599999997 9.8931421099999994 0.0803000100000000 Au
atom 10.3361371200000001 9.8162505699999993 -0.1273554300000000 Au
atom 13.1786506499999998 9.8273010299999992 -0.1337802800000000 Au
atom 15.9255162000000006 9.7745972800000001 0.0859617400000000 Au
atom 18.8385191499999998 9.9272261099999994 0.0028837100000000 Au
atom 21.6778106999999984 9.9164592799999998 -0.0264401600000000 Au
atom 24.3799325099999997 9.9669603799999997 0.0180090800000000 Au
atom 27.2738273500000012 9.9878475200000008 0.2003670600000000 Au
atom 2.0320020400000001 9.9681913000000009 -0.0927127100000000 Au
atom 4.6160886699999999 9.8296156999999997 0.1699207900000000 Au
atom 8.8420576499999992 12.3874533800000002 0.0187587000000000 Au
atom 11.6450255899999995 12.3864331599999993 0.0528423300000000 Au
atom 14.4268426999999999 12.4708093600000005 -0.1911740000000000 Au
atom 17.3197147899999990 12.4458606100000004 -0.1000764500000000 Au
atom 20.2276571099999991 12.2188442199999994 0.0094039200000000 Au
atom 22.7862178700000015 12.2644045399999992 -0.1363822600000000 Au
atom 25.7920863999999987 12.3077219299999996 -0.0522066200000000 Au
atom 0.5371426500000001 12.2602271100000006 0.0756903900000000 Au
atom 3.4348445399999998 12.3631075100000007 -0.0781543400000000 Au
atom 5.9729949500000004 12.2772513100000005 0.0774329900000000 Au
atom 7.5201953799999997 13.2743482900000007 2.7323655699999998 Au
atom 10.3396854499999993 13.2320383699999997 2.7356393500000000 Au
atom 13.2860367200000002 13.1518975900000008 2.7623247499999999 Au
atom 16.0242605000000005 13.2992279399999997 2.6255062599999999 Au
atom 18.6876242800000014 13.0199829900000008 2.7258979399999999 Au
atom 21.7962526200000006 13.1071321699999999 2.5419605999999999 Au
atom 24.3220817599999997 13.2983021600000004 2.4368752100000002 Au
atom 27.0191946600000001 13.2212973700000003 2.5467298000000000 Au
atom 1.8179298699999999 13.1501278100000007 2.7133417000000000 Au
atom 4.6445079700000003 13.0738047500000008 2.4543932599999998 Au
atom 9.0049733100000005 15.5900793300000000 2.4968907200000001 Au
atom 11.7439024399999994 15.6938869099999998 2.7686559399999999 Au
atom 14.5779367900000008 15.5785282299999999 2.6819655199999999 Au
atom 17.4464573899999991 15.6405531999999994 2.6350823000000001 Au
atom 20.2222968099999996 15.6371183699999996 2.6666144400000000 Au
atom 22.9112562500000010 15.5287437300000004 2.5619987399999999 Au
atom 25.9015814000000013 15.6691789700000008 2.7488470399999998 Au
atom 0.4348286500000000 15.5279256700000001 2.7583696000000000 Au
atom 3.2748211600000001 15.7705292600000000 2.7007248399999999 Au
atom 6.3130537000000002 15.6196573099999991 2.7282952900000002 Au
atom 7.5948669500000001 18.0399613300000006 2.6759171600000000 Au
atom 10.1796481199999995 17.9594414299999983 2.6143111800000001 Au
atom 13.2246568700000005 18.1597379500000002 2.7164019700000002 Au
atom 16.0514136500000006 18.0560468699999994 2.5705731500000000 Au
atom 18.8582349899999997 18.1392081900000015 2.6667408500000001 Au
atom 21.7374257399999991 17.9852517100000000 2.5558647300000001 Au
atom 24.3971628000000003 18.1775343800000009 2.6970316300000001 Au
atom 27.1190292200000016 18.1659247099999988 2.7224892800000000 Au
atom 1.9398666400000000 18.1576160400000006 2.5112363400000000 Au
atom 4.5958604100000002 18.1621235799999994 2.6074293100000001 Au
atom 8.9695982099999991 20.4504561000000002 2.7075992300000000 Au
atom 11.5948911100000007 20.3819681899999985 2.7354702000000000 Au
atom 14.6409328999999993 20.6021054899999996 2.6983339300000000 Au
atom 17.2172684300000007 20.6780571199999983 2.7004121799999998 Au
atom 20.3918002600000001 20.6716197299999997 2.5087334000000001 Au
atom 23.0888127999999995 20.4376763299999986 2.6402037500000000 Au
atom 25.8116145199999991 20.5678712300000015 2.7575997800000001 Au
atom 0.3510430400000000 20.4620361399999986 2.7811941800000000 Au
atom 3.2754100199999998 20.5945646199999999 2.5016630399999999 Au
atom 6.0766229000000003 20.4875717299999991 2.6272513499999999 Au
atom 7.5980562599999999 22.9291365300000010 2.5771975899999999 Au
atom 10.2931310800000002 23.1066512499999988 2.5935147000000001 Au
atom 13.2695711900000006 23.1834632800000016 2.5887227300000002 Au
atom 15.9399942899999996 22.9842413999999984 2.5075019300000001 Au
atom 18.8150055099999989 23.1110899200000013 2.8805239000000000 Au
atom 21.5151894900000009 23.1953772899999997 2.8191987699999999 Au
atom 24.4448891199999991 23.0985262099999993 2.7746958099999999 Au
atom 27.4417844600000009 23.1100336099999986 2.6828648600000000 Au
atom 1.7789738600000000 23.0698066100000005 2.7928377499999999 Au
atom 4.7100418800000003 22.9842338700000006 2.6996551700000002 Au
atom 8.9041805299999996 25.5546244199999997 2.5509254499999998 Au
atom 11.7887775300000008 25.5876416700000000 2.7590254100000000 Au
atom 14.5564581999999998 25.3472366600000001 2.7106921900000001 Au
atom 17.4790354699999995 25.4423341100000009 2.5149599199999999 Au
atom 20.0419255900000017 25.5596414000000003 2.7541918399999998 Au
atom 23.1022761199999991 25.5228111200000001 2.5680336300000000 Au
atom 25.7538034899999992 25.6098662700000013 2.7330271200000000 Au
atom 0.5191439000000000 25.5712180999999994 2.6987336399999999 Au
atom 3.2579999800000001 25.7136450600000011 2.7613637199999999 Au
atom 6.0814198399999997 25.5734421000000012 2.7416144299999998 Au
atom 7.2894139400000002 28.0560256199999998 2.7992497300000001 Au
atom 10.2476096699999992 28.1503446799999999 2.6744743099999999 Au
atom 13.1754868700000003 28.0977211900000015 2.5441251899999999 Au
atom 16.0887470800000010 27.8835146899999984 2.6132984200000000 Au
atom 18.7261310499999993 28.0569109599999997 2.5839667300000002 Au
atom 21.4531143899999996 27.9836838099999987 2.6228147700000002 Au
atom 24.4988101500000006 27.9561371700000016 2.6249429399999999 Au
atom 27.2038159099999994 28.0493596399999987 2.6813163900000001 Au
atom 1.8984608900000000 27.7311910700000013 2.6265426500000002 Au
atom 4.7265681099999997 27.9858960400000001 2.7662409900000000 Au
atom 8.9881294399999998 30.5933375100000013 2.6550869900000000 Au
atom 11.5429625199999997 30.2346231400000001 2.4858600200000001 Au
atom 14.5510573399999998 30.4474175600000017 2.6742986499999999 Au
atom 17.3126343899999995 30.3897194299999995 2.7032102400000002 Au
atom 20.2600083099999999 30.4375793700000017 2.6428562599999998 Au
atom 23.0553570299999997 30.5137782000000009 2.5317989999999999 Au
atom 25.7627846900000002 30.3398084399999988 2.5937878300000001 Au
atom 0.5357310300000000 30.5174074500000003 2.5342905999999998 Au
atom 3.3258854400000000 30.4712395399999991 2.5932417399999999 Au
atom 5.9542516799999996 30.4451323999999985 2.7111667399999999 Au
atom 7.2886270299999998 32.8847829500000017 2.7819672000000000 Au
atom 10.3923387799999993 32.9474708899999982 2.5925224700000000 Au
atom 13.0779369299999999 32.9162952599999983 2.7198794899999998 Au
atom 16.0112632800000014 32.8346007299999982 2.7862199699999999 Au
atom 18.7563250199999985 33.0942704799999987 2.5036418999999999 Au
atom 21.5050421199999988 32.9385599700000000 2.7668620599999998 Au
atom 24.5293056400000005 32.9399981299999993 2.4604444299999999 Au
atom 27.1942249800000013 32.7193174800000008 2.5753653500000002 Au
atom 1.8478469099999999 32.9631260299999980 2.5232312000000001 Au
atom 4.6795411199999997 32.8813598200000001 2.7399079500000001 Au
atom 8.8231502499999994 35.4667864199999983 2.8391647199999999 Au
atom 11.7826495500000004 35.3305660799999970 2.5907188099999998 Au
atom 14.6745172499999992 35.2704733099999999 2.5493427000000000 Au
atom 17.2595049200000012 35.2554605099999989 2.5413171499999998 Au
atom 20.2719341600000007 35.4936475299999969 2.5756764300000001 Au
atom 23.0368898599999987 35.4593061699999978 2.6558637799999998 Au
atom 25.7383247799999992 35.2365055400000031 2.7454196700000000 Au
atom 0.5050732500000000 35.4410800599999973 2.5336902499999998 Au
atom 3.2970700700000002 35.4462611599999988 2.6741293100000001 Au
atom 6.0215777800000003 35.4846830199999985 2.4900010600000000 Au
atom 7.5977211100000002 37.9628125099999991 2.7681564800000000 Au
atom 10.2909783899999994 37.7359557099999989 2.7749780199999998 Au
atom 13.0753399300000002 37.8590989200000010 2.5799116799999999 Au
atom 15.8747490199999994 37.8681442700000019 2.5571143699999999 Au
atom 18.8443823899999998 37.7581603000000001 2.4383383200000002 Au
atom 21.6004602400000003 37.8788904600000009 2.7545448299999999 Au
atom 24.5073117700000012 37.6195687499999991 2.5111831400000000 Au
atom 27.2556132700000013 37.9872530100000034 2.7744133600000001 Au
atom 2.0558287300000000 37.8024919400000030 2.6387819600000002 Au
atom 4.5754027800000001 37.7949179700000002 2.6216362499999999 Au
atom 8.8494444500000000 0.7980365600000000 2.7190061100000000 Au
atom 11.7383048599999995 0.8916622800000000 2.7327496999999998 Au
atom 14.5187745199999991 0.7850449700000000 2.6873713000000001 Au
atom 17.3317537699999988 0.8861948200000000 2.8042016200000002 Au
atom 20.3196861400000017 0.7577775800000000 2.7646625800000000 Au
atom 22.8778012900000007 0.8745608700000000 2.8259925799999999 Au
atom 25.8179975900000009 0.9452702900000000 2.6036793800000000 Au
atom 0.3675689500000000 0.8242432400000000 2.8200717399999999 Au
atom 3.2312143799999999 0.7925086400000000 2.6188542600000000 Au
atom 6.1171187900000001 0.9626052700000000 2.7880741800000002 Au
atom 7.5741084799999996 3.3020574100000002 2.6327450799999998 Au
atom 10.3933880500000004 3.2965748100000001 2.6720425799999998 Au
atom 13.2351712199999998 3.3027912599999998 2.6065122399999998 Au
atom 16.0562027100000009 3.3078365999999999 2.5845040400000001 Au
atom 18.6738798899999985 3.3319488900000001 2.9218915000000001 Au
atom 21.5661201600000005 3.2655936600000000 2.8403564700000001 Au
atom 24.4191894199999986 3.1771807600000002 2.5306513399999999 Au
atom 27.3676444500000002 3.3649388199999999 2.7699927500000001 Au
atom 1.8593248000000000 3.2499338000000000 2.6665605700000001 Au
atom 4.6992854399999997 3.2151199300000002 2.7441979700000001 Au
atom 8.7880966300000001 5.7554814700000003 2.6984473499999999 Au
atom 11.6660990899999994 5.5673678799999999 2.7652293999999999 Au
atom 14.4800496400000007 5.9204388699999999 2.6863985399999999 Au
atom 17.3211922300000012 5.7968238899999998 2.8252563099999999 Au
atom 20.1375995199999984 5.8892095900000001 2.8640029299999998 Au
atom 23.1145938300000005 5.9504353500000002 2.8483702300000000 Au
atom 25.9852043399999992 5.9487253200000003 2.7392665200000001 Au
atom 0.4127530000000000 5.5622780499999998 2.5851099299999998 Au
atom 3.2283984100000001 5.7506561999999999 2.7015127500000000 Au
atom 5.9965670099999997 5.6293932399999997 2.7045587400000000 Au
atom 7.4856452200000003 8.1864074700000007 2.6196424500000002 Au
atom 10.2318619900000005 8.2124634600000004 2.5293772899999998 Au
atom 13.2714454199999992 8.2913204399999998 2.6048367699999999 Au
atom 15.9376476799999995 8.1329836300000000 2.7218072200000001 Au
atom 18.9235502099999984 8.3918213599999998 2.5887795100000002 Au
atom 21.5967070399999983 8.2108069399999994 2.6756825399999999 Au
atom 24.3237664799999997 8.1987761599999995 2.6587184700000002 Au
atom 27.2607747300000014 8.3205701300000001 2.5819252000000001 Au
atom 1.9315738600000001 8.3490083800000008 2.6726587799999999 Au
atom 4.5614445600000000 8.1348058299999995 2.6687148399999998 Au
atom 8.8663759700000000 10.5511944900000003 2.6972489700000000 Au
atom 11.7476787300000005 10.5824714499999999 2.7613811199999998 Au
atom 14.6384752999999996 10.7368366900000005 2.5192200100000002 Au
atom 17.2354802900000017 10.6923322200000008 2.4777848100000002 Au
atom 20.2348657900000006 10.5818852799999998 2.6651451300000000 Au
atom 22.9866437899999987 10.7939196200000005 2.5526964699999999 Au
atom 25.8622235499999995 10.5836423600000007 2.7227822900000000 Au
atom 0.4437330400000000 10.7721225799999996 2.5058129700000000 Au
atom 3.3243090500000001 10.7534407000000005 2.6694555800000002 Au
atom 6.1272877200000000 10.7033754800000001 2.7571960400000002 Au
atom 7.4866013699999998 13.0968253400000005 5.6907993599999998 Cl
atom 7.4075471100000003 15.9412318299999995 8.5269642599999997 Cl
atom 7.4629201399999996 13.1913737399999995 8.5576360900000008 Na
atom 7.5571589599999998 16.1126089700000001 5.7463167400000001 Na
atom 7.4423045600000002 18.7829856200000016 5.8117147800000000 Cl
atom 7.2880697100000003 21.5188658900000007 8.5839056700000000 Cl
atom 7.4815870499999999 19.0040385799999996 8.4268312600000002 Na
atom 7.4319527000000001 21.4719774799999996 5.7880062299999997 Na
atom 7.3663362200000000 24.4890046199999993 5.7657604400000002 Cl
atom 7.5262133200000001 27.4695647500000000 8.4873154599999996 Cl
atom 7.4799519400000003 24.3150940899999988 8.3870563100000002 Na
atom 7.6527798200000001 27.2978189700000016 5.8217767100000000 Na
atom 7.5176468300000003 29.9518763399999983 5.6849362100000000 Cl
atom 7.4989390299999998 32.9160373300000018 8.4117503199999994 Cl
atom 7.5243342400000000 30.1063013899999987 8.3332546099999991 Na
atom 7.4914982800000001 32.7565419599999998 5.6836311500000001 Na
atom 7.5052644900000001 35.6713693599999999 5.7234658100000004 Cl
atom 7.5756809100000000 38.5345437499999974 8.2937974899999993 Cl
atom 7.4758595400000001 35.6864053899999973 8.3465582400000002 Na
atom 7.5822619299999996 38.4157549500000002 5.8561666900000002 Na
atom 7.6515557000000003 1.8330428000000001 5.8002706200000000 Cl
atom 7.5920589700000001 4.7382902500000004 8.5066103700000006 Cl
atom 7.4225494599999999 1.9745892100000000 8.4548698699999996 Na
atom 7.4178846600000004 4.5931382500000000 5.6965058199999996 Na
atom 7.6648697700000001 7.5146106100000001 5.9676139499999996 Cl
atom 7.5505967099999998 10.4019738400000001 8.5805516199999996 Cl
atom 7.5957524799999998 7.4384987200000001 8.5995530400000000 Na
atom 7.4896020300000004 10.2663836300000000 5.8258724800000001 Na
atom 10.4321309400000004 13.0666886600000005 5.8835591699999998 Na
atom 13.0709009700000003 13.1159062399999993 5.6518442899999997 Cl
atom 10.3998005100000004 15.8866634199999996 8.3838765500000001 Na
atom 13.1092272399999992 15.9018919299999997 8.4211846999999995 Cl
atom 13.0203238700000004 13.0071017500000004 8.4555622199999991 Na
atom 10.2975862899999999 13.1858009500000009 8.6800401399999991 Cl
atom 13.0243175499999992 15.9062096000000004 5.8209532499999996 Na
atom 10.1406354699999994 15.9423421699999999 5.6219055999999998 Cl
atom 10.3542444400000004 18.7928545299999996 6.0254336600000000 Na
atom 13.2364316500000001 18.7327771600000013 5.6815275900000000 Cl
atom 10.2886082499999993 21.9658644099999982 8.2383717599999997 Na
atom 13.1658127399999998 21.4076841699999996 8.5706871699999994 Cl
atom 13.3348625199999997 18.7649499999999989 8.4882921299999996 Na
atom 10.3163705399999994 18.7705499899999992 8.5436937200000003 Cl
atom 13.0828092199999997 21.5648557200000006 5.6795873800000001 Na
atom 10.4719257399999996 21.5947007400000004 5.7745192500000000 Cl
atom 10.2270413100000006 24.5624448400000013 5.7914737299999999 Na
atom 13.1282019600000002 24.2576951399999992 5.7809827499999997 Cl
atom 10.4954944599999997 27.1787103200000004 8.3423954100000000 Na
atom 13.0202719499999997 27.2714087700000007 8.5816647699999997 Cl
atom 13.2098683000000001 24.4878564499999989 8.3054301499999994 Na
atom 10.3420121399999996 24.4171064300000005 8.4615776300000007 Cl
atom 13.1210019300000003 27.6217626000000003 6.0639804699999997 Na
atom 10.3274770599999997 27.4296033699999988 5.7315259000000003 Cl
atom 10.3066358299999994 29.8762565000000002 5.7084619099999996 Na
atom 13.0535446000000004 30.0833300600000015 5.7274789000000004 Cl
atom 10.2518602399999992 32.8470591800000022 8.3526524900000005 Na
atom 12.9917715499999993 32.8433450899999997 8.5288567499999992 Cl
atom 13.0064666800000008 30.0424039799999996 8.2896497199999999 Na
atom 10.4349429600000008 30.0637907400000017 8.5353416200000005 Cl
atom 13.1729332200000009 32.9599327999999971 5.6600661700000003 Na
atom 10.2731732400000002 32.8139450899999972 5.6914636800000000 Cl
atom 10.2579772499999997 35.7558868699999977 5.7057372099999997 Na
atom 13.0740332000000006 35.6771362100000005 5.8344218300000001 Cl
atom 10.3479423900000000 38.5838656000000029 8.3574019699999997 Na
atom 13.0922937299999997 38.6060154099999977 8.6533279200000006 Cl
atom 13.1314718999999993 35.8470567900000034 8.4989645399999993 Na
atom 10.1437536200000000 35.7675726299999965 8.5480209899999995 Cl
atom 13.1695472799999997 38.6838413799999969 5.7404982400000000 Na
atom 10.1495780599999996 38.6695845899999995 5.6322538599999996 Cl
atom 10.2456707300000005 1.9102303400000000 5.7551938199999997 Na
atom 12.9736586700000007 1.8972383100000001 5.6750777200000000 Cl
atom 10.3744681500000002 4.6513797700000001 8.3265646800000006 Na
atom 13.1132814900000003 4.8183962700000000 8.6693239900000005 Cl
atom 13.0234256700000000 2.1768131899999998 8.3628859599999998 Na
atom 10.1976039299999997 1.9734245800000001 8.5397659600000004 Cl
atom 13.3507670100000002 4.7947207900000004 5.8064941599999997 Na
atom 10.4735615499999994 4.7909229699999996 5.6269570199999999 Cl
atom 10.4090136500000003 7.4516654700000000 5.8224150500000000 Na
atom 13.1503126600000009 7.4309701900000000 5.6067945200000002 Cl
atom 10.3533111299999998 10.2062274399999993 8.1114261299999999 Na
atom 13.0529770999999997 10.3870052400000006 8.5278959800000003 Cl
atom 13.2618743800000001 7.5497845799999999 8.3154121599999993 Na
atom 10.2713072400000005 7.3843155600000001 8.6834902399999994 Cl
atom 13.0033663100000005 10.2404841599999994 5.7885090899999998 Na
atom 10.3198989399999999 10.1880569600000008 5.6296791600000002 Cl
atom 15.9907593600000002 13.2757829100000002 5.8667243300000003 Na
atom 18.7790749199999993 13.0053488099999992 5.6469401000000001 Cl
atom 16.0137682199999993 16.1035844799999985 8.4537312900000003 Na
atom 18.7962364800000010 16.1043373900000013 8.8368878899999999 Cl
atom 18.7207296999999997 13.0887583700000008 8.5235526099999994 Na
atom 15.9853987400000008 13.1795251199999992 8.6032331299999996 Cl
atom 18.7200434800000011 15.8910425499999999 5.7222215800000003 Na
atom 16.0891513999999987 15.8516502799999994 5.7687077699999998 Cl
atom 15.9097537899999999 18.7935092799999985 5.8945831499999999 Na
atom 18.8685894199999993 18.8469295700000004 5.5364009899999997 Cl
atom 16.1176958600000013 21.7637561899999987 8.3953817300000004 Na
atom 18.7816682200000002 21.7976690799999986 8.6587385000000001 Cl
atom 18.7777123900000014 18.7746781799999987 8.3582124899999997 Na
atom 16.0761822300000006 18.9157382900000002 8.4061959900000005 Cl
atom 18.8293283199999983 21.7099964700000001 5.6634185400000003 Na
atom 15.9605116999999996 21.4523498799999999 5.7550514300000000 Cl
atom 15.7517146300000004 24.3785924999999999 5.7550192100000004 Na
atom 18.7088342800000014 24.5849819700000012 5.7971600499999996 Cl
atom 15.9136994800000000 27.1695318400000012 8.3627728500000007 Na
atom 18.6715444700000006 27.3545537500000009 8.7762212700000006 Cl
atom 18.8823058300000000 24.4644425199999986 8.3722790600000003 Na
atom 15.9177210299999992 24.6217028199999994 8.5083111799999998 Cl
atom 18.9311034099999986 27.1256843299999986 5.8027540200000001 Na
atom 15.7827087800000001 27.2703849299999987 5.6082813500000004 Cl
atom 16.1193497900000011 30.1104183600000006 5.8597453300000000 Na
atom 18.8007567100000017 29.9611903800000015 5.7387332899999999 Cl
atom 16.1337001300000011 32.9045140699999976 8.2692158800000009 Na
atom 18.5853618999999988 32.8311975100000026 8.3911956599999993 Cl
atom 18.8551232900000016 30.1524562799999991 8.2851595800000002 Na
atom 16.0129944799999997 30.0280795100000013 8.5506295100000003 Cl
atom 18.8073572899999988 32.8570274699999985 5.8762981300000003 Na
atom 15.7817166199999992 32.9144607599999972 5.7041389799999997 Cl
atom 15.7463080099999999 35.5564640699999970 5.6193887800000004 Na
atom 18.8122104499999985 35.7461406400000001 5.7542867600000003 Cl
atom 15.8178988100000009 38.6580879999999993 8.4844780899999996 Na
atom 18.6941178199999989 38.6650732700000006 8.5504202899999999 Cl
atom 18.5927461899999997 35.5673366700000031 8.4455219499999998 Na
atom 15.9396372000000000 35.8103823699999992 8.5447104500000002 Cl
atom 18.7974549000000017 38.7811315900000011 5.9723829899999998 Na