#===============================================================================
# Created using the Atomic Simulation Environment (ASE)

# Tue Dec 23 22:26:49 2025

#=======================================================
lattice_vector 28.1999999999999993 0.0000000000000000 0.0000000000000000 
lattice_vector 0.0000000000000000 39.4799999999999969 0.0000000000000000 
lattice_vector 0.0000000000000000 0.0000000000000000 62.3296083400000001 
atom 7.4852133500000004 14.7867836500000003 0.0419224100000000 Au
atom 10.3067156799999999 14.8592789599999993 -0.0176326100000000 Au
atom 13.1333870600000004 14.7646238600000004 0.0784319600000000 Au
atom 15.9393959800000005 14.8130582499999992 -0.0256461800000000 Au
atom 18.7505508100000000 14.8206178899999994 0.0299444900000000 Au
atom 21.6093573799999987 14.8053981199999996 -0.0192808300000000 Au
atom 24.3967003200000008 14.8159240200000006 0.1037912100000000 Au
atom 27.2344793299999992 14.8224314800000005 0.1096679400000000 Au
atom 1.8581427300000000 14.8096578700000006 0.1153554500000000 Au
atom 4.6764620399999997 14.8473413399999998 0.0206388000000000 Au
atom 8.9114672099999996 17.2885281699999993 0.0797165700000000 Au
atom 11.7059327199999998 17.2446801200000017 0.0593281700000000 Au
atom 14.5405171499999994 17.3053731199999987 0.0145187200000000 Au
atom 17.3855335999999987 17.2793180200000016 0.0089592900000000 Au
atom 20.1333530500000002 17.3207813600000016 0.0225578900000000 Au
atom 23.0481522199999986 17.2762023300000003 0.0183565300000000 Au
atom 25.8485037599999998 17.2926973900000007 0.0444970600000000 Au
atom 0.4445341800000000 17.1566578599999993 0.0859439800000000 Au
atom 3.2638825599999999 17.2770600399999985 0.0315638700000000 Au
atom 6.0984667699999999 17.3136014899999999 0.0041041300000000 Au
atom 7.4634044399999997 19.7392683399999989 0.1731629000000000 Au
atom 10.2658489599999996 19.7504164200000005 0.0523686800000000 Au
atom 13.1092852700000009 19.7511776200000000 0.0582590200000000 Au
atom 15.9532963599999995 19.7235192099999992 0.0559580200000000 Au
atom 18.7735537500000014 19.7389068600000002 0.0851811500000000 Au
atom 21.6076727899999987 19.7348600900000015 0.1027531200000000 Au
atom 24.4089069999999992 19.7696067800000002 0.1110856200000000 Au
atom 27.2281281600000007 19.7177727800000007 0.0011198300000000 Au
atom 1.8597885599999999 19.7108145499999985 0.0496767900000000 Au
atom 4.7018553199999999 19.7544778600000015 0.1116026700000000 Au
atom 8.9109136899999992 22.2028124200000008 0.0935711700000000 Au
atom 11.7446474300000006 22.2091045499999993 0.1053343500000000 Au
atom 14.5958735599999994 22.2273156100000016 0.1120361000000000 Au
atom 17.3928157699999986 22.2045889900000013 0.0518190000000000 Au
atom 20.1841565400000000 22.2471710499999986 0.1014984600000000 Au
atom 23.0610042100000001 22.2487466800000000 0.1052126300000000 Au
atom 25.8192984400000007 22.2353301099999996 0.1336110300000000 Au
atom 0.4595972500000000 22.2475474999999996 0.0854981500000000 Au
atom 3.2813033699999998 22.2131689600000009 0.1061664400000000 Au
atom 6.1087265200000003 22.2098372499999996 0.0771752100000000 Au
atom 7.4995813599999996 24.7244814499999990 0.1333842200000000 Au
atom 10.3132503199999999 24.6861551699999993 0.0915898200000000 Au
atom 13.1477888400000005 24.7004006099999991 0.1247303200000000 Au
atom 15.9927362399999993 24.7210476399999983 0.0834359600000000 Au
atom 18.7547098199999986 24.6591362799999985 0.1005849700000000 Au
atom 21.5985204700000004 24.7058929200000001 0.1289721500000000 Au
atom 24.4247592699999991 24.6856706700000004 0.0853880700000000 Au
atom 27.2465102299999984 24.8959322199999988 -0.0420679600000000 Au
atom 1.9026554300000000 24.6906803299999993 0.0753839700000000 Au
atom 4.6797863800000004 24.7189661100000002 0.1158000100000000 Au
atom 8.9150731800000003 27.1454779500000001 0.0551665300000000 Au
atom 11.7174156899999993 27.1545726700000003 0.0473864700000000 Au
atom 14.5635582699999997 27.1277678299999998 0.0257303900000000 Au
atom 17.3843356000000000 27.1408394699999995 0.0996885400000000 Au
atom 20.2078913200000017 27.1517851499999985 0.0822255200000000 Au
atom 22.9947689299999993 27.1506583900000003 0.0327866900000000 Au
atom 25.8152190200000007 27.2046904000000005 0.0585741800000000 Au
atom 0.4309724800000000 27.2289846799999999 0.1485790500000000 Au
atom 3.2389423200000000 27.1813657500000012 0.0686166400000000 Au
atom 6.1225239100000000 27.1867179000000014 0.0733751900000000 Au
atom 7.4810438300000000 29.6120824800000015 -0.0513762300000000 Au
atom 10.3385488999999993 29.6116629300000014 0.0099939300000000 Au
atom 13.1453095700000002 29.5591759500000002 0.0174426800000000 Au
atom 15.9313396100000002 29.5669034900000014 0.0865706000000000 Au
atom 18.8061327600000006 29.6355308099999988 0.0324566200000000 Au
atom 21.5851509499999992 29.6081631499999993 0.0322243900000000 Au
atom 24.4206198400000005 29.6696680199999996 0.0463961700000000 Au
atom 27.2447156600000007 29.5577982199999987 0.1138178600000000 Au
atom 1.8545688000000000 29.6942677900000014 0.0577526200000000 Au
atom 4.6662680700000001 29.6147823099999989 0.0324442600000000 Au
atom 8.8938904700000005 32.1012392499999990 0.0270339200000000 Au
atom 11.7370750600000004 32.1154630200000000 -0.0107231800000000 Au
atom 14.5757675599999992 32.0534227899999991 0.0364652800000000 Au
atom 17.3666969199999990 32.1006770099999983 -0.0773117900000000 Au
atom 20.2238684299999996 32.1386947299999974 0.0262293800000000 Au
atom 23.0087779700000006 32.0724615499999999 0.0165969100000000 Au
atom 25.8365444599999989 32.0367946399999965 0.0636312500000000 Au
atom 0.4509294800000000 32.2136698699999968 -0.0044194100000000 Au
atom 3.2917707300000001 32.0736012699999975 0.0143110800000000 Au
atom 6.0840531400000000 32.0803015500000015 0.0095118700000000 Au
atom 7.5093068799999996 34.5695970900000020 -0.0577681200000000 Au
atom 10.3079762600000002 34.5761335199999991 0.0488366300000000 Au
atom 13.1356023700000009 34.5695777099999972 0.0170002600000000 Au
atom 15.9618369700000002 34.5545230399999994 0.0576960100000000 Au
atom 18.7735829599999988 34.5689039900000026 0.0390496100000000 Au
atom 21.6297122100000010 34.5427721900000009 0.0902100500000000 Au
atom 24.4136420500000000 34.5714694799999975 -0.0278803200000000 Au
atom 27.2763883100000015 34.4324740599999970 0.0648280100000000 Au
atom 1.8781926799999999 34.5941912899999977 -0.0317262400000000 Au
atom 4.6817575900000001 34.5652968799999982 0.0906846700000000 Au
atom 8.8336140299999997 37.0020886100000013 0.0437617400000000 Au
atom 11.8255469299999998 37.0492074400000035 0.1079798300000000 Au
atom 14.6567727399999992 37.0500133700000021 0.0682799000000000 Au
atom 17.3296098799999996 37.0508822299999991 -0.0727337400000000 Au
atom 20.2327961999999992 37.0712665599999980 0.0186828900000000 Au
atom 23.1323760699999994 37.0212391499999995 0.1537981200000000 Au
atom 25.7182369000000008 36.9922155900000007 0.0739317400000000 Au
atom 0.4455878500000000 37.0435411699999975 0.1154455300000000 Au
atom 3.4054945100000000 37.0234143400000022 -0.0505690800000000 Au
atom 6.1214556499999997 37.0063450500000002 -0.0095704900000000 Au
atom 7.5166558300000004 0.0249008200000000 0.2112733300000000 Au
atom 10.2894125499999998 -0.0010254100000000 0.0968374900000000 Au
atom 13.2283744500000005 -0.0155180100000000 -0.0067532400000000 Au
atom 15.9229259100000000 0.0161116900000000 0.0945005900000000 Au
atom 18.6329247799999997 0.0354938800000000 0.2067297500000000 Au
atom 21.6306291600000016 0.0028575200000000 0.0198990200000000 Au
atom 24.5676068000000001 0.0551281300000000 -0.0588488200000000 Au
atom 27.3869614000000006 0.0833185200000000 0.1761846900000000 Au
atom 1.7855396200000000 0.0165032700000000 0.3132452300000000 Au
atom 4.6614976099999996 -0.0375751600000000 0.1039062600000000 Au
atom 8.8692191600000001 2.5003088700000000 0.0944718800000000 Au
atom 11.7523155500000005 2.4564890500000001 0.0637749900000000 Au
atom 14.5637426699999999 2.4796272199999998 0.0992492800000000 Au
atom 17.3554028199999983 2.4737445800000000 0.0916315800000000 Au
atom 20.1887328100000012 2.4998309200000000 0.1063530700000000 Au
atom 23.0197624099999985 2.4433305500000002 0.1133239900000000 Au
atom 25.8362612499999997 2.4671684599999999 0.0447860900000000 Au
atom 0.4528546900000000 2.4794763099999999 -0.0220897100000000 Au
atom 3.3133986300000000 2.4414889999999998 0.0725158700000000 Au
atom 6.0755357700000001 2.4650556799999999 0.0774379700000000 Au
atom 7.4962328800000000 4.9408162400000002 0.0807784200000000 Au
atom 10.3168003600000002 4.8803121300000001 0.0888499800000000 Au
atom 13.1141233699999997 4.9325919400000000 0.1321769800000000 Au
atom 15.9797404699999994 4.9639924100000004 0.1029328800000000 Au
atom 18.8027668000000006 4.9250744900000001 0.1091162800000000 Au
atom 21.6441271999999998 4.8987212600000003 0.0904367200000000 Au
atom 24.4194294999999997 4.9714157300000004 0.1030159000000000 Au
atom 27.2498557099999985 5.0024742599999996 0.1461088000000000 Au
atom 1.8787313800000001 4.9565719200000000 0.0407473800000000 Au
atom 4.6453126500000002 4.9163283199999999 0.0692990400000000 Au
atom 8.9358155900000007 7.4199123199999999 0.0630337200000000 Au
atom 11.7329800100000003 7.4140013800000002 0.0811021100000000 Au
atom 14.5474244499999994 7.4229734399999998 0.0921869000000000 Au
atom 17.3567568100000003 7.4023876399999997 0.0455271800000000 Au
atom 20.1545557799999990 7.4050095300000001 0.0608300100000000 Au
atom 22.9867909700000013 7.4042927199999999 0.0325973100000000 Au
atom 25.8560511700000006 7.3803661199999997 -0.0134979100000000 Au
atom 0.4617659500000000 7.4165629300000004 0.0392038100000000 Au
atom 3.2352872100000001 7.4136561700000003 0.1132376100000000 Au
atom 6.0889073600000003 7.4272096599999999 0.0953107300000000 Au
atom 7.5163108400000000 9.8397480999999996 0.0525209100000000 Au
atom 10.2934725700000005 9.9050314999999998 0.0307968200000000 Au
atom 13.1458000199999994 9.8925070399999999 0.0668810600000000 Au
atom 15.9606971899999994 9.8746454200000002 -0.0284846500000000 Au
atom 18.7978890800000009 9.8980303700000007 0.0057236300000000 Au
atom 21.5946842200000013 9.8551821299999993 0.0075694600000000 Au
atom 24.4170164800000009 9.8610075500000001 0.0117452000000000 Au
atom 27.2551565499999988 9.7871106700000006 -0.0109209100000000 Au
atom 1.8875586900000001 9.9458965999999993 0.0540213900000000 Au
atom 4.7047245999999996 9.8623785900000005 -0.0087530100000000 Au
atom 8.9169433399999996 12.3399688300000001 -0.0117866500000000 Au
atom 11.7496112200000002 12.3471832700000004 0.0541158300000000 Au
atom 14.5626972499999994 12.3384519699999995 -0.0467221600000000 Au
atom 17.3594692600000009 12.3730226400000003 -0.0088451600000000 Au
atom 20.1602102999999993 12.3162773399999992 0.0261437400000000 Au
atom 23.0119484199999995 12.3381368499999997 -0.0172505500000000 Au
atom 25.8384086900000014 12.3506646900000003 -0.0133472100000000 Au
atom 0.4663035200000000 12.4335565599999995 -0.1425232200000000 Au
atom 3.2677975400000001 12.3525091600000003 -0.0140770700000000 Au
atom 6.0789542399999998 12.3795494000000001 0.0380999000000000 Au
atom 7.4688651300000002 13.1491438200000008 2.6645802399999998 Au
atom 10.3469199900000000 13.1692378300000001 2.5814242799999998 Au
atom 13.1219346899999998 13.1705616699999997 2.6490929400000001 Au
atom 15.9048788699999992 13.1831877399999993 2.6185226799999999 Au
atom 18.8293133700000013 13.1784083899999995 2.6708646400000000 Au
atom 21.6080215699999982 13.1709062299999999 2.6254534899999999 Au
atom 24.4358901099999990 13.1826757200000007 2.6943640800000002 Au
atom 27.2561254099999992 13.1890142400000006 2.7918807100000000 Au
atom 1.8447911699999999 13.1748814599999999 2.6471655599999999 Au
atom 4.6699124100000002 13.1979338899999998 2.5754476799999999 Au
atom 8.8745647999999999 15.6279667700000005 2.6271078100000000 Au
atom 11.7652546499999993 15.6342918199999996 2.6301370799999999 Au
atom 14.5510155300000008 15.6622944499999992 2.6539320000000002 Au
atom 17.3478295899999999 15.6639017900000006 2.6503336300000000 Au
atom 20.1881375299999988 15.6654683000000006 2.5938269900000002 Au
atom 22.9983447299999995 15.6224449300000003 2.6897898100000002 Au
atom 25.8546711400000007 15.6604950200000008 2.6076454400000002 Au
atom 0.4722578500000000 15.6397061900000001 2.5625245300000001 Au
atom 3.2603241100000000 15.6437157899999999 2.6086041299999998 Au
atom 6.1473019899999999 15.5921021500000005 2.6345477499999999 Au
atom 7.5225144300000002 18.1069944300000003 2.6786625399999999 Au
atom 10.3439175300000006 18.1161814999999997 2.6185217900000000 Au
atom 13.1453220000000002 18.0993672699999983 2.7020749199999998 Au
atom 15.9902325399999992 18.1107688600000003 2.6100853900000001 Au
atom 18.7948785200000010 18.1085595999999995 2.6654540000000000 Au
atom 21.6007204299999991 18.0560014600000009 2.6131444300000002 Au
atom 24.4565055099999995 18.1031362300000005 2.7055361400000000 Au
atom 27.2871772800000016 18.1215539099999994 2.4469704800000001 Au
atom 1.9019257400000000 18.1401718599999988 2.7531050600000002 Au
atom 4.7043341300000003 18.0741813399999991 2.6444782400000002 Au
atom 8.9152649000000004 20.5582678799999989 2.7202593899999998 Au
atom 11.7941579799999996 20.5653510600000011 2.7017599400000001 Au
atom 14.5607307699999993 20.5793701599999999 2.7073425499999999 Au
atom 17.3925694899999996 20.5565306800000016 2.7016999199999998 Au
atom 20.2004455900000011 20.5368946100000009 2.7001887700000000 Au
atom 23.0271718400000012 20.6206388199999999 2.7039426999999998 Au
atom 25.8055095600000008 20.5702012600000010 2.7444846100000002 Au
atom 0.4724772700000000 20.5106169300000012 2.7484105099999998 Au
atom 3.2975624799999999 20.5504730600000016 2.7296320999999999 Au
atom 6.1310106600000003 20.5667623400000004 2.7739644900000000 Au
atom 7.5339662100000000 23.0674733100000005 2.6767934200000001 Au
atom 10.3286107400000002 23.0065867600000011 2.7351035700000002 Au
atom 13.1227903900000005 23.0516712400000010 2.6724349400000000 Au
atom 15.9573070500000007 23.0432687399999985 2.6720401400000000 Au
atom 18.7944501799999983 23.0701670199999995 2.6658127399999998 Au
atom 21.6127675199999985 23.0843314500000005 2.6987940199999998 Au
atom 24.4531295700000015 23.0633608899999984 2.7009968400000002 Au
atom 27.2455192100000012 23.0815854000000016 2.5989576200000002 Au
atom 1.8967719999999999 23.0607253900000018 2.6842625299999998 Au
atom 4.7108570099999998 23.0374379699999992 2.6698194000000002 Au
atom 8.9391553399999992 25.5517675500000010 2.7105065200000000 Au
atom 11.7484893600000007 25.5468483699999993 2.7434631800000000 Au
atom 14.5815754999999996 25.5044192099999982 2.7688330900000002 Au
atom 17.3208467699999993 25.5246770199999986 2.7024593299999999 Au
atom 20.1710317299999993 25.5245011999999996 2.7194197500000001 Au
atom 23.0062119299999992 25.5058633599999993 2.6963624600000000 Au
atom 25.7846264000000005 25.4472978400000009 2.7263647199999999 Au
atom 0.4518343500000000 25.5311290699999986 2.7938947800000000 Au
atom 3.2821496600000000 25.4892435199999987 2.6808970300000001 Au
atom 6.0639808000000004 25.5307924200000009 2.7243174500000000 Au
atom 7.5067785400000000 28.0142008699999998 2.5910292300000002 Au
atom 10.3340199899999998 28.0384399500000008 2.7082189099999998 Au
atom 13.1755776099999995 27.9633431500000000 2.6210713600000002 Au
atom 15.9544619500000007 27.9793601400000007 2.7453423300000002 Au
atom 18.7450888999999989 27.9628106900000013 2.6568221099999998 Au
atom 21.5883636000000010 27.9904477500000013 2.6721434799999999 Au
atom 24.4415129100000001 27.9683528099999990 2.6131316999999998 Au
atom 27.2318795000000016 27.8377655299999986 2.8298391899999999 Au
atom 1.8431043499999999 27.9824177200000008 2.5845743699999999 Au
atom 4.7040625699999996 28.0432362300000015 2.7206377700000002 Au
atom 8.9204535600000003 30.4725635399999994 2.6338238299999999 Au
atom 11.7406906600000003 30.4433763400000004 2.6726152500000002 Au
atom 14.5731079700000006 30.4838969900000016 2.5575628899999998 Au
atom 17.2786836199999989 30.4690466499999992 2.6173507100000002 Au
atom 20.2175081699999986 30.4764473799999998 2.6364189400000000 Au
atom 23.0328509399999994 30.4707569099999986 2.6669599100000001 Au
atom 25.8675833200000014 30.4736933599999986 2.6936604900000001 Au
atom 0.4498403700000000 30.5065025100000007 2.7903351000000001 Au
atom 3.2770458200000001 30.4860198699999998 2.6390577099999999 Au
atom 6.1185855699999996 30.4852369799999998 2.6144350200000002 Au
atom 7.5140158899999996 32.9704863899999978 2.5042585000000002 Au
atom 10.3544515900000000 32.8954571800000011 2.6872688000000000 Au
atom 13.1200536799999998 32.9358288000000030 2.5775614899999999 Au
atom 15.9590273400000005 32.9343718000000010 2.6533103900000001 Au
atom 18.7591193499999989 32.8778989199999998 2.6312284099999999 Au
atom 21.6498878099999992 32.9086075700000009 2.6886057399999999 Au
atom 24.4290504499999983 32.9120741500000022 2.5763721099999999 Au
atom 27.2759177400000006 33.0572062099999968 2.8264942899999999 Au
atom 1.8891330300000000 32.8630318499999987 2.5495310400000002 Au
atom 4.6641262699999997 32.8945894399999972 2.7042570700000002 Au
atom 8.8827560499999993 35.3801602300000013 2.6133104700000001 Au
atom 11.7224859299999995 35.3856984600000004 2.6673038800000000 Au
atom 14.5235738800000007 35.3926412699999986 2.6210768700000000 Au
atom 17.4074584200000011 35.3909423400000023 2.6520556800000001 Au
atom 20.1677257300000008 35.3676009699999980 2.6650276000000002 Au
atom 23.0501626100000010 35.3771355499999984 2.6315985099999999 Au
atom 25.8440938600000010 35.4103378200000023 2.6452688800000002 Au
atom 0.4686704200000000 35.3754329900000002 2.7664798700000000 Au
atom 3.2696271800000001 35.3541883400000003 2.6694873399999999 Au
atom 6.1071297500000004 35.3788054799999969 2.6408021300000000 Au
atom 7.8102164399999996 37.8239003600000032 2.5366508300000001 Au
atom 10.3479476199999993 37.8454379200000020 3.1087368400000002 Au
atom 13.3155398199999997 37.8618283699999978 2.8048597499999999 Au
atom 15.7869421800000005 37.8371142499999991 2.5387278400000000 Au
atom 18.8116648899999994 37.8559815500000028 2.7096442399999998 Au
atom 21.6701022700000010 37.8500306999999978 2.4844436900000000 Au
atom 24.1677851900000000 37.8509684300000018 2.5681780600000002 Au
atom 27.0372968299999989 38.0478747700000000 2.4158010700000001 Au
atom 1.7825613700000000 37.7951873100000029 2.5907629800000000 Au
atom 4.6262691000000000 37.8389385600000026 2.8907611800000002 Au
atom 8.9442492700000003 0.8389736200000000 2.6591657799999999 Au
atom 11.5988074599999997 0.8556778900000001 2.7557482900000001 Au
atom 14.6073832600000006 0.8024622600000000 2.6626658900000000 Au
atom 17.3746042000000003 0.8451091300000000 2.6684567299999999 Au
atom 20.2186284699999987 0.8392968500000000 2.7221693999999999 Au
atom 23.1704490300000003 0.8602484000000000 2.7719607499999999 Au
atom 25.8144872599999999 0.7412795800000000 2.8076617800000001 Au
atom 0.4175035600000000 0.9450827300000000 2.7671147800000000 Au
atom 3.3268291799999998 0.8118372700000001 2.6984225500000001 Au
atom 6.1939793500000002 0.8480221300000000 2.6901205600000000 Au
atom 7.5113727700000004 3.3182602700000001 2.6866721899999999 Au
atom 10.3072058599999998 3.3228841199999999 2.7132990700000001 Au
atom 13.1647168800000003 3.2975956100000001 2.6990505800000002 Au
atom 15.9723967299999998 3.2710759999999999 2.7480641100000001 Au
atom 18.8067781600000004 3.3558999599999999 2.6539060399999999 Au
atom 21.5707427100000011 3.2466175000000002 2.6919886000000002 Au
atom 24.4468512800000006 3.3244046900000002 2.6862429200000002 Au
atom 27.2049605399999983 3.4481132099999998 2.9222372100000000 Au
atom 1.8408291600000000 3.3498716300000000 2.6661793800000000 Au
atom 4.6844606400000002 3.3317059000000002 2.6908012600000002 Au
atom 8.9045156999999993 5.8207946499999998 2.6992927400000002 Au
atom 11.7277321200000006 5.7401285000000000 2.7021663700000000 Au
atom 14.5667392299999996 5.7540059299999999 2.6858490399999999 Au
atom 17.3825128199999988 5.7967226500000004 2.7227015799999998 Au
atom 20.2615152800000011 5.8201485200000000 2.7159502000000000 Au
atom 23.0239602900000015 5.8635517000000004 2.7240060399999999 Au
atom 25.8503046099999985 5.8894174699999997 2.7229926000000000 Au
atom 0.4327260900000000 5.6784377900000003 2.7221454100000000 Au
atom 3.2694347200000000 5.7532341999999996 2.7272852400000001 Au
atom 6.1028295600000000 5.8053901899999998 2.7601215200000002 Au
atom 7.5173365299999997 8.3252573999999999 2.7387714299999999 Au
atom 10.2798678300000006 8.1981665699999997 2.6607039499999998 Au
atom 13.1413371100000003 8.2304767900000009 2.6688543400000002 Au
atom 15.9558989499999999 8.2257574600000005 2.5661188899999998 Au
atom 18.7843126299999987 8.2737650100000000 2.6724904999999999 Au
atom 21.5747523200000018 8.2248699900000002 2.5695489600000001 Au
atom 24.4551720199999991 8.2878784799999998 2.7385951700000000 Au
atom 27.2649081399999993 8.3643509999999992 2.5970891200000001 Au
atom 1.8888969099999999 8.2546035999999994 2.7487374400000002 Au
atom 4.6890109700000000 8.2346271400000006 2.5837206300000002 Au
atom 8.9505416400000009 10.7365096700000002 2.6358451899999999 Au
atom 11.7192792099999998 10.7556145300000008 2.6828747000000002 Au
atom 14.5445100000000007 10.7271232899999998 2.6615532100000001 Au
atom 17.4069896300000018 10.7019544599999996 2.6483396300000002 Au
atom 20.2224764599999993 10.7255163000000007 2.6204638999999998 Au
atom 23.0500499300000001 10.6797980799999994 2.6323778099999999 Au
atom 25.8346906700000005 10.7066791299999995 2.6970483100000000 Au
atom 0.4435795700000000 10.7557201199999994 2.5552409699999998 Au
atom 3.2530659499999999 10.7255908899999994 2.6572656600000002 Au
atom 6.0650005299999998 10.7126804000000000 2.7075379300000000 Au
atom 7.5093529900000000 13.2019447900000007 5.7242990799999998 Cl
atom 7.5153373200000004 16.0267886200000014 8.5572069899999992 Cl
atom 7.5109489500000004 13.1790284100000008 8.4124036400000008 Na
atom 7.5036294699999999 16.0165337100000009 5.7586756799999996 Na
atom 7.5168887399999997 18.8529012099999989 5.6941978799999999 Cl
atom 7.4855571100000002 21.6566181100000001 8.6128375899999998 Cl
atom 7.5138703700000002 18.7872501599999993 8.3585549500000003 Na
atom 7.4867900900000004 21.5887066800000014 5.8696875799999999 Na
atom 7.5156642400000004 24.4622962500000014 5.7690097600000003 Cl
atom 7.5481035199999997 27.2268996299999984 8.5524491499999993 Cl
atom 7.4785230599999997 24.4294994000000010 8.3182535000000009 Na
atom 7.4422326400000003 27.2932957199999997 5.7891091299999999 Na
atom 7.5056982899999998 30.1107881900000010 5.6928053800000002 Cl
atom 7.5313546100000002 32.9071686300000010 8.5164255200000003 Cl
atom 7.5114136100000000 30.0813118300000006 8.3407275599999995 Na
atom 7.5231296900000002 32.9220447599999986 5.7774907100000004 Na
atom 7.4426585999999997 35.8011404800000008 5.7205027099999999 Cl
atom 7.5981573400000002 38.5234235799999993 8.4858013900000007 Cl
atom 7.5407676400000003 35.7094516900000016 8.3717328000000002 Na
atom 7.5774347200000003 38.5710492299999999 5.7958146700000004 Na
atom 7.5386037100000003 1.8813963600000001 5.7337856499999997 Cl
atom 7.4712549599999996 4.7178741100000003 8.6045849200000006 Cl
atom 7.3693190299999998 1.8685860999999999 8.5090503000000002 Na
atom 7.4873860700000003 4.6926395000000003 5.8753279799999998 Na
atom 7.4925569100000002 7.4547399499999996 5.7168735200000000 Cl
atom 7.5122030999999998 10.3793509799999999 8.4901150399999992 Cl
atom 7.5175673900000000 7.5237553100000003 8.3413876100000000 Na
atom 7.4854757500000000 10.3297911300000003 5.7693485500000001 Na
atom 10.3397024599999998 13.1226917099999998 5.7691294299999996 Na
atom 13.1157256499999999 13.0948993799999993 5.6678091100000003 Cl
atom 10.2783495100000000 15.9958002199999996 8.2923655299999997 Na
atom 13.0266638399999994 15.9072150499999996 8.3839561499999995 Cl
atom 13.1418065100000003 13.1339601600000009 8.3152692600000009 Na
atom 10.2971085500000008 13.1753999400000001 8.5311543099999998 Cl
atom 13.1194966300000004 15.9497254500000007 5.6350076700000002 Na
atom 10.2218272900000002 16.0101978699999989 5.6608159400000000 Cl
atom 10.2815617600000007 18.8284576900000005 5.7737866100000002 Na
atom 13.0414787600000004 18.8248644600000006 5.5549870200000004 Cl
atom 10.2788719600000000 21.6686920200000017 8.3867037900000003 Na
atom 13.0423630300000006 21.6689774499999999 8.5944392999999994 Cl
atom 13.0442818700000007 18.8055614400000017 8.1272720199999995 Na
atom 10.3051150800000002 18.7935346299999999 8.5516592899999999 Cl
atom 13.1304288699999994 21.6831608399999993 5.8056242700000000 Na
atom 10.3043290899999995 21.6213514499999988 5.7321618299999999 Cl
atom 10.3056436700000003 24.4955422600000006 5.8377907300000000 Na
atom 13.1180246300000007 24.4954381400000010 5.7505231300000004 Cl
atom 10.2795063399999993 27.2782627099999999 8.3180232800000002 Na
atom 13.0824199199999995 27.3436123900000005 8.5634576899999999 Cl
atom 13.1451691000000004 24.4498994900000000 8.3377941199999999 Na
atom 10.3788908800000002 24.4458914699999994 8.5797334200000002 Cl
atom 13.0936376899999996 27.2812761899999998 5.8258739799999999 Na
atom 10.3091122700000000 27.2695746300000010 5.6917216899999996 Cl
atom 10.2678152100000002 29.9527367799999986 5.8190429999999997 Na
atom 13.1212634900000005 30.0552718900000002 5.7263174100000001 Cl
atom 10.3336853499999997 32.9320396299999985 8.3618552400000006 Na
atom 13.1141616499999998 32.8810559799999993 8.5393958899999998 Cl
atom 13.0903792800000005 30.0408780200000010 8.3696697899999997 Na
atom 10.2457859500000001 30.0749952399999998 8.5308986200000003 Cl
atom 13.1394134900000008 32.8571255199999968 5.8093135000000000 Na
atom 10.3739274300000002 32.8544349299999965 5.7072402999999996 Cl
atom 10.2332720699999999 35.7640985199999974 5.8031836400000003 Na
atom 13.1406314200000001 35.7408286200000020 5.7396630699999998 Cl
atom 10.3420003800000000 38.5330126200000009 8.2914262300000008 Na
atom 13.2114177599999998 38.5133190099999965 8.6391715799999993 Cl
atom 13.0966778999999995 35.7419869000000006 8.3676856399999995 Na
atom 10.3162602099999994 35.6773834199999982 8.5832147400000007 Cl
atom 12.9971034799999998 38.5943230600000007 5.9286106900000002 Na
atom 10.3763666899999993 38.5317390800000013 5.7266930900000004 Cl
atom 10.3361084800000000 1.8642274700000001 5.8111487100000003 Na
atom 13.0873464800000008 1.8914647400000000 5.8381256300000004 Cl
atom 10.2619813799999999 4.7556063999999996 8.3976230699999999 Na
atom 13.1260535399999991 4.7692605700000001 8.5785878600000007 Cl
atom 13.1027087000000009 1.9291987900000001 8.4249291900000003 Na
atom 10.3452960399999991 1.9220267499999999 8.6551396300000007 Cl
atom 13.1501416199999994 4.6747606099999999 5.8385369000000003 Na
atom 10.2814240100000003 4.7081144899999998 5.7837435499999996 Cl
atom 10.3554914000000000 7.4661329900000002 5.7643658699999998 Na
atom 13.1179916700000003 7.4844344500000002 5.7632016799999999 Cl
atom 10.2982871599999992 10.3684345899999997 8.3158954600000001 Na
atom 13.1761654299999993 10.3538299800000004 8.6124969799999995 Cl
atom 13.1504372400000005 7.5567100500000004 8.3592052999999993 Na
atom 10.3217596999999994 7.5692966200000003 8.5900211800000008 Cl
atom 13.1449635499999999 10.3226207900000002 5.7847992399999999 Na
atom 10.3446893299999996 10.2825131400000007 5.7224140300000004 Cl
atom 15.9993978499999994 13.1188889399999997 5.8016864200000002 Na
atom 18.7859764499999997 13.1450261699999995 5.6757904300000002 Cl
atom 15.9346366600000007 15.9719289000000000 8.3626648499999998 Na
atom 18.7405467399999992 15.8534773399999995 8.4986179800000006 Cl
atom 18.7451593000000010 13.1755557900000007 8.3817363399999998 Na
atom 15.9565261500000002 13.1606576799999999 8.5717803000000004 Cl
atom 18.8210068399999990 15.9332925599999999 5.6003732099999999 Na
atom 16.0304469000000012 15.9039332800000004 5.6240361800000001 Cl
atom 15.9399757900000001 18.8345935100000013 5.4209031500000000 Na
atom 18.7420388600000010 18.7429881800000011 5.4609333199999996 Cl
atom 16.2033104399999992 21.7741338099999986 8.1252760100000003 Na
atom 19.0393963399999997 22.2018832699999997 7.8016758299999998 Cl
atom 18.8858250199999986 18.7843062200000013 8.0634337100000000 Na
atom 15.8821844500000005 18.8341210799999992 8.1761736299999992 Cl
atom 18.8658193999999995 21.7087507100000003 5.1961259499999999 Na
atom 15.9017451300000001 21.7472614100000001 5.6125802499999997 Cl
atom 15.9914149000000005 24.5563403800000017 5.7805824699999997 Na
atom 18.8239486800000009 24.7094663099999998 5.5893472500000003 Cl
atom 15.9018070300000005 27.3980088299999984 8.3419595100000006 Na
atom 18.7764777699999996 27.4577333400000008 8.5493830200000005 Cl
atom 18.7627286399999988 24.8751190400000013 8.2068769300000000 Na
atom 15.8438255199999993 24.5372727700000013 8.5535556499999998 Cl
atom 18.7771158500000013 27.3315963300000000 5.7228991300000001 Na
atom 15.9526562700000003 27.3124771600000003 5.7151943200000002 Cl
atom 15.9150024200000004 30.1188165900000016 5.7777131900000001 Na
atom 18.7990449400000017 30.1146899700000006 5.7543371399999996 Cl
atom 15.9244645200000008 32.9307342800000029 8.3276508499999995 Na
atom 18.7661063699999993 32.8943919499999993 8.5578870400000007 Cl
atom 18.7350815699999984 30.1265815500000009 8.3572800300000001 Na
atom 15.9471194999999994 30.1507461499999998 8.5458714199999992 Cl
atom 18.7639578799999995 32.8818914699999993 5.8211186599999998 Na
atom 15.8999291800000009 32.9208670900000016 5.6976187700000001 Cl
atom 15.9420068100000005 35.7372956399999993 5.7835330599999999 Na
atom 18.7057156999999989 35.7517096500000022 5.7384504600000001 Cl
atom 16.0519788900000009 38.5875683100000018 8.3700731400000006 Na
atom 18.8463241500000009 38.5279932899999977 8.5174223799999993 Cl
atom 18.7291406800000004 35.7157393600000006 8.4015960100000004 Na
atom 15.9374760700000007 35.7189337499999979 8.5642175599999995 Cl
atom 18.7186626700000005 38.5512888100000026 5.9624203400000004 Na
atom 15.9885218400000007 38.6033931500000023 5.8570286600000001 Cl