#===============================================================================
# Created using the Atomic Simulation Environment (ASE)

# Tue Dec 23 21:41:55 2025

#=======================================================
lattice_vector 28.1999999999999993 0.0000000000000000 0.0000000000000000 
lattice_vector 0.0000000000000000 39.4799999999999969 0.0000000000000000 
lattice_vector 0.0000000000000000 0.0000000000000000 62.3296083400000001 
atom 7.7734621800000001 15.4070704700000007 -2.4405420800000002 Au
atom 10.6498392899999992 14.7099271300000005 0.6700047600000000 Au
atom 13.1964599099999997 14.6534523700000001 0.0991399200000000 Au
atom 15.8853601399999995 14.8776082400000007 -0.5365441399999999 Au
atom 18.7582384500000003 14.9681431000000007 -0.5887453600000000 Au
atom 21.7093787300000010 15.0411225300000009 -0.4543199100000000 Au
atom 24.6595883799999989 14.9869538000000002 -0.2053543900000000 Au
atom 27.5141816199999987 14.8846433999999999 0.1153427300000000 Au
atom 2.0573469100000001 14.8314752999999993 -0.3716029800000000 Au
atom 4.6002920300000003 15.1545015999999997 -1.7482285000000000 Au
atom 8.7038071000000006 16.9873727800000012 -0.0012293100000000 Au
atom 11.6375357200000007 17.3301437199999988 -0.4345249900000000 Au
atom 14.5437786500000001 17.3585977599999985 -0.6629832100000000 Au
atom 17.4366634400000002 17.4440006499999996 -0.6395002300000000 Au
atom 20.2484949800000003 17.5373177099999999 -0.2786346300000000 Au
atom 23.1255108299999996 17.5392930699999994 -0.0919509800000000 Au
atom 26.0262911099999990 17.4591746599999986 -0.0760893100000000 Au
atom 0.7614975600000000 17.3524405600000016 0.1815748800000000 Au
atom 3.5828264800000000 17.2349319200000011 -0.3244140700000000 Au
atom 6.1617138000000002 17.6792563899999990 -1.6578232799999999 Au
atom 7.5917380000000003 19.8569760299999984 -0.1964303000000000 Au
atom 10.3633048700000003 19.7765159200000014 -0.6849295399999999 Au
atom 13.2699040299999993 19.8701230600000009 -0.8133187000000000 Au
atom 16.1365930499999983 19.9894077199999991 -0.7109955500000000 Au
atom 18.8632601499999986 19.9838091999999996 0.0067638100000000 Au
atom 21.6703750799999995 20.0124218899999988 0.3389835400000000 Au
atom 24.5049886699999995 19.9754202899999989 0.3537924700000000 Au
atom 27.3198421899999992 19.9564818200000005 0.0076879400000000 Au
atom 1.9877131800000001 19.8594303600000011 0.0466592000000000 Au
atom 4.7912447199999999 20.0940711900000011 -0.3823854200000000 Au
atom 9.0594911499999995 22.4038009000000002 -0.5770867200000001 Au
atom 11.8855434199999994 22.4527099700000008 -0.8817552700000000 Au
atom 14.7162001900000003 22.5053065100000005 -0.6087259900000001 Au
atom 17.5267023799999997 22.4936861999999991 -0.0332552800000000 Au
atom 20.2789645800000002 22.4086460299999999 0.7739166300000000 Au
atom 23.1088377399999985 22.4371307699999996 0.8438137300000000 Au
atom 25.8841693200000016 22.4716234600000000 0.3652419900000000 Au
atom 0.4715242000000000 22.4705545700000009 -0.0225087200000000 Au
atom 3.2905173699999999 22.4803674200000003 -0.1854357700000000 Au
atom 6.2076382900000002 22.4875124000000000 -0.4102708500000000 Au
atom 7.6577313000000000 24.9610983500000003 -0.3341662300000000 Au
atom 10.4788545600000003 25.0369171299999991 -0.5606331100000000 Au
atom 13.2881892300000004 25.0083644199999995 -0.3815135000000000 Au
atom 16.1690922300000004 25.0349712599999989 -0.1330790600000000 Au
atom 18.9899948199999997 24.9682136899999989 0.1870513700000000 Au
atom 21.6677043100000013 24.8831685000000000 1.1120779700000001 Au
atom 24.4840788899999993 24.9241683599999995 0.7871290500000000 Au
atom 27.2782118599999990 24.9677921299999994 0.2517586100000000 Au
atom 1.9017976800000000 24.9910773199999987 -0.0834614300000000 Au
atom 4.7745866899999996 24.9867023199999991 -0.2966410200000000 Au
atom 9.0856064799999992 27.4980993900000001 -0.0954520000000000 Au
atom 11.9051635299999994 27.5162929900000002 0.0144439200000000 Au
atom 14.7023436899999993 27.4306542499999999 0.1402213800000000 Au
atom 17.5628332399999998 27.5525560200000008 0.0598812600000000 Au
atom 20.2286378999999990 27.4394326699999986 0.8243313400000000 Au
atom 23.0670826200000008 27.3454616100000010 1.0864829600000001 Au
atom 25.8662024099999996 27.4129823799999990 0.6425140900000000 Au
atom 0.4902387800000000 27.4540915900000009 0.1292488700000000 Au
atom 3.3806208700000000 27.4722788000000016 -0.0761330600000000 Au
atom 6.2464238200000004 27.4637578500000004 -0.1369798700000000 Au
atom 7.6901138600000003 29.9608481900000001 0.0825734900000000 Au
atom 10.5401403600000005 29.9742682100000017 0.3114962200000000 Au
atom 13.3660712900000007 29.9145715400000007 0.6465964199999999 Au
atom 16.0521141000000007 29.9492768399999996 -0.1896300000000000 Au
atom 18.8874801499999982 30.1111167199999983 0.1303025700000000 Au
atom 21.6168887199999986 29.8419652599999985 0.6581841500000000 Au
atom 24.4135882299999984 29.8261289400000003 0.8593162400000000 Au
atom 27.2546122199999985 29.8778414699999999 0.3594153300000000 Au
atom 1.9349476900000000 29.9237280900000009 0.0183086400000000 Au
atom 4.8270811199999999 29.9328422500000002 -0.0094475500000000 Au
atom 9.1235250099999998 32.4288623300000012 0.3793150100000000 Au
atom 11.9674952000000001 32.3675278199999994 0.8871504300000000 Au
atom 14.9671204800000002 32.3177218699999997 0.8223199100000000 Au
atom 17.3402534000000017 32.3300343200000029 -1.2030302399999999 Au
atom 20.4183494600000017 32.1874643000000020 -1.1595360200000000 Au
atom 22.9043239800000009 32.2606402500000016 0.6760740400000000 Au
atom 25.8283772899999988 32.2879818899999975 0.5592160200000000 Au
atom 0.4889415900000000 32.3539927599999970 0.1977214500000000 Au
atom 3.3968197299999998 32.4152223299999989 0.0392990500000000 Au
atom 6.2680505200000001 32.4295041600000005 0.1350477700000000 Au
atom 7.6459605699999997 34.9782976400000010 0.4231466000000000 Au
atom 10.4748310199999999 34.8453164100000023 0.6925570200000000 Au
atom 13.3774359300000008 34.7651346299999986 0.7664131500000000 Au
atom 16.3655564899999995 34.6750131599999989 0.5043601599999999 Au
atom 18.8148042000000011 34.8880431199999990 -1.2467751400000000 Au
atom 21.3963664899999984 34.5694881000000009 0.1655474500000000 Au
atom 24.3435784599999998 34.6918097000000003 0.5575365000000000 Au
atom 27.2768020200000016 34.7714840900000013 0.4278828400000000 Au
atom 1.9609042299999999 34.8595578500000016 0.2529708700000000 Au
atom 4.8192990699999996 34.9376688500000014 0.3506813900000000 Au
atom 8.9952527100000008 37.4290320699999981 0.9456182700000000 Au
atom 11.7621241100000002 37.3127094800000023 0.7494543900000000 Au
atom 14.5796133200000000 37.2369905799999970 0.5725248200000000 Au
atom 17.4120995699999987 37.1952333500000023 0.3165457800000000 Au
atom 20.1632159599999987 37.1740053700000033 0.0764622100000000 Au
atom 22.9367347200000005 37.1055615399999965 0.4005011300000000 Au
atom 25.8382540600000006 37.1509525100000033 0.3548588300000000 Au
atom 0.5420367600000000 37.2679918999999984 0.4874779800000000 Au
atom 3.3784721400000000 37.3713015800000008 0.6673956300000000 Au
atom 6.1768815200000002 37.4791276500000023 0.9083752800000000 Au
atom 7.6381712300000002 0.3638456500000000 1.2157957900000000 Au
atom 10.4169048400000008 0.3617969700000000 1.4637584200000000 Au
atom 13.0353559699999995 0.3112441600000000 0.7817055300000000 Au
atom 15.8255100599999992 0.2424875600000000 0.2495778700000000 Au
atom 18.7046138500000012 0.2425326100000000 0.0424387900000000 Au
atom 21.5788968200000006 0.1751154500000000 0.0756731000000000 Au
atom 24.4352230100000014 0.1523480000000000 0.2013635700000000 Au
atom 27.2690779799999987 0.1881704300000000 0.4445782000000000 Au
atom 1.8719849000000000 0.2440486100000000 0.9438795300000000 Au
atom 4.7249920899999998 0.4079878600000000 1.0317700400000001 Au
atom 9.0310433600000000 2.8441917499999998 1.1188727999999999 Au
atom 11.7792204799999993 2.8970754200000002 1.8240541900000000 Au
atom 14.4002235699999996 2.7434544199999999 0.5530707500000001 Au
atom 17.2099297900000003 2.7728717500000002 -0.0244803400000000 Au
atom 20.1241484200000009 2.7383709199999999 -0.0875972500000000 Au
atom 23.0060372099999988 2.7088483399999999 0.1005600000000000 Au
atom 25.8483631799999998 2.6792707600000001 0.3475526500000000 Au
atom 0.4038546700000000 2.6574610000000001 0.7910001800000001 Au
atom 3.3019929299999999 2.7520071599999998 0.8715664200000000 Au
atom 6.2907178799999999 2.9797461500000000 1.2089375899999999 Au
atom 7.7446213100000003 4.9703188500000000 -0.6799100800000000 Au
atom 11.0213515500000003 4.5630313300000003 -0.8172545800000000 Au
atom 13.1072401700000007 5.2050692300000003 0.9060133900000000 Au
atom 15.7833382499999999 5.2729078600000001 0.2602468700000000 Au
atom 18.6634660200000013 5.2820364700000004 -0.1057425600000000 Au
atom 21.6045095700000012 5.2282043900000001 0.0021986100000000 Au
atom 24.5538694500000005 5.2219287300000001 0.1728113900000000 Au
atom 27.3365885999999989 5.1562607500000004 0.7301070900000000 Au
atom 1.9330325300000000 5.0241761900000004 0.6857649400000000 Au
atom 4.8601913999999997 5.2531892600000001 0.1536065700000000 Au
atom 9.0392545200000001 7.7483773400000002 -0.5056952800000000 Au
atom 11.2810444000000007 7.5791159099999996 1.1010392000000000 Au
atom 14.3061351899999991 7.6156888499999997 1.0096874800000000 Au
atom 17.2254558399999986 7.6450431999999999 0.0812664100000000 Au
atom 20.1610149700000001 7.7300344699999997 -0.0829950900000000 Au
atom 23.1603657299999988 7.7110573100000002 0.0707470700000000 Au
atom 26.0819597700000010 7.6984732400000002 0.5959180100000000 Au
atom 0.6875333300000001 7.5340307299999996 1.0479741600000001 Au
atom 3.2094001799999998 7.7951195999999996 -0.4473531500000000 Au
atom 6.0911092699999996 7.3831097899999998 -1.3022706100000001 Au
atom 8.6247172600000006 11.9287517399999992 -5.1777337000000001 Au
atom 11.0520874199999994 9.5288074199999997 -1.2060171200000001 Au
atom 12.9399337699999997 9.9459227699999992 1.1843989699999999 Au
atom 15.8009008400000006 9.9212063799999992 0.5470356199999999 Au
atom 18.7085272200000006 10.1372616600000001 -0.1190048100000000 Au
atom 21.6903995400000014 10.1683537600000005 -0.1169122000000000 Au
atom 24.6856834700000007 10.1339904700000005 0.2614782500000000 Au
atom 27.7259771899999983 10.0339799599999999 0.9169622400000000 Au
atom 2.6798878899999998 10.2089968899999999 0.9015213399999999 Au
atom 5.0017238900000001 10.0382242799999997 -1.9417208600000000 Au
atom 8.0830882899999992 14.6192872000000005 -5.2894637099999997 Au
atom 10.9388217700000006 11.9593537399999992 0.7348013200000000 Au
atom 14.1365972099999997 12.3697562500000000 0.4503048600000000 Au
atom 17.2947364599999993 12.4697581300000007 -0.2362204300000000 Au
atom 20.2116578400000009 12.5829559700000004 -0.3479269400000000 Au
atom 23.2097359400000016 12.5720214400000003 -0.1494686900000000 Au
atom 26.1617314699999994 12.4894878600000006 0.3189392900000000 Au
atom 0.8994580300000000 12.3965173300000000 0.3403333100000000 Au
atom 3.4457844099999999 12.2065032099999993 -1.1607305600000000 Au
atom 6.1939351900000004 12.7004328599999994 -2.1821701299999998 Au
atom 7.4468524299999999 14.3872337300000002 -0.0940773000000000 Au
atom 11.2869616599999993 15.0188696700000008 4.7757782600000001 Au
atom 13.4055209800000004 13.7675530800000008 3.1180847799999998 Au
atom 16.1388708399999992 13.5972086399999998 2.5669443900000002 Au
atom 18.8140886400000014 13.4799415800000002 2.1691908799999999 Au
atom 21.6804247799999992 13.4489696100000007 2.2168338699999999 Au
atom 24.5660931399999996 13.4270532300000003 2.6156643700000002 Au
atom 27.5157382900000016 13.3891808300000008 2.8399348000000000 Au
atom 2.4712889300000001 13.2756120200000005 2.5166617900000001 Au
atom 4.8357918399999997 13.7693922999999998 0.6353165100000000 Au
atom 8.7093065700000007 15.7296054299999994 2.7883389900000002 Au
atom 11.9364383000000007 16.2423842100000009 2.2609397800000002 Au
atom 14.7603375799999998 16.0183094299999986 2.1590528700000000 Au
atom 17.4696250800000001 15.9269154400000001 1.9287582100000000 Au
atom 20.2550507700000004 15.8478315799999994 2.0896244400000001 Au
atom 23.1444894400000010 15.8297871800000003 2.3135994800000002 Au
atom 25.9785144999999993 15.8157743699999997 2.4378117700000002 Au
atom 0.6915120100000000 15.7824570699999995 2.7386794600000002 Au
atom 3.6269055899999998 15.8219609000000005 2.3991723800000000 Au
atom 6.1270213599999996 16.3240975299999995 1.1220581100000000 Au
atom 7.5252672199999999 18.3237063000000013 2.3955715899999999 Au
atom 10.2646406799999994 18.4144909199999987 2.0695390699999998 Au
atom 13.3480516799999993 18.5823551299999998 1.8851565900000000 Au
atom 16.1417696200000016 18.4290753699999996 1.8225140600000000 Au
atom 18.8613030500000001 18.2895294799999988 2.3769080900000001 Au
atom 21.6852467500000010 18.2636711799999993 2.5833734300000000 Au
atom 24.5606992200000001 18.2478998499999996 2.7258337099999999 Au
atom 27.3610951799999995 18.3213858700000003 2.5331383100000000 Au
atom 2.0485847700000002 18.2583989299999985 2.7352542700000000 Au
atom 4.7361870499999998 18.4896105400000010 1.9543786299999999 Au
atom 9.1002143699999998 20.8622723500000014 2.1459923700000001 Au
atom 11.8440439099999999 20.8752080500000012 1.6525666999999999 Au
atom 14.7348408800000001 20.9084266300000010 1.8472379299999999 Au
atom 17.5063825400000006 20.8862607300000001 2.4431104399999999 Au
atom 20.2504040600000010 20.7219652799999992 3.1570455700000002 Au
atom 23.0861195899999991 20.7210891400000001 3.1640727399999999 Au
atom 25.9100261600000010 20.8066870500000007 2.8480749799999998 Au
atom 0.5203092700000000 20.8368836500000008 2.5453271399999999 Au
atom 3.3382698199999998 20.9108912199999999 2.5727085299999999 Au
atom 6.2441446799999998 20.9253639999999983 2.3442229600000002 Au
atom 7.6582517299999999 23.2922562599999985 2.1689319000000000 Au
atom 10.4621563599999998 23.3111986800000004 1.8543935300000001 Au
atom 13.2731616399999997 23.2948573799999998 1.9857540499999999 Au
atom 16.0378848900000008 23.3502979699999997 2.3099471500000002 Au
atom 18.8091602800000004 23.4419665600000009 2.9075609000000000 Au
atom 21.6322503799999986 23.2171785700000015 3.6239685200000000 Au
atom 24.5264322099999994 23.2738998300000013 3.3012592100000000 Au
atom 27.3362373000000005 23.3423830899999984 2.8072337400000000 Au
atom 1.9274227900000001 23.3756299200000015 2.4889434100000001 Au
atom 4.8044182800000002 23.3365075100000006 2.2697444600000001 Au
atom 9.0500203300000006 25.7287422100000001 2.2784206400000002 Au
atom 11.8517606099999995 25.7350405500000008 2.3169697500000002 Au
atom 14.6502954499999998 25.7384292200000004 2.5348043400000000 Au
atom 17.4571497399999984 25.9147375500000017 2.6623815999999998 Au
atom 20.1888264600000014 25.8280188899999992 3.3403154900000001 Au
atom 23.0673371299999985 25.7379409099999990 3.6857441899999999 Au
atom 25.9417868300000016 25.7890215199999986 3.1693184799999998 Au
atom 0.5778265100000000 25.8166108200000011 2.6980427400000000 Au
atom 3.4092812299999999 25.7891498000000006 2.3915661899999998 Au
atom 6.2182859400000003 25.7675213700000008 2.3062654400000002 Au
atom 7.6463279200000001 28.2041567700000009 2.5522884700000001 Au
atom 10.4601502100000001 28.1711815899999998 2.6832346700000000 Au
atom 13.2318725900000000 28.1128349100000001 2.9448497800000002 Au
atom 15.9877485200000002 28.3519561099999997 2.5746646900000001 Au
atom 18.7340318799999999 28.4229132600000014 3.1593277400000002 Au
atom 21.5688736500000005 28.2937131899999983 3.4239544799999999 Au
atom 24.5199999400000017 28.2246381699999986 3.5560379100000001 Au
atom 27.3917543300000013 28.2503149100000002 3.0165684100000001 Au
atom 2.0064105500000000 28.2500305599999990 2.5852398800000000 Au
atom 4.8453074999999997 28.2198617200000008 2.5590476700000000 Au
atom 9.0400864100000007 30.6879703799999994 2.8302027399999998 Au
atom 11.8257369899999993 30.6382974200000007 3.2553037200000001 Au
atom 14.6792157499999991 30.6794390200000002 3.3444521100000002 Au
atom 17.3084506400000002 30.8769743500000011 2.2807925600000001 Au
atom 20.0267999600000017 30.8115017699999996 2.9477015700000000 Au
atom 22.9147760100000006 30.7076775899999994 3.4278900200000000 Au
atom 25.9151805800000012 30.7172927599999994 3.1997705600000002 Au
atom 0.5685088600000000 30.7058413500000000 2.8034039800000001 Au
atom 3.4086335100000000 30.7130859700000016 2.5611491399999999 Au
atom 6.2212459200000003 30.7160687199999991 2.6814956799999998 Au
atom 7.5977881600000003 33.1884870800000016 2.8440032999999998 Au
atom 10.4173237600000004 33.1618027800000021 3.3326572900000002 Au
atom 13.3507057899999992 33.1500184599999983 3.3649303499999998 Au
atom 16.2907769599999988 33.2547792800000011 3.3388285199999999 Au
atom 18.8422498000000012 33.1778314600000002 1.2441322800000001 Au
atom 21.3908183100000002 33.2070201399999974 2.9498011499999999 Au
atom 24.4100276600000008 33.1064359599999989 3.1725136799999998 Au
atom 27.3422584700000009 33.1574740800000001 3.0147759600000001 Au
atom 1.9867473400000000 33.1829632999999973 2.6962212700000001 Au
atom 4.7896406499999999 33.1686799699999995 2.7610326800000000 Au
atom 8.9843525700000004 35.5976589799999985 3.2371289299999999 Au
atom 11.8318094600000006 35.6332396800000026 3.2958112499999999 Au
atom 14.7388835700000005 35.6297700900000009 3.2155401399999999 Au
atom 17.5125242099999987 35.7194697099999985 3.0659018900000001 Au
atom 20.1860126999999991 35.6524885899999973 2.5697878099999998 Au
atom 22.9667966399999983 35.5815450300000009 3.0175688400000000 Au
atom 25.8450246800000016 35.5689491999999987 3.0059231999999998 Au
atom 0.5431229900000000 35.5893396399999986 2.9434643500000002 Au
atom 3.3472873200000000 35.5726062800000022 3.0363680199999998 Au
atom 6.1630100199999998 35.5771737600000009 3.1372197499999999 Au
atom 7.5879429800000002 38.0171928299999990 3.7532716300000000 Au
atom 10.3802621899999998 38.0879303500000006 3.7190676200000001 Au
atom 13.1765608800000003 38.1102727000000030 3.2520830400000000 Au
atom 16.0110427400000006 38.1698663900000028 2.9586811300000000 Au
atom 18.8382058999999984 38.1981418499999990 2.7597190500000002 Au
atom 21.6193293799999999 38.1359742599999976 2.8558799300000000 Au
atom 24.4268119699999993 38.0448109700000003 2.8643383999999998 Au
atom 27.2764106499999990 38.0607460399999979 2.9425337300000001 Au
atom 1.8733336100000000 38.0640331900000035 3.3481166299999998 Au
atom 4.6025789000000001 37.9118880500000017 3.5586922500000000 Au
atom 8.9565542300000001 1.1872330499999999 4.0674029100000002 Au
atom 11.8876673000000004 1.0461840099999999 3.8976407300000000 Au
atom 14.5531912000000005 1.1269017900000000 3.0871876800000000 Au
atom 17.3743073800000012 1.1900696600000000 2.6033011199999998 Au
atom 20.2274049500000004 1.2087167599999999 2.5581737400000000 Au
atom 23.0299930300000000 1.1188224000000000 2.6795558100000001 Au
atom 25.8160873299999984 1.0403362400000000 2.9089477300000000 Au
atom 0.3869896300000000 1.0236454699999999 3.3637651900000001 Au
atom 3.2108491799999999 1.0605410000000000 3.7354709700000002 Au
atom 6.0292319699999997 0.7626018700000000 3.4759194400000002 Au
atom 7.9899077099999998 4.8598319400000003 3.3636452000000001 Au
atom 10.5100470900000005 3.3495068500000000 4.7365385000000000 Au
atom 13.5694952400000002 3.4521378899999999 4.3833446100000000 Au
atom 15.9614748800000008 3.6681140499999998 2.7629328900000001 Au
atom 18.7932722500000011 3.6873125400000002 2.4386143499999999 Au
atom 21.6093743899999993 3.6522589499999998 2.6078870699999999 Au
atom 24.3870576499999991 3.6012474800000001 2.7626986800000002 Au
atom 27.1273827800000014 3.5122960999999999 3.3018906600000002 Au
atom 1.7522670400000000 3.6122372700000001 3.4045041999999999 Au
atom 4.4831039800000001 3.9986386299999999 2.9393977599999999 Au
atom 9.6242968500000003 5.6725642000000001 1.5474463100000000 Au
atom 11.8099491800000003 5.5443037799999999 3.3438223499999999 Au
atom 14.6242766399999997 6.0155325900000003 3.6057726500000000 Au
atom 17.3634538399999983 6.1443175700000001 2.6097780500000001 Au
atom 20.2177460000000018 6.1430417799999999 2.5000947199999999 Au
atom 23.0677400000000006 6.1297544000000004 2.6089269499999999 Au
atom 25.8770369900000006 6.0645332900000000 3.1069428499999998 Au
atom 0.5253480600000000 6.0411460699999999 3.6675566800000001 Au
atom 3.2471694599999998 6.7125399600000000 2.2721452000000002 Au
atom 6.9975179499999998 6.8878413900000002 1.5321851200000001 Au
atom 7.8588032900000000 10.2026532799999998 -3.3843811300000000 Au
atom 9.1052574899999996 10.8369123700000003 1.8098590100000000 Au
atom 13.3972312000000002 8.5942224899999999 3.6628033200000001 Au
atom 16.0577171400000012 8.6253125799999992 3.2276479400000002 Au
atom 18.7416640299999990 8.6275803799999995 2.5049698000000000 Au
atom 21.6462928800000007 8.6043959700000006 2.5299299099999999 Au
atom 24.4428082999999994 8.5873845499999995 2.9290721700000000 Au
atom 27.1435785699999990 8.5740670199999993 3.5464396900000001 Au
atom 1.8173870200000000 8.7566808500000004 3.5017158700000000 Au
atom 5.4452786199999998 9.3072481899999993 0.9107158900000000 Au
atom 10.6160795500000003 13.5131483299999999 -5.0233426300000001 Au
atom 12.1178807099999997 11.4558264500000000 3.4148941100000001 Au
atom 14.7142157600000001 11.1526748500000004 3.4867243200000000 Au
atom 17.3969488299999995 11.1113683800000000 2.6413422299999998 Au
atom 20.2382041999999984 11.0397092899999993 2.3470982600000001 Au
atom 23.0889222899999993 11.0427884100000000 2.5822450699999999 Au
atom 25.9117747099999995 11.0429399900000007 3.0712244599999998 Au
atom 0.7995753700000000 11.1452879500000002 3.3964709800000001 Au
atom 4.0906071400000004 11.1828035900000007 3.2414686399999999 Au
atom 6.7133301100000002 11.6842621100000006 0.6713993800000000 Au
atom 6.8711734900000003 16.7824775200000005 5.5741051099999996 Cl
atom 6.6019300899999998 17.9610473800000001 9.8875840000000004 Cl
atom 6.2817728099999997 16.1704405700000002 8.3975550099999996 Na
atom 7.9618097099999998 18.3973900599999993 6.8784443000000000 Na
atom 5.9420942500000002 19.8359503699999991 6.0526710100000001 Cl
atom 6.5423767699999997 22.2799345700000018 8.2084426500000003 Cl
atom 5.9809572500000003 19.9750730800000014 8.6896194599999994 Na
atom 6.2922126699999996 22.0988641799999996 5.4506603299999998 Na
atom 6.3987357999999999 24.6123881799999999 5.1124946900000001 Cl
atom 6.6197711799999999 27.1155399999999993 8.4962413300000001 Cl
atom 6.5433837700000002 24.6996829700000013 7.8654520699999999 Na
atom 6.5646310100000003 27.1531012899999986 5.5401524899999997 Na
atom 6.8059692199999997 29.6902224699999984 5.6367488899999998 Cl
atom 7.1307205199999997 32.0513821799999974 9.0425967699999994 Cl
atom 6.8582607700000002 29.5450628600000016 8.4186259099999994 Na
atom 7.1932767399999999 32.2754203799999999 6.2126073100000001 Na
atom 7.7744250299999997 34.8654304399999972 6.4907518900000003 Cl
atom 8.0215911799999997 37.1965351300000009 9.6200535299999999 Cl
atom 7.5726791599999999 34.6757525000000015 9.2269689400000008 Na
atom 8.3408822699999998 37.3905630900000006 6.9325072600000004 Na
atom 8.1827795900000009 0.3443826000000000 6.8469920799999997 Cl
atom 8.0991020999999996 3.0992430500000001 8.8817967299999996 Cl
atom 7.5260691499999997 0.3127987300000000 9.6116811200000001 Na
atom 9.9788022999999999 2.3254008499999999 7.7413902600000002 Na
atom 6.8530533699999996 2.9159489399999998 4.4476852600000001 Cl
atom 7.6136689000000004 12.6508394200000005 4.3690606900000004 Cl
atom 8.7389800399999995 13.5938350999999997 1.0463662600000001 Na
atom 4.4570753400000003 18.0998685500000001 4.8709131299999999 Na
atom 9.3089502500000005 12.9820312300000005 6.3002263699999999 Na
atom 14.4447316499999996 12.8363870700000007 6.3286573300000004 Cl
atom 10.9917138300000001 16.4933199399999992 8.2840637299999997 Na
atom 13.7791388500000007 16.1416052699999995 8.4964351499999999 Cl
atom 14.1196116499999995 13.2903741800000006 8.7691937499999995 Na
atom 11.3032906000000004 13.7726366500000008 7.8814081600000003 Cl
atom 13.3815128100000003 15.3904938500000004 6.0205114899999996 Na
atom 10.0000001600000008 16.5096074600000016 6.0918610700000002 Cl
atom 10.3213417799999991 18.8362999600000016 5.1034129999999998 Na
atom 12.8136371300000000 18.1585512700000002 5.1743382100000002 Cl
atom 9.5032166399999998 21.5584113600000009 7.6848175100000002 Na
atom 12.2770973699999999 21.2046518900000009 7.7637303099999997 Cl
atom 12.9161471100000007 18.6931895099999998 7.6788331100000002 Na
atom 10.0863510800000000 19.0191307199999997 8.1415072399999993 Cl
atom 12.3742540000000005 21.2561155799999995 4.9619533400000000 Na
atom 9.2596794100000004 21.4090660200000009 5.0773588299999997 Cl
atom 9.4000096099999997 24.1696451500000009 5.2263526400000000 Na
atom 12.2542673600000001 24.0279155700000011 5.2714346900000004 Cl
atom 9.4324089200000003 26.7408838700000011 8.2037645900000005 Na
atom 11.9675076199999992 26.4825258599999991 8.4359632500000004 Cl
atom 12.3553312799999997 23.8958297199999983 7.8998856100000001 Na
atom 9.3160580599999996 24.1057126000000004 8.0790027599999998 Cl
atom 12.3064266399999998 26.6889268199999989 5.7285543499999996 Na
atom 9.2061060999999995 26.7438078700000013 5.4668487600000004 Cl
atom 9.4831788100000001 29.4041763200000013 5.8972806899999997 Na
atom 12.0646252300000008 29.2872258700000003 5.7991939300000004 Cl
atom 9.8010881100000002 31.9537422199999988 8.7983887700000007 Na
atom 12.3519296799999996 32.1479795300000006 8.6477042199999996 Cl
atom 12.2422182300000006 29.3281907799999999 8.4963562800000005 Na
atom 9.6165071199999996 29.2867946799999999 8.6430986399999998 Cl
atom 12.5291283500000006 32.0063740699999997 6.0660634299999998 Na
atom 9.7801874699999995 32.3430004399999973 6.0819974200000004 Cl
atom 10.5794441799999994 34.9435459099999974 6.8227505800000001 Na
atom 13.2162889700000008 35.4856817399999969 6.6455378600000001 Cl
atom 11.0867283899999993 37.6844928499999980 9.6005292299999994 Na
atom 14.0624541500000007 38.0989126999999996 9.7472867099999991 Cl
atom 13.3926162499999997 34.9193582199999994 9.1425031299999997 Na
atom 10.4797727399999996 34.8043755599999969 9.5030706299999999 Cl
atom 14.0014884899999998 37.9728687500000035 7.1994788800000000 Na
atom 11.1273350600000001 37.6348221399999971 6.9752172200000002 Cl
atom 12.1084854600000007 0.6004393500000000 6.6687047799999997 Na
atom 14.5480603399999993 1.4125951000000001 6.8566962299999998 Cl
atom 11.7164854399999996 5.5657882200000000 9.1228290500000000 Na
atom 15.4662004399999997 4.6249339999999997 9.4075927299999993 Cl
atom 14.3793321299999999 1.7338157599999999 9.4079383799999992 Na
atom 11.7038511100000004 0.7951016300000000 9.3542598699999999 Cl
atom 14.9385931500000009 4.5440424000000004 6.8054280000000000 Na
atom 12.2194551400000009 3.9771728099999999 7.2223747800000000 Cl
atom 12.0275436700000000 7.2625389699999996 5.9891268599999998 Na
atom 15.6320376000000003 7.3306229099999998 6.2312638900000001 Cl
atom 11.6131653799999999 10.3806577400000002 8.1954706599999998 Na
atom 14.7955941099999997 10.7928707399999997 9.3011786999999995 Cl
atom 15.5703829299999992 7.2948199599999999 8.8295927499999998 Na
atom 12.3808424600000002 8.0813188599999997 8.6762164100000003 Cl
atom 14.6931157599999995 10.1825147699999992 6.7068360100000000 Na
atom 12.1946689300000006 10.0469256999999992 5.7472340099999997 Cl
atom 17.0021063300000002 12.8485575300000008 5.9573716100000000 Na
atom 19.7971838399999989 12.8655411199999996 5.2546481700000003 Cl
atom 16.6084652800000008 15.7427588499999995 7.9700667000000003 Na
atom 19.3339196199999996 15.5480012700000003 8.1570109399999993 Cl
atom 19.7199665300000007 12.9183704800000001 8.1019541700000008 Na
atom 17.2386122300000011 13.2982978999999997 8.7967044100000003 Cl
atom 19.3603884000000015 15.4642254399999999 5.3480645200000003 Na
atom 16.5224091699999995 15.3997968899999993 5.3620941200000001 Cl
atom 15.6231757600000005 18.0237072699999992 5.1035912200000002 Na
atom 18.9912379700000002 18.0158623599999999 5.3513697100000002 Cl
atom 15.0854622799999998 20.8530753900000008 7.7860612600000003 Na
atom 18.3025880100000009 20.5662097499999987 8.4635474100000003 Cl
atom 18.7480879499999986 18.0923792200000015 8.0414435300000005 Na
atom 15.8969335800000007 18.3556327300000000 7.7179505600000002 Cl
atom 18.1122774699999987 20.4072613300000008 5.7688724400000000 Na
atom 15.0798193099999995 20.7837782900000008 5.1628446200000004 Cl
atom 15.2203892700000001 23.6324553199999983 5.4155392999999998 Na
atom 17.8957311099999998 22.8749042799999991 5.4230739500000000 Cl
atom 17.0367950099999987 26.6801930300000016 8.2196454299999999 Na
atom 18.9145510299999984 25.0516725800000017 7.9708127400000004 Cl
atom 17.7454238699999998 22.8145250900000001 8.0683884300000006 Na
atom 15.1972389099999994 23.4149832999999994 8.1866554499999999 Cl
atom 18.4779683800000001 26.3502952199999996 5.6348575900000002 Na
atom 15.2273891500000005 26.4567830899999983 5.8982371599999999 Cl
atom 15.6110275999999999 29.2173791600000001 6.5319187300000001 Na
atom 18.0815564900000005 29.1539780200000003 8.7598056500000006 Cl
atom 15.8045092300000007 32.2984743499999993 8.3246740900000002 Na
atom 18.4370969000000002 33.3044456100000019 8.1222955399999996 Cl
atom 19.2343697599999999 30.1537467499999998 10.7682781700000003 Na
atom 14.7208540600000006 30.0351393400000006 8.6939132699999995 Cl
atom 18.4523899600000014 33.1922706800000000 5.5792857400000004 Na
atom 15.2304348399999991 32.6471989200000010 5.9045049399999998 Cl
atom 15.9928502199999993 35.5292233799999977 6.2903136699999997 Na
atom 18.9609159200000015 35.7066008899999972 5.7767248999999996 Cl
atom 16.7366921300000016 38.3209732799999969 9.1853260500000005 Na
atom 19.4889368699999999 38.2719536199999979 8.9779906000000000 Cl
atom 18.8585112499999994 35.6926418099999978 8.4749747899999992 Na
atom 16.0958733999999986 35.4215961499999992 8.8470385500000006 Cl
atom 19.3371959500000017 38.3299815299999977 6.1787743099999997 Na