#===============================================================================
# Created using the Atomic Simulation Environment (ASE)

# Tue Dec 23 22:26:03 2025

#=======================================================
lattice_vector 28.1999999999999993 0.0000000000000000 0.0000000000000000 
lattice_vector 0.0000000000000000 39.4799999999999969 0.0000000000000000 
lattice_vector 0.0000000000000000 0.0000000000000000 62.3296083400000001 
atom 7.5256530000000001 14.7803624199999994 0.1188600100000000 Au
atom 10.3670141900000008 14.7755052899999999 -0.0502905400000000 Au
atom 13.1184301899999998 14.9473484699999997 -0.1924597300000000 Au
atom 16.1013911999999983 14.8239516499999997 -0.0592602600000000 Au
atom 18.6341906699999988 14.8791743099999998 0.2321963600000000 Au
atom 21.4432196399999988 14.8256322800000007 0.0654417500000000 Au
atom 24.2017380499999994 14.8698565400000007 -0.0627313500000000 Au
atom 27.3246227899999994 14.9363650900000007 -0.1407777200000000 Au
atom 1.8758977999999999 14.7759091999999992 -0.1625772400000000 Au
atom 4.7183288200000000 14.7070108299999998 0.0604655600000000 Au
atom 9.0257442500000007 17.2513273399999996 0.0287790500000000 Au
atom 11.8229795200000005 17.2217431099999985 0.1427143100000000 Au
atom 14.4939795700000005 17.3352634300000013 0.0167104500000000 Au
atom 17.4718837799999989 17.1211566799999986 0.0177460800000000 Au
atom 20.0028875600000013 17.3586521000000005 -0.1171756200000000 Au
atom 22.9563803499999999 17.1392048000000017 0.1647139400000000 Au
atom 25.8380006699999996 17.3838819899999990 0.0274223800000000 Au
atom 0.3640086900000000 17.1869061899999984 0.0779130800000000 Au
atom 3.3332390799999998 17.2127664200000012 -0.0411976200000000 Au
atom 5.9643678199999997 17.3321493000000011 -0.0144719800000000 Au
atom 7.5405931500000003 19.7636415999999997 0.1634847200000000 Au
atom 10.2676218299999995 19.7527254399999990 0.1111590200000000 Au
atom 13.2843128999999998 19.6996556100000006 0.0307072300000000 Au
atom 15.9909276200000008 19.7253963299999988 0.0129809300000000 Au
atom 18.6874397700000010 19.8435029400000005 0.1790943000000000 Au
atom 21.6235905799999983 19.7602947399999991 -0.0092140500000000 Au
atom 24.4631936900000007 19.8554653399999985 0.0900377700000000 Au
atom 27.1423255599999997 19.8262020200000002 0.0624886800000000 Au
atom 1.9654433200000001 19.8687532400000002 0.1565614900000000 Au
atom 4.8140066900000003 19.8003450900000004 0.1426553100000000 Au
atom 8.9354931999999998 22.1575001500000006 0.2113674700000000 Au
atom 11.5181521399999998 22.3197729799999998 -0.0302250200000000 Au
atom 14.5051697500000003 22.0198603599999991 0.0939364500000000 Au
atom 17.5872616800000010 22.1988394900000010 0.0851283800000000 Au
atom 20.0920969099999986 22.2030217500000013 -0.0679204200000000 Au
atom 22.8942162099999997 21.9682723799999984 0.0640743100000000 Au
atom 25.7531112200000010 22.0694014400000000 0.0329121700000000 Au
atom 0.4527734700000000 22.3827132099999986 0.0376541800000000 Au
atom 3.2224875100000001 22.1019863299999990 -0.0359592000000000 Au
atom 6.0529142800000004 22.1990439899999998 0.1278099900000000 Au
atom 7.4949878600000002 24.6050885900000011 0.1065677800000000 Au
atom 10.3962068399999996 24.5085894499999988 0.1507363000000000 Au
atom 13.3064753600000003 24.6391880299999997 -0.0049003600000000 Au
atom 15.8534719699999993 24.6506567099999998 0.0594801600000000 Au
atom 18.6401110800000005 24.6910049299999983 0.0148032000000000 Au
atom 21.6719519500000004 24.5527962299999984 0.0578300700000000 Au
atom 24.3948250699999996 24.6413807200000008 -0.0162493700000000 Au
atom 27.1805426499999996 24.7434453300000001 -0.0611149000000000 Au
atom 1.8324950600000001 24.6752933500000005 0.2023776200000000 Au
atom 4.7815439299999998 24.8255897300000008 0.1630740000000000 Au
atom 8.9179390400000003 27.2224718900000013 -0.2206093200000000 Au
atom 11.7830465199999992 27.0070060500000011 0.0906522900000000 Au
atom 14.5870900100000007 27.3661488300000002 0.0753167300000000 Au
atom 17.3332287100000002 27.2292460500000004 0.2286030700000000 Au
atom 20.2924757299999996 27.0296637599999983 0.1249923800000000 Au
atom 23.0849381300000012 27.1083792499999987 0.0676671400000000 Au
atom 25.8041310599999996 27.2446545399999991 0.0729382000000000 Au
atom 0.5231888800000000 27.2404223999999999 0.0147518800000000 Au
atom 3.2620680800000001 27.1472832299999993 0.0370601200000000 Au
atom 5.9804579899999997 27.0512421600000010 -0.0161450800000000 Au
atom 7.5194541499999996 29.5963262600000014 -0.0005082800000000 Au
atom 10.3161510500000002 29.6071473300000001 0.0866375200000000 Au
atom 13.2340351199999997 29.5335159300000001 -0.1065397600000000 Au
atom 15.7906297200000001 29.5763761699999996 0.1059935000000000 Au
atom 18.8242135099999999 29.6837800799999982 0.0044776000000000 Au
atom 21.6082034500000013 29.5848812099999989 -0.1199623800000000 Au
atom 24.2358300000000000 29.6475030699999991 -0.0441784500000000 Au
atom 27.1211054300000001 29.5500473700000015 0.0906459500000000 Au
atom 1.9596780700000000 29.4499135199999991 0.2219098900000000 Au
atom 4.5676743399999999 29.6971994700000010 0.0865994500000000 Au
atom 8.7335914500000005 32.2296257200000014 -0.1697103000000000 Au
atom 11.7627235300000006 32.0938146700000004 0.0835120600000000 Au
atom 14.7470244200000007 32.1679715200000018 0.0700158400000000 Au
atom 17.5568526100000000 32.0474884699999976 -0.0385382100000000 Au
atom 20.2212716300000004 32.1542963799999981 -0.0796175200000000 Au
atom 23.0887493799999994 32.2962137199999972 -0.0718760300000000 Au
atom 25.8717264600000014 32.0386988500000029 -0.0586155300000000 Au
atom 0.5096263300000000 31.9708794599999990 0.0419064000000000 Au
atom 3.3054042799999999 32.0417637899999974 -0.0639301400000000 Au
atom 6.0607657200000000 32.1637064600000002 -0.0064444800000000 Au
atom 7.4018946799999998 34.6172376199999974 -0.0413877700000000 Au
atom 10.3621954100000000 34.6000925700000010 0.0705659100000000 Au
atom 12.9904370900000004 34.5320004100000020 0.0908835600000000 Au
atom 15.9703260900000004 34.6862646599999991 0.1233778400000000 Au
atom 18.7762707499999983 34.4835594700000030 -0.0384061300000000 Au
atom 21.7066725799999993 34.6306390199999967 0.2050083700000000 Au
atom 24.4450709300000000 34.7003515299999989 0.0558905100000000 Au
atom 27.3388184099999982 34.5341740000000001 0.0744036600000000 Au
atom 1.8443736500000001 34.7708143699999965 -0.1056820300000000 Au
atom 4.6956143499999996 34.5723111799999998 -0.0183086700000000 Au
atom 8.6967189200000004 37.1187474899999970 0.1682580800000000 Au
atom 11.6447278500000007 37.0815895799999993 -0.1645378000000000 Au
atom 14.4803075600000000 36.9906458199999975 0.1103284900000000 Au
atom 17.3221271500000000 37.0712408500000024 0.1484999700000000 Au
atom 20.1349236000000005 37.0095353900000035 -0.1151535200000000 Au
atom 23.1289289499999988 36.9959761200000017 0.0203945500000000 Au
atom 25.8143113500000005 36.9987857799999986 0.2038385900000000 Au
atom 0.4622869700000000 37.0223615499999994 0.1214503200000000 Au
atom 3.2331508499999999 36.8829492200000004 -0.0223148400000000 Au
atom 6.1495943500000001 36.8573048399999976 -0.0774599400000000 Au
atom 7.4713311899999999 -0.1701674600000000 -0.0019348500000000 Au
atom 10.3990236899999999 -0.0982502300000000 0.2856542600000000 Au
atom 13.4506103600000007 0.0623982000000000 0.2823235300000000 Au
atom 15.9698483800000002 0.1296711900000000 0.2990466300000000 Au
atom 18.7312323300000010 0.2450317500000000 -0.0075620800000000 Au
atom 21.6762507999999983 -0.0917553800000000 0.1278694000000000 Au
atom 24.5181010199999996 -0.0581877600000000 0.0285156900000000 Au
atom 27.1742471200000004 0.0176244400000000 0.0533610200000000 Au
atom 2.0822524499999999 0.0014029200000000 0.1487876500000000 Au
atom 4.6799417400000003 0.1558133000000000 -0.0532877300000000 Au
atom 8.9345600300000001 2.5655658099999998 0.2357346200000000 Au
atom 11.7063049600000006 2.4320908900000000 0.0598565300000000 Au
atom 14.5229684999999993 2.5570148200000000 -0.0194764300000000 Au
atom 17.3659644600000007 2.5271214400000002 0.0171031700000000 Au
atom 20.1145847599999996 2.5246257000000001 0.0831247300000000 Au
atom 23.0879565999999983 2.4212798300000000 0.2806184000000000 Au
atom 25.8669789500000000 2.4765852000000002 0.1168069100000000 Au
atom 0.4944562200000000 2.3955417699999999 0.2027668100000000 Au
atom 3.3576305799999999 2.4511861399999999 0.0072719800000000 Au
atom 6.0651881500000000 2.4100736299999999 0.0882116800000000 Au
atom 7.6608280500000001 4.8522103300000001 0.0303466500000000 Au
atom 10.2089827799999995 4.8933282699999996 0.1610231800000000 Au
atom 13.2521091299999991 5.1677572800000000 0.1690625600000000 Au
atom 15.9205154499999999 5.1236794400000001 0.2250066600000000 Au
atom 18.6602266099999987 4.7684796100000000 0.2727111100000000 Au
atom 21.6456635300000002 4.9766708700000004 0.1758183900000000 Au
atom 24.6832612400000002 4.9296898300000001 0.1128024500000000 Au
atom 27.1644193899999991 4.9645052900000000 -0.0305340600000000 Au
atom 1.7389948600000000 4.7935661500000002 0.2128235300000000 Au
atom 4.6619734700000004 4.9573934700000004 -0.0145301100000000 Au
atom 8.6862263399999993 7.5176399600000003 -0.1701287200000000 Au
atom 11.5850599800000005 7.4441875099999999 0.0846072500000000 Au
atom 14.5944833799999998 7.3331613999999998 0.1524744100000000 Au
atom 17.4152201899999994 7.4272866200000003 0.1197066600000000 Au
atom 20.2286485399999982 7.3126395799999999 0.1350035500000000 Au
atom 23.2210757699999988 7.4161219999999997 0.0601313500000000 Au
atom 25.7034863199999997 7.4976550700000004 -0.0288876600000000 Au
atom 0.5032653300000000 7.4334079099999997 0.0780551900000000 Au
atom 3.1383554600000001 7.4525779099999996 0.0093670300000000 Au
atom 6.0747834899999997 7.4152563200000001 0.0324984700000000 Au
atom 7.5906748700000000 9.8715522300000007 0.0615515900000000 Au
atom 10.3726928500000000 9.9318684800000003 0.0453015700000000 Au
atom 13.1834728699999992 9.9779283900000006 0.0284805500000000 Au
atom 16.1258775199999995 9.9999807399999998 -0.1206877900000000 Au
atom 18.7276499100000002 10.0365609300000003 0.0938042600000000 Au
atom 21.5130616400000001 9.7871818699999995 0.0385473400000000 Au
atom 24.5544335300000007 9.8625140699999996 0.0672339900000000 Au
atom 27.4715365899999995 9.8763595500000001 -0.1030209000000000 Au
atom 1.9524747600000001 10.0057522199999998 -0.1103230700000000 Au
atom 4.6012511700000003 9.7981221900000008 0.0068586800000000 Au
atom 8.8881108999999991 12.4006179700000008 -0.1129545600000000 Au
atom 11.7267394899999999 12.3430714800000008 0.0595441000000000 Au
atom 14.4647060799999991 12.3062690900000007 -0.0325289100000000 Au
atom 17.4734622799999997 12.2398669000000009 0.1332449500000000 Au
atom 20.2026895400000015 12.2649681699999995 0.1153224200000000 Au
atom 23.0659992900000006 12.5223540999999994 0.1291690400000000 Au
atom 25.9122430299999991 12.1964108000000007 -0.1177294900000000 Au
atom 0.4354492100000000 12.3865530699999997 0.0571421700000000 Au
atom 3.3168148600000000 12.3538516299999994 0.3331651600000000 Au
atom 6.0325785800000000 12.3769560300000006 0.0335912000000000 Au
atom 7.4540535600000002 13.1890512199999996 2.6364275300000002 Au
atom 10.3038328600000000 13.1545542700000002 2.3195533099999999 Au
atom 13.1490190299999998 13.1981198899999992 2.6401617599999998 Au
atom 15.8971894299999992 13.2122677500000005 2.4852850300000000 Au
atom 18.7799954500000013 13.0910122100000006 2.8206581100000001 Au
atom 21.6682941599999985 13.1219673100000005 2.5301900000000002 Au
atom 24.3728044600000011 13.0923944900000002 2.6497233699999998 Au
atom 27.2271839100000008 12.9094893299999995 2.6343472200000000 Au
atom 1.9034798799999999 13.2371184999999993 2.7153741199999999 Au
atom 4.6533215700000001 13.1898582799999993 2.3755807999999998 Au
atom 8.9155502400000000 15.7170186100000002 2.5862553699999999 Au
atom 11.8168001399999998 15.6493726100000003 2.5246753200000001 Au
atom 14.6208101100000007 15.6722954300000001 2.6622490100000000 Au
atom 17.3664054999999991 15.6357292000000001 2.7137342300000000 Au
atom 20.2047694699999987 15.5193975900000005 2.5845954700000000 Au
atom 22.8427487700000000 15.6423776199999995 2.5644786100000001 Au
atom 25.9701022500000001 15.5739019400000007 2.8829558799999999 Au
atom 0.2997350700000000 15.5946660300000008 2.7281942400000001 Au
atom 3.1619867600000000 15.6472400100000009 2.7748506700000002 Au
atom 6.2255599899999998 15.7598578800000002 2.6107385700000001 Au
atom 7.3961647599999996 18.1482421400000007 2.8402162299999998 Au
atom 10.2946267299999992 17.9353936999999988 2.6115440200000002 Au
atom 13.2053662799999998 18.0399986699999992 2.8017722799999998 Au
atom 15.9442614900000006 18.0926606399999983 2.6156125399999999 Au
atom 18.7044857399999991 18.1147047000000008 2.7266882600000000 Au
atom 21.6941663499999997 18.1686687700000000 2.7913158999999998 Au
atom 24.4447646899999995 18.1821160500000012 2.6592543700000002 Au
atom 27.3918619800000016 18.1337786899999998 2.5276041299999998 Au
atom 2.0986026700000000 18.1133044699999992 2.7930478800000000 Au
atom 4.6615136899999996 18.0852144400000014 2.5509083399999999 Au
atom 8.7238545900000002 20.5564336300000008 2.6909115799999999 Au
atom 11.5798623700000007 20.5834218699999987 2.6466619599999999 Au
atom 14.6446587600000004 20.6042287500000008 2.7749751699999998 Au
atom 17.5208204599999995 20.5773037300000006 2.6283244600000000 Au
atom 20.2182551599999982 20.6266684100000006 2.9038737200000000 Au
atom 22.8549995800000012 20.6762535199999995 2.8950855999999998 Au
atom 25.9220473600000005 20.3094435000000004 2.6751019899999999 Au
atom 0.5876640700000000 20.5638307000000005 2.7545281799999999 Au
atom 3.2155114800000000 20.6978299300000010 2.7916676699999998 Au
atom 5.9839670299999996 20.3696438899999990 2.7793990300000000 Au
atom 7.5421857899999996 23.0746937800000005 2.8770007199999998 Au
atom 10.2388655400000008 23.1005249500000005 2.6953996199999999 Au
atom 12.9547362800000005 22.8659071099999984 2.7379392999999999 Au
atom 16.0241496999999988 23.1680975199999999 2.7148240299999999 Au
atom 18.7402215800000000 23.0423399400000015 2.7229146300000000 Au
atom 21.9968177500000017 23.1263846800000010 2.5174501299999998 Au
atom 24.3913566199999998 23.0266666399999984 2.6707670100000001 Au
atom 27.2648894499999983 22.9857462599999991 2.4285209600000002 Au
atom 1.8865961800000000 23.1564334299999999 2.7347268400000000 Au
atom 4.8631153300000003 22.9723752800000014 2.6008487100000002 Au
atom 8.9898356300000000 25.5304827500000009 2.7580334899999999 Au
atom 11.6379186699999995 25.4266091400000001 2.5147890300000002 Au
atom 14.4467801900000001 25.3636510500000014 2.6122373600000000 Au
atom 17.3382335800000007 25.6390570999999987 2.6573055100000000 Au
atom 20.3221413499999990 25.3688706300000000 2.8392506399999999 Au
atom 23.0555582900000005 25.6025235900000006 2.6955912099999999 Au
atom 25.8586574800000015 25.5236505600000001 2.7159380999999998 Au
atom 0.3996169500000000 25.6842838600000007 2.7701316500000002 Au
atom 3.3980934899999999 25.6330192399999994 2.7382659500000002 Au
atom 5.9981817499999996 25.5049519199999999 2.7224129200000000 Au
atom 7.6740305900000001 28.1608427399999997 2.7135720299999999 Au
atom 10.2100528799999992 28.1420246600000006 2.7236769900000000 Au
atom 13.2667643599999998 27.9410252899999989 2.6138205200000000 Au
atom 16.0340044000000006 27.8685603700000009 2.4373562700000000 Au
atom 18.7214324099999985 28.0648402300000015 2.6107472299999999 Au
atom 21.5605976800000008 27.9714749900000008 2.7190579399999999 Au
atom 24.4338944900000001 27.8428657100000017 2.7715917600000002 Au
atom 27.2313791499999986 27.9544411100000012 2.8239924900000002 Au
atom 2.1012369199999998 27.9769732200000014 2.5998225300000000 Au
atom 4.6850345100000004 28.1141254700000012 2.7581135099999998 Au
atom 9.1151195000000005 30.4406824799999995 2.6305446899999998 Au
atom 11.7461306000000008 30.4232065600000006 2.7967380099999999 Au
atom 14.6913377000000001 30.5326059799999996 2.5550988900000000 Au
atom 17.2097080600000005 30.4305768100000016 2.8356991400000000 Au
atom 20.1262114200000006 30.3977038300000011 2.4980086300000002 Au
atom 23.0993899700000007 30.5207601299999993 2.6506898600000000 Au
atom 25.9896442000000008 30.3912610900000004 2.6866268999999998 Au
atom 0.3591879200000000 30.4873834099999996 2.6341277999999999 Au
atom 3.3789049000000002 30.4904377500000017 2.5457188700000000 Au
atom 6.0315879800000003 30.5114237499999987 2.4653163700000000 Au
atom 7.5739456100000000 32.7933835899999977 2.5034094400000000 Au
atom 10.3820112499999997 33.0462448199999983 2.6885426500000000 Au
atom 13.0135800800000005 32.7063205700000026 2.6942829800000001 Au
atom 15.9378119599999994 32.9396265099999965 2.4364466700000000 Au
atom 18.8336199099999995 32.8341643999999988 2.5409001099999999 Au
atom 21.6119491100000012 33.1027594500000006 2.8003797499999998 Au
atom 24.4332357000000009 32.9765309100000010 2.5828852900000001 Au
atom 27.4041650799999985 32.7360150800000014 2.6617033700000001 Au
atom 1.8769441200000001 32.9447834200000003 2.6668534400000001 Au
atom 4.7096361199999999 32.8687957200000014 2.7936351099999999 Au
atom 8.9603785400000007 35.3427769600000019 2.6675042800000002 Au
atom 11.5599114299999997 35.3388972400000014 2.6919654899999998 Au
atom 14.6620748100000000 35.2783520799999977 2.5848502099999999 Au
atom 17.2509860599999989 35.4501240999999965 2.6409187599999999 Au
atom 20.1462056800000013 35.3711970800000017 2.7369020599999998 Au
atom 22.9673536899999995 35.4627405000000024 2.6906819000000000 Au
atom 25.6746582799999992 35.5203249999999997 2.5840102800000002 Au
atom 0.4034685600000000 35.5341935300000031 2.5626446199999999 Au
atom 3.4172173400000001 35.2174033100000017 2.5307663599999999 Au
atom 6.0322262899999997 35.3968153900000004 2.5153528199999999 Au
atom 7.5234695399999998 37.7419416199999986 2.6646013100000001 Au
atom 10.3667303499999992 38.0399765000000016 2.7270185699999998 Au
atom 13.1593295599999998 37.9464988399999967 2.5062909200000001 Au
atom 16.1920464300000013 37.7483745299999995 2.5642594399999998 Au
atom 18.6629268599999989 37.9046918399999981 2.6670678400000001 Au
atom 21.6527634999999989 37.9451362599999982 2.6025025600000000 Au
atom 24.3680136099999984 37.9507159699999974 2.6239270100000001 Au
atom 27.3019923800000015 37.9447212600000015 2.6096879199999998 Au
atom 1.8477268000000000 37.9373585199999965 2.6469099300000001 Au
atom 4.4812906400000001 37.7788868499999992 2.7190274600000000 Au
atom 9.0933765199999996 0.8117912300000000 2.6132729399999999 Au
atom 11.6344039499999994 0.7824465800000000 2.6948280599999999 Au
atom 14.6130942699999995 0.8611766100000000 2.6957460499999999 Au
atom 17.4546002199999997 0.7737826200000000 2.8664437199999999 Au
atom 20.2480456099999984 0.8559590800000000 2.7531526500000001 Au
atom 22.9816015900000004 0.7979286799999999 2.7251907700000002 Au
atom 25.9235954200000016 0.6208974900000001 2.7102674499999999 Au
atom 0.4460089300000000 0.6864708000000000 2.7944459600000000 Au
atom 3.2555100200000000 0.8356540000000000 2.7014897300000000 Au
atom 5.9233014300000004 0.9788701000000000 2.6915056399999999 Au
atom 7.6358351600000001 3.2452524800000000 2.8117797499999999 Au
atom 10.4164817599999999 3.1286744899999999 2.4937026400000000 Au
atom 13.1576283600000004 3.2588808000000000 2.7252026300000001 Au
atom 15.9242490300000004 3.4606113700000001 2.7104538100000002 Au
atom 18.8795294100000000 3.2776382800000001 2.9238589300000002 Au
atom 21.6535119499999986 3.2486795399999999 2.5074602399999999 Au
atom 24.5924027299999999 3.2969999200000002 2.6358740500000000 Au
atom 27.3692349399999983 3.3398935199999999 2.7261571199999999 Au
atom 1.8450922800000000 3.3106929300000001 2.8996460599999998 Au
atom 4.5239634600000000 3.4638468800000002 2.6923282799999999 Au
atom 8.9013837099999993 5.7698531900000001 2.6707216800000002 Au
atom 11.7918729899999999 5.7895472799999999 2.7700910500000000 Au
atom 14.4842041899999998 5.7350161200000001 2.7505104899999999 Au
atom 17.5639480699999986 5.8276822399999997 2.8824047199999998 Au
atom 20.1805647199999996 5.6258182300000001 2.8349139399999999 Au
atom 22.9509787699999990 5.9182146099999997 2.6986995100000000 Au
atom 25.8813716000000014 5.8621747099999997 2.6232818500000001 Au
atom 0.3929547700000000 5.8965459500000001 2.6780158200000002 Au
atom 3.0789476100000002 5.7053408399999999 2.8306527699999999 Au
atom 6.1257306299999996 5.6291575900000002 2.7875163800000000 Au
atom 7.3315259099999999 7.9909401300000003 2.6370951599999999 Au
atom 10.3785144799999998 8.0218650000000000 2.6929758900000000 Au
atom 12.9349826599999993 8.1714350000000007 2.9565134199999998 Au
atom 15.9056156000000009 8.2193234299999993 2.6516664799999998 Au
atom 18.9709683099999999 8.2811713699999991 2.8137926300000000 Au
atom 21.6908461899999985 8.2750241399999993 2.7421950100000001 Au
atom 24.4825503799999993 8.3557993499999998 2.6400776600000002 Au
atom 27.2552904900000001 8.1438116699999998 2.4881869399999998 Au
atom 1.8220328900000000 8.1868883700000001 2.8042284099999999 Au
atom 4.8469492699999996 8.3082808900000007 2.6446338500000000 Au
atom 8.9107089100000003 10.5947886699999998 2.5148700800000001 Au
atom 11.6469752000000000 10.5578525299999999 2.6067083499999999 Au
atom 14.5620246499999997 10.7923756300000004 2.6407222099999998 Au
atom 17.5390624099999997 10.7082124099999998 2.7061756899999998 Au
atom 20.0739172500000009 10.5885954499999997 2.5355626299999998 Au
atom 23.0190957400000009 10.7358182000000006 2.6496245200000001 Au
atom 25.9367607500000013 10.5830261500000002 2.6290233600000001 Au
atom 0.5148078699999999 10.6805548699999999 2.4904681900000001 Au
atom 3.2018987299999999 10.7117161500000009 2.5844976399999999 Au
atom 6.1317805600000002 10.6742751200000008 2.5966079999999998 Au
atom 7.4471593599999997 13.2195411299999996 5.6272049300000004 Cl
atom 7.5072828100000004 15.9671442900000002 8.6429760200000008 Cl
atom 7.4761465500000002 13.1307824300000000 8.4002860399999992 Na
atom 7.6466752199999997 15.9766339100000003 5.8492855700000002 Na
atom 7.5007664199999997 18.8513376000000008 5.5883891700000001 Cl
atom 7.5470325899999997 21.6756145800000013 8.4354596700000002 Cl
atom 7.4456777000000001 18.8697787900000016 8.1923683100000009 Na
atom 7.4975497300000002 21.6083098500000013 5.7066592399999996 Na
atom 7.5498166500000004 24.5283529199999997 5.9076085699999998 Cl
atom 7.5927792199999997 27.2466151699999983 8.5272387599999995 Cl
atom 7.6183888000000000 24.4576067500000001 8.3496896700000001 Na
atom 7.4878342000000000 27.2806182600000007 5.8982953000000000 Na
atom 7.5205467800000001 30.1658418300000015 5.6967614400000004 Cl
atom 7.4987937200000001 33.0948329300000026 8.5662249500000005 Cl
atom 7.4193801800000001 30.0845297800000004 8.3652038700000002 Na
atom 7.8092990799999997 33.1159903100000008 5.7097273199999998 Na
atom 7.5785364299999998 35.6138520100000022 5.8610823500000002 Cl
atom 7.6308436400000001 38.6927568400000013 8.7307413199999999 Cl
atom 7.3381491700000003 35.6958303799999968 8.4064370999999998 Na
atom 7.4148787799999996 38.7003968300000025 5.9711271899999998 Na
atom 7.5076103500000002 1.7536000400000000 5.6779976899999998 Cl
atom 7.6899968000000003 4.6006811599999997 8.6134445100000008 Cl
atom 7.4496064999999998 1.8965294300000000 8.4639039399999998 Na
atom 7.4126123699999997 4.5816997900000000 5.9653476000000003 Na
atom 7.5435000099999998 7.3424381199999997 5.7220233699999996 Cl
atom 7.5040534699999997 10.3870986599999995 8.5933981199999998 Cl
atom 7.5376661299999999 7.4343231200000002 8.3970991200000000 Na
atom 7.4497855399999997 10.3510092199999999 5.7272222099999999 Na
atom 10.3567709699999995 13.2276819200000002 5.8330270899999999 Na
atom 13.1329835199999998 13.1540315700000008 5.7891747999999996 Cl
atom 10.4883232500000005 16.0638483399999998 8.1868580099999999 Na
atom 13.1315579299999996 15.8749462799999996 8.7978080500000004 Cl
atom 13.1059987200000005 13.2345042100000008 8.3401681300000003 Na
atom 10.2555817800000000 13.2894107500000000 8.4789131999999992 Cl
atom 13.3192529000000004 16.0638279500000003 5.9460083499999996 Na
atom 10.5181749100000008 16.0414258499999995 5.8135362300000004 Cl
atom 10.3862564099999997 18.9077887000000011 5.8979462299999996 Na
atom 13.0896298099999999 18.7712790699999985 5.5987223100000003 Cl
atom 10.3133672000000001 21.6970018200000005 8.3627031100000000 Na
atom 13.3205449300000005 21.4857844799999995 8.7597330699999993 Cl
atom 13.0946503300000003 18.7919376400000004 8.4878995800000006 Na
atom 10.3622505900000004 18.9215949799999983 8.5688463699999993 Cl
atom 13.0168663999999996 21.6136280700000007 5.8036553900000003 Na
atom 10.4952191799999994 21.5730118100000006 5.7319395100000001 Cl
atom 10.3541739100000001 24.4440194899999987 5.7474396800000003 Na
atom 13.1142961499999995 24.3473383900000009 5.8590259800000002 Cl
atom 10.3046862699999995 27.3021351299999999 8.2972901599999993 Na
atom 13.0711850300000005 27.3219036799999984 8.6617441100000008 Cl
atom 13.1448894999999997 24.3286082999999991 8.3051756099999992 Na
atom 10.3092308599999996 24.3900530400000015 8.6565544200000009 Cl
atom 12.8959624599999998 27.2323883799999997 5.8211013400000002 Na
atom 10.3121138099999996 27.2753532700000001 5.6718184400000000 Cl
atom 10.1661374599999998 30.2256537399999985 5.8006827899999998 Na
atom 13.1074802300000002 30.3041419699999999 5.8941762400000002 Cl
atom 10.3182957300000009 32.8130038899999974 8.2737159800000004 Na
atom 13.1316765300000000 32.9663896799999989 8.4811398800000006 Cl
atom 13.2592638399999991 29.9078032699999987 8.2810145899999998 Na
atom 10.3573312499999997 30.0680531799999997 8.6497006499999998 Cl
atom 13.2810517400000005 32.8709345500000012 5.6945866900000004 Na
atom 10.2162636199999994 32.7784926499999969 5.5402058600000004 Cl
atom 10.2521559599999996 35.7206431099999975 5.8478285799999998 Na
atom 13.2531904300000001 35.6293613799999989 5.8693229400000000 Cl
atom 10.1666404600000000 38.4726785100000015 8.5480732100000001 Na
atom 13.1683587400000004 38.5320830900000004 8.5091392500000005 Cl
atom 13.1092505999999993 35.8586723599999999 8.2601884699999992 Na
atom 10.2440762400000001 35.5340207200000009 8.6913190999999994 Cl
atom 13.1104131200000005 38.6332841799999969 6.0396271500000003 Na
atom 10.2818958100000000 38.6810429499999984 5.7101186899999998 Cl
atom 10.2698525699999994 1.8749883100000000 5.5541933900000000 Na
atom 13.2812468500000005 1.8688354599999999 5.7952836699999999 Cl
atom 10.4234189199999996 4.7420299999999997 8.1947916599999999 Na
atom 13.1368036099999994 4.6962248500000001 8.6477707800000001 Cl
atom 13.2495165200000002 1.9254150999999999 8.4171512400000008 Na
atom 10.2831912400000007 2.0260556400000000 8.4989659500000005 Cl
atom 13.2562370299999994 4.6131222000000003 5.8968541400000003 Na
atom 10.3136349900000006 4.6601912299999997 5.7933853900000001 Cl
atom 10.2874021100000004 7.4335701600000004 5.8318701500000003 Na
atom 13.2670458300000007 7.6433549699999999 5.6920613400000004 Cl
atom 10.1521771399999992 10.2980784599999993 8.5030584000000005 Na
atom 13.2093810200000004 10.3070876699999996 8.6836098699999997 Cl
atom 13.4342516799999991 7.6236275100000004 8.3783517700000001 Na
atom 10.3274833899999994 7.4925004800000004 8.6462151899999995 Cl
atom 13.2873670900000000 10.3250416000000005 5.7713981299999997 Na
atom 10.2662609299999996 10.3748500200000002 5.6872869899999996 Cl
atom 15.9932332299999995 13.3545070900000002 5.9780265999999997 Na
atom 18.6478130200000010 13.1799091300000004 5.8721082600000001 Cl
atom 16.0225488100000000 16.0999476500000007 8.3828716199999995 Na
atom 18.7726254700000013 16.0270523199999992 8.5663274400000002 Cl
atom 18.8853398000000006 13.1386812899999992 8.2925751099999996 Na
atom 16.1612170599999985 13.3202495600000006 8.4716624700000001 Cl
atom 18.6899155700000001 16.0457644299999984 5.8984804899999999 Na
atom 16.0112639100000003 15.9205449399999992 5.5214706500000004 Cl
atom 16.0324233499999984 18.9475885200000000 5.8126786099999999 Na
atom 18.7033913799999993 18.8893057099999986 5.7216112199999998 Cl
atom 15.9177006799999994 21.4789186200000017 8.1916952199999997 Na
atom 18.7452115100000007 21.6735339799999984 8.5420621299999997 Cl
atom 18.9038221499999999 18.7328203799999997 8.5951342499999992 Na
atom 15.9216498299999998 18.9652509000000009 8.5901390499999994 Cl
atom 18.7438320000000012 21.6795731200000006 5.8009580999999999 Na
atom 15.9195657500000003 21.7064213799999983 5.7762030600000003 Cl
atom 16.0264480999999996 24.5310923800000005 5.7090698499999997 Na
atom 18.8718102700000010 24.4173011299999985 5.6363638299999996 Cl
atom 16.0076830699999988 27.0448439299999990 8.4690232000000005 Na
atom 18.7422659600000010 27.2161213000000011 8.7059795500000003 Cl
atom 18.6853917799999998 24.3300367500000014 8.4588762800000001 Na
atom 15.9436932000000002 24.4131154600000002 8.6281955400000001 Cl
atom 18.6264894900000009 27.3022871999999985 5.9058243299999997 Na
atom 15.9135109799999999 27.2980520099999993 5.7613949099999999 Cl
atom 15.9379132800000001 30.0677705499999988 5.9129569499999999 Na
atom 18.7808925199999983 30.0998781000000015 5.5190736600000001 Cl
atom 15.8510039400000000 32.9030671299999966 8.4622569100000007 Na
atom 18.6675570300000011 32.9368883300000022 8.6251118600000005 Cl
atom 18.8062785999999988 30.1178648699999982 8.4492245399999995 Na
atom 15.9103044400000009 30.1749169200000011 8.6444362500000000 Cl
atom 18.8195838400000000 33.1766333400000022 5.9497782900000002 Na
atom 15.8978246500000004 32.8626642799999971 5.6916645700000004 Cl
atom 16.0685928400000009 35.7461774699999992 5.6754234400000003 Na
atom 18.9243909200000004 35.6303239499999975 5.5868969000000002 Cl
atom 15.9968043899999994 38.2581240800000018 8.3147301900000006 Na
atom 18.8430155299999988 38.5654929399999986 8.4302615900000006 Cl
atom 18.8108852900000016 35.6942071300000023 8.3330784300000005 Na
atom 15.9028144699999991 35.7317238899999978 8.5485515299999992 Cl
atom 18.8168410799999997 38.5705790499999992 5.8988778399999999 Na