#===============================================================================
# Created using the Atomic Simulation Environment (ASE)

# Tue Dec 23 21:42:30 2025

#=======================================================
lattice_vector 28.1999999999999993 0.0000000000000000 0.0000000000000000 
lattice_vector 0.0000000000000000 39.4799999999999969 0.0000000000000000 
lattice_vector 0.0000000000000000 0.0000000000000000 62.3296083400000001 
atom 7.5365929700000001 14.7428703199999998 -0.3268651000000000 Au
atom 10.3174531199999997 14.7791140500000004 -0.1910066100000000 Au
atom 13.1076958999999995 14.7601436499999998 -0.1473663600000000 Au
atom 15.9161688800000007 14.9038801099999993 -0.3584365600000000 Au
atom 18.7292309500000016 14.7483731000000002 -0.3068579300000000 Au
atom 21.5859852399999994 14.7764581499999998 -0.3021434800000000 Au
atom 24.3460724800000001 14.8086730400000004 -0.1575549800000000 Au
atom 27.2214578899999999 14.8362957699999995 -0.0902453500000000 Au
atom 1.8778294900000001 14.7249916600000006 -0.0062567000000000 Au
atom 4.6653485200000002 14.6581410800000000 -0.0653122700000000 Au
atom 8.8731028999999992 17.2074478800000001 -0.2411068000000000 Au
atom 11.7241777500000008 17.3161658100000011 -0.1877235300000000 Au
atom 14.4733058400000001 17.2302792499999988 -0.2125916100000000 Au
atom 17.3906691199999983 17.2915413899999990 -0.5676194000000000 Au
atom 20.1694544700000016 17.2770308600000000 -0.1278664800000000 Au
atom 22.9000963499999983 17.3610164599999983 -0.1081214900000000 Au
atom 25.7827741300000000 17.2997000099999987 -0.1987881600000000 Au
atom 0.3911057900000000 17.3018870199999988 0.0945078200000000 Au
atom 3.1910859000000000 17.2481976000000010 -0.2207606300000000 Au
atom 6.0475182199999997 17.2222019700000004 -0.1642553800000000 Au
atom 7.5437296299999996 19.6670670100000002 -0.2584898700000000 Au
atom 10.3604543400000004 19.7508516699999994 -0.0344628600000000 Au
atom 13.2197521699999996 19.7365899800000015 0.0510848200000000 Au
atom 15.9675648300000006 19.8085875000000016 -0.0951201400000000 Au
atom 18.7531683300000012 19.8443917300000017 -0.2391515000000000 Au
atom 21.5169504099999997 19.7806181899999984 0.0938242900000000 Au
atom 24.2745379999999997 19.7546334899999998 -0.0536796100000000 Au
atom 27.1612762799999992 19.7824023000000011 0.1388056100000000 Au
atom 1.7477510400000000 19.7143250999999999 0.1126346800000000 Au
atom 4.6539697599999998 19.7931940699999984 -0.1051542700000000 Au
atom 8.9355015600000005 22.1177790600000002 -0.1063073600000000 Au
atom 11.7709687499999998 22.1717169500000004 -0.2492787500000000 Au
atom 14.6241080300000004 22.2725177000000016 0.1941468200000000 Au
atom 17.3107699900000007 22.2377860299999988 -0.1641373000000000 Au
atom 20.0627369599999987 22.2776798999999990 0.0667061400000000 Au
atom 22.9550758399999992 22.2243266800000008 0.1558011600000000 Au
atom 25.7459695000000011 22.2297326899999987 0.0327632700000000 Au
atom 0.4439025000000000 22.1668586500000018 0.1643709000000000 Au
atom 3.2548783900000000 22.2330303799999989 -0.0092690200000000 Au
atom 6.1151549100000002 22.2147508599999988 -0.2046602500000000 Au
atom 7.4465788100000001 24.6851318000000006 -0.2478305000000000 Au
atom 10.3393511399999998 24.5765561699999999 -0.0299275900000000 Au
atom 13.0901727500000007 24.5660959400000003 0.0889073700000000 Au
atom 16.0492570800000003 24.7071808699999984 0.0596633400000000 Au
atom 18.7457923700000002 24.6623266000000001 0.3852012500000000 Au
atom 21.5608805100000005 24.6879991399999987 0.2817503100000000 Au
atom 24.3721560599999982 24.6796480199999984 0.1646024100000000 Au
atom 27.2464084600000014 24.6212282900000012 0.0449874100000000 Au
atom 1.7873116899999999 24.6276131800000009 0.2615514100000000 Au
atom 4.6608842399999997 24.6053563000000004 0.1724674100000000 Au
atom 8.9855352300000000 27.1275512799999987 -0.2168056400000000 Au
atom 11.8251955800000008 27.1100968900000012 -0.3519294900000000 Au
atom 14.6306023900000000 27.0726331400000007 -0.0250046900000000 Au
atom 17.4711928500000013 27.1299318499999984 0.2530063000000000 Au
atom 20.2110250700000016 27.1576175100000015 0.1369559100000000 Au
atom 22.9754755400000015 27.0853483600000011 0.1209619000000000 Au
atom 25.7813357500000002 27.1001411599999997 -0.0666455200000000 Au
atom 0.3936332800000000 27.1247337299999991 0.0351552400000000 Au
atom 3.1355923600000000 27.0434957099999984 -0.0596828400000000 Au
atom 6.0403770300000001 27.1020648599999987 0.1573918900000000 Au
atom 7.4001893799999996 29.5492583300000007 -0.3151350900000000 Au
atom 10.3583044599999994 29.6056995200000017 -0.2707205000000000 Au
atom 13.1564459800000009 29.5055121299999996 -0.1900874000000000 Au
atom 15.9695218299999997 29.5517156900000018 -0.0126882500000000 Au
atom 18.7397947599999988 29.5430813900000011 0.0920181900000000 Au
atom 21.6041449300000004 29.5342374700000008 0.0962546600000000 Au
atom 24.4048806200000001 29.5797471899999991 0.0002000800000000 Au
atom 27.2936225000000015 29.5504334899999996 -0.0737199800000000 Au
atom 1.8496066400000000 29.4882275199999988 0.1344383300000000 Au
atom 4.6714632199999997 29.5137273200000010 0.1585901500000000 Au
atom 8.9458598299999998 32.0387418999999980 -0.2672610900000000 Au
atom 11.7013246700000000 32.0754162599999972 0.0389782700000000 Au
atom 14.4892687000000002 32.0513519799999997 0.0072457000000000 Au
atom 17.3364780900000000 32.1046963499999976 -0.1299263000000000 Au
atom 20.1711658699999994 31.9755994900000005 -0.1612480500000000 Au
atom 23.0590634500000000 32.0506539900000007 -0.2059798800000000 Au
atom 25.7977987499999983 32.1273543599999982 0.0155110100000000 Au
atom 0.4169812800000000 31.9810386000000015 0.0821763900000000 Au
atom 3.3158833799999998 32.0006015800000014 0.1394151000000000 Au
atom 6.1062395399999998 32.0243626500000005 -0.1480763800000000 Au
atom 7.3336488299999996 34.5885385600000035 -0.0236230500000000 Au
atom 10.1929715999999999 34.5045475200000027 0.3014897500000000 Au
atom 13.0697996399999994 34.5393287899999990 0.2094603000000000 Au
atom 15.9314010600000007 34.5332626599999983 -0.0959037200000000 Au
atom 18.8241091699999998 34.5987353100000021 -0.2338238900000000 Au
atom 21.6620806799999990 34.5099671899999976 -0.3040569600000000 Au
atom 24.4911533500000012 34.6126591700000006 -0.0209609100000000 Au
atom 27.1994954600000014 34.5085787200000027 0.1909921100000000 Au
atom 1.7842526000000001 34.5075617299999990 0.0327985400000000 Au
atom 4.5765402100000001 34.5381227199999969 0.1488871900000000 Au
atom 9.0040631199999996 37.0531733199999991 0.1499102100000000 Au
atom 11.7684240700000000 36.9082305900000023 0.0910658100000000 Au
atom 14.6312863800000006 37.0549538799999993 -0.0150303900000000 Au
atom 17.4366599800000017 37.1238945300000012 -0.0631617000000000 Au
atom 20.2255678799999998 36.9856277700000007 -0.2657007100000000 Au
atom 22.9834442699999997 37.0969114199999979 -0.1739417100000000 Au
atom 25.8402176899999994 37.0716542500000017 0.2398806300000000 Au
atom 0.4124533200000000 37.0239740999999967 0.0629363500000000 Au
atom 3.2401894499999999 37.0263289600000007 0.1941770000000000 Au
atom 6.0417422399999996 37.0621491400000025 0.3016536500000000 Au
atom 7.5349584800000002 0.0112268900000000 0.2511189200000000 Au
atom 10.3537305400000008 0.0155110000000000 0.1164642700000000 Au
atom 13.1764916099999994 0.0322208600000000 0.2818348200000000 Au
atom 16.0632108699999989 0.0904050200000000 0.1682024500000000 Au
atom 18.9089074000000004 0.0529320600000000 -0.0299432000000000 Au
atom 21.5424385799999989 0.0924790000000000 -0.0235474700000000 Au
atom 24.3958109100000016 -0.0262878000000000 0.1668029200000000 Au
atom 27.2747012200000007 0.0741731300000000 0.2079776200000000 Au
atom 1.9345041100000000 0.0511918600000000 0.1625731400000000 Au
atom 4.6824000500000000 -0.0512414000000000 0.4809641300000000 Au
atom 8.9146916600000008 2.5373686499999999 0.3429780700000000 Au
atom 11.7820233099999996 2.5827698799999999 0.2630944600000000 Au
atom 14.5726125000000000 2.5283140000000000 0.5129534300000000 Au
atom 17.4593299600000016 2.5511149600000000 0.0584044900000000 Au
atom 20.1237577899999991 2.5257807099999998 0.0441362800000000 Au
atom 22.9827884900000008 2.5847372000000002 -0.1752381000000000 Au
atom 25.7763908099999988 2.4856812399999999 0.0431589400000000 Au
atom 0.4869049200000000 2.4181257899999999 0.1707097100000000 Au
atom 3.2375412600000000 2.4321131999999999 0.3163126600000000 Au
atom 6.0552441500000000 2.3856761700000000 0.3983357200000000 Au
atom 7.3415733999999997 4.8378194199999998 0.3695895100000000 Au
atom 10.2228058399999995 5.0131985099999996 0.4739093800000000 Au
atom 13.1141425599999994 5.0619829999999997 0.2576110900000000 Au
atom 15.9713511399999994 4.9594552900000002 0.4785486200000000 Au
atom 18.8149214499999999 4.9814532500000004 0.0722557100000000 Au
atom 21.6259005600000016 5.0269502700000004 -0.0034913300000000 Au
atom 24.4183937899999997 4.9780853499999997 -0.0485622800000000 Au
atom 27.1873161699999990 4.8498426500000003 0.0694186700000000 Au
atom 1.7747466000000001 4.8857737200000004 0.0738751300000000 Au
atom 4.6391320900000004 4.8085937599999999 0.2433552100000000 Au
atom 8.8835309099999993 7.2583656200000002 0.2202904100000000 Au
atom 11.7357647400000005 7.4241625600000001 0.3159170100000000 Au
atom 14.6301077900000003 7.4683874000000001 0.2756747100000000 Au
atom 17.4220285200000014 7.4394119700000001 0.3310397900000000 Au
atom 20.2708952899999986 7.3977666600000003 0.0539991400000000 Au
atom 23.0766839099999999 7.4440094200000004 -0.0070461700000000 Au
atom 25.9081432599999992 7.3127668500000000 -0.1825643700000000 Au
atom 0.4701628100000000 7.2755658199999997 0.3073856200000000 Au
atom 3.3038772600000001 7.2612997699999999 0.1408087000000000 Au
atom 6.0446308599999998 7.2982903099999996 0.2796337000000000 Au
atom 7.4405078600000003 9.7819957100000003 0.1815874400000000 Au
atom 10.2024644900000006 9.8911932999999994 -0.0323510500000000 Au
atom 13.0329574099999999 9.7680008699999998 -0.1783477900000000 Au
atom 15.9964670499999997 9.8728088599999992 -0.1975268200000000 Au
atom 18.8352694800000009 9.9115139699999997 -0.1467910400000000 Au
atom 21.6329427500000016 9.8947625099999996 -0.0993439900000000 Au
atom 24.5516784299999991 9.7888045800000008 0.0514931800000000 Au
atom 27.2671006499999997 9.8690894700000005 -0.1092047900000000 Au
atom 1.8634778200000000 9.6914826600000001 0.0083287900000000 Au
atom 4.6482005400000004 9.7768898400000008 0.1154929100000000 Au
atom 8.8827508700000006 12.2238861100000005 -0.2481315200000000 Au
atom 11.6389820600000000 12.2953757699999997 -0.0695222200000000 Au
atom 14.4577068000000004 12.3019120199999996 -0.0929351300000000 Au
atom 17.3255055599999999 12.4255090700000004 -0.1935529900000000 Au
atom 20.2030908599999997 12.4047350200000004 -0.2375052200000000 Au
atom 23.1097792300000009 12.3222051599999993 -0.1398730600000000 Au
atom 25.8429945600000011 12.3006679999999999 -0.1561794900000000 Au
atom 0.3695308400000000 12.3201139800000004 -0.1909358700000000 Au
atom 3.1806633999999998 12.2256042199999992 0.1469221500000000 Au
atom 6.1053526400000004 12.2893187800000003 -0.0804144400000000 Au
atom 7.4176815500000002 13.2360692300000000 2.4354035199999999 Au
atom 10.2237686900000000 13.1880465900000008 2.4061641100000002 Au
atom 13.2027910800000008 13.1371035000000003 2.6836905299999998 Au
atom 15.9574966499999995 13.1288144300000003 2.3154492599999998 Au
atom 18.8016444000000007 13.2204514399999997 2.4250082300000000 Au
atom 21.6069445400000006 13.1892060200000003 2.5661624700000001 Au
atom 24.3907920800000007 13.2694682900000007 2.5129731099999999 Au
atom 27.1171183999999990 13.1764432700000000 2.4067355300000002 Au
atom 1.7795050500000000 13.1776271900000008 2.6124486099999999 Au
atom 4.5965469700000003 13.2516654200000001 2.5944085900000000 Au
atom 8.8847576200000002 15.7553715400000005 2.4125954400000000 Au
atom 11.7360269400000004 15.5170522000000002 2.3538682299999998 Au
atom 14.6068935199999999 15.5676745600000004 2.3852485400000001 Au
atom 17.4092912899999988 15.7047144799999998 2.3055679800000002 Au
atom 20.2388653599999984 15.6546806899999993 2.3418744800000000 Au
atom 22.9578811899999984 15.7091971499999996 2.4623903600000001 Au
atom 25.8015357200000004 15.6672792399999992 2.4665807300000000 Au
atom 0.4227456000000000 15.6251648099999993 2.5516673299999999 Au
atom 3.3534504100000002 15.7033613400000007 2.4265501600000001 Au
atom 6.1184283199999996 15.6438726199999998 2.4897304099999999 Au
atom 7.6528465700000003 18.1062438599999993 2.3941891000000002 Au
atom 10.5147956100000002 18.0933878399999983 2.4794539599999998 Au
atom 13.3013694299999994 17.9758177299999993 2.5768324200000001 Au
atom 15.9987396600000000 18.0288748900000009 2.2046680599999999 Au
atom 18.8519491300000013 18.1337461399999995 2.3894422099999999 Au
atom 21.6033947300000015 18.1253735700000007 2.5417864200000002 Au
atom 24.4142871399999990 18.1614215899999998 2.3985722799999998 Au
atom 27.2752904399999991 18.0680992799999984 2.7022360700000001 Au
atom 1.9545371199999999 18.0593866500000004 2.6107101600000000 Au
atom 4.7002191699999996 18.1706126400000016 2.4051404100000000 Au
atom 8.9706365300000002 20.4716184199999987 2.6359039800000001 Au
atom 11.7508443000000007 20.5875546000000007 2.6285316299999999 Au
atom 14.6098644800000006 20.5100160400000000 2.7501938600000000 Au
atom 17.3637121699999994 20.4920920200000012 2.5391419900000001 Au
atom 20.1973435600000002 20.6393684899999990 2.7116733200000001 Au
atom 23.0110624100000010 20.6514440300000004 2.8327652400000001 Au
atom 25.8897303000000001 20.5953709499999995 2.6773663700000001 Au
atom 0.5270457100000000 20.5957704200000009 2.8721685199999998 Au
atom 3.3352187700000000 20.6166576600000013 2.6644379699999998 Au
atom 6.2777216400000002 20.5182827199999984 2.4041692299999999 Au
atom 7.4911193999999997 23.0353248199999996 2.4677954299999998 Au
atom 10.3398600300000005 23.0198191500000000 2.4374597200000001 Au
atom 13.1161703400000000 23.0509372299999988 2.5149393700000000 Au
atom 15.8593955999999991 23.0885214300000001 2.7054976100000001 Au
atom 18.7249229100000001 23.0059326800000008 2.8995167899999998 Au
atom 21.4953700000000012 23.0965659800000012 2.7078558699999999 Au
atom 24.3907919500000006 23.0920124400000013 2.7300230600000002 Au
atom 27.2152325300000015 23.0449002500000013 2.6977526799999998 Au
atom 1.9317187899999999 23.0912593000000008 2.7413854899999999 Au
atom 4.7925740699999997 23.0074939799999996 2.6460800999999998 Au
atom 8.8803814899999995 25.5617295599999999 2.3936180399999998 Au
atom 11.7053284499999997 25.4545148400000016 2.5552942999999999 Au
atom 14.4922328999999994 25.5458650899999995 2.5866503299999999 Au
atom 17.3709777000000010 25.5200548199999986 2.8706798000000000 Au
atom 20.1319932699999988 25.5827742399999991 2.9064234299999998 Au
atom 23.0363348499999994 25.5581331399999989 2.8321733199999999 Au
atom 25.9130521199999997 25.4591387299999994 2.5287233499999999 Au
atom 0.4521982900000000 25.4700938900000011 2.8276237200000001 Au
atom 3.4230019999999999 25.6136287299999985 2.7538708600000001 Au
atom 6.1644741600000001 25.5830358500000017 2.7141803000000002 Au
atom 7.5844667100000001 27.9708224600000008 2.5492611699999999 Au
atom 10.3850504400000005 27.8726145800000005 2.3439700600000002 Au
atom 13.1414968299999995 27.9482122000000004 2.3787987600000000 Au
atom 15.9325681400000008 27.9906273200000015 2.7374627899999999 Au
atom 18.7406599599999986 28.0694285699999995 2.8990651800000000 Au
atom 21.5219134099999998 27.9952803800000005 2.6973754699999999 Au
atom 24.4179089100000013 27.9172491500000000 2.5967678799999998 Au
atom 27.3338034500000013 28.0034226599999982 2.5358580599999998 Au
atom 1.8772040000000001 27.9476183200000001 2.4994290900000000 Au
atom 4.7093579999999999 28.0490713400000011 2.6944442999999998 Au
atom 8.9494433099999995 30.3485831099999999 2.3215940000000002 Au
atom 11.7560094700000004 30.2976259699999986 2.3443950700000000 Au
atom 14.4993600100000002 30.4530738200000002 2.5694356900000002 Au
atom 17.2872184799999999 30.5260548800000002 2.4931948899999998 Au
atom 20.1582853600000007 30.5260730000000002 2.6266607300000002 Au
atom 22.9880693700000016 30.4942114099999984 2.5645522600000001 Au
atom 25.8839249299999992 30.4208212600000003 2.5440343300000001 Au
atom 0.5692780800000000 30.4697209200000003 2.8352729700000001 Au
atom 3.3204913800000000 30.5186954999999998 2.8626175800000002 Au
atom 6.2052026800000002 30.5028009000000004 2.4478070299999999 Au
atom 7.5888912399999997 32.9229978799999969 2.4432262499999999 Au
atom 10.3227540500000003 32.7702638900000025 2.6423130100000001 Au
atom 13.1651984300000002 32.9380171000000033 2.7032231400000000 Au
atom 15.9445897700000003 32.9589193899999984 2.4663410799999999 Au
atom 18.8877866300000008 32.9925966200000005 2.4631694700000000 Au
atom 21.6705083899999984 33.1130963100000031 2.2783405800000001 Au
atom 24.3774847799999996 32.9221644499999968 2.5538390000000000 Au
atom 27.1601887399999988 32.9274623800000015 2.6188605900000002 Au
atom 1.8308366300000001 32.9486096300000000 2.6791950299999998 Au
atom 4.6723313900000001 32.9306588999999974 2.7219805899999998 Au
atom 8.8547852299999992 35.4526316299999991 2.8684576100000001 Au
atom 11.6476527099999991 35.2499082699999988 2.8086675099999998 Au
atom 14.5560873199999996 35.3691949899999969 2.7053113400000002 Au
atom 17.3833149300000009 35.4347120799999971 2.4849044800000000 Au
atom 20.1519234500000017 35.5082168499999966 2.4302135499999999 Au
atom 22.9054560199999990 35.5501683000000028 2.4489100800000001 Au
atom 25.7457434399999983 35.4033300500000010 2.7103553100000002 Au
atom 0.3978618900000000 35.3984002600000025 2.6969513100000002 Au
atom 3.2551915400000002 35.3747488400000023 2.9316432099999998 Au
atom 6.0273428999999998 35.3973492200000024 2.7405846700000001 Au
atom 7.5606085399999996 37.8985255300000006 2.7395480900000000 Au
atom 10.4477072300000007 37.7762998199999984 2.7329981100000000 Au
atom 13.1937584999999995 37.8092724099999984 2.5741859100000002 Au
atom 15.9827790099999998 37.8733402200000029 2.7316922199999998 Au
atom 18.7142073899999986 37.9439369099999979 2.5620787500000000 Au
atom 21.4141316500000016 37.9866830500000034 2.3627947400000000 Au
atom 24.4183749799999994 37.9066629900000009 2.5888948900000002 Au
atom 27.2323342400000001 37.9100364900000031 2.7739152200000001 Au
atom 1.9105684900000000 37.9004628599999975 2.8218042200000002 Au
atom 4.7298736899999998 37.8786593000000025 2.9027445099999998 Au
atom 8.9771880799999995 0.7825372600000000 2.8991579500000002 Au
atom 11.7324963199999992 0.7959044600000000 2.7535854799999999 Au
atom 14.5502821600000001 0.7676857700000000 3.0444489799999999 Au
atom 17.3866185199999990 0.9317917500000000 2.6515634700000001 Au
atom 20.0993966899999990 0.9781732500000000 2.7577640899999998 Au
atom 22.9384633700000009 0.9473913000000000 2.6506412199999998 Au
atom 25.7992502700000017 0.9031133600000000 2.6140038900000002 Au
atom 0.4298100400000000 0.8220215400000001 2.8600796100000001 Au
atom 3.3044058299999999 0.8848533900000000 3.0080014700000000 Au
atom 6.0889440199999996 0.8868186700000000 3.1224147100000001 Au
atom 7.6369853399999998 3.2746397100000002 2.9309338800000000 Au
atom 10.3890127499999991 3.2550244400000001 2.9619506400000000 Au
atom 13.1435163199999998 3.3017251399999998 2.9158677700000002 Au
atom 15.9835260399999992 3.3120587800000001 2.8530177399999999 Au
atom 18.7985405000000014 3.4519304100000001 2.6681747100000002 Au
atom 21.5273664599999996 3.3866223899999999 2.5078696900000002 Au
atom 24.4086542199999990 3.3416747500000001 2.6007694500000000 Au
atom 27.2502692700000004 3.3853675000000001 2.6056672900000000 Au
atom 1.8866368000000000 3.3721845400000001 2.7417762600000000 Au
atom 4.7654485900000001 3.3531873000000001 2.8607188300000002 Au
atom 8.8629964000000001 5.8397628099999999 2.9545190600000000 Au
atom 11.7218460600000007 5.7892513000000001 3.0558419300000002 Au
atom 14.5330963799999999 5.8467039900000000 2.8704750200000002 Au
atom 17.4411071699999987 5.9455974400000002 2.9945354700000002 Au
atom 20.2699694500000014 5.9016472699999998 2.5833844799999999 Au
atom 23.0182370200000008 5.8844598499999998 2.7036759300000002 Au
atom 25.7729831199999992 5.8387605699999998 2.4561744000000001 Au
atom 0.4428224500000000 5.8630744300000002 2.8025362199999999 Au
atom 3.2407538400000000 5.7767516299999997 2.8199800599999998 Au
atom 6.1582585999999999 5.7551322300000001 3.0709762100000000 Au
atom 7.4732485200000003 8.3389731200000003 2.7809818399999999 Au
atom 10.2270120500000008 8.2331146099999994 2.6771528400000002 Au
atom 13.0871144899999994 8.2716721500000006 2.7337016900000002 Au
atom 16.0954785399999984 8.3248062500000000 2.8268279999999999 Au
atom 18.9187748000000013 8.4473782899999996 2.7750023399999999 Au
atom 21.6359511699999985 8.3944010299999992 2.5566467500000001 Au
atom 24.3990700499999988 8.3543198600000004 2.6290645300000000 Au
atom 27.1670330699999987 8.2781762899999993 2.4867307099999998 Au
atom 1.8093257500000000 8.3019127800000003 2.7581731600000001 Au
atom 4.6983617500000001 8.2130295699999998 2.7047701900000001 Au
atom 8.9018058300000007 10.7751199300000007 2.5832154599999999 Au
atom 11.6386424700000006 10.7940338600000008 2.6392380100000001 Au
atom 14.5266263099999993 10.6530158200000002 2.5276237199999998 Au
atom 17.4239096199999999 10.7421118000000000 2.3987672600000001 Au
atom 20.1740759099999991 10.9020649600000006 2.5403670900000002 Au
atom 22.9938357300000007 10.8131920600000004 2.5341587200000002 Au
atom 25.7504458400000011 10.8097911799999995 2.5979076499999998 Au
atom 0.4268967200000000 10.6926540499999998 2.5255218099999999 Au
atom 3.2468004200000000 10.7155338300000000 2.7057105300000002 Au
atom 6.1093956399999998 10.7169272200000005 2.6203307200000001 Au
atom 7.7082033900000004 13.1267960800000001 5.8502305300000002 Cl
atom 7.6976915899999998 15.9695182700000000 8.5855613200000001 Cl
atom 7.7035131200000002 13.2088220799999991 8.4720031000000002 Na
atom 7.7500157700000001 15.8683031099999994 5.7888068500000003 Na
atom 7.7361650400000004 18.7400783900000008 5.7672047600000003 Cl
atom 7.7666979899999999 21.4925457900000012 8.4514504899999991 Cl
atom 7.6302792200000003 18.7406823500000002 8.4265172100000001 Na
atom 7.6924747599999996 21.5409328400000000 5.7467943799999999 Na
atom 7.7518445900000001 24.4334584399999990 5.8053451200000001 Cl
atom 7.8125651999999999 27.2951825700000015 8.6114070399999996 Cl
atom 7.7580035599999997 24.4323408099999995 8.4572916899999999 Na
atom 7.6857271899999997 27.2164474399999996 5.7198501200000003 Na
atom 7.8096135400000000 30.0382774099999992 5.7085716099999999 Cl
atom 7.7498968499999998 32.8191177900000000 8.6360049700000001 Cl
atom 7.7765047000000003 29.9267498500000002 8.2836158599999994 Na
atom 7.6785337199999999 32.9273322499999992 5.9361704800000004 Na
atom 7.6730130299999999 35.8525984099999988 5.9992824200000001 Cl
atom 7.5832429100000001 38.5576168699999968 8.7637402899999994 Cl
atom 7.6952109499999999 35.9161532800000032 8.6104370899999996 Na
atom 7.6788230000000004 38.6150938299999993 5.9701605400000002 Na
atom 7.6900589899999998 2.1003824999999998 6.0343102000000002 Cl
atom 7.7578079500000001 4.8057118599999997 8.8659722799999994 Cl
atom 7.6572134199999997 2.0094378000000002 8.6361147099999993 Na
atom 7.5524098899999998 4.8396955400000001 6.0186001300000003 Na
atom 7.5341156199999997 7.5688083600000002 5.8911616599999999 Cl
atom 7.8309398300000002 10.3559678799999997 8.6812810900000006 Cl
atom 7.6593765500000002 7.5388043400000004 8.5851928599999994 Na
atom 7.7269597699999997 10.2906039699999994 5.9712539400000004 Na
atom 10.6287293799999993 13.2974197200000006 5.8834440900000002 Na
atom 13.2649775900000009 13.2993110899999998 5.6826414500000002 Cl
atom 10.5814945700000003 15.8825202399999998 8.6833571299999992 Na
atom 13.4116385299999994 16.0734868000000013 8.5839880399999995 Cl
atom 13.2560229799999991 13.2020006999999993 8.4221690700000007 Na
atom 10.5237034699999992 13.1065015000000002 8.7091881600000001 Cl
atom 13.5742436200000007 16.0016405400000004 5.8780228399999999 Na
atom 10.4560925900000008 15.9608459400000005 5.8656269200000004 Cl
atom 10.5316814500000007 18.7536385500000016 5.9984590600000001 Na
atom 13.3924184900000007 18.6331892600000018 5.6903987999999996 Cl
atom 10.5144854599999995 21.6749427200000007 8.4204135600000001 Na
atom 13.3151894399999993 21.5420017399999999 8.3821346499999994 Cl
atom 13.4242862499999998 18.6912193600000016 8.3643187099999992 Na
atom 10.4851791500000004 18.7766936099999988 8.7800450300000001 Cl
atom 13.2653823299999996 21.5324825000000004 5.6889147400000004 Na
atom 10.3858034200000002 21.6168012400000009 5.8050116200000001 Cl
atom 10.4753957199999999 24.4415665000000004 5.7335864699999997 Na
atom 13.2965019400000006 24.4289932900000011 5.7434746900000002 Cl
atom 10.5810217600000005 27.1633181999999991 8.1771340400000003 Na
atom 13.2159170499999998 27.0804154299999986 8.4997332799999992 Cl
atom 13.4181447299999999 24.4663323499999983 8.2897106500000000 Na
atom 10.5673414799999996 24.4366546100000015 8.4998809499999997 Cl
atom 13.2455960699999995 27.1234188299999985 5.6730129800000002 Na
atom 10.3950922499999994 27.1583713499999995 5.4812101699999998 Cl
atom 10.5326476299999996 29.8970734399999998 5.6470401099999998 Na
atom 13.2200455199999993 29.9289481700000017 5.6118433000000003 Cl
atom 10.5580478299999996 32.8677949200000015 8.3541470499999999 Na
atom 13.4027109099999997 32.9020195599999994 8.6905638599999993 Cl
atom 13.3663670799999998 29.9977825500000002 8.3190312399999993 Na
atom 10.6637312200000007 29.9793360299999989 8.4328187000000003 Cl
atom 13.4226721599999994 32.7812564700000024 5.9419542200000004 Na
atom 10.5674990199999996 32.8076556600000018 5.7435835400000004 Cl
atom 10.4753065500000009 35.9123361899999978 5.8431920000000002 Na
atom 13.2903195099999998 35.7862808599999980 5.7889101299999997 Cl
atom 10.5121352100000003 38.5595244900000012 8.5304345999999995 Na
atom 13.2651124700000000 38.6019547599999981 8.7396674799999996 Cl
atom 13.3589425800000008 35.8597419000000031 8.5288709399999991 Na
atom 10.5576616100000003 35.7906827600000028 8.4723726999999993 Cl
atom 13.3015211699999991 38.6323683000000031 5.9317528199999998 Na
atom 10.4714082800000003 38.7848520000000008 6.0154957500000004 Cl
atom 10.5005071599999997 1.9352150500000000 5.9818640700000003 Na
atom 13.3655702099999996 1.8671474699999999 5.9711938699999996 Cl
atom 10.4958312300000003 4.7973480999999998 8.5863457600000004 Na
atom 13.2706037499999994 4.7289389000000002 8.7450237899999994 Cl
atom 13.2757509000000002 2.0086781399999998 8.5383914799999996 Na
atom 10.3378190599999993 1.8288711799999999 8.8664219499999994 Cl
atom 13.3889187799999991 4.7940139999999998 5.9518383200000002 Na
atom 10.4171783500000004 4.6234968900000002 6.1051455700000004 Cl
atom 10.6257826400000006 7.4113475400000004 5.9377233000000000 Na
atom 13.4024586699999997 7.5282060900000003 5.9300413799999996 Cl
atom 10.6541499399999999 10.2779811700000003 8.4658491700000003 Na
atom 13.1975019000000007 10.4293866400000006 8.6308991499999994 Cl
atom 13.3457572599999992 7.3933105499999998 8.5700685599999993 Na
atom 10.5814707099999996 7.5988289299999998 8.6855723299999994 Cl
atom 13.3602023200000009 10.4416924400000006 5.6966930099999997 Na
atom 10.5921155099999993 10.3765813700000002 5.7397409399999999 Cl
atom 16.1199662299999993 13.1140548799999994 5.8386345400000002 Na
atom 18.9400041700000017 13.2024474499999993 5.8256549900000003 Cl
atom 16.3183972399999995 16.0602637299999991 8.3378207900000003 Na
atom 19.0551271000000000 15.9840603199999993 8.7320986600000001 Cl
atom 18.8891279200000000 13.1498741999999993 8.4635927700000000 Na
atom 16.3571286600000008 13.2034678099999994 8.6390369000000007 Cl
atom 19.0782169800000005 15.8898993199999996 5.9101879500000001 Na
atom 16.2162997199999985 15.9413029399999999 5.6765384200000000 Cl
atom 16.3540662400000016 18.7831644500000010 5.6863308600000000 Na
atom 19.0433628199999987 18.8868039699999990 5.5996912099999996 Cl
atom 16.0872905400000015 21.6120186499999996 8.4300479900000003 Na
atom 19.0150462699999991 21.5065790800000016 8.6635717299999992 Cl
atom 18.9588666199999984 18.6880157900000015 8.3224549700000008 Na
atom 16.2443173999999999 18.7632048000000005 8.3431321799999996 Cl
atom 18.9448354399999985 21.5779973399999996 5.7760672800000004 Na
atom 16.1768296099999986 21.5690869700000007 5.7297713200000002 Cl
atom 16.2128216400000014 24.2871341700000016 5.6408081200000000 Na
atom 19.0097815799999985 24.4384165600000003 5.8414056399999996 Cl
atom 16.0639731200000000 27.0882174499999984 8.5008230000000005 Na
atom 19.0235572499999996 27.1778555200000014 8.5989909800000000 Cl
atom 18.9882947199999990 24.3276041099999993 8.3427436099999994 Na
atom 16.1322807300000015 24.3284508300000013 8.5976570799999994 Cl
atom 18.8763611100000013 27.0785014299999993 5.8906733400000002 Na
atom 15.9818730400000000 27.1387959499999987 5.7242227699999999 Cl
atom 16.1360030200000004 29.8648801800000001 5.8369042699999998 Na
atom 18.8697949099999995 29.9360791699999993 5.7144371999999999 Cl
atom 16.1484446699999999 32.9648922000000013 8.5913451799999994 Na
atom 18.8837503700000013 32.9650919099999982 8.5262583200000002 Cl
atom 18.8209013499999998 30.2057353400000004 8.4831718800000004 Na
atom 16.0694302899999997 29.9728444200000013 8.5446059600000002 Cl
atom 18.8435181900000011 32.8648010200000016 5.6805466800000000 Na
atom 16.2055074099999992 32.8283025100000003 5.8709737999999998 Cl
atom 16.0704851600000005 35.6153588800000023 5.9153758999999999 Na
atom 18.9809085199999998 35.7545423500000012 5.5997855599999999 Cl
atom 16.3352776400000010 38.4472056899999970 8.4429025299999996 Na
atom 19.0755445799999990 38.3543950400000000 8.4830543299999999 Cl
atom 19.0778676099999984 35.7199485599999988 8.3795572499999995 Na
atom 16.1510081599999999 35.6474288699999988 8.8418938199999992 Cl
atom 19.1056524900000007 38.5733556200000010 5.5189630300000001 Na