#===============================================================================
# Created using the Atomic Simulation Environment (ASE)

# Tue Dec 23 21:42:46 2025

#=======================================================
lattice_vector 28.1999999999999993 0.0000000000000000 0.0000000000000000 
lattice_vector 0.0000000000000000 39.4799999999999969 0.0000000000000000 
lattice_vector 0.0000000000000000 0.0000000000000000 62.3296083400000001 
atom 7.4633846600000000 14.8286795199999997 0.0057260000000000 Au
atom 10.2922039099999996 14.8197318599999992 -0.0872782500000000 Au
atom 13.1445456499999995 14.8039269400000002 -0.0076608700000000 Au
atom 15.9429552799999996 14.8376607000000007 0.0057600000000000 Au
atom 18.7956115200000013 14.8012982500000003 0.0475745100000000 Au
atom 21.6705965499999991 14.8150903799999991 -0.0374820200000000 Au
atom 24.5005939099999992 14.8038716600000004 0.1291388400000000 Au
atom 27.2345124900000002 14.8281087199999995 -0.0350159900000000 Au
atom 1.8101973099999999 14.8211964799999993 0.0714081400000000 Au
atom 4.6612395299999996 14.8177491299999993 -0.0546606200000000 Au
atom 8.8684757100000002 17.2939746200000002 -0.0102349100000000 Au
atom 11.7105279600000003 17.3039215400000010 -0.0831982600000000 Au
atom 14.5175305300000002 17.3029238700000008 -0.0129201700000000 Au
atom 17.4186342500000002 17.2725544299999996 0.0392619200000000 Au
atom 20.2301374400000000 17.2659169800000001 0.0058765000000000 Au
atom 23.0072500499999997 17.3162215999999987 0.0613232100000000 Au
atom 25.8243392800000002 17.3243949700000002 0.1390809300000000 Au
atom 0.4713616900000000 17.3214520500000013 0.0804152300000000 Au
atom 3.3083900499999999 17.2913141099999983 -0.0039132600000000 Au
atom 6.0756208699999998 17.2956112600000012 0.1566685600000000 Au
atom 7.5194605599999997 19.7724370500000006 0.1602553100000000 Au
atom 10.3224451800000008 19.7976583300000009 0.0373220500000000 Au
atom 13.1242964600000001 19.7559106799999995 0.1169611200000000 Au
atom 16.0026316100000017 19.7378355499999998 0.0467295200000000 Au
atom 18.8498257299999992 19.7361361700000018 0.0820376700000000 Au
atom 21.6247802500000006 19.7714580700000013 0.0499900000000000 Au
atom 24.4482355700000014 19.7669656700000012 0.1573761800000000 Au
atom 27.2598719900000006 19.7362969100000001 0.0830858400000000 Au
atom 1.8893113200000000 19.7612736399999989 0.1760514900000000 Au
atom 4.7076516899999996 19.7805019100000017 -0.0357720000000000 Au
atom 8.9255934900000007 22.2076525400000016 0.0305892900000000 Au
atom 11.7325583299999998 22.2479022200000003 -0.0099645900000000 Au
atom 14.5889561699999994 22.2287587500000008 0.1161635800000000 Au
atom 17.4203908900000002 22.1783149799999997 0.0978218600000000 Au
atom 20.2128109100000017 22.2018279099999987 0.1117303200000000 Au
atom 23.0570688100000005 22.2188901299999984 0.0674486300000000 Au
atom 25.8595107199999994 22.2160955099999988 0.0614907100000000 Au
atom 0.4205780400000000 22.2011707899999990 0.1027040200000000 Au
atom 3.2474047300000000 22.2574152100000013 0.0686454100000000 Au
atom 6.1042782400000002 22.2187375899999999 0.1793410000000000 Au
atom 7.4982391399999999 24.6563915199999997 0.0739967700000000 Au
atom 10.3532210599999992 24.7024941600000005 0.0121875200000000 Au
atom 13.1839872899999992 24.6865715700000017 0.0255375500000000 Au
atom 16.0303877999999997 24.6506458399999993 0.0485168500000000 Au
atom 18.8280649599999990 24.6887197699999987 0.0539159500000000 Au
atom 21.6541796700000013 24.6656534600000015 0.0379141300000000 Au
atom 24.4211703600000014 24.7119567199999999 0.0679491100000000 Au
atom 27.2341623599999991 24.7203802699999997 0.1919538500000000 Au
atom 1.8483084599999999 24.7046883800000003 0.1229603800000000 Au
atom 4.6928271400000003 24.6577256899999995 0.0830925400000000 Au
atom 8.9298583199999992 27.1311521000000013 0.0406094000000000 Au
atom 11.7470347299999993 27.1661100799999993 0.0369053600000000 Au
atom 14.5999443600000003 27.1492374299999994 -0.0178450900000000 Au
atom 17.3890873299999988 27.1157915699999990 0.1140501400000000 Au
atom 20.2038316999999985 27.1477722800000016 0.1045644900000000 Au
atom 22.9649168800000005 27.1361846299999989 0.0448623500000000 Au
atom 25.8146604999999987 27.1740685599999985 0.0241649400000000 Au
atom 0.4181772300000000 27.1484411899999998 0.0651210500000000 Au
atom 3.2710056999999999 27.0993205999999986 0.0075620900000000 Au
atom 6.0895347299999996 27.1362651600000007 0.0485194800000000 Au
atom 7.5467538599999999 29.6301246800000015 0.0536329600000000 Au
atom 10.3473913300000007 29.5932378500000013 0.0878714800000000 Au
atom 13.1728073600000002 29.6256652500000008 -0.0394683600000000 Au
atom 15.9503863900000002 29.6144944899999985 0.1184130900000000 Au
atom 18.7545362000000004 29.6048614500000014 0.0049681300000000 Au
atom 21.5910994500000015 29.6150525100000017 0.0106205700000000 Au
atom 24.4191949500000014 29.6225911300000000 0.0146220700000000 Au
atom 27.2452739800000003 29.6125092499999987 0.0429309700000000 Au
atom 1.8824749599999999 29.5772873099999991 0.0518269900000000 Au
atom 4.7061432300000003 29.5503566299999996 -0.0007537200000000 Au
atom 8.8921163599999993 32.0532838399999989 -0.0247938600000000 Au
atom 11.7305442600000003 32.1004982700000028 -0.0750915500000000 Au
atom 14.5517973499999993 32.0589693200000028 0.0275847600000000 Au
atom 17.3666529300000008 32.0920903999999965 0.0489408600000000 Au
atom 20.1505333600000007 32.0712227900000002 0.0128993200000000 Au
atom 23.0105744200000011 32.0749908499999989 -0.0537065000000000 Au
atom 25.8256559599999989 32.1175903399999996 -0.0407250600000000 Au
atom 0.4394849700000000 32.1052916399999972 0.0379676400000000 Au
atom 3.2318152800000002 32.0562731400000018 -0.0542137800000000 Au
atom 6.0292343800000001 32.0739380699999970 -0.1236799500000000 Au
atom 7.4682894800000001 34.5572180899999992 0.0065138600000000 Au
atom 10.2868630900000007 34.5219919600000011 0.0309714900000000 Au
atom 13.1562894999999997 34.5670110599999987 -0.0821215800000000 Au
atom 15.9691722299999999 34.5499348100000034 0.0665719600000000 Au
atom 18.7917222799999983 34.5519708200000011 -0.0521191500000000 Au
atom 21.6167710299999989 34.5674565699999974 -0.0429063900000000 Au
atom 24.4243770500000004 34.5846645800000019 -0.0523000200000000 Au
atom 27.2371145500000011 34.5792579200000034 0.0051790000000000 Au
atom 1.8515124300000001 34.5071648300000007 -0.0380307000000000 Au
atom 4.6727838200000003 34.5455552199999971 -0.0358999200000000 Au
atom 8.9171351300000001 37.0079791799999995 0.0240428100000000 Au
atom 11.7659639800000004 37.0225295400000007 -0.0004855900000000 Au
atom 14.5645716699999994 37.0443477399999992 0.0402354700000000 Au
atom 17.3995542900000011 37.0023658599999976 0.0626573600000000 Au
atom 20.1989431500000016 37.0130725499999969 -0.0174568300000000 Au
atom 23.0975409399999982 37.0294433400000003 0.0059715700000000 Au
atom 25.8811807599999995 37.0028451800000013 -0.0200002400000000 Au
atom 0.4686909400000000 37.0207537200000019 0.0208726300000000 Au
atom 3.2340527500000000 37.0470835100000002 0.0052136700000000 Au
atom 6.0630269600000002 37.0170289400000030 0.0944833800000000 Au
atom 7.5237739399999999 0.0344542000000000 0.1231101000000000 Au
atom 10.3117500799999995 0.0120414000000000 0.0676146100000000 Au
atom 13.1701899299999994 0.0508652200000000 0.0009355100000000 Au
atom 15.9418204800000005 -0.0188204800000000 0.1414650700000000 Au
atom 18.7661105399999997 -0.0215449800000000 0.1267407800000000 Au
atom 21.6209613800000007 0.0039727800000000 0.0553969200000000 Au
atom 24.4538043199999997 0.0322944500000000 0.1013590200000000 Au
atom 27.2609648399999998 0.0166447700000000 0.1139633200000000 Au
atom 1.8769875800000000 0.0291479900000000 0.1007040000000000 Au
atom 4.7109820800000000 0.0132762200000000 0.0764319500000000 Au
atom 8.9194404899999995 2.4996829500000000 0.0796888500000000 Au
atom 11.7631889500000000 2.4643138599999999 0.0170262600000000 Au
atom 14.5884036399999992 2.4708638700000001 0.1182149100000000 Au
atom 17.3977107900000014 2.4564305000000002 0.0954227500000000 Au
atom 20.1889471799999995 2.4393632400000000 0.0175124600000000 Au
atom 23.0135622600000005 2.4763851799999999 0.0475026100000000 Au
atom 25.8682205299999985 2.4641214900000001 0.0806780300000000 Au
atom 0.4672980500000000 2.4553685600000001 0.0441238100000000 Au
atom 3.2690850600000001 2.4811612500000000 0.0940208700000000 Au
atom 6.0723853500000002 2.4707482299999999 0.0994874900000000 Au
atom 7.4989429500000000 4.9298418699999997 0.0828602200000000 Au
atom 10.3207110100000001 4.9386696099999998 0.1374562700000000 Au
atom 13.1470922699999999 4.9387746300000002 0.1189477700000000 Au
atom 15.9606288299999992 4.9024171299999999 0.1503062600000000 Au
atom 18.8068148099999988 4.9260584100000004 0.0723732900000000 Au
atom 21.6406344100000005 4.9056913399999997 0.1412185800000000 Au
atom 24.4780448499999999 4.9318295699999997 0.0876173800000000 Au
atom 27.2634826900000000 4.9635367600000002 0.0630503400000000 Au
atom 1.8733936000000000 4.9456704100000000 0.0647008300000000 Au
atom 4.6639345900000002 4.9581890599999996 0.1038950900000000 Au
atom 8.9127806599999992 7.4063259300000004 0.0695698500000000 Au
atom 11.7809394899999997 7.3835828699999997 0.1254119600000000 Au
atom 14.5657959800000008 7.3838634000000001 0.0853958400000000 Au
atom 17.3773771500000009 7.4060646999999999 -0.0024020600000000 Au
atom 20.2251459800000006 7.4243383500000002 0.0578556300000000 Au
atom 23.0592991299999994 7.3645613699999997 0.0616483800000000 Au
atom 25.8655454400000018 7.4154389299999997 0.0927067000000000 Au
atom 0.4694764200000000 7.3916370899999997 0.1393024400000000 Au
atom 3.2941715800000000 7.3988391499999997 0.1129737700000000 Au
atom 6.0940054500000000 7.4214151599999996 -0.0137987700000000 Au
atom 7.4981628699999998 9.8533107799999993 0.0572037400000000 Au
atom 10.3317318500000006 9.8868741599999996 -0.0003127100000000 Au
atom 13.1379123500000006 9.8905291999999996 0.0113965600000000 Au
atom 15.9599161400000007 9.9061743300000007 -0.0131465000000000 Au
atom 18.8094775600000013 9.8437896600000006 -0.0184093900000000 Au
atom 21.6307650100000011 9.8734960899999997 0.0638112300000000 Au
atom 24.4427883500000007 9.8655369700000008 0.0405485900000000 Au
atom 27.2966866900000014 9.8376532200000000 0.0336420700000000 Au
atom 1.9078431100000000 9.8513792599999999 0.0356384300000000 Au
atom 4.6749308200000002 9.9046269599999999 0.0584471700000000 Au
atom 8.8794070499999993 12.4015397899999993 0.0021641800000000 Au
atom 11.7031240499999996 12.3525036099999994 0.0604810700000000 Au
atom 14.5747700600000005 12.3766200899999994 -0.0151920400000000 Au
atom 17.3895072800000001 12.3753253399999998 -0.0829536000000000 Au
atom 20.2339697600000008 12.3684063000000002 0.0203843800000000 Au
atom 23.0027786899999995 12.3424755899999994 0.0165973400000000 Au
atom 25.8295637599999992 12.3100025599999991 -0.1022539300000000 Au
atom 0.4226899900000000 12.3119973799999993 0.0121446200000000 Au
atom 3.2178670600000001 12.3532424200000008 0.0162406600000000 Au
atom 6.0867942700000004 12.3575525299999995 0.0744936200000000 Au
atom 7.4860994400000003 13.1882918700000005 2.6500135800000000 Au
atom 10.2668279899999995 13.2065243399999996 2.5150113900000002 Au
atom 13.1462790999999992 13.1444979899999996 2.6184009700000002 Au
atom 15.9876861399999992 13.1855883800000004 2.5201356700000002 Au
atom 18.8086638800000010 13.0955340099999997 2.6767003500000000 Au
atom 21.5985026799999993 13.1847422200000004 2.5578687200000001 Au
atom 24.3612824600000017 13.1799138100000004 2.6465194699999999 Au
atom 27.1938080000000006 13.1640235600000004 2.5189504000000000 Au
atom 1.8511357500000001 13.1622859999999999 2.6979973899999998 Au
atom 4.6547543999999998 13.1991160099999991 2.5436869799999999 Au
atom 8.9235878399999997 15.6925298400000006 2.5105236000000000 Au
atom 11.7290849799999997 15.6118402399999994 2.4631130200000002 Au
atom 14.5666455100000007 15.5843271899999998 2.5626891100000000 Au
atom 17.4000549500000012 15.6105258100000004 2.6157502899999998 Au
atom 20.1560428800000011 15.6436233900000001 2.5386906800000002 Au
atom 22.9992650400000009 15.6219589400000007 2.6162244900000000 Au
atom 25.8110816999999990 15.6083250600000003 2.7033546600000000 Au
atom 0.4217381000000000 15.6660085900000006 2.6496986800000002 Au
atom 3.2431171100000000 15.6707966400000007 2.5169428699999998 Au
atom 6.1198399800000001 15.6421014799999991 2.6465688200000002 Au
atom 7.5242531599999998 18.1300602799999986 2.7076052599999998 Au
atom 10.3440762399999997 18.1392199800000000 2.4696021500000001 Au
atom 13.1242903799999997 18.0221174399999988 2.6296522499999999 Au
atom 15.9243688700000003 18.0755599099999991 2.5176731999999999 Au
atom 18.7378086599999989 18.0872717600000001 2.6606640300000000 Au
atom 21.5790192900000015 18.1154602000000011 2.6849416499999998 Au
atom 24.4144867999999988 18.0963363000000008 2.7291584900000001 Au
atom 27.1914630499999994 18.1273905299999996 2.7347939200000000 Au
atom 1.8789333800000001 18.0812207899999997 2.7193588000000002 Au
atom 4.6750084300000001 18.1398240400000006 2.6303563900000002 Au
atom 8.9208382499999992 20.6279427499999990 2.7286210299999998 Au
atom 11.7526813899999993 20.6088325200000000 2.6009440200000000 Au
atom 14.5656449299999995 20.5444137799999993 2.5942021999999998 Au
atom 17.4077388699999993 20.6257360200000015 2.6882485200000001 Au
atom 20.2451425200000017 20.5862359099999992 2.6724141100000001 Au
atom 23.0681387099999995 20.5405234300000004 2.6593901000000000 Au
atom 25.8815575500000001 20.5821786899999992 2.7260879299999998 Au
atom 0.4440417400000000 20.5528305700000011 2.7593916599999999 Au
atom 3.3343546100000001 20.5625814200000008 2.7399045300000000 Au
atom 6.1036842199999999 20.5713707399999990 2.7755392500000000 Au
atom 7.5024586199999996 23.0960814100000000 2.7711738200000000 Au
atom 10.3216710299999992 23.0706868999999983 2.6426076500000000 Au
atom 13.1513298899999995 23.0714086599999995 2.5978213999999999 Au
atom 15.9265450800000004 23.1396425699999995 2.6887934900000001 Au
atom 18.7864839000000003 23.0590706200000000 2.6216268399999998 Au
atom 21.6479535600000013 23.0917656999999998 2.5913122999999998 Au
atom 24.4651302999999984 23.0137462600000013 2.6685745100000000 Au
atom 27.2858579699999986 23.0495691399999991 2.7402641900000000 Au
atom 1.9078609900000001 23.0494310200000001 2.6666420600000000 Au
atom 4.6676213200000003 23.0568765599999992 2.7210117199999999 Au
atom 8.9359862299999993 25.5663159899999997 2.6472298900000002 Au
atom 11.7079848799999997 25.5823403099999993 2.7175328300000001 Au
atom 14.5252810199999995 25.5636919200000001 2.6451745700000000 Au
atom 17.3406921099999991 25.5464525699999996 2.7389505399999998 Au
atom 20.1893550899999994 25.5649680699999990 2.7079932599999998 Au
atom 23.0329302100000000 25.5057320999999995 2.6692533900000002 Au
atom 25.8386316299999983 25.5454044499999995 2.7544248599999999 Au
atom 0.4924558100000000 25.5394632399999999 2.7973007700000001 Au
atom 3.2856764900000002 25.5346933000000007 2.7184681500000001 Au
atom 6.1043366900000002 25.5660607400000011 2.7175827099999998 Au
atom 7.5031986000000002 28.0516079100000013 2.5580142399999999 Au
atom 10.3419238000000000 28.0337538799999990 2.6990857199999998 Au
atom 13.1459140899999998 28.0218455199999994 2.4888494699999999 Au
atom 15.9610674299999999 27.9780012400000011 2.6416776799999999 Au
atom 18.8117035100000010 28.0516700300000004 2.6294231500000000 Au
atom 21.6319180099999997 27.9968699799999996 2.7740708900000000 Au
atom 24.4010905700000009 27.9803802600000004 2.5819386899999999 Au
atom 27.2564008099999988 28.0256932499999998 2.7133669199999999 Au
atom 1.9266420600000000 27.9725630999999986 2.6472063900000000 Au
atom 4.6700567599999996 28.0127902999999989 2.6789513800000000 Au
atom 8.9271727599999995 30.4972912700000016 2.6926945899999999 Au
atom 11.7414054199999995 30.5246225899999999 2.6134455999999999 Au
atom 14.5759143400000006 30.4577902700000003 2.7096464800000000 Au
atom 17.3697767600000006 30.4827085000000011 2.6423818500000000 Au
atom 20.2221149900000015 30.5107319600000011 2.6767021199999999 Au
atom 22.9844243500000012 30.4697897500000003 2.6270552399999998 Au
atom 25.8204542400000001 30.4843568800000000 2.6655127900000002 Au
atom 0.4302397000000000 30.4569848299999997 2.6162514400000001 Au
atom 3.2560753400000002 30.4399017699999987 2.6566121900000002 Au
atom 6.0904216000000000 30.5188915600000001 2.5613020899999999 Au
atom 7.4644479500000003 32.9642477800000009 2.4927133200000000 Au
atom 10.3138979499999994 32.9602271899999977 2.5716713400000000 Au
atom 13.1386424399999999 32.9532639299999985 2.5173406200000001 Au
atom 15.9163835500000008 32.9128208099999995 2.7426247400000001 Au
atom 18.7686124999999997 32.9303834700000024 2.6121531899999999 Au
atom 21.6137204300000008 32.9645308600000035 2.6499047700000000 Au
atom 24.3761104899999985 32.9148448899999977 2.5299395599999999 Au
atom 27.2069812800000008 32.9278156100000032 2.6400811100000001 Au
atom 1.8055271300000000 32.8982903799999988 2.6021324400000001 Au
atom 4.6327984899999999 32.8887870300000031 2.5918838000000002 Au
atom 8.8426440300000007 35.3817022699999981 2.7299659100000002 Au
atom 11.6890298999999995 35.3908380100000031 2.5792869299999999 Au
atom 14.5340646699999994 35.4083245899999994 2.5643418100000002 Au
atom 17.3631771599999993 35.3998219300000017 2.5665882099999999 Au
atom 20.1632665799999984 35.3759254900000002 2.5515901900000002 Au
atom 22.9895007599999985 35.4555183100000022 2.5740539299999998 Au
atom 25.7959869099999999 35.4044096699999997 2.6169298300000001 Au
atom 0.3981434500000000 35.3494185300000012 2.5893755999999999 Au
atom 3.2190825300000001 35.3514332700000011 2.5938491300000002 Au
atom 6.0440460900000001 35.3810303300000015 2.6602535999999999 Au
atom 7.4825343000000002 37.8257035999999971 2.6886324500000001 Au
atom 10.3157611199999995 37.8544268400000021 2.6229522200000002 Au
atom 13.1353930400000003 37.8722049400000031 2.6373512200000002 Au
atom 15.9818916499999997 37.8530613799999998 2.7797269500000001 Au
atom 18.7723865699999983 37.8652015799999973 2.7292606899999998 Au
atom 21.5834330399999992 37.8800756799999974 2.5826944699999999 Au
atom 24.4306063900000012 37.8466613800000005 2.6219072799999998 Au
atom 27.2213110299999990 37.8304754299999999 2.7762332500000002 Au
atom 1.8537655500000001 37.8269622099999978 2.6937243700000000 Au
atom 4.6490716100000000 37.8461779900000010 2.6682870099999998 Au
atom 8.9358497600000000 0.8040477100000000 2.7531311399999998 Au
atom 11.7547060800000001 0.8587514500000000 2.6342365000000001 Au
atom 14.5378326500000004 0.8286946900000000 2.7352075100000000 Au
atom 17.4037035700000011 0.8596555900000000 2.7382886000000002 Au
atom 20.2263337900000018 0.8591884600000000 2.7699721799999999 Au
atom 23.0452748400000011 0.8279042400000000 2.7489185300000001 Au
atom 25.8657081300000016 0.8468687900000000 2.7086038100000001 Au
atom 0.4548396300000000 0.8547790900000000 2.7344883699999998 Au
atom 3.2964065800000002 0.8132223600000000 2.6771306500000001 Au
atom 6.1062612999999999 0.8102417500000000 2.6945952599999998 Au
atom 7.4658715899999999 3.3011661999999999 2.6654549500000000 Au
atom 10.3323490400000004 3.3022144899999999 2.6608932300000001 Au
atom 13.1630802800000009 3.3213752599999999 2.6802870099999998 Au
atom 15.9568210100000005 3.2966038400000000 2.7665272200000000 Au
atom 18.7935951800000005 3.2900496000000001 2.6787903700000002 Au
atom 21.6382774299999987 3.3108048299999999 2.6364134099999998 Au
atom 24.4297878399999995 3.3043660600000000 2.6997844000000000 Au
atom 27.2279580900000013 3.3344383600000000 2.6149696200000001 Au
atom 1.8672104800000000 3.3058996700000001 2.6427893199999999 Au
atom 4.7018442699999996 3.3357625500000001 2.7016741600000000 Au
atom 8.9229357300000007 5.7597830800000001 2.7232785200000000 Au
atom 11.7448992299999997 5.8040018199999999 2.8030488400000002 Au
atom 14.5719365799999991 5.7609753899999996 2.7553730999999999 Au
atom 17.4215893000000008 5.7713924700000003 2.6791735299999999 Au
atom 20.2269866900000004 5.8166896699999997 2.6661708300000000 Au
atom 23.0163334100000014 5.7715663900000003 2.6718446800000000 Au
atom 25.7914081899999985 5.7931046600000000 2.6923727400000002 Au
atom 0.4306924100000000 5.7854631999999997 2.7643711999999998 Au
atom 3.2703097600000000 5.8080563900000000 2.7187070300000000 Au
atom 6.1005621100000003 5.8284305700000001 2.5970220899999998 Au
atom 7.5057431200000000 8.2526671700000005 2.7808423400000000 Au
atom 10.3006634300000002 8.2753301500000003 2.6164403200000002 Au
atom 13.1823415100000005 8.2571898200000007 2.6770538099999999 Au
atom 16.0431612799999996 8.2333958099999993 2.5625491600000001 Au
atom 18.8099506299999994 8.2493196399999995 2.7564841599999999 Au
atom 21.5958368900000011 8.2893197700000005 2.6226818500000002 Au
atom 24.4087274500000007 8.2737381699999997 2.6926072799999998 Au
atom 27.2316382200000007 8.2452714199999999 2.7257563199999999 Au
atom 1.8658345199999999 8.2735305700000001 2.7393721800000002 Au
atom 4.6686760300000003 8.2466297999999991 2.6160539400000000 Au
atom 8.8814424800000005 10.7555759999999996 2.6658938700000001 Au
atom 11.7107710800000007 10.7216059999999995 2.6557372799999999 Au
atom 14.5804967800000007 10.7029356700000005 2.5780080399999998 Au
atom 17.3930990100000002 10.6897835299999997 2.4603503799999999 Au
atom 20.2204511499999988 10.7180251000000002 2.5808837699999998 Au
atom 23.0319595100000001 10.7384670399999997 2.6591147799999999 Au
atom 25.8176349700000003 10.7260916599999998 2.5457984699999998 Au
atom 0.4479619600000000 10.7128935300000006 2.6259643800000001 Au
atom 3.2337154699999999 10.6965708900000003 2.5886228899999999 Au
atom 6.0864719999999997 10.7070115200000000 2.6790305700000001 Au
atom 7.4167328100000001 12.9487325099999993 5.5371928300000004 Cl
atom 7.3609891799999998 15.9756492600000009 8.3879277699999992 Cl
atom 7.4651370899999998 13.1831948000000008 8.3353493400000005 Na
atom 7.3030832300000004 15.8722839100000002 5.6058912000000003 Na
atom 7.3273556800000001 18.8758574500000016 5.5425547799999997 Cl
atom 7.4710656599999998 21.6336186499999990 8.5001925899999993 Cl
atom 7.4217878700000002 18.8481488000000006 8.2259515200000006 Na
atom 7.3001914399999999 21.7565462899999993 5.7177617300000003 Na
atom 7.3185759600000004 24.5304566100000017 5.8192510400000002 Cl
atom 7.3433707899999998 27.3532627400000017 8.6170354899999992 Cl
atom 7.5056501899999999 24.4693474100000010 8.4129872799999994 Na
atom 7.3173354599999998 27.2815247999999997 5.8863669099999996 Na
atom 7.3689756500000003 30.1818871900000012 5.6364827100000001 Cl
atom 7.4204691299999999 32.9410769699999975 8.5535955300000008 Cl
atom 7.3580828299999999 30.1007923800000015 8.4122416599999994 Na
atom 7.4212457399999998 32.9846999999999966 5.7505714000000001 Na
atom 7.4439014400000003 35.7915848499999996 5.8231235000000003 Cl
atom 7.5174903400000002 38.5063462500000000 8.6345012099999998 Cl
atom 7.4485390100000002 35.7429439699999989 8.4550443000000008 Na
atom 7.5101485300000004 38.5533945000000031 5.9167614200000003 Na
atom 7.5509253000000003 1.8065855300000000 5.7872714399999996 Cl
atom 7.5222122499999999 4.6159110500000002 8.6839420500000006 Cl
atom 7.5256892999999998 1.8017344399999999 8.4419882099999999 Na
atom 7.5630703900000000 4.6014368299999999 5.8953211100000003 Na
atom 7.5977796199999998 7.3617216699999997 5.8396803700000000 Cl
atom 7.4748844500000002 10.4578056499999992 8.6292266800000004 Cl
atom 7.5443636100000004 7.4460393800000002 8.4481558400000001 Na
atom 7.4412083300000003 10.1512799000000005 5.8313598100000004 Na
atom 10.2028487099999996 12.9818642000000004 5.7866599200000000 Na
atom 12.9846365299999995 12.8324370200000004 5.5706804200000004 Cl
atom 10.2727859800000001 16.0591646399999988 8.3746978500000004 Na
atom 13.3729496799999996 16.0357437000000012 8.1912769999999995 Cl
atom 13.1431085799999998 13.1119369100000007 8.1509683299999995 Na
atom 10.2280650499999997 13.1252267699999994 8.4789935599999993 Cl
atom 13.1112596200000002 15.8848614099999992 5.5006249000000000 Na
atom 10.1140778699999991 15.9139176500000001 5.5140726000000004 Cl
atom 10.1540599500000006 18.8967460000000003 5.4677974200000001 Na
atom 13.0016482599999996 18.7675133000000010 5.4550793300000002 Cl
atom 10.2496022000000000 21.6570941599999998 8.2016307600000005 Na
atom 13.0566539600000002 21.6252939799999986 8.2299083599999996 Cl
atom 13.1361664900000008 18.7939383400000004 8.0500603900000005 Na
atom 10.2881729300000000 18.7479009499999982 8.3450796700000005 Cl
atom 13.0367777000000000 21.7262131799999985 5.4899337800000003 Na
atom 10.1118782899999999 21.7352104799999992 5.4987182199999998 Cl
atom 10.1951217199999995 24.5554980799999996 5.6880824900000002 Na
atom 13.1427077099999998 24.6162898599999984 5.7071554799999999 Cl
atom 10.3024244100000004 27.2693357200000008 8.2920806299999992 Na
atom 13.2107551399999998 27.2242621900000010 8.3011207700000007 Cl
atom 13.1009531599999995 24.4674948199999989 8.4442851200000000 Na
atom 10.3254373499999996 24.4703318199999984 8.5387432000000008 Cl
atom 12.9706703900000004 27.4229315800000002 5.6418814399999997 Na
atom 10.0373467499999993 27.3700586399999999 5.7007847399999996 Cl
atom 10.1339561099999997 30.2776714300000016 5.8334104699999996 Na
atom 12.9993584200000001 30.3232613200000003 5.7269999599999997 Cl
atom 10.2638466499999996 32.9960164000000020 8.3947674100000000 Na
atom 13.0698147299999992 32.9819130500000028 8.6442736700000005 Cl
atom 13.0788094000000008 30.1336940700000007 8.2887356899999993 Na
atom 10.2846043399999996 30.0744419699999987 8.6013535399999999 Cl
atom 13.0400487100000007 32.9835617499999998 5.8942101800000000 Na
atom 10.1999925499999993 32.9687438300000011 5.6714330100000003 Cl
atom 10.3094305199999994 35.8409896499999974 5.8046333199999998 Na
atom 13.0974831900000002 35.7497588600000000 5.7932044800000000 Cl
atom 10.3439500100000004 38.4745030500000027 8.4846463300000003 Na
atom 13.1709840600000003 38.5951451199999980 8.6010813800000001 Cl
atom 13.1752353200000005 35.7715329700000026 8.3878558000000005 Na
atom 10.3147250699999997 35.7912102900000022 8.6144356599999998 Cl
atom 13.0883304299999992 38.5869264399999992 5.8627822800000002 Na
atom 10.3036112200000005 38.5317092700000003 5.7628537900000003 Cl
atom 10.4106594500000007 1.8225710600000000 5.9069633100000001 Na
atom 13.1916324199999995 1.8886256699999999 5.7801070200000000 Cl
atom 10.2782679399999992 4.6420154599999996 8.5092584500000008 Na
atom 13.0853042599999991 4.6687772200000000 8.6314000800000006 Cl
atom 13.1095600799999996 1.9285180700000000 8.4777415699999992 Na
atom 10.2572298300000000 1.8457402300000001 8.6368500499999996 Cl
atom 13.1839983299999997 4.6378077199999996 5.8904583800000001 Na
atom 10.3625091299999994 4.6047321999999999 5.8202216299999998 Cl
atom 10.3519784099999992 7.5107333499999998 5.9462017999999999 Na
atom 13.1188166499999994 7.3532145499999997 5.6878608300000000 Cl
atom 10.2439807999999992 10.4500111199999992 8.7535553200000003 Na
atom 13.0855094300000001 10.3437674800000003 8.4340986400000002 Cl
atom 13.0512274900000005 7.4934564000000004 8.4305889100000009 Na
atom 10.3223935600000001 7.5533937399999997 8.7164815400000002 Cl
atom 13.0508534800000007 10.1597400300000000 5.7253159299999998 Na
atom 10.2125975600000007 10.3068168900000003 6.0160433299999996 Cl
atom 16.0373414600000004 13.0222258699999998 5.6066666900000000 Na
atom 18.8312133999999993 13.0338418699999998 5.6910749500000000 Cl
atom 16.0599300099999986 16.0201015700000013 7.9494619100000001 Na
atom 18.6867122799999983 15.9643980800000005 8.4602010900000000 Cl
atom 18.7105829300000011 13.1543882500000002 8.2750198499999996 Na
atom 15.8402815399999994 13.1760572299999996 8.3433793000000005 Cl
atom 18.8683554200000003 16.0431591800000000 5.6722373800000003 Na
atom 15.9712618099999997 15.8989342100000002 5.3067116099999998 Cl
atom 15.9494828500000008 18.8898785999999994 5.4440393299999998 Na
atom 18.8406281799999995 18.8666136599999987 5.6757919399999999 Cl
atom 15.7606542199999993 21.6113868099999991 8.1314319699999995 Na
atom 18.6216510200000016 21.5981176700000006 8.5093274099999991 Cl
atom 18.6804811499999985 18.8121993799999991 8.4151962000000005 Na
atom 15.9378936899999992 18.7856717800000013 8.1487269500000004 Cl
atom 18.7406612700000004 21.7536558199999988 5.8341296099999997 Na
atom 15.9956308400000005 21.8599668600000001 5.5102883000000000 Cl
atom 15.9538268900000002 24.5235255499999987 5.8866249799999997 Na
atom 18.8912922899999991 24.5256936500000009 5.5510966300000000 Cl
atom 15.8689894700000007 27.2784856200000014 8.5362916000000002 Na
atom 18.7022807899999997 27.2767491500000006 8.6293859400000006 Cl
atom 18.9016136699999997 24.4978347999999997 8.4327568399999997 Na
atom 15.7528369000000001 24.3319854900000010 8.6267821399999995 Cl
atom 18.6657991800000005 27.3528840200000012 5.7074239499999999 Na
atom 15.8440205699999996 27.2539533100000000 5.8205357199999996 Cl
atom 15.9228181000000006 30.1261175500000000 5.7493752100000002 Na
atom 18.7254436499999990 30.1637303800000005 5.7383133900000001 Cl
atom 15.9643790699999997 32.9823274100000035 8.3536945300000003 Na
atom 18.8246476399999985 33.0027101700000003 8.5194693800000003 Cl
atom 18.7081797099999996 30.0284068300000015 8.4588471199999997 Na
atom 15.9449173999999996 30.1106355900000011 8.4565985599999998 Cl
atom 18.7963464800000004 32.9578651500000035 5.7841350199999999 Na
atom 15.8746296400000002 33.0769051099999984 5.7768752699999997 Cl
atom 15.9574254599999996 35.8755128999999968 5.7401221099999997 Na
atom 18.7140566499999998 35.8811999500000027 5.7577266900000001 Cl
atom 15.9539178899999996 38.6409152499999990 8.4424346400000001 Na
atom 18.7714807300000004 38.6102830800000021 8.6380221899999992 Cl
atom 18.7931375100000011 35.8330215499999980 8.3412794100000003 Na
atom 16.0340500900000009 35.8048199600000032 8.6532873299999995 Cl
atom 18.7747068400000003 38.6501042200000029 5.8742960499999999 Na
atom 15.9049839399999993 38.6177495900000025 5.7689315900000002 Cl