#===============================================================================
# Created using the Atomic Simulation Environment (ASE)

# Tue Dec 23 21:42:55 2025

#=======================================================
lattice_vector 28.1999999999999993 0.0000000000000000 0.0000000000000000 
lattice_vector 0.0000000000000000 39.4799999999999969 0.0000000000000000 
lattice_vector 0.0000000000000000 0.0000000000000000 62.3296083400000001 
atom 7.5470819599999999 14.6684649599999997 -0.4873669200000000 Au
atom 10.3669864799999996 14.6821856299999993 -0.5433239300000000 Au
atom 13.1869677799999998 14.6685798399999996 -0.4880856800000000 Au
atom 16.0068920100000014 14.6823718700000008 -0.5450742400000000 Au
atom 18.8269570299999991 14.6687917700000003 -0.4904288400000000 Au
atom 21.6469735800000009 14.6824431200000003 -0.5466672500000000 Au
atom 24.4670750800000008 14.6687621200000002 -0.4910305100000000 Au
atom 27.2871283099999999 14.6823027199999991 -0.5458425800000000 Au
atom 1.9071404100000000 14.6685647299999999 -0.4892145800000000 Au
atom 4.7271297399999996 14.6821400799999999 -0.5438280300000000 Au
atom 8.9552331499999998 17.1415785499999984 -0.4737492600000000 Au
atom 11.7787971599999999 17.1416900299999995 -0.4742814800000000 Au
atom 14.5951330899999991 17.1417284400000014 -0.4747230000000000 Au
atom 17.4187455399999997 17.1419194099999999 -0.4760928700000000 Au
atom 20.2351558300000001 17.1419164600000009 -0.4765100000000000 Au
atom 23.0588018499999983 17.1419789199999997 -0.4771659900000000 Au
atom 25.8752741600000000 17.1418387999999986 -0.4766379300000000 Au
atom 0.4988893500000000 17.1417571399999993 -0.4760920600000000 Au
atom 3.3153158899999999 17.1416432599999986 -0.4749670300000000 Au
atom 6.1389025400000001 17.1416048399999994 -0.4743003400000000 Au
atom 7.5470304500000003 19.6058397900000010 -0.3903576800000000 Au
atom 10.3669965800000003 19.6104534400000006 -0.4273727500000000 Au
atom 13.1869960400000004 19.6059506200000015 -0.3905954200000000 Au
atom 16.0069696099999987 19.6106666099999991 -0.4284153500000000 Au
atom 18.8269838199999988 19.6061806300000008 -0.3920220900000000 Au
atom 21.6469756400000009 19.6108034599999996 -0.4294565200000000 Au
atom 24.4670075300000001 19.6061978199999984 -0.3925897400000000 Au
atom 27.2870189900000000 19.6106763899999983 -0.4292224800000000 Au
atom 1.9070304499999999 19.6059894800000016 -0.3916806300000000 Au
atom 4.7270510699999999 19.6104696800000013 -0.4279398100000000 Au
atom 8.9577533900000006 22.0656326800000002 -0.4443867000000000 Au
atom 11.7763868499999997 22.0657019500000011 -0.4445767200000000 Au
atom 14.5977322199999993 22.0658185600000003 -0.4446439400000000 Au
atom 17.4163671600000001 22.0659408799999994 -0.4452098100000000 Au
atom 20.2377446200000009 22.0660161099999996 -0.4452660100000000 Au
atom 23.0563621699999999 22.0660329600000011 -0.4456043500000000 Au
atom 25.8777494399999988 22.0659636200000016 -0.4454493200000000 Au
atom 0.4963782200000000 22.0658643800000007 -0.4453903200000000 Au
atom 3.3177584800000002 22.0657538600000009 -0.4450165000000000 Au
atom 6.1363872500000003 22.0656517600000015 -0.4446740000000000 Au
atom 7.5470627900000000 24.5342087999999983 -0.4703778700000000 Au
atom 10.3670991800000003 24.5297395300000005 -0.4770763200000000 Au
atom 13.1870715399999998 24.5343046499999993 -0.4704201700000000 Au
atom 16.0070949400000018 24.5299364699999991 -0.4772261200000000 Au
atom 18.8270772599999994 24.5345310499999982 -0.4705985200000000 Au
atom 21.6470929299999995 24.5300596199999994 -0.4772850000000000 Au
atom 24.4670635300000008 24.5345496300000008 -0.4706470400000000 Au
atom 27.2870753400000012 24.5299547199999992 -0.4773276600000000 Au
atom 1.9070548700000001 24.5343485500000007 -0.4706204700000000 Au
atom 4.7270797299999998 24.5297605899999986 -0.4772803800000000 Au
atom 8.9602239000000008 26.9955453900000002 -0.5412799100000000 Au
atom 11.7739696699999996 26.9955594599999991 -0.5412482900000000 Au
atom 14.6002593300000001 26.9956871300000003 -0.5412051600000000 Au
atom 17.4140043499999990 26.9957556300000014 -0.5410718400000000 Au
atom 20.2403023100000006 26.9958520899999996 -0.5408876100000000 Au
atom 23.0539749600000015 26.9958301600000006 -0.5407601300000000 Au
atom 25.8802497299999992 26.9958091600000003 -0.5408136700000000 Au
atom 0.4939308000000000 26.9956917400000016 -0.5409594300000000 Au
atom 3.3202187599999999 26.9956384199999988 -0.5411435900000000 Au
atom 6.1339296200000000 26.9955277299999992 -0.5412552400000000 Au
atom 7.5469959099999997 29.4704438499999988 -0.6203929900000000 Au
atom 10.3670479800000006 29.4606382700000005 -0.5974451200000001 Au
atom 13.1870576499999999 29.4704943300000011 -0.6205702600000000 Au
atom 16.0071342799999989 29.4607836200000008 -0.5972926900000000 Au
atom 18.8271496700000007 29.4706572000000016 -0.6200997499999999 Au
atom 21.6471683299999995 29.4608623300000012 -0.5963443300000000 Au
atom 24.4671176199999998 29.4707028099999988 -0.6194794500000000 Au
atom 27.2871022200000013 29.4608084900000016 -0.5961335500000000 Au
atom 1.9070184699999999 29.4705771699999985 -0.6197539000000000 Au
atom 4.7270343500000003 29.4606704000000015 -0.5968363300000000 Au
atom 8.9603049299999995 31.9439542500000009 -0.5896995000000000 Au
atom 11.7737196199999996 31.9439132999999984 -0.5897225699999999 Au
atom 14.6003795400000005 31.9440301899999994 -0.5899014299999999 Au
atom 17.4138085400000016 31.9440332200000014 -0.5894319900000000 Au
atom 20.2404645400000014 31.9441017199999990 -0.5889907300000000 Au
atom 23.0538344299999984 31.9440605700000013 -0.5883353700000000 Au
atom 25.8804486800000006 31.9440647800000015 -0.5882133600000000 Au
atom 0.4937621000000000 31.9439545500000008 -0.5880903600000000 Au
atom 3.3203481699999999 31.9439886900000012 -0.5886869500000000 Au
atom 6.1336895299999998 31.9438758199999988 -0.5890024300000000 Au
atom 7.5469498399999999 34.4229527999999974 -0.5435401800000000 Au
atom 10.3669713500000000 34.4092556700000003 -0.4880718500000000 Au
atom 13.1869720200000007 34.4229872200000031 -0.5442128100000000 Au
atom 16.0070208299999983 34.4093369300000020 -0.4882521300000000 Au
atom 18.8270672099999992 34.4230509599999976 -0.5437211300000000 Au
atom 21.6471002699999993 34.4093229599999972 -0.4872459100000000 Au
atom 24.4671124700000000 34.4230285499999979 -0.5427457999999999 Au
atom 27.2870979100000000 34.4092465900000022 -0.4863172600000000 Au
atom 1.9070287200000000 34.4229643299999992 -0.5425766300000000 Au
atom 4.7270165700000000 34.4092056200000016 -0.4869176800000000 Au
atom 8.9587361399999992 36.8823114899999993 -0.4725396800000000 Au
atom 11.7751509999999993 36.8822944300000017 -0.4727086600000000 Au
atom 14.5987552899999997 36.8823754800000003 -0.4731592000000000 Au
atom 17.4152086200000014 36.8823415299999979 -0.4728748700000000 Au
atom 20.2388619500000004 36.8823614699999993 -0.4726857300000000 Au
atom 23.0553130300000007 36.8823032999999967 -0.4719496600000000 Au
atom 25.8789189499999992 36.8822695899999999 -0.4715253700000000 Au
atom 0.4952861800000000 36.8822061600000026 -0.4710029300000000 Au
atom 3.3188348200000002 36.8822531499999968 -0.4714964000000000 Au
atom 6.1351895900000004 36.8822069699999986 -0.4715857700000000 Au
atom 7.5469546899999997 -0.1290520300000000 -0.4235514600000000 Au
atom 10.3669335000000000 -0.1335523900000000 -0.3872600900000000 Au
atom 13.1868921799999992 -0.1289692900000000 -0.4245301300000000 Au
atom 16.0069292200000000 -0.1334898500000000 -0.3880150800000000 Au
atom 18.8269681300000009 -0.1289432900000000 -0.4248256500000000 Au
atom 21.6470472799999989 -0.1335473700000000 -0.3876756800000000 Au
atom 24.4671002400000006 -0.1290457400000000 -0.4239113000000000 Au
atom 27.2871217900000005 -0.1336733400000000 -0.3863814300000000 Au
atom 1.9070838699999999 -0.1291226100000000 -0.4230273200000000 Au
atom 4.7270344700000004 -0.1336675000000000 -0.3862421400000000 Au
atom 8.9562847699999999 2.3260859900000002 -0.4390069700000000 Au
atom 11.7776329799999999 2.3261177499999999 -0.4393510300000000 Au
atom 14.5962306799999997 2.3261478599999998 -0.4401297800000000 Au
atom 17.4176573200000000 2.3261375300000000 -0.4405364700000000 Au
atom 20.2363621599999988 2.3261183999999999 -0.4408351400000000 Au
atom 23.0578337399999995 2.3260599700000002 -0.4404043600000000 Au
atom 25.8765201800000000 2.3259956300000000 -0.4397312700000000 Au
atom 0.4978917100000000 2.3259585600000001 -0.4388253000000000 Au
atom 3.3164533999999999 2.3259756700000001 -0.4385109800000000 Au
atom 6.1377580600000003 2.3260191500000000 -0.4383954600000000 Au
atom 7.5470567199999996 4.7898539299999996 -0.4701759300000000 Au
atom 10.3669414599999996 4.7944324500000004 -0.4641492100000000 Au
atom 13.1869360699999998 4.7899403600000001 -0.4712918000000000 Au
atom 16.0069289899999987 4.7944820500000001 -0.4656301500000000 Au
atom 18.8270162100000000 4.7899704800000000 -0.4728370400000000 Au
atom 21.6470977100000006 4.7944268499999998 -0.4663233500000000 Au
atom 24.4672211799999992 4.7898763899999999 -0.4724131200000000 Au
atom 27.2872188000000016 4.7943212700000002 -0.4647958800000000 Au
atom 1.9072203900000000 4.7897862499999997 -0.4705587400000000 Au
atom 4.7271163100000004 4.7943293699999998 -0.4635894200000000 Au
atom 8.9538821500000001 7.2553790500000002 -0.5345852700000000 Au
atom 11.7801088800000002 7.2554702799999999 -0.5351728700000000 Au
atom 14.5937630200000008 7.2554538400000004 -0.5362206600000000 Au
atom 17.4201013300000014 7.2555271200000000 -0.5371917000000000 Au
atom 20.2339100400000014 7.2554656800000004 -0.5378020700000000 Au
atom 23.0603216999999994 7.2554621299999997 -0.5376560900000000 Au
atom 25.8741219800000017 7.2553647000000003 -0.5367244900000000 Au
atom 0.5004462200000001 7.2553365000000003 -0.5356616900000000 Au
atom 3.3140787199999999 7.2553170500000004 -0.5347227900000000 Au
atom 6.1402967600000000 7.2553666200000002 -0.5344123200000001 Au
atom 7.5471162200000004 9.7200977599999998 -0.5919506100000000 Au
atom 10.3669773500000009 9.7299626600000000 -0.6154190200000000 Au
atom 13.1869205300000001 9.7202113499999996 -0.5929511400000000 Au
atom 16.0068635899999983 9.7300548199999994 -0.6172907900000000 Au
atom 18.8269492800000009 9.7203001400000009 -0.5952274900000000 Au
atom 21.6470421699999989 9.7300394200000007 -0.6187616100000000 Au
atom 24.4671790400000013 9.7202074700000001 -0.5954011600000000 Au
atom 27.2872594299999989 9.7298858500000005 -0.6175137200000000 Au
atom 1.9072795100000000 9.7200553099999993 -0.5931728100000000 Au
atom 4.7272025400000004 9.7298547600000003 -0.6155512900000000 Au
atom 8.9537390400000003 12.2031653999999996 -0.5862724800000000 Au
atom 11.7802930499999992 12.2032785700000002 -0.5868692400000000 Au
atom 14.5935765499999999 12.2032630599999994 -0.5877879900000000 Au
atom 17.4202347099999990 12.2034196099999992 -0.5892025600000000 Au
atom 20.2336863200000003 12.2033623999999996 -0.5899585000000001 Au
atom 23.0603937799999983 12.2033991900000007 -0.5904021100000000 Au
atom 25.8738731999999985 12.2032673500000008 -0.5896308900000000 Au
atom 0.5005438600000000 12.2032061100000000 -0.5887444300000000 Au
atom 3.3139146600000000 12.2031384200000002 -0.5874105200000000 Au
atom 6.1404815700000004 12.2031688099999993 -0.5866716500000000 Au
atom 7.5471079599999999 13.0226094000000003 2.0967447699999999 Au
atom 10.3672131699999994 13.0356469599999993 2.0028845999999998 Au
atom 13.1873404500000007 13.0226448000000001 2.0959128599999999 Au
atom 16.0072901300000012 13.0357341000000009 2.0009732200000001 Au
atom 18.8272903499999984 13.0227799199999996 2.0933971100000002 Au
atom 21.6471381100000002 13.0357994399999999 1.9993057599999999 Au
atom 24.4670368600000003 13.0228046600000003 2.0928183900000001 Au
atom 27.2869706399999998 13.0357430200000000 2.0002755799999998 Au
atom 1.9069353000000000 13.0227057899999998 2.0948289000000000 Au
atom 4.7270156500000002 13.0356509599999999 2.0024098499999998 Au
atom 8.9567064799999994 15.4938180200000009 2.1244664400000000 Au
atom 11.7774242699999991 15.4939560499999995 2.1237393099999999 Au
atom 14.5968672799999997 15.4938631900000008 2.1233574900000001 Au
atom 17.4174635100000010 15.4940409199999998 2.1217420900000001 Au
atom 20.2367686199999994 15.4939315600000000 2.1214263799999999 Au
atom 23.0572735199999990 15.4940649799999992 2.1206859300000001 Au
atom 25.8765436199999996 15.4939115500000000 2.1213950800000001 Au
atom 0.4971193800000000 15.4939806400000002 2.1219791899999998 Au
atom 3.3165121100000001 15.4938594300000005 2.1232178799999999 Au
atom 6.1372060599999996 15.4939317200000009 2.1238684800000001 Au
atom 7.5469815100000002 17.9579994599999999 2.1715028200000002 Au
atom 10.3671141599999999 17.9774985399999991 2.1302288599999999 Au
atom 13.1871932100000002 17.9580349199999993 2.1711198299999999 Au
atom 16.0072239900000000 17.9775655199999989 2.1289382500000000 Au
atom 18.8271794499999992 17.9580886000000000 2.1693224799999999 Au
atom 21.6470831299999986 17.9775388599999992 2.1276456200000000 Au
atom 24.4669704900000013 17.9580444099999994 2.1686719100000000 Au
atom 27.2868915899999998 17.9774977800000002 2.1280361200000000 Au
atom 1.9068532000000000 17.9580171499999999 2.1699590700000000 Au
atom 4.7269085400000002 17.9774632099999998 2.1296373300000000 Au
atom 8.9581623399999994 20.4511715100000018 2.2181087700000002 Au
atom 11.7756002100000003 20.4513681200000015 2.2179679200000000 Au
atom 14.5983184999999995 20.4512127700000015 2.2175950100000001 Au
atom 17.4156627200000003 20.4513875600000006 2.2169047399999999 Au
atom 20.2382481399999996 20.4511943500000015 2.2165801100000002 Au
atom 23.0555343400000012 20.4513211900000016 2.2162505499999998 Au
atom 25.8780919500000017 20.4511298500000009 2.2163956499999999 Au
atom 0.4953856400000000 20.4512547100000006 2.2167042499999998 Au
atom 3.3180250600000001 20.4511457900000018 2.2172549400000001 Au
atom 6.1354364800000001 20.4512916800000006 2.2178324800000002 Au
atom 7.5469904100000003 22.9209115499999996 2.1374553700000001 Au
atom 10.3670773999999994 22.9368975599999985 2.1576787300000002 Au
atom 13.1871014899999999 22.9209786400000013 2.1373648699999999 Au
atom 16.0071487200000000 22.9369645700000007 2.1573751699999999 Au
atom 18.8271140700000004 22.9210213500000002 2.1368968399999999 Au
atom 21.6470838299999997 22.9369110999999997 2.1570658599999999 Au
atom 24.4670155300000012 22.9209420799999997 2.1366849200000000 Au
atom 27.2869804400000007 22.9368324799999996 2.1570346800000002 Au
atom 1.9069429200000001 22.9208816900000016 2.1369076900000001 Au
atom 4.7269686799999997 22.9368310199999996 2.1573686900000002 Au
atom 8.9594542799999992 25.4031633499999998 2.1305977500000002 Au
atom 11.7745746100000002 25.4033297199999986 2.1308145399999998 Au
atom 14.5994856300000002 25.4032978100000015 2.1305185400000002 Au
atom 17.4145798099999993 25.4034027000000009 2.1307622199999998 Au
atom 20.2394679900000014 25.4032777000000003 2.1305687500000001 Au
atom 23.0545457200000001 25.4033046800000015 2.1308224800000000 Au
atom 25.8794378899999984 25.4031432899999992 2.1305682099999999 Au
atom 0.4945207000000000 25.4031892500000005 2.1307486199999999 Au
atom 3.3194252600000000 25.4031045599999992 2.1304847800000002 Au
atom 6.1345294199999998 25.4031900399999984 2.1307425300000000 Au
atom 7.5471238899999999 27.8610491300000014 2.0128700099999999 Au
atom 10.3671719299999996 27.8663741400000013 2.0872612099999999 Au
atom 13.1871258900000008 27.8611626399999999 2.0128830799999999 Au
atom 16.0071402999999997 27.8665039199999995 2.0874547400000001 Au
atom 18.8271295800000011 27.8612518899999984 2.0131711900000000 Au
atom 21.6471410900000016 27.8664496200000009 2.0880663899999998 Au
atom 24.4671293299999988 27.8611459000000004 2.0134731499999998 Au
atom 27.2871729800000011 27.8662835099999988 2.0880340099999999 Au
atom 1.9071387099999999 27.8610052699999997 2.0131897699999999 Au
atom 4.7271722000000000 27.8662478100000008 2.0875171799999999 Au
atom 8.9593888699999997 30.3143126500000015 1.9987007699999999 Au
atom 11.7746593700000002 30.3143620499999997 1.9989861799999999 Au
atom 14.5993628900000001 30.3144567999999985 1.9986499600000001 Au
atom 17.4146414699999994 30.3144837299999992 1.9992646599999999 Au
atom 20.2393596299999992 30.3145014999999987 1.9995031999999999 Au
atom 23.0546710499999996 30.3144359100000003 2.0002121399999999 Au
atom 25.8793996100000001 30.3143512699999995 2.0000389200000002 Au
atom 0.4947225600000000 30.3142591500000016 2.0002976399999999 Au
atom 3.3194259200000000 30.3142447500000003 1.9994954700000001 Au
atom 6.1347147599999996 30.3142331799999987 1.9995291900000001 Au
atom 7.5471852899999998 32.7748968100000013 2.0009451800000000 Au
atom 10.3671625600000006 32.7618017400000028 2.0941747500000001 Au
atom 13.1871084900000000 32.7750420400000024 2.0004122000000000 Au
atom 16.0070743700000016 32.7619823200000013 2.0941346799999998 Au
atom 18.8270695699999990 32.7751576900000003 2.0009898300000000 Au
atom 21.6470737600000014 32.7619758700000006 2.0952538100000000 Au
atom 24.4671317299999984 32.7750732800000009 2.0019514300000001 Au
atom 27.2871774400000007 32.7617736400000013 2.0959855400000000 Au
atom 1.9071978500000000 32.7748981900000018 2.0019305400000000 Au
atom 4.7272334100000002 32.7616662000000005 2.0952464100000001 Au
atom 8.9573356200000003 35.2332287099999988 2.1243921900000000 Au
atom 11.7767013699999996 35.2331781299999989 2.1244171100000000 Au
atom 14.5972486000000004 35.2333811900000029 2.1239083399999998 Au
atom 17.4166133999999992 35.2333512299999967 2.1244210300000002 Au
atom 20.2372067400000013 35.2334973500000004 2.1245875200000000 Au
atom 23.0566356799999994 35.2333657400000035 2.1253629100000002 Au
atom 25.8772840500000001 35.2333523000000000 2.1256400200000001 Au
atom 0.4967379800000000 35.2331448699999967 2.1261317499999999 Au
atom 3.3173626199999999 35.2332058300000028 2.1254755900000002 Au
atom 6.1367884799999999 35.2330576900000025 2.1254566000000001 Au
atom 7.5471334099999998 37.7169513600000030 2.1329196100000001 Au
atom 10.3670983499999991 37.6974541100000025 2.1731508599999998 Au
atom 13.1870451000000006 37.7170560400000028 2.1319933299999998 Au
atom 16.0070009000000013 37.6976399699999973 2.1726413099999999 Au
atom 18.8269634400000001 37.7172301599999997 2.1319584200000001 Au
atom 21.6469512600000016 37.6977314199999967 2.1732767000000002 Au
atom 24.4669791200000013 37.7172044300000024 2.1329719200000001 Au
atom 27.2870297999999991 37.6975610300000028 2.1744831900000001 Au
atom 1.9070932500000000 37.7170018600000034 2.1336279600000001 Au
atom 4.7271274900000000 37.6973976800000017 2.1742875800000001 Au
atom 8.9556029699999993 0.7109542800000000 2.2221685700000000 Au
atom 11.7782193199999998 0.7108424800000001 2.2217520799999999 Au
atom 14.5955455000000001 0.7111058000000000 2.2212037400000000 Au
atom 17.4181239099999985 0.7110443200000000 2.2210012300000002 Au
atom 20.2354545899999998 0.7112739500000000 2.2209953800000002 Au
atom 23.0580818000000001 0.7111344000000001 2.2214392100000002 Au
atom 25.8754610300000003 0.7111697900000000 2.2221275700000001 Au
atom 0.4981559000000000 0.7109096400000000 2.2227022800000000 Au
atom 3.3155692499999998 0.7109843900000000 2.2228666399999999 Au
atom 6.1382480800000003 0.7107672200000000 2.2227395900000002 Au
atom 7.5471276400000002 3.1968469599999998 2.1640888299999999 Au
atom 10.3671249799999998 3.1809399400000000 2.1430752499999999 Au
atom 13.1871484799999994 3.1969163799999998 2.1630002400000001 Au
atom 16.0070758399999988 3.1810929600000000 2.1418016500000001 Au
atom 18.8270592800000003 3.1971248700000001 2.1616891800000002 Au
atom 21.6469701400000005 3.1812043600000002 2.1413649499999998 Au
atom 24.4669383799999984 3.1971304500000000 2.1622127999999998 Au
atom 27.2869350699999984 3.1810831700000000 2.1427904799999999 Au
atom 1.9070069999999999 3.1969451699999998 2.1639430499999999 Au
atom 4.7270349600000001 3.1809341799999999 2.1437737200000000 Au
atom 8.9546213899999998 5.6635688399999999 2.1374851000000001 Au
atom 11.7795532000000005 5.6635054399999998 2.1366785099999999 Au
atom 14.5946814000000007 5.6636733100000001 2.1360759499999999 Au
atom 17.4195345800000005 5.6636720900000004 2.1349980300000002 Au
atom 20.2345683700000016 5.6638256599999997 2.1347750599999999 Au
atom 23.0593743999999994 5.6637672500000003 2.1347297900000002 Au
atom 25.8744151600000016 5.6637811400000002 2.1357888599999999 Au
atom 0.4993217300000000 5.6636307400000003 2.1365436500000001 Au
atom 3.3144756599999998 5.6636226399999998 2.1374687899999998 Au
atom 6.1394458199999997 5.6634930800000003 2.1374987200000000 Au
atom 7.5471793500000004 8.1269472500000006 2.0939430600000000 Au
atom 10.3672348799999998 8.1216247500000005 2.0189462800000002 Au
atom 13.1873353899999994 8.1269752200000003 2.0927151600000000 Au
atom 16.0072704600000009 8.1217346799999994 2.0170619900000002 Au
atom 18.8272509499999998 8.1271558400000004 2.0905821699999998 Au
atom 21.6471059200000013 8.1218446400000008 2.0158890999999999 Au
atom 24.4669961600000008 8.1272044399999999 2.0907845599999999 Au
atom 27.2869726499999992 8.1217980900000004 2.0173651100000001 Au
atom 1.9069796200000000 8.1270733899999996 2.0930825899999999 Au
atom 4.7270665999999997 8.1216576899999993 2.0191381599999998 Au
atom 8.9547121300000008 10.5749805200000004 2.0037799999999999 Au
atom 11.7795021400000000 10.5750120899999995 2.0029223500000000 Au
atom 14.5948205099999999 10.5750721300000006 2.0023484300000001 Au
atom 17.4195115899999990 10.5751562799999999 2.0007224799999999 Au
atom 20.2347072300000015 10.5752038000000006 2.0003108799999998 Au
atom 23.0593374100000013 10.5752396599999994 1.9997427900000000 Au
atom 25.8745334299999996 10.5751780899999996 2.0006979000000000 Au
atom 0.4992407300000000 10.5751364999999993 2.0015120300000002 Au
atom 3.3145587800000000 10.5750632899999992 2.0028679999999999 Au
atom 6.1393635900000003 10.5750044100000000 2.0033004900000000 Au
atom 7.5413693899999998 13.4150230900000000 5.1538075599999997 Cl
atom 7.5414018599999997 16.1856375200000002 8.0514521600000002 Cl
atom 7.5413423999999996 13.3725729900000001 7.8071295000000003 Na
atom 7.5416763199999997 16.2267724999999992 5.2888383499999998 Na
atom 7.5415943700000003 19.0336554800000002 5.2501857999999997 Cl
atom 7.5414265499999997 21.8448111300000001 8.0930087200000003 Cl
atom 7.5414253599999999 19.0147661499999998 7.8975404899999999 Na
atom 7.5415513100000000 21.8250596899999998 5.3335143299999999 Na
atom 7.5415548200000000 24.6293922700000003 5.2281378500000004 Cl
atom 7.5414115300000004 27.4963405700000010 8.0050006800000002 Cl
atom 7.5414973900000000 24.6689764899999986 7.8685557499999996 Na
atom 7.5411477800000002 27.4504087299999995 5.2552445800000003 Na
atom 7.5413651200000000 30.3015186499999984 5.1352273200000003 Cl
atom 7.5414810100000000 33.1078584799999973 8.0032176100000001 Cl
atom 7.5414917499999996 30.3021023800000009 7.7807072899999996 Na
atom 7.5410313400000000 33.1527527300000031 5.2533325800000004 Na
atom 7.5413996100000000 35.9756720399999992 5.2274898299999997 Cl
atom 7.5416329299999996 38.7572112399999966 8.0942984899999999 Cl
atom 7.5416020499999998 35.9343076299999993 7.8675520499999996 Na
atom 7.5413794200000002 38.7811023300000031 5.3347136900000001 Na
atom 7.5414088599999998 2.0928154700000001 5.2608910000000000 Cl
atom 7.5415916599999999 4.9392751099999996 8.0602792900000004 Cl
atom 7.5416032599999996 2.1084452300000001 7.9061364599999999 Na
atom 7.5415898200000004 4.8971984500000003 5.2972661199999997 Na
atom 7.5412793400000000 7.7073515900000000 5.1600788199999998 Cl
atom 7.5414514800000001 10.5633575499999992 7.9654809599999998 Cl
atom 7.5414207400000004 7.7529316799999997 7.8129185899999998 Na
atom 7.5415942100000004 10.5605297199999999 5.2017778500000000 Na
atom 10.3610646200000005 13.4116957400000008 5.2549210500000001 Na
atom 13.1809548099999994 13.4150980799999999 5.1531127600000000 Cl
atom 10.3615905000000001 16.1953738200000004 7.8662520200000001 Na
atom 13.1817879799999993 16.1855406799999990 8.0509832299999999 Cl
atom 13.1816166799999994 13.3725107500000000 7.8064548699999996 Na
atom 10.3615352299999994 13.3690451400000008 8.0046814499999996 Cl
atom 13.1814634900000005 16.2267839699999996 5.2883497500000001 Na
atom 10.3614584799999996 16.2347185799999991 5.2261851799999999 Cl
atom 10.3614698799999996 19.0406241200000004 5.3311307699999997 Na
atom 13.1813917899999993 19.0336194700000014 5.2498758600000004 Cl
atom 10.3615670400000006 21.8490278000000018 7.9009556700000001 Na
atom 13.1816865500000002 21.8447048499999994 8.0927708900000006 Cl
atom 13.1817028599999997 19.0146646200000013 7.8972199600000001 Na
atom 10.3615897500000003 19.0182457499999984 8.0907145699999994 Cl
atom 13.1814882799999999 21.8250160000000015 5.3332927600000000 Na
atom 10.3614918399999993 21.8325825000000009 5.2557868599999997 Cl
atom 10.3615896599999999 24.6374237500000000 5.2911126800000003 Na
atom 13.1815134799999996 24.6293612599999996 5.2279602499999998 Cl
atom 10.3614181900000002 27.4926079700000017 7.8073006500000002 Na
atom 13.1814205399999995 27.4963818999999994 8.0047864200000003 Cl
atom 13.1815910400000007 24.6689505800000006 7.8683695299999998 Na
atom 10.3615614600000008 24.6794444700000000 8.0542433100000004 Cl
atom 13.1811924099999995 27.4503878400000012 5.2550561099999999 Na
atom 10.3612197899999998 27.4480403200000005 5.1543551100000000 Cl
atom 10.3614588399999992 30.3015386800000002 5.1975942100000001 Na
atom 13.1814021799999992 30.3014956399999988 5.1349128899999998 Cl
atom 10.3614105399999996 33.1116052300000021 7.8053099200000000 Na
atom 13.1813768499999995 33.1079575700000035 8.0027328200000003 Cl
atom 13.1814169600000000 30.3021671400000017 7.7803800900000004 Na
atom 10.3614840099999999 30.3025136999999987 7.9613725200000003 Cl
atom 13.1811015699999992 33.1527268399999997 5.2528497500000002 Na
atom 10.3611094900000005 33.1562148100000016 5.1519444800000000 Cl
atom 10.3614680999999997 35.9675569500000023 5.2897267399999999 Na
atom 13.1814244200000008 35.9756380399999998 5.2267509099999998 Cl
atom 10.3616439000000007 38.7538347999999999 7.9007589500000002 Na
atom 13.1816603699999995 38.7572590099999985 8.0934111899999994 Cl
atom 13.1815517399999997 35.9343792299999976 7.8668411899999997 Na
atom 10.3616227500000004 35.9243719999999982 8.0523493100000003 Cl
atom 13.1813837100000004 38.7810820999999990 5.3338017500000001 Na
atom 10.3613279499999997 38.7742371900000009 5.2534705900000001 Cl
atom 10.3613759499999993 2.0851610200000001 5.3383881000000004 Na
atom 13.1813520900000007 2.0927994800000000 5.2598941600000000 Cl
atom 10.3617156399999999 4.9288327000000001 7.8741736299999996 Na
atom 13.1818204600000008 4.9392818800000002 8.0592414699999999 Cl
atom 13.1817202499999997 2.1084780300000001 7.9051553300000004 Na
atom 10.3617370900000001 2.1041039900000000 8.0978010499999993 Cl
atom 13.1814717699999999 4.8972116799999998 5.2962098900000001 Na
atom 10.3613901700000000 4.8891673200000003 5.2338617400000000 Cl
atom 10.3610353699999997 7.7097548900000001 5.2605056699999997 Na
atom 13.1809802000000005 7.7073902900000002 5.1590099900000004 Cl
atom 10.3616206500000008 10.5627948499999995 7.7843810500000004 Na
atom 13.1817831699999992 10.5633238899999995 7.9645752500000002 Cl
atom 13.1816513499999992 7.7529320000000004 7.8118819500000001 Na
atom 10.3616351299999998 7.7567532500000000 8.0101690100000003 Cl
atom 13.1813375100000005 10.5606065000000005 5.2008663100000003 Na
atom 10.3613121499999998 10.5604695999999993 5.1390058500000002 Cl
atom 16.0008935600000015 13.4117205300000002 5.2533678100000003 Na
atom 18.8210314399999987 13.4150790400000002 5.1513445000000004 Cl
atom 16.0018050599999988 16.1952328700000017 7.8650043399999996 Na
atom 18.8217883999999991 16.1853703200000005 8.0494850499999995 Cl
atom 18.8215854399999998 13.3724642300000003 7.8047398899999996 Na
atom 16.0017467199999999 13.3689660600000000 8.0031702399999993 Cl
atom 18.8215057200000011 16.2267945199999986 5.2868004400000004 Na
atom 16.0013334100000009 16.2347523799999998 5.2248925000000002 Cl
atom 16.0014098900000015 19.0406223700000012 5.3301829300000003 Na
atom 18.8214403200000007 19.0337093300000006 5.2487909200000002 Cl
atom 16.0016822500000018 21.8488784199999984 7.9003784899999996 Na
atom 18.8216757799999996 21.8445114099999991 8.0922087600000001 Cl
atom 18.8217297700000010 19.0144815600000001 7.8961494099999996 Na
atom 16.0018074199999987 19.0180421399999986 8.0897968700000007 Cl
atom 18.8215149599999982 21.8250770100000011 5.3326925100000002 Na
atom 16.0014929399999986 21.8326041999999987 5.2551827600000003 Cl
atom 16.0016285099999997 24.6374445400000006 5.2908509800000001 Na
atom 18.8215936299999989 24.6294509999999995 5.2278540900000001 Cl
atom 16.0013617500000009 27.4925709699999992 7.8072305100000001 Na
atom 18.8213220200000002 27.4962809899999989 8.0050177900000001 Cl
atom 18.8215407100000007 24.6688176400000003 7.8682445500000000 Na
atom 16.0015645900000010 24.6793141300000016 8.0539506700000008 Cl
atom 18.8212613900000001 27.4504500100000008 5.2552733800000002 Na
atom 16.0013241499999985 27.4480785900000015 5.1543010400000000 Cl
atom 16.0015415499999989 30.3015358600000013 5.1975755599999998 Na
atom 18.8215304100000012 30.3015216500000015 5.1353280200000002 Cl
atom 16.0012757500000014 33.1116615600000017 7.8051911199999999 Na
atom 18.8211878199999987 33.1080054299999986 8.0030925899999996 Cl
atom 18.8212975200000017 30.3021492200000004 7.7807717600000004 Na
atom 16.0013285600000010 30.3025447999999997 7.9613474599999998 Cl
atom 18.8212762699999985 33.1526819799999970 5.2532380800000000 Na
atom 16.0012855599999995 33.1561714099999989 5.1518209600000002 Cl
atom 16.0015947499999989 35.9675082500000016 5.2893363100000004 Na
atom 18.8216252699999984 35.9755551699999998 5.2268855800000003 Cl
atom 16.0015558300000009 38.7539410500000017 7.9000610900000003 Na
atom 18.8214413699999987 38.7574115899999967 8.0931727299999991 Cl
atom 18.8213687299999997 35.9344653899999997 7.8669556099999998 Na
atom 16.0014546300000013 35.9244840900000000 8.0519657599999999 Cl