#===============================================================================
# Created using the Atomic Simulation Environment (ASE)

# Tue Dec 23 22:27:00 2025

#=======================================================
lattice_vector 28.1999999999999993 0.0000000000000000 0.0000000000000000 
lattice_vector 0.0000000000000000 39.4799999999999969 0.0000000000000000 
lattice_vector 0.0000000000000000 0.0000000000000000 62.3296083400000001 
atom 7.5816515500000001 14.6410309999999999 0.2022312600000000 Au
atom 10.5355308700000005 14.5486444600000002 0.1673984200000000 Au
atom 13.3636221600000002 14.7070291900000001 0.3846485900000000 Au
atom 15.9977741899999995 14.9203662000000001 0.0471654500000000 Au
atom 19.0284568299999997 14.7937601399999998 0.1505573800000000 Au
atom 21.8752776299999994 14.7047539100000009 0.2951818400000000 Au
atom 24.4297392699999989 14.9510526899999991 -0.0138676900000000 Au
atom 27.3357313099999999 14.7493239599999999 -0.1147485600000000 Au
atom 2.0080408799999998 14.7928984499999991 0.1141884800000000 Au
atom 4.8948080100000002 14.8891400800000007 -0.0659376600000000 Au
atom 9.2426095200000002 17.1611601000000000 -0.0420514600000000 Au
atom 11.9674328499999998 17.3435349599999995 0.2227100800000000 Au
atom 14.6802548599999998 17.2714809199999983 0.3417436900000000 Au
atom 17.3210487300000011 17.3089257399999994 -0.0672880400000000 Au
atom 20.1201883700000010 17.0864574400000002 0.0703073500000000 Au
atom 23.1855078900000002 17.3802654600000004 0.0652959100000000 Au
atom 26.0840185099999999 17.3700862799999989 0.1226683400000000 Au
atom 0.7886735499999999 17.2041812599999986 -0.3297198600000000 Au
atom 3.1272166100000001 17.3595405199999995 -0.1081817200000000 Au
atom 5.9395091500000001 17.2081959200000014 -0.2809463900000000 Au
atom 7.6421812500000001 19.6350383199999996 0.0868138500000000 Au
atom 10.5713364500000004 19.5470228100000014 0.2372014000000000 Au
atom 13.2273979900000000 19.9031289700000009 0.1029638900000000 Au
atom 16.0166504500000002 19.9149432900000001 0.2161026800000000 Au
atom 18.7566162699999985 19.5499122099999987 -0.3414692500000000 Au
atom 21.6448038700000005 19.8737755400000005 -0.2101158100000000 Au
atom 24.6480815299999989 19.7283001200000001 -0.2924866900000000 Au
atom 27.4020524600000002 19.9106882700000014 -0.0023508700000000 Au
atom 2.0386958000000002 19.7553013799999988 -0.0594221200000000 Au
atom 4.8403650300000001 19.7833481700000000 -0.2141994600000000 Au
atom 9.0297142499999996 22.1733703999999996 0.3922826500000000 Au
atom 11.8237214999999996 22.1475444400000008 0.3975792600000000 Au
atom 14.8128040199999997 22.3344794100000001 0.2457528700000000 Au
atom 17.7146345300000014 22.2111469499999998 0.1426446900000000 Au
atom 20.1762145500000010 22.3578477800000002 -0.3392112300000000 Au
atom 23.1623715700000012 22.1686209599999984 -0.4716249300000000 Au
atom 26.1708328500000000 22.4339657499999987 -0.4926143800000000 Au
atom 0.7259475900000000 22.3602570299999996 -0.2566616000000000 Au
atom 3.5800161600000000 21.9917501999999985 -0.0782977800000000 Au
atom 6.3381742900000004 22.2084289099999985 -0.1815311700000000 Au
atom 7.6380711100000003 24.7115275099999998 0.1223188800000000 Au
atom 10.4472034399999991 24.4850339599999991 0.0198970000000000 Au
atom 13.1351571899999993 24.5421441700000003 -0.1655372700000000 Au
atom 16.0713737399999985 24.7254524499999988 -0.1667457100000000 Au
atom 18.8099657299999983 24.6511576199999993 -0.2460756700000000 Au
atom 21.6387464899999991 24.7152337300000013 -0.5513897600000000 Au
atom 24.7174908699999989 24.6272297999999985 -0.1168535400000000 Au
atom 27.3584915200000012 24.7484606800000009 0.0647930700000000 Au
atom 1.9095133500000001 24.7681179500000006 0.0082295600000000 Au
atom 4.5576547600000001 24.7379786000000017 -0.0682877300000000 Au
atom 9.0832106499999998 27.1713191099999989 -0.5038062800000001 Au
atom 11.7594393999999998 27.1800344100000011 -0.1376690200000000 Au
atom 14.7982098299999993 27.0789595799999994 -0.5656764500000000 Au
atom 17.6529954300000007 27.0902093700000002 -0.5404404700000000 Au
atom 20.4025777700000006 27.1115162900000009 -0.3672666700000000 Au
atom 23.1467437599999997 27.1851986600000011 -0.2586242300000000 Au
atom 25.9103297999999995 27.1782159900000018 -0.0995848400000000 Au
atom 0.5563581399999999 27.2197495300000014 -0.0591329500000000 Au
atom 3.2499243999999998 27.0532468799999997 -0.5544192900000000 Au
atom 6.0290888499999999 27.1878343399999984 -0.1184539200000000 Au
atom 7.5411936700000002 29.7141385699999994 -0.4219869000000000 Au
atom 10.5184272799999992 29.8840373300000017 -0.0382309400000000 Au
atom 13.1571647600000006 29.6060179800000007 -0.4730473300000000 Au
atom 16.1457420999999997 29.6000767300000014 -0.4867913100000000 Au
atom 18.9320515399999998 29.7433191599999986 -0.3695428500000000 Au
atom 21.6298181000000014 29.8847123799999999 -0.0054451700000000 Au
atom 24.5779807000000012 29.5970702800000005 -0.2601964200000000 Au
atom 27.3073453400000012 29.8725934500000001 -0.2033556200000000 Au
atom 1.9804501200000000 29.5254391200000015 -0.2601508700000000 Au
atom 4.7124449799999999 29.4331040799999997 -0.4773737700000000 Au
atom 9.0121351900000004 31.9763477899999984 0.0418480500000000 Au
atom 11.8713082100000005 32.2500472899999977 0.1648587100000000 Au
atom 14.7757409800000001 31.7799850900000003 -0.2579787200000000 Au
atom 17.5301901200000003 32.1203731599999998 -0.1822893000000000 Au
atom 20.3769742500000000 32.0186446299999972 -0.0400902100000000 Au
atom 23.2963571599999995 32.0556361699999997 0.1687697600000000 Au
atom 25.9116954300000017 32.1102541400000021 -0.5343652600000000 Au
atom 0.4824347500000000 32.0938025999999965 -0.4321886200000000 Au
atom 3.3237897300000001 31.8513062500000004 0.0530761500000000 Au
atom 6.3090398700000003 32.0945396600000024 -0.4163714100000000 Au
atom 7.6352545100000002 34.5469575300000002 -0.0429964200000000 Au
atom 10.5062970799999995 34.7961830699999979 0.4443214000000000 Au
atom 13.1385873199999992 34.7695560000000015 -0.4871377800000000 Au
atom 16.0756439700000016 34.3392258299999966 -0.0273609000000000 Au
atom 18.7414645100000001 34.5103109599999982 0.1401112500000000 Au
atom 21.5296643500000009 34.6343301400000030 0.0545031800000000 Au
atom 24.2402370500000011 34.4284222200000016 0.1459135600000000 Au
atom 27.4068662399999994 34.5265467899999976 -0.0276414500000000 Au
atom 1.7984614000000001 34.6721564799999982 -0.0884158300000000 Au
atom 4.8598284800000000 34.4864882299999991 0.0900959700000000 Au
atom 8.9663706100000002 37.2078056300000029 0.5889490900000000 Au
atom 11.8200067499999992 37.0479085999999995 0.3239563200000000 Au
atom 14.5463491400000002 36.9423763599999972 -0.1901317200000000 Au
atom 17.4558042700000016 36.8177131799999984 0.3289339000000000 Au
atom 20.3032276500000002 37.0343060800000003 0.2513982400000000 Au
atom 22.9840091999999991 37.1515885100000034 0.1332213500000000 Au
atom 25.9311509099999995 37.1140430299999977 0.1651102800000000 Au
atom 0.5021837600000000 37.1047927500000014 0.1786384800000000 Au
atom 3.2916336099999999 36.9329468199999980 -0.0884633900000000 Au
atom 6.2140730700000004 36.9778864700000014 -0.1346682200000000 Au
atom 7.4205751600000003 -0.1811545600000000 0.2314869800000000 Au
atom 10.2701357699999996 0.2193258100000000 0.2318358600000000 Au
atom 13.2204140500000005 0.0977190400000000 -0.0583045900000000 Au
atom 15.8461108900000003 -0.0478251000000000 0.5481000400000000 Au
atom 18.7335330999999989 -0.0771949000000000 -0.0106450600000000 Au
atom 21.5328903899999986 0.0550025500000000 -0.0429414300000000 Au
atom 24.3988632599999988 -0.0333685700000000 0.1029923600000000 Au
atom 27.3211446699999989 -0.1165679900000000 0.0015866400000000 Au
atom 1.7585830000000000 0.2495082600000000 -0.2461246600000000 Au
atom 4.6563776099999998 -0.0398856400000000 -0.2938017200000000 Au
atom 9.0099355100000000 2.6587074600000000 0.1945902300000000 Au
atom 11.5799809400000004 2.5021113599999998 0.3227828800000000 Au
atom 14.7031314200000001 2.5147039100000002 0.1473831600000000 Au
atom 17.2781139599999989 2.4331833800000000 0.3718163000000000 Au
atom 20.2971163099999998 2.4625224900000000 0.1935351800000000 Au
atom 23.1292914200000013 2.4058976799999998 0.4915478300000000 Au
atom 25.8638192099999991 2.5315953300000000 0.4123496300000000 Au
atom 0.3583027900000000 2.3998260800000000 0.2110446400000000 Au
atom 3.3002689900000002 2.5859196400000002 -0.0146604500000000 Au
atom 6.1219158900000004 2.5946998300000002 0.0965665700000000 Au
atom 7.5092069099999996 4.9968740699999996 0.1140237100000000 Au
atom 10.2183706599999997 4.7562191100000000 0.4132852400000000 Au
atom 13.2475280299999998 4.9069143799999999 0.1338868200000000 Au
atom 16.0171211000000007 4.7352607700000000 -0.1641691900000000 Au
atom 18.9108027499999984 4.7503076300000000 0.2578553200000000 Au
atom 21.7326844600000015 4.7765973600000002 0.2798810900000000 Au
atom 24.4172964999999991 5.1952503800000001 0.4294640900000000 Au
atom 27.3425150099999996 4.8776773599999999 0.3126950300000000 Au
atom 1.8963759400000000 4.9733265199999996 0.0940334600000000 Au
atom 4.7447737700000001 5.1676389299999999 0.3010101800000000 Au
atom 9.0717288800000002 7.2147332700000000 0.4073760400000000 Au
atom 11.6764546100000004 7.3851653300000004 0.1857840400000000 Au
atom 14.4411948799999994 7.4478697299999999 -0.0875467100000000 Au
atom 17.4685126299999993 7.3645597000000000 -0.2189626400000000 Au
atom 20.1822839400000014 7.0751960699999996 0.1820747100000000 Au
atom 22.9175155100000012 7.2076744599999998 0.6556479400000000 Au
atom 25.9711666299999990 7.4296311800000003 0.3001062100000000 Au
atom 0.6416991600000000 7.4959510700000003 0.0842207600000000 Au
atom 3.3266670899999999 7.4241690900000004 0.0587290600000000 Au
atom 6.3023023499999997 7.4377176100000000 0.3613084100000000 Au
atom 7.8202591699999999 9.6934065999999994 0.1645938300000000 Au
atom 10.2435333199999992 10.0525342200000001 0.0520753500000000 Au
atom 13.3858400900000003 9.8575464799999999 0.1059631400000000 Au
atom 16.0155712399999999 10.0144048899999998 -0.0093029000000000 Au
atom 18.6671109599999987 9.6774367899999998 0.1276488500000000 Au
atom 21.6798066399999989 9.6077705400000006 0.1834728400000000 Au
atom 24.4157051500000009 9.9152225200000004 0.0001332800000000 Au
atom 27.4913059400000002 9.8548469200000000 0.0642674700000000 Au
atom 1.7836066399999999 9.8063970299999994 0.3901051300000000 Au
atom 4.5043728900000000 9.9813756599999994 0.2594805800000000 Au
atom 9.2529154200000008 12.3683413299999998 0.3220350100000000 Au
atom 11.9619968100000005 12.2588820300000005 0.0046206900000000 Au
atom 14.6153951400000004 12.1465110999999997 -0.0806304400000000 Au
atom 17.7114265099999990 12.4151626600000000 -0.2979569800000000 Au
atom 20.2512353099999984 12.1996763599999998 -0.0673251100000000 Au
atom 22.8368236499999995 12.1118454900000003 0.1337305800000000 Au
atom 25.9953314499999983 12.3295188800000002 -0.0418660100000000 Au
atom 0.4466190100000000 12.4091744800000008 0.4144616900000000 Au
atom 3.5758310299999998 12.4517250100000005 0.2972915200000000 Au
atom 6.2055530499999998 12.2977565299999991 0.1801044800000000 Au
atom 7.7120356499999998 13.1446850299999998 2.6898098099999999 Au
atom 10.6760563400000006 13.1982241899999995 2.8165407600000001 Au
atom 13.2662744600000000 13.0993295500000002 2.4686821299999999 Au
atom 15.9985487400000004 13.0015861800000003 2.4633825499999999 Au
atom 18.6369042100000009 13.2337877800000001 2.5513629700000000 Au
atom 21.7812179099999987 13.2511533999999997 2.7861601600000001 Au
atom 24.4561322799999985 13.2354349899999999 2.6835850799999998 Au
atom 27.3016675199999987 13.4434041499999992 2.7127027199999998 Au
atom 2.0847929800000000 13.3599933300000000 2.7202129300000002 Au
atom 5.1076686100000002 13.2352637899999994 2.6136032700000000 Au
atom 9.0973721800000007 15.5466474899999998 2.8543189000000000 Au
atom 12.1078422000000003 15.7072345900000006 2.7637020799999998 Au
atom 14.8370392500000001 15.7953699699999994 3.0600250800000000 Au
atom 17.6220462600000012 15.5348711200000000 2.7141046400000000 Au
atom 20.2137652999999986 15.4891246999999996 2.6708977900000002 Au
atom 23.0883545800000007 15.7183231600000006 2.4688047300000000 Au
atom 25.9986844300000008 15.8629599900000002 2.4480848200000001 Au
atom 0.6860716100000001 15.9281129200000002 2.5746339200000001 Au
atom 3.1769184600000000 15.6336858500000009 2.5308408700000000 Au
atom 6.2273917499999998 15.5910868600000008 2.8598784799999999 Au
atom 7.6931810199999999 18.0486370899999997 2.6701252000000002 Au
atom 10.5604736900000002 18.0480118999999988 2.7142118599999998 Au
atom 13.4155867600000001 18.3641065899999987 2.8945006100000001 Au
atom 16.2315358200000013 18.0685791900000012 2.7199309999999999 Au
atom 18.9452291799999983 18.2737810600000010 2.3916515100000000 Au
atom 21.6265624099999982 18.0423368699999997 2.4432549799999999 Au
atom 24.5464962399999997 18.2713141400000012 2.5960225700000001 Au
atom 27.5107441399999999 18.4637127399999983 2.5116623400000000 Au
atom 1.9889968300000000 18.1734094500000012 2.6193494899999998 Au
atom 4.8849382800000001 18.0397723700000014 2.4072642000000002 Au
atom 9.1706627899999997 20.3062933000000001 2.7979618199999998 Au
atom 11.8277496299999996 20.4630605699999997 2.7819409700000000 Au
atom 14.5394976899999993 20.6036764499999983 2.8290053799999999 Au
atom 17.6278886800000016 20.6507113800000006 2.8214841300000000 Au
atom 20.4679542800000007 20.7081006599999995 2.2641720200000002 Au
atom 23.2245899899999984 20.4775681499999997 2.5227183800000001 Au
atom 26.0126154999999990 20.6335987199999984 2.6606732700000002 Au
atom 0.6950589200000000 20.5971358900000006 2.3625887600000000 Au
atom 3.5625042900000001 20.4961982700000007 2.5843636399999999 Au
atom 6.4615172200000002 20.5767779399999995 2.3275832799999998 Au
atom 7.6310845499999997 23.0515465299999995 2.7360947100000002 Au
atom 10.5405262700000009 23.2605433800000014 2.8845367199999998 Au
atom 13.4729533499999992 23.3249942099999998 2.6432332900000000 Au
atom 16.1756135800000003 22.9321730200000005 2.9413469999999999 Au
atom 18.8243252800000000 23.1158349899999997 2.5116230900000001 Au
atom 21.9121339299999995 23.1786736799999993 2.0252950099999998 Au
atom 24.6095034999999989 22.8341227800000013 2.1776718399999999 Au
atom 27.3222660499999996 22.9827180800000015 2.3741529600000000 Au
atom 1.9258915800000000 23.2169714399999982 2.2636724099999999 Au
atom 5.0728321200000002 23.0783724499999998 2.8709022499999999 Au
atom 9.0874018499999991 25.6270986500000006 2.5658268600000000 Au
atom 11.7630383700000003 25.5254106500000013 2.7147374700000002 Au
atom 14.5955519799999998 25.4156893199999985 2.3731751700000001 Au
atom 17.6254445599999983 25.5914051499999999 2.2708201400000001 Au
atom 20.2697097200000016 25.6035263200000003 2.1200906800000001 Au
atom 23.2234805400000006 25.6459593999999989 2.1818835100000000 Au
atom 25.8154848500000007 25.4309636599999997 2.5745543299999998 Au
atom 0.4951841700000000 25.5759572999999989 2.7852576600000001 Au
atom 3.1699037300000001 25.6746832500000011 2.2909942399999998 Au
atom 6.1842242299999999 25.5727567299999983 2.5714533899999998 Au
atom 7.6785546499999997 28.0812860700000009 2.3296209000000001 Au
atom 10.5317391800000006 28.0770459800000012 2.1821798000000001 Au
atom 13.4164794199999999 27.9120527000000003 2.1494147699999999 Au
atom 16.0808426500000010 28.2187766599999996 2.1407601399999998 Au
atom 19.1886722200000008 27.8400079900000001 2.1731248800000000 Au
atom 21.8768762099999989 27.8411710799999987 2.3431823100000000 Au
atom 24.6497029599999991 27.9866317900000006 2.2734563300000001 Au
atom 27.3856477100000006 28.0452552600000011 2.5048665200000002 Au
atom 2.0924295599999998 28.1835937299999983 2.3499918700000002 Au
atom 4.7856259999999997 28.0528813600000007 2.3719654200000000 Au
atom 8.8852317799999998 30.3293407299999984 2.4725721799999998 Au
atom 11.7682798099999992 30.5281636899999995 2.6289379700000000 Au
atom 14.7735570299999992 30.5486176200000017 2.5951195100000000 Au
atom 17.6217265000000012 30.6912611599999998 2.2333182499999999 Au
atom 20.3139587900000009 30.4787735700000013 2.4061720400000000 Au
atom 22.9955743999999989 30.5272067500000013 2.8821509000000001 Au
atom 25.6930317499999994 30.4348240600000004 2.5270853700000000 Au
atom 0.5233259300000001 30.4709672699999992 2.3884607700000000 Au
atom 3.3573447999999999 30.3369536599999989 2.5947912199999998 Au
atom 6.3090514700000000 30.5252926400000000 2.0742128499999999 Au
atom 7.4926308099999996 32.8732076399999968 2.5983822499999998 Au
atom 10.3438782200000006 32.8062616200000008 2.7941056999999998 Au
atom 13.1220028800000001 33.1654747299999997 2.5840315700000001 Au
atom 16.0238450400000012 33.0518364400000024 2.2874944199999998 Au
atom 18.8247759700000010 32.9377673600000023 2.5697030299999999 Au
atom 21.5389219800000014 32.9854618199999976 2.4558221800000002 Au
atom 24.5646227800000005 33.0713846900000021 2.6547899500000001 Au
atom 27.2658485199999987 32.8994519600000004 2.6675093200000002 Au
atom 1.8384185399999999 32.9087785999999980 2.5612326099999998 Au
atom 4.7141145900000003 32.6710854100000034 2.8109018600000000 Au
atom 8.8409512899999996 35.2656293100000013 2.9801859099999999 Au
atom 11.7915302000000004 35.1352454100000031 2.8321959799999998 Au
atom 14.3934883599999992 35.2447784599999991 2.4179589699999999 Au
atom 17.4776385099999985 35.3467572200000006 2.9391645000000000 Au
atom 20.3048623699999986 35.5050299400000000 2.5634728199999999 Au
atom 23.0260379099999994 35.3551963199999975 2.8045053100000001 Au
atom 25.8774358400000004 35.6017890999999977 2.3842636800000001 Au
atom 0.5304094400000000 35.4208653499999997 2.6935381299999999 Au
atom 3.3934870799999999 35.4901996400000002 2.4429218399999999 Au
atom 6.1155540300000002 35.1757007499999972 2.9550201700000001 Au
atom 7.5353889199999999 37.9076362099999997 2.9868975700000000 Au
atom 10.5071957099999995 37.7874820099999980 2.8554329200000002 Au
atom 13.0972521099999994 38.0576246800000035 2.7166549099999999 Au
atom 16.1242079300000007 37.5679741900000010 3.2028044400000000 Au
atom 18.7751596599999999 37.6126821200000023 2.8358825599999999 Au
atom 21.4876937699999999 37.6372368899999969 2.9844313400000000 Au
atom 24.4052384300000007 37.7811243100000027 2.7109709500000001 Au
atom 27.2413627399999996 37.8293249500000002 2.5105623399999999 Au
atom 1.8523841200000000 37.9240714100000034 2.6459717100000000 Au
atom 4.6687587800000001 37.9341900900000013 2.4806502699999999 Au
atom 9.0784496200000007 0.7762227500000000 2.5613543000000001 Au
atom 11.8364958599999994 0.7568159500000000 2.7663104900000000 Au
atom 14.4698687899999996 0.8220137800000000 3.0354185299999998 Au
atom 17.3186860899999999 0.6033382000000000 3.0326392800000002 Au
atom 20.2600953200000014 0.7745704200000000 2.6585651900000000 Au
atom 23.0985270199999988 0.7086680400000001 2.9733734799999998 Au
atom 25.8519269999999999 1.1187923900000001 2.6908838199999998 Au
atom 0.5811506600000000 0.9377299700000000 2.7581543300000000 Au
atom 3.3321938000000002 0.8728789600000000 2.3697083600000002 Au
atom 6.1596800600000003 0.9516328900000000 2.7457144000000002 Au
atom 7.5119565399999999 3.4982134899999999 2.6158034099999998 Au
atom 10.3223865600000000 3.2750077599999998 3.0839159700000001 Au
atom 13.2174897999999992 3.4183036400000000 2.8083819200000000 Au
atom 15.8848698400000004 3.2335564600000000 2.8485825199999999 Au
atom 18.8900943900000016 3.2088600199999999 2.9858273299999998 Au
atom 21.6516855499999998 3.2161141099999999 2.8340491200000000 Au
atom 24.4736188299999995 3.4820058299999999 3.2135481299999999 Au
atom 27.3410231699999997 3.3333048000000001 3.0914391000000001 Au
atom 1.8197714899999999 3.4993201599999999 2.7801899500000000 Au
atom 4.8566662000000003 3.3454777500000001 2.6950706800000002 Au
atom 8.8446168899999993 5.7338631400000004 2.5737737599999999 Au
atom 11.8013558900000000 5.7563004400000004 2.9416780400000002 Au
atom 14.6379904900000000 5.6775298400000000 2.4595638599999998 Au
atom 17.3338052199999986 5.7133861899999996 2.6864334500000000 Au
atom 19.9743015200000009 5.5924806499999997 3.0233015100000000 Au
atom 22.9670211199999983 5.5790140800000003 2.9452460000000000 Au
atom 25.8117332700000013 5.5505852500000001 3.0576487900000000 Au
atom 0.5159288500000000 5.8643419699999999 2.9103151199999999 Au
atom 3.1169536500000001 5.8606481400000003 2.8441286799999999 Au
atom 6.3572938199999998 5.9226475000000001 2.8368615400000001 Au
atom 7.6884365399999997 8.1709370999999997 3.0135215299999998 Au
atom 10.4609358300000004 8.4411324200000006 2.8160611499999999 Au
atom 13.4213989300000005 8.2217565100000005 2.7574253199999998 Au
atom 16.0726156300000014 8.0458482100000008 2.5972363199999999 Au
atom 18.9903302399999987 8.0834485100000002 2.5613267000000000 Au
atom 21.6943545700000016 8.2740570200000008 2.9254170400000001 Au
atom 24.4716207399999988 8.2704401000000001 2.9875860799999998 Au
atom 27.2300733100000016 8.1482428900000006 2.5336118299999999 Au
atom 1.9832480900000000 8.3075993700000001 2.5754471699999999 Au
atom 4.8272582899999996 8.3725953400000002 2.7698391800000000 Au
atom 8.9184063299999998 10.6249320500000000 2.7929376900000000 Au
atom 11.7724807600000005 10.8023095399999995 2.7687415500000001 Au
atom 14.7663657399999995 10.4848524800000007 2.7976561599999998 Au
atom 17.5015602399999999 10.6703114800000005 2.5427645000000001 Au
atom 20.1416388099999999 10.6503654000000001 2.5370904799999998 Au
atom 23.0783212900000017 10.5661893899999999 2.6151824900000000 Au
atom 25.8832652799999998 10.7157570399999997 2.5823584300000002 Au
atom 0.4140840000000000 10.8347055599999997 2.7031618000000002 Au
atom 3.5104302700000001 10.9438671000000003 2.6997283300000001 Au
atom 6.0809040899999998 10.8069589300000004 2.9752498500000000 Au
atom 6.8730387400000001 13.3824261399999997 5.6641075599999997 Cl
atom 6.8100844299999999 16.2796740000000000 8.5006925899999999 Cl
atom 6.9440691399999999 13.1996284100000008 8.7612308900000002 Na
atom 6.8019947500000004 16.3033479300000010 5.7787563200000003 Na
atom 6.8271998099999998 19.0181412099999996 5.8260653700000002 Cl
atom 7.1442129500000000 21.6361698000000011 8.7167472600000000 Cl
atom 7.0323490700000004 19.0505012299999983 8.5578131699999993 Na
atom 7.0595025099999997 21.6852340999999988 5.9190769699999999 Na
atom 7.0417980299999998 24.5889627900000001 5.5921303599999996 Cl
atom 6.7719732700000002 27.3702151499999999 8.3335113700000001 Cl
atom 7.1353011999999998 24.7758861199999991 8.3570023800000008 Na
atom 7.1416825199999998 27.5886315000000018 5.4379340799999998 Na
atom 6.6742085700000002 30.4796809400000015 5.3961497600000001 Cl
atom 6.9996288900000003 33.3386411099999975 8.4214815600000001 Cl
atom 6.9074087799999999 30.2059168100000015 8.2221885399999994 Na
atom 6.7977742399999999 33.1928510299999999 5.6633848999999996 Na
atom 6.9223013099999999 36.2061650500000027 5.7977091600000001 Cl
atom 6.9870025099999999 39.0077463100000017 8.6882510699999997 Cl
atom 6.9055053800000001 36.0171538100000035 8.5705268100000005 Na
atom 6.5750186599999996 38.7880497000000020 5.9887169599999996 Na
atom 6.9603643000000002 1.7954898900000000 6.2248288799999996 Cl
atom 7.0291032500000004 4.7709500299999998 8.7456540300000007 Cl
atom 6.8212513499999998 1.9649541200000000 8.9836882399999993 Na
atom 7.1591372000000000 4.7337833099999997 5.9936537899999998 Na
atom 6.8649297699999998 7.1628318999999996 6.2221084299999996 Cl
atom 6.8679711599999997 10.2727986300000005 8.8488941000000008 Cl
atom 6.9106490000000003 7.6281190099999998 8.7770015000000008 Na
atom 6.7340716900000004 10.4084875799999992 5.8451565299999997 Na
atom 9.5948246200000007 13.1485557699999998 5.9029066800000001 Na
atom 12.3921619300000003 13.4916366300000004 5.8802731899999996 Cl
atom 9.8160298200000007 16.2403505999999993 8.5119981700000000 Na
atom 12.4217827599999993 16.3650163900000010 8.5419507600000006 Cl
atom 12.1243470500000008 13.2322957100000007 8.7189554900000008 Na
atom 9.6564868799999992 13.2306089100000008 8.8257690400000008 Cl
atom 12.4612691899999994 16.2519027800000018 5.9997177600000002 Na
atom 9.6388436700000000 16.3717984700000017 5.7691816200000003 Cl
atom 9.7521131000000008 18.9344680600000004 5.9154145099999997 Na
atom 12.3230140200000005 19.0439309799999990 5.8807658399999996 Cl
atom 9.8655556600000001 22.0311744699999998 8.7162678299999996 Na
atom 12.6689194399999998 21.7784725100000003 8.4474618100000001 Cl
atom 12.4058422799999999 19.1504440100000011 8.4806441100000001 Na
atom 9.6115756599999997 19.0080834400000001 8.8811302100000002 Cl
atom 12.6044687100000008 21.8878189300000017 5.7623542800000003 Na
atom 9.6555753600000003 21.8939089600000010 5.7112364500000004 Cl
atom 9.8157487499999991 24.7790296099999985 5.9388523400000004 Na
atom 12.6348612399999993 24.6568962499999991 5.6664445299999997 Cl
atom 9.7058150300000001 27.7096153299999983 8.2661796200000008 Na
atom 12.8394939400000005 27.3285060100000017 8.5749186500000008 Cl
atom 12.6865112700000005 24.7347432100000013 8.2639632899999995 Na
atom 9.8390018599999998 24.9847784799999992 8.2186716600000000 Cl
atom 12.5417678800000001 27.3275881699999985 5.6348275100000000 Na
atom 9.9762494299999993 27.9045200300000005 5.5945142399999996 Cl
atom 10.0392396799999997 30.5414243200000008 5.4917510600000004 Na
atom 12.4221383299999992 30.5806327300000014 5.4215777200000002 Cl
atom 9.6567636900000000 33.1573703800000033 8.2225385899999992 Na
atom 12.3735241400000007 33.1971603799999997 8.4738921800000000 Cl
atom 12.4408967799999992 30.2995327400000001 8.2898194000000007 Na
atom 9.6355705799999996 30.1768634300000009 8.3042334199999992 Cl
atom 12.4905396799999995 33.4114740099999992 5.7138205800000001 Na
atom 9.5001623899999998 33.1118205699999990 5.3708905600000003 Cl
atom 10.0199604499999992 35.8337337399999996 6.3359497899999999 Na
atom 12.5980294199999996 35.9081544399999970 5.8194325500000001 Cl
atom 9.8474860199999998 38.5829088500000026 8.6758709599999992 Na
atom 12.5256725000000007 38.5280066400000010 8.6372247000000009 Cl
atom 12.7397828299999993 35.8138647999999975 8.5073843599999996 Na
atom 9.7292516700000000 35.9296145400000029 8.7928422899999994 Cl
atom 12.9174357000000004 38.7051839700000002 5.9197912099999996 Na
atom 9.8999272099999995 38.4930668599999990 5.9064631500000004 Cl
atom 9.7031205899999993 1.8622076400000001 5.8942236799999996 Na
atom 12.7806445199999992 1.9724146199999999 5.8027778300000001 Cl
atom 9.6742726399999999 4.6092530299999996 8.4560046900000003 Na
atom 12.6364860599999993 4.5253069799999999 9.0490365100000005 Cl
atom 12.5358326099999999 1.7842743200000000 8.6189360799999992 Na
atom 9.6949390300000005 1.8196923899999999 8.9213418000000004 Cl
atom 12.6481475400000001 5.0520451199999998 6.1744275499999999 Na
atom 9.5165615900000002 4.4184596599999999 6.2266849700000000 Cl
atom 9.8055623599999997 7.4830786800000002 5.9986994899999999 Na
atom 12.5622675200000007 7.8032122099999999 5.9283918800000004 Cl
atom 9.8029649699999997 10.4459469899999995 8.5550171699999993 Na
atom 12.4476126199999992 10.3332382200000001 8.8375127700000000 Cl
atom 12.3873349200000007 7.7032363200000002 8.5695739399999997 Na
atom 9.8729066200000002 7.7612018899999997 8.5659283700000000 Cl
atom 12.6045348100000005 10.4650767699999996 6.0311712300000000 Na
atom 9.6246726200000001 10.0593442100000008 5.9308301800000001 Cl
atom 15.2254034100000002 13.3474800400000007 6.0830558799999999 Na
atom 18.2181621000000007 13.3598072800000001 5.6953131399999997 Cl
atom 15.2485004800000006 16.2000272299999999 8.8264426000000000 Na
atom 18.1126070699999993 16.4287124599999999 8.5294387799999996 Cl
atom 18.1457579799999991 13.3164180200000004 8.1746116600000001 Na
atom 15.2237025799999994 13.1344897300000003 8.7840692100000002 Cl
atom 18.0055875199999988 16.2561331100000004 5.9312103000000000 Na
atom 15.4807604399999992 16.2679642800000011 5.8501150700000002 Cl
atom 15.1525091500000002 18.9234785000000016 5.8235455600000003 Na
atom 18.1296447000000001 19.0934885399999992 5.6741119600000003 Cl
atom 15.4217644000000007 22.2690658399999997 8.5686080400000009 Na
atom 18.3100132000000002 21.9184297199999989 8.4855953000000000 Cl
atom 17.8752816400000007 19.2412898800000001 8.6047097299999997 Na
atom 15.2753854899999997 18.9506452500000009 8.9115428300000001 Cl
atom 18.2618708199999986 22.0162274700000005 5.7012951200000002 Na
atom 15.4309681800000007 21.8755775999999997 5.6795986799999998 Cl
atom 15.4014607899999998 24.9039575900000010 5.7442070799999998 Na
atom 18.2948194999999991 24.5328697300000016 5.2870613200000003 Cl
atom 15.2027934600000005 27.3322241199999993 7.9919704300000003 Na
atom 18.4716587099999998 27.5636307699999996 8.4921866900000005 Cl
atom 18.2416750299999997 24.7729971599999992 8.2862248600000008 Na
atom 15.6977531799999994 24.6148810199999986 8.3485472600000001 Cl
atom 18.3179041900000001 27.4881527100000014 5.7319036499999996 Na
atom 15.5299488100000005 27.5152915100000008 5.4739685400000004 Cl
atom 15.2629577500000000 30.5107832399999985 5.5348030300000000 Na
atom 18.4239321599999997 30.3127589600000000 5.5591143699999996 Cl
atom 15.2493783500000006 32.9567230299999991 8.0801755400000008 Na
atom 18.2759621500000016 33.0640508600000018 8.3490520299999993 Cl
atom 18.3457775599999984 30.1210298899999991 8.2696499299999999 Na
atom 15.1213995699999995 30.2559977899999986 8.2989883899999999 Cl
atom 18.2787156099999990 33.2472017799999975 5.6800793799999996 Na
atom 15.2810311500000005 33.4304874899999973 5.6462269999999997 Cl
atom 15.3225945699999997 35.9023193000000020 5.8725372699999996 Na
atom 18.2161488799999987 35.9390438399999965 5.8445581600000001 Cl
atom 15.3764609399999994 38.8722628399999977 8.7699037299999993 Na
atom 18.1277663500000017 38.8009840799999992 8.8403679000000004 Cl
atom 18.3905981499999989 35.7290063000000018 8.4188639399999996 Na
atom 15.4831334700000003 35.7570367800000000 8.8010858600000006 Cl
atom 18.1591292700000011 38.8668353500000023 6.1794514999999999 Na