#===============================================================================
# Created using the Atomic Simulation Environment (ASE)

# Tue Dec 23 22:26:45 2025

#=======================================================
lattice_vector 28.1999999999999993 0.0000000000000000 0.0000000000000000 
lattice_vector 0.0000000000000000 39.4799999999999969 0.0000000000000000 
lattice_vector 0.0000000000000000 0.0000000000000000 62.3296083400000001 
atom 7.6109442999999999 15.1019925500000003 -0.2523096200000000 Au
atom 10.4347238000000004 15.1037930700000000 -0.2698587900000000 Au
atom 13.2541040399999996 15.0917872400000004 -0.2556591200000000 Au
atom 16.0725009800000009 15.1031092800000000 -0.2812333500000000 Au
atom 18.8926507299999997 15.0947375499999996 -0.2685543700000000 Au
atom 21.7140944299999994 15.1053494599999993 -0.2866436700000000 Au
atom 24.5344894300000007 15.0971723400000002 -0.2640882600000000 Au
atom 27.3542002400000008 15.1074617199999999 -0.2821525300000000 Au
atom 1.9716714000000000 15.0941550400000004 -0.2604510300000000 Au
atom 4.7889618799999996 15.1032038100000001 -0.2642673700000000 Au
atom 9.0210468000000006 17.5792101099999982 -0.2927430700000000 Au
atom 11.8480139199999996 17.5787715999999996 -0.2926933300000000 Au
atom 14.6602208399999991 17.5754711999999991 -0.2917228100000000 Au
atom 17.4867512199999986 17.5776928900000016 -0.2945278200000000 Au
atom 20.2993653599999995 17.5798794700000016 -0.2910802600000000 Au
atom 23.1263456400000003 17.5806696100000011 -0.2850357800000000 Au
atom 25.9397686000000007 17.5803242500000003 -0.2801693100000000 Au
atom 0.5663458400000000 17.5785552600000017 -0.2790633300000000 Au
atom 3.3779474999999999 17.5810391999999993 -0.2827672500000000 Au
atom 6.2041397199999997 17.5796341500000004 -0.2861887900000000 Au
atom 7.6142577999999999 20.0497441300000006 -0.2107947400000000 Au
atom 10.4343629500000006 20.0618332099999996 -0.2583522400000000 Au
atom 13.2560521300000005 20.0469484700000002 -0.2004245600000000 Au
atom 16.0732792300000007 20.0621604299999987 -0.2567971900000000 Au
atom 18.8905308599999984 20.0502041099999992 -0.2071772300000000 Au
atom 21.7104577100000000 20.0657452200000002 -0.2537685200000000 Au
atom 24.5312291699999996 20.0478193100000013 -0.1968755500000000 Au
atom 27.3528140200000003 20.0613048800000016 -0.2469324600000000 Au
atom 1.9730106599999999 20.0485231199999987 -0.1991938700000000 Au
atom 4.7943459400000004 20.0622045500000006 -0.2530775700000000 Au
atom 9.0227210800000002 22.5247592400000016 -0.1675835900000000 Au
atom 11.8478589099999994 22.5238841200000017 -0.1572880700000000 Au
atom 14.6631078200000005 22.5278079499999997 -0.1379855100000000 Au
atom 17.4825460300000017 22.5312779399999989 -0.1325942100000000 Au
atom 20.2949247300000017 22.5316220800000018 -0.1573606400000000 Au
atom 23.1230609499999993 22.5287822300000009 -0.1646316500000000 Au
atom 25.9394338200000014 22.5245033700000015 -0.1641925100000000 Au
atom 0.5667163000000000 22.5231430000000010 -0.1673607500000000 Au
atom 3.3826652799999999 22.5242521800000013 -0.1685095500000000 Au
atom 6.2058137100000001 22.5254130400000001 -0.1726496300000000 Au
atom 7.6128299500000001 24.9899806300000016 -0.0608978600000000 Au
atom 10.4346278600000009 24.9962870200000005 -0.0822226000000000 Au
atom 13.2530804199999999 24.9888821000000014 -0.0067661100000000 Au
atom 16.0694134999999996 25.0000034000000007 -0.0374212600000000 Au
atom 18.8893055700000012 24.9923029200000002 -0.0182767800000000 Au
atom 21.7115041499999997 25.0034868500000016 -0.0907593700000000 Au
atom 24.5338339300000001 24.9877128299999995 -0.0477926500000000 Au
atom 27.3552640199999999 24.9950422500000009 -0.1022777300000000 Au
atom 1.9758154000000001 24.9888567100000003 -0.0642454500000000 Au
atom 4.7941213899999999 24.9959690600000002 -0.1060159700000000 Au
atom 9.0228500500000006 27.4526852400000010 -0.0939134800000000 Au
atom 11.8421412900000007 27.4488009700000006 -0.0621776900000000 Au
atom 14.6583257099999997 27.4439257400000010 -0.0633927300000000 Au
atom 17.4765177899999991 27.4467327700000006 -0.1218643100000000 Au
atom 20.3017899200000009 27.4490052700000007 -0.1555490600000000 Au
atom 23.1264101099999984 27.4484208000000010 -0.1319305800000000 Au
atom 25.9460716600000012 27.4488814699999999 -0.1083978600000000 Au
atom 0.5656661100000000 27.4518772800000015 -0.1071104100000000 Au
atom 3.3852727499999999 27.4522409699999983 -0.1027566700000000 Au
atom 6.2022842899999997 27.4522487999999996 -0.0980609500000000 Au
atom 7.6127002399999997 29.9213489700000004 -0.0979077400000000 Au
atom 10.4371204199999994 29.9153014900000009 -0.1014528600000000 Au
atom 13.2560321299999995 29.9109503200000013 -0.0595626700000000 Au
atom 16.0675713500000015 29.9075520399999988 -0.1442013600000000 Au
atom 18.8893255199999999 29.9133584799999994 -0.2396752900000000 Au
atom 21.7132648900000014 29.9139107300000013 -0.2074182400000000 Au
atom 24.5291772299999984 29.9149313899999996 -0.1207277100000000 Au
atom 27.3501155099999984 29.9152473400000005 -0.1258778300000000 Au
atom 1.9740688500000001 29.9216972199999987 -0.1072979200000000 Au
atom 4.7933078399999998 29.9180327900000016 -0.1107771600000000 Au
atom 9.0292253799999997 32.3829180700000023 -0.1474264800000000 Au
atom 11.8460689400000003 32.3785336500000014 -0.1135935500000000 Au
atom 14.6661421700000005 32.3754773599999979 -0.0967377700000000 Au
atom 17.4763063999999986 32.3787687299999973 -0.1971522100000000 Au
atom 20.3014314999999996 32.3793813500000027 -0.2207761800000000 Au
atom 23.1186605599999986 32.3800943399999994 -0.1592944400000000 Au
atom 25.9430002399999999 32.3808562600000016 -0.1616160400000000 Au
atom 0.5588028700000000 32.3832052200000007 -0.1650802200000000 Au
atom 3.3865157400000001 32.3824959900000025 -0.1597815400000000 Au
atom 6.2011958099999998 32.3824689500000034 -0.1539710600000000 Au
atom 7.6142301200000002 34.8541211100000012 -0.2336444100000000 Au
atom 10.4338838999999997 34.8424497800000026 -0.2035173800000000 Au
atom 13.2559464100000000 34.8455165499999993 -0.1910554700000000 Au
atom 16.0750795300000000 34.8390552099999979 -0.1849688000000000 Au
atom 18.8899156800000014 34.8556770599999979 -0.2360597200000000 Au
atom 21.7067474000000011 34.8435695100000018 -0.2262859500000000 Au
atom 24.5303437799999990 34.8524903899999998 -0.2407337700000000 Au
atom 27.3539155100000002 34.8448828800000001 -0.2270529700000000 Au
atom 1.9747039700000000 34.8555208000000007 -0.2444736200000000 Au
atom 4.7944430100000002 34.8441946700000003 -0.2162204300000000 Au
atom 9.0261069400000000 37.3233818400000033 -0.2088809300000000 Au
atom 11.8379434299999993 37.3197848100000016 -0.2066335400000000 Au
atom 14.6647120399999995 37.3163732100000018 -0.1993977400000000 Au
atom 17.4755913199999995 37.3239019099999965 -0.1995125500000000 Au
atom 20.3049090600000000 37.3280721000000000 -0.2182504700000000 Au
atom 23.1196042900000016 37.3246331300000023 -0.2318921200000000 Au
atom 25.9490479299999990 37.3264168799999965 -0.2329322700000000 Au
atom 0.5621526900000000 37.3257677900000004 -0.2295078900000000 Au
atom 3.3891350299999998 37.3245877900000025 -0.2234884500000000 Au
atom 6.2019892600000004 37.3244741999999974 -0.2153779400000000 Au
atom 7.6139481199999999 0.3264634600000000 -0.1636623800000000 Au
atom 10.4327363000000002 0.3070075500000000 -0.1137538600000000 Au
atom 13.2519109200000003 0.3167716200000000 -0.1697528100000000 Au
atom 16.0705596799999988 0.3082305700000000 -0.1254987300000000 Au
atom 18.8902094200000015 0.3259643100000000 -0.1816768800000000 Au
atom 21.7132249799999997 0.3147997800000000 -0.1408960900000000 Au
atom 24.5351815900000005 0.3255245500000000 -0.1974868600000000 Au
atom 27.3553283900000004 0.3107406000000000 -0.1452850400000000 Au
atom 1.9754663900000000 0.3228463700000000 -0.1851250600000000 Au
atom 4.7949275000000000 0.3093469400000000 -0.1154877400000000 Au
atom 9.0263868499999997 2.7878830799999998 -0.0770888000000000 Au
atom 11.8421217999999993 2.7803116700000001 -0.0949806900000000 Au
atom 14.6672582499999997 2.7785747900000000 -0.0946267100000000 Au
atom 17.4798184399999990 2.7837699599999999 -0.1038650500000000 Au
atom 20.3027746799999989 2.7874570599999999 -0.1132879600000000 Au
atom 23.1192254599999991 2.7864301899999999 -0.1200934300000000 Au
atom 25.9455868500000015 2.7849027199999998 -0.1203879600000000 Au
atom 0.5610430300000000 2.7829926600000001 -0.1082519600000000 Au
atom 3.3867561199999998 2.7818573299999998 -0.0967811200000000 Au
atom 6.2025916299999997 2.7866645499999998 -0.0772020300000000 Au
atom 7.6138924399999999 5.2500910999999997 -0.0813690900000000 Au
atom 10.4378465899999995 5.2436139500000003 -0.0465378800000000 Au
atom 13.2581176900000006 5.2492563499999996 -0.0511955200000000 Au
atom 16.0752336699999994 5.2457095499999999 -0.0047317300000000 Au
atom 18.8916662200000012 5.2529522599999998 -0.0624428900000000 Au
atom 21.7096665699999996 5.2479984300000000 -0.0302170800000000 Au
atom 24.5298546699999989 5.2523107099999997 -0.0898291900000000 Au
atom 27.3533196600000004 5.2476739600000002 -0.0521578800000000 Au
atom 1.9769181100000000 5.2517077499999996 -0.0584276200000000 Au
atom 4.7910005599999996 5.2445183599999998 -0.0439702500000000 Au
atom 9.0239133599999999 7.7098928100000004 -0.1423087500000000 Au
atom 11.8446128700000006 7.7065212699999996 -0.0538332400000000 Au
atom 14.6604477600000003 7.7085661800000000 -0.0406912600000000 Au
atom 17.4812549500000003 7.7084503099999999 -0.0630833300000000 Au
atom 20.3009660499999995 7.7077677400000004 -0.0790153300000000 Au
atom 23.1229940700000007 7.7081209700000004 -0.0858253800000000 Au
atom 25.9438786599999993 7.7105388799999997 -0.1064150500000000 Au
atom 0.5696259500000000 7.7092858599999996 -0.0884831500000000 Au
atom 3.3878061900000001 7.7047889800000000 -0.0390809700000000 Au
atom 6.2028485699999996 7.7103089499999999 -0.1282717700000000 Au
atom 7.6130027399999998 10.1781775499999991 -0.1519608700000000 Au
atom 10.4279505399999994 10.1814876000000005 -0.0586452900000000 Au
atom 13.2466621500000006 10.1684142200000007 -0.0401371600000000 Au
atom 16.0691887899999983 10.1781176200000001 -0.0661829200000000 Au
atom 18.8905176600000004 10.1711072799999993 -0.0982564300000000 Au
atom 21.7122425600000000 10.1751363200000000 -0.0997775200000000 Au
atom 24.5357212900000015 10.1715406599999998 -0.1119294300000000 Au
atom 27.3587948700000005 10.1817950499999998 -0.1074923000000000 Au
atom 1.9792962999999999 10.1695503400000007 -0.0604076800000000 Au
atom 4.7989981999999998 10.1735194000000000 -0.0423439700000000 Au
atom 9.0183997399999996 12.6444061800000007 -0.1438193900000000 Au
atom 11.8441357499999995 12.6354168100000006 -0.1278312600000000 Au
atom 14.6580850500000004 12.6305799899999993 -0.1471801700000000 Au
atom 17.4850894699999984 12.6337448899999991 -0.1661196400000000 Au
atom 20.2991193500000016 12.6331499500000000 -0.1777083500000000 Au
atom 23.1272118900000017 12.6334863399999993 -0.1809486300000000 Au
atom 25.9403385600000007 12.6364484400000006 -0.1840106600000000 Au
atom 0.5681447700000000 12.6323458500000001 -0.1724235700000000 Au
atom 3.3834001400000000 12.6317625899999992 -0.1347072700000000 Au
atom 6.2050380199999999 12.6408209500000002 -0.1436866900000000 Au
atom 7.6114171099999997 13.5243924300000007 2.4641841499999999 Au
atom 10.4289077500000005 13.5142570099999997 2.4070276599999998 Au
atom 13.2550408100000006 13.5193042200000004 2.4764645199999999 Au
atom 16.0776956099999992 13.5083341099999998 2.3891911499999998 Au
atom 18.8988726900000010 13.5167939799999992 2.4432383400000002 Au
atom 21.7156589300000000 13.5073079899999993 2.3664888700000000 Au
atom 24.5319224700000014 13.5155065299999997 2.4381952400000002 Au
atom 27.3516507199999985 13.5065729399999999 2.3703607899999999 Au
atom 1.9702849600000001 13.5169901800000005 2.4508998499999999 Au
atom 4.7931605800000003 13.5123592699999993 2.4107732199999998 Au
atom 9.0201715000000000 15.9633458800000003 2.3280801100000001 Au
atom 11.8464299400000002 15.9589730799999998 2.3275390100000002 Au
atom 14.6621203700000002 15.9613456599999992 2.3245554899999998 Au
atom 17.4888154299999989 15.9619518399999993 2.3181623700000000 Au
atom 20.3024763899999989 15.9601527200000000 2.3178792100000001 Au
atom 23.1260759299999989 15.9599291099999991 2.3223958599999999 Au
atom 25.9402017399999991 15.9622212200000000 2.3237334999999999 Au
atom 0.5654598300000000 15.9633737900000003 2.3300305600000000 Au
atom 3.3784226999999998 15.9610178000000005 2.3341569199999999 Au
atom 6.2027448200000004 15.9645666599999991 2.3327834599999999 Au
atom 7.6134091300000000 18.4095850200000015 2.3810438800000000 Au
atom 10.4348213100000002 18.4176579300000007 2.2889598000000002 Au
atom 13.2556411599999997 18.4060245100000017 2.3835457199999999 Au
atom 16.0745564700000010 18.4176270600000009 2.2868920899999998 Au
atom 18.8927234700000000 18.4093313000000016 2.3813805299999999 Au
atom 21.7124879799999988 18.4188633999999993 2.2905582999999998 Au
atom 24.5317219299999998 18.4075705999999997 2.3951898500000000 Au
atom 27.3519592899999999 18.4182395700000008 2.3035637499999999 Au
atom 1.9721270099999999 18.4111296899999992 2.3933453899999999 Au
atom 4.7914529799999999 18.4217206900000008 2.3004656699999999 Au
atom 9.0239539499999992 20.8734001999999990 2.4101116100000000 Au
atom 11.8470179899999994 20.8687387800000010 2.4165200699999998 Au
atom 14.6668399600000008 20.8699395099999983 2.4216544400000002 Au
atom 17.4843334900000009 20.8738255099999996 2.4178537599999999 Au
atom 20.2964806899999992 20.8767196199999994 2.4088849699999999 Au
atom 23.1213920199999983 20.8743324500000007 2.4132434500000000 Au
atom 25.9414177600000002 20.8722274299999988 2.4159600999999999 Au
atom 0.5634138700000000 20.8737192500000006 2.4174258900000001 Au
atom 3.3828865200000000 20.8755268200000010 2.4143474500000002 Au
atom 6.2043542800000004 20.8768148499999988 2.4084595800000002 Au
atom 7.6131129800000004 23.3315369100000005 2.4874283300000002 Au
atom 10.4359648800000002 23.3497237200000001 2.4480457499999999 Au
atom 13.2548938399999994 23.3248559499999999 2.5177974700000001 Au
atom 16.0758989399999983 23.3542964499999997 2.4895899099999999 Au
atom 18.8934908999999998 23.3420994700000008 2.5344356600000002 Au
atom 21.7088541699999986 23.3583131900000005 2.4324400399999999 Au
atom 24.5294251699999997 23.3326416099999996 2.5053889499999999 Au
atom 27.3509436900000011 23.3537265400000003 2.4362227600000002 Au
atom 1.9741683600000000 23.3328985200000005 2.4902275800000000 Au
atom 4.7934892800000002 23.3519247400000012 2.4373448099999999 Au
atom 9.0247798499999998 25.8214107000000013 2.5571094300000001 Au
atom 11.8397311100000007 25.8176454100000008 2.5970590499999999 Au
atom 14.6639465199999997 25.8213934300000005 2.6294465599999999 Au
atom 17.4818647100000000 25.8362688399999989 2.5914890599999998 Au
atom 20.3102477099999987 25.8398864400000008 2.5540630900000001 Au
atom 23.1266946000000004 25.8263983500000016 2.5544081900000002 Au
atom 25.9479554999999991 25.8261769500000007 2.5533797699999998 Au
atom 0.5608892900000000 25.8255553300000003 2.5454230199999999 Au
atom 3.3842239699999999 25.8241869599999987 2.5464432600000002 Au
atom 6.2017475500000003 25.8224019600000005 2.5500306600000000 Au
atom 7.6120628200000002 28.2954551700000003 2.4946447400000000 Au
atom 10.4307907899999996 28.3113151300000006 2.5221404700000001 Au
atom 13.2515232699999999 28.2824810000000006 2.5383300200000001 Au
atom 16.0756715099999994 28.3064610099999996 2.4898265500000001 Au
atom 18.8944457200000002 28.2952966900000007 2.3971469299999999 Au
atom 21.7116135899999989 28.3121936299999994 2.4236250699999999 Au
atom 24.5335104699999995 28.2910708699999986 2.4806137499999998 Au
atom 27.3517602900000014 28.3156410500000000 2.4969068900000000 Au
atom 1.9716940199999999 28.2972674399999988 2.4857577000000002 Au
atom 4.7921490100000002 28.3135008399999997 2.5042508099999998 Au
atom 9.0259085799999994 30.7818838799999988 2.5013407900000000 Au
atom 11.8408885200000000 30.7771693800000001 2.5296174699999998 Au
atom 14.6738376000000006 30.7673159699999985 2.5275147900000001 Au
atom 17.4842898300000016 30.7718796099999992 2.3979308700000002 Au
atom 20.3098362200000011 30.7765371899999991 2.3803478000000000 Au
atom 23.1157579599999998 30.7682225500000008 2.4710686900000001 Au
atom 25.9387643799999985 30.7802707200000008 2.4906136700000001 Au
atom 0.5554785900000000 30.7837838700000006 2.4867786100000000 Au
atom 3.3812622600000002 30.7847909100000017 2.5010952899999999 Au
atom 6.2001682400000000 30.7845450099999987 2.5044413699999999 Au
atom 7.6133922500000004 33.2416693699999968 2.4033457999999999 Au
atom 10.4359479900000007 33.2463598300000029 2.4934307400000000 Au
atom 13.2603509600000002 33.2331109400000031 2.4684786200000000 Au
atom 16.0864910499999993 33.2373097199999989 2.4983445799999999 Au
atom 18.8936114500000016 33.2350123300000035 2.3533466800000000 Au
atom 21.7020081900000008 33.2430806699999977 2.4400611799999998 Au
atom 24.5232886900000011 33.2375802800000031 2.3993210999999999 Au
atom 27.3457849400000015 33.2493351399999995 2.4667284899999999 Au
atom 1.9692262400000000 33.2435611699999995 2.3907536800000000 Au
atom 4.7909585999999997 33.2501413299999982 2.4729578700000001 Au
atom 9.0268435300000007 35.6945453800000010 2.3878735299999998 Au
atom 11.8427406000000008 35.6895497200000023 2.3943027600000000 Au
atom 14.6722779400000007 35.6884453500000021 2.4141031800000001 Au
atom 17.4832952900000009 35.6955090399999975 2.4055483099999999 Au
atom 20.3051304600000009 35.6978448500000027 2.3815633300000001 Au
atom 23.1154701299999985 35.6927326300000018 2.3694976300000001 Au
atom 25.9430218600000018 35.6934309900000031 2.3635921999999998 Au
atom 0.5577040300000000 35.6968218700000008 2.3656035399999999 Au
atom 3.3839097800000002 35.6985192400000031 2.3740225599999998 Au
atom 6.2006591200000001 35.6983489599999970 2.3798326200000002 Au
atom 7.6110605800000002 38.1585274600000020 2.3743590200000000 Au
atom 10.4346685200000007 38.1443979900000016 2.4720034900000001 Au
atom 13.2532837699999995 38.1507234999999980 2.3788730299999998 Au
atom 16.0730792899999990 38.1431282300000021 2.4726197100000000 Au
atom 18.8962643899999989 38.1567812500000016 2.3671179699999998 Au
atom 21.7153611399999988 38.1454210599999968 2.4477040300000001 Au
atom 24.5302466899999985 38.1537774900000031 2.3493792800000000 Au
atom 27.3501567399999992 38.1449758099999983 2.4452301099999998 Au
atom 1.9742117900000000 38.1586144500000017 2.3611889000000001 Au
atom 4.7911338199999998 38.1475113899999982 2.4677672899999998 Au
atom 9.0204481699999999 1.1346056099999999 2.5020094400000001 Au
atom 11.8441782300000007 1.1309573300000000 2.4935385100000000 Au
atom 14.6654597100000004 1.1311197399999999 2.4916293700000001 Au
atom 17.4843521200000005 1.1311690999999999 2.4859758200000002 Au
atom 20.3061399000000016 1.1328644200000000 2.4738203400000001 Au
atom 23.1223673500000011 1.1345453900000000 2.4675841500000000 Au
atom 25.9428997700000004 1.1343527200000001 2.4662330099999998 Au
atom 0.5617408600000000 1.1358666100000001 2.4742158600000002 Au
atom 3.3831995600000000 1.1350983500000000 2.4979275400000001 Au
atom 6.2030538599999998 1.1365158500000001 2.5098827300000002 Au
atom 7.6153968699999997 3.6254864100000002 2.5310232500000001 Au
atom 10.4332993599999995 3.6053746499999999 2.5585705700000001 Au
atom 13.2555962100000002 3.6140363199999999 2.5012116999999998 Au
atom 16.0748017999999995 3.5973939300000000 2.5631371299999999 Au
atom 18.8958417200000000 3.6182784400000001 2.4958545999999999 Au
atom 21.7137614300000017 3.5981700700000001 2.5411792400000000 Au
atom 24.5309171299999988 3.6176892500000002 2.4749606300000000 Au
atom 27.3521139499999997 3.6014017100000002 2.5391541300000000 Au
atom 1.9725953400000000 3.6174903500000002 2.4975236000000001 Au
atom 4.7928335999999998 3.6065800399999999 2.5533001999999998 Au
atom 9.0212735100000003 6.1012155300000002 2.5400790299999998 Au
atom 11.8410099199999994 6.0879749099999998 2.5816887899999998 Au
atom 14.6656792500000002 6.0860895299999997 2.5968255999999998 Au
atom 17.4855615600000007 6.0920667200000000 2.5931473600000001 Au
atom 20.3028506499999999 6.0929936299999996 2.5796158199999999 Au
atom 23.1225310600000000 6.0884493199999996 2.5625397099999998 Au
atom 25.9395442600000017 6.0920366699999997 2.5437623899999999 Au
atom 0.5590626400000001 6.0841702599999996 2.5562144600000001 Au
atom 3.3895369099999999 6.0864678200000002 2.6076728899999999 Au
atom 6.2040432399999998 6.0954868099999997 2.5438363700000002 Au
atom 7.6137186000000003 8.5648297499999995 2.4711900600000001 Au
atom 10.4260310700000005 8.5582875900000008 2.4992124200000001 Au
atom 13.2502553400000007 8.5798631000000007 2.5692683299999999 Au
atom 16.0760186300000001 8.5625473400000001 2.5328680299999999 Au
atom 18.8970310999999995 8.5795720299999996 2.5278253700000000 Au
atom 21.7166262900000007 8.5624321499999994 2.4992944700000002 Au
atom 24.5366224300000013 8.5773635299999995 2.5114396499999998 Au
atom 27.3551321300000012 8.5622684499999995 2.4825101900000002 Au
atom 1.9779970899999999 8.5776988000000003 2.5419828400000002 Au
atom 4.8030014999999997 8.5545587699999999 2.5368427599999999 Au
atom 9.0133194000000003 11.0479677100000000 2.5208983599999999 Au
atom 11.8432354199999992 11.0508254299999997 2.5519023100000000 Au
atom 14.6598448300000008 11.0507116799999991 2.5463482000000002 Au
atom 17.4896131900000000 11.0513953399999991 2.5207862599999999 Au
atom 20.3059010300000011 11.0498302000000006 2.5040204300000002 Au
atom 23.1254656199999999 11.0477322999999998 2.4942113699999999 Au
atom 25.9423108999999990 11.0500203100000007 2.4954139600000000 Au
atom 0.5675467400000000 11.0462158299999995 2.5322477900000000 Au
atom 3.3824238599999998 11.0468409399999992 2.5543092700000001 Au
atom 6.2129777199999996 11.0468340499999993 2.5212938399999998 Au
atom 7.6419732800000002 12.9606158699999998 5.1672015199999999 Cl
atom 7.6104767500000001 15.8194573399999996 8.3054143299999996 Cl
atom 7.6119966000000003 13.0125929700000000 8.5381107200000006 Na
atom 7.6075126500000003 15.7831213800000008 5.5290128699999999 Na
atom 7.6043940399999999 18.6713242400000006 5.5330244799999999 Cl
atom 7.6067518200000004 21.4506036299999998 8.3429325700000003 Cl
atom 7.6003741199999997 18.6371280299999995 8.0235597300000006 Na
atom 7.6077684500000000 21.5074021399999999 5.5799361200000002 Na
atom 7.6116021199999997 24.3044490700000004 5.7617218000000001 Cl
atom 7.5637412199999998 27.0845351799999996 8.4479068700000006 Cl
atom 7.5960489000000004 24.2661258000000011 8.0287842200000004 Na
atom 7.5837954300000003 27.0857755199999986 5.6816943799999997 Na
atom 7.5283198599999999 29.9086382600000000 5.2866311000000001 Cl
atom 7.5423516399999997 32.8105583099999976 8.3811294200000006 Cl
atom 7.5459697600000002 29.9418646300000013 8.5242370199999993 Na
atom 7.5622327199999999 32.7635320999999990 5.6166639199999997 Na
atom 7.5926094800000001 35.6092718499999989 5.4420187899999997 Cl
atom 7.6086720300000001 38.3993408999999986 8.3876589900000003 Cl
atom 7.5694228099999998 35.6391610000000014 8.2183281600000004 Na
atom 7.6232451000000001 38.4177046699999991 5.6273945699999999 Na
atom 7.6580661699999997 1.7972250999999999 6.0746749700000002 Cl
atom 8.4338078000000003 4.1096522300000000 8.3911684500000003 Cl
atom 7.6624264200000001 1.7326898600000000 7.8571360600000002 Na
atom 7.6744172700000002 4.7200338899999998 5.8881511900000003 Na
atom 7.7580074100000003 7.3507003800000001 5.1865841200000000 Cl
atom 7.7102124999999999 10.2807376799999997 8.4184637999999996 Cl
atom 8.3871263799999998 6.8028212300000002 9.6234402499999998 Na
atom 7.6667957700000002 10.0480187399999998 5.7097429100000001 Na
atom 10.4364702200000004 12.9569361900000004 5.6353959500000004 Na
atom 13.2717560100000007 12.9912557700000004 5.5453026899999998 Cl
atom 10.4118908000000001 15.8545106800000006 7.7682448600000003 Na
atom 13.2403043500000006 15.8867758200000004 8.2893353300000001 Cl
atom 13.2679309900000000 13.0480633699999995 8.2641348499999996 Na
atom 10.4811618800000002 13.0879438100000005 8.3809007599999994 Cl
atom 13.2489895799999999 15.8256505599999997 5.5207259000000004 Na
atom 10.4270116799999997 15.8230436500000007 5.7786863899999998 Cl
atom 10.4240391599999995 18.6817041400000008 5.5364931799999999 Na
atom 13.2506845900000005 18.6954221499999989 5.1811849299999997 Cl
atom 10.4284133000000008 21.4615230299999986 8.1264316999999995 Na
atom 13.2906094499999998 21.4502947000000006 8.3447539200000005 Cl
atom 13.2555067500000003 18.6628657199999992 8.3396933900000008 Na
atom 10.4204479800000005 18.6511681500000002 8.2833212100000004 Cl
atom 13.2773537699999995 21.5410723600000011 5.5916834299999998 Na
atom 10.4482480500000001 21.5328571599999989 5.5321823999999999 Cl
atom 10.4637075900000003 24.3340291700000009 5.6813253899999996 Na
atom 13.2938098999999994 24.3503122800000007 5.7456575299999999 Cl
atom 10.3828234399999992 27.1409795500000008 8.3276030799999994 Na
atom 13.1095977900000005 27.1101713699999998 8.4556402800000008 Cl
atom 13.3213645199999995 24.3515080200000007 8.2075800700000006 Na
atom 10.4314878300000000 24.2513779900000017 8.4429810399999994 Cl
atom 13.3063185799999992 27.1729601299999999 5.7601121500000003 Na
atom 10.3583900900000003 27.0853278800000012 5.5613599799999998 Cl
atom 10.3229564200000006 29.9303333599999988 5.6863327400000001 Na
atom 13.0237418700000003 29.9557684500000008 5.4908455700000003 Cl
atom 10.3510433499999994 32.7954066599999976 7.7746377300000002 Na
atom 13.1294350000000009 32.7842712599999970 8.3948288699999996 Cl
atom 12.7400732399999992 29.9938368500000010 8.1983750600000000 Na
atom 10.2621646399999999 29.9623298899999995 8.4132161199999995 Cl
atom 13.2449581300000006 32.7481539999999995 5.6968864100000003 Na
atom 10.3501462100000001 32.7834064299999994 5.9454536500000001 Cl
atom 10.4423305499999994 35.5721797400000028 5.5617764599999999 Na
atom 13.2718596299999998 35.5746618000000012 5.2715641700000004 Cl
atom 10.4660108800000007 38.3821656599999983 8.0307948600000003 Na
atom 13.3026439599999993 38.3606182999999987 8.3730834200000004 Cl
atom 13.2655215500000008 35.5141309799999974 8.4429566999999999 Na
atom 10.3939756499999998 35.6197840499999998 8.3340180999999998 Cl
atom 13.2844396099999997 38.4121295799999984 5.5990877000000001 Na
atom 10.4566212200000006 38.4139283800000015 5.6287014400000004 Cl
atom 10.4881548500000008 1.7122875200000001 5.6178750199999996 Na
atom 13.3131746999999994 1.7521696400000000 5.4479899600000001 Cl
atom 10.1919131899999993 4.3064070900000004 7.9998950500000001 Na
atom 13.5823882000000005 4.5136511099999996 8.4735374799999992 Cl
atom 13.3776831200000004 1.6533968800000001 8.3441364000000000 Na
atom 10.5547853200000006 1.6292727700000000 8.4107672400000002 Cl
atom 13.3520014000000007 4.5781086699999998 5.6680184300000001 Na
atom 10.5161884000000008 4.5069121100000000 5.8107070500000004 Cl
atom 10.4640263299999994 7.3238036099999997 5.7656438699999999 Na
atom 13.3102471999999992 7.3838305599999998 5.6522378199999999 Cl
atom 10.4647302399999997 10.1724593500000005 8.3190269299999997 Na
atom 13.3164921700000001 10.2166271599999998 8.4339769400000009 Cl
atom 13.3386686399999999 7.3567776800000004 8.2273125500000006 Na
atom 10.5243634900000007 7.2894142700000000 8.5209890999999995 Cl
atom 13.2927402699999995 10.1859079599999998 5.6612210300000001 Na
atom 10.5091468100000007 10.1414161299999996 5.5796818500000001 Cl
atom 16.0739735699999997 12.9895439499999998 5.6210925800000000 Na
atom 18.8860067500000000 12.9901564000000000 5.5266106600000002 Cl
atom 16.0839094100000004 15.8601361199999999 7.9126890799999998 Na
atom 18.8951148400000015 15.8558875700000002 8.2835937299999998 Cl
atom 18.9011793899999994 13.0578231000000002 8.1435316699999998 Na
atom 16.0757251200000013 13.0621154399999995 8.3954204699999995 Cl
atom 18.9004762799999995 15.8268244399999993 5.5119202400000002 Na
atom 16.0759407000000003 15.8219506600000006 5.6246600100000004 Cl
atom 16.0776257200000003 18.6937284900000016 5.5403667099999998 Na
atom 18.8998071799999998 18.6681371499999997 5.5126593599999998 Cl
atom 16.1028215199999991 21.4822072300000002 8.0905571500000004 Na
atom 18.9195832499999987 21.4059340700000007 8.3458851500000009 Cl
atom 18.8954197899999983 18.6338076500000014 8.0271317100000008 Na
atom 16.0818084200000015 18.6500879799999986 8.2804804399999998 Cl
atom 18.9020666999999989 21.4936115500000007 5.5597598599999998 Na
atom 16.0888691500000007 21.5331898200000005 5.6000402100000004 Cl
atom 16.1484163999999986 24.4391610300000011 5.7512492000000002 Na
atom 18.9551352599999987 24.3100076099999995 5.3204702599999996 Cl
atom 16.3450315999999987 27.7018092500000002 8.4582111100000006 Na
atom 19.1734843999999995 27.0479659800000007 8.4398467299999993 Cl
atom 19.0123261399999990 24.2753945000000009 8.4538157599999995 Na
atom 16.1435355399999985 24.3004261700000015 8.4433884399999997 Cl
atom 18.9972784899999994 27.2542095099999990 5.7133196899999996 Na
atom 16.1961994699999998 27.1690302899999985 5.7751938400000000 Cl
atom 16.1105691200000010 29.9282447100000013 5.5889904200000000 Na
atom 18.9851825699999992 29.9696290699999999 4.9265007499999998 Cl
atom 16.2623061799999995 32.0414415700000035 8.2888630200000009 Na
atom 19.1713714300000007 32.9241130500000025 8.4498196500000002 Cl
atom 20.0865912000000009 30.2774743000000015 10.1731625599999997 Na
atom 15.8978848500000005 30.3333492599999985 7.9329434900000004 Cl
atom 18.9683096900000017 32.6939463699999990 5.6705846199999996 Na
atom 16.1091420700000008 32.7511275700000013 5.6806562800000000 Cl
atom 16.0927952699999999 35.5511557800000020 5.6787063299999998 Na
atom 18.9166014300000001 35.6700448200000011 5.5350211299999996 Cl
atom 16.0966136999999989 38.3764558800000017 7.9714696700000003 Na
atom 18.9134076799999988 38.4414469700000012 8.4081161099999999 Cl
atom 18.9535309100000013 35.5896704800000023 8.1082248200000002 Na
atom 16.1058284600000015 35.5549516800000021 8.3936869499999993 Cl