# 
# This is the geometry file that corresponds to the current relaxation step.
# If you do not want this file to be written, set the "write_restart_geometry" flag to .false.
#  aims_uuid : EA62AAF2-BC10-4E25-A9C8-F99918C3F750                                
# 
  set_vacuum_level        37.199707
lattice_vector     31.71939599      0.00000000      0.00000000
lattice_vector      0.00000000     29.96705751      0.00000000
lattice_vector      0.00000000      0.00000000     67.06330319
atom      16.92357034     12.12959755      0.00000000 Au
  constrain_relaxation .true.
atom      19.80715179     12.12959755      0.00000000 Au
  constrain_relaxation .true.
atom      22.69073325     12.12959755      0.00000000 Au
  constrain_relaxation .true.
atom      25.57431470     12.12959755      0.00000000 Au
  constrain_relaxation .true.
atom      28.45789615     12.12959755      0.00000000 Au
  constrain_relaxation .true.
atom      31.34147761     12.12959755      0.00000000 Au
  constrain_relaxation .true.
atom       2.50566307     12.12959755      0.00000000 Au
  constrain_relaxation .true.
atom       5.38924453     12.12959755      0.00000000 Au
  constrain_relaxation .true.
atom       8.27282599     12.12959755      0.00000000 Au
  constrain_relaxation .true.
atom      11.15640744     12.12959755      0.00000000 Au
  constrain_relaxation .true.
atom      14.03998890     12.12959755      0.00000000 Au
  constrain_relaxation .true.
atom      18.36536107     14.62685234      0.00000000 Au
  constrain_relaxation .true.
atom      21.24894252     14.62685234      0.00000000 Au
  constrain_relaxation .true.
atom      24.13252397     14.62685234      0.00000000 Au
  constrain_relaxation .true.
atom      27.01610543     14.62685234      0.00000000 Au
  constrain_relaxation .true.
atom      29.89968688     14.62685234      0.00000000 Au
  constrain_relaxation .true.
atom       1.06387235     14.62685234      0.00000000 Au
  constrain_relaxation .true.
atom       3.94745380     14.62685234      0.00000000 Au
  constrain_relaxation .true.
atom       6.83103526     14.62685234      0.00000000 Au
  constrain_relaxation .true.
atom       9.71461672     14.62685234      0.00000000 Au
  constrain_relaxation .true.
atom      12.59819816     14.62685234      0.00000000 Au
  constrain_relaxation .true.
atom      15.48177961     14.62685234      0.00000000 Au
  constrain_relaxation .true.
atom      16.92357034     17.12410714      0.00000000 Au
  constrain_relaxation .true.
atom      19.80715179     17.12410714      0.00000000 Au
  constrain_relaxation .true.
atom      22.69073325     17.12410714      0.00000000 Au
  constrain_relaxation .true.
atom      25.57431470     17.12410714      0.00000000 Au
  constrain_relaxation .true.
atom      28.45789615     17.12410714      0.00000000 Au
  constrain_relaxation .true.
atom      31.34147761     17.12410714      0.00000000 Au
  constrain_relaxation .true.
atom       2.50566307     17.12410714      0.00000000 Au
  constrain_relaxation .true.
atom       5.38924453     17.12410714      0.00000000 Au
  constrain_relaxation .true.
atom       8.27282599     17.12410714      0.00000000 Au
  constrain_relaxation .true.
atom      11.15640744     17.12410714      0.00000000 Au
  constrain_relaxation .true.
atom      14.03998890     17.12410714      0.00000000 Au
  constrain_relaxation .true.
atom      18.36536107     19.62136193      0.00000000 Au
  constrain_relaxation .true.
atom      21.24894252     19.62136193      0.00000000 Au
  constrain_relaxation .true.
atom      24.13252397     19.62136193      0.00000000 Au
  constrain_relaxation .true.
atom      27.01610543     19.62136193      0.00000000 Au
  constrain_relaxation .true.
atom      29.89968688     19.62136193      0.00000000 Au
  constrain_relaxation .true.
atom       1.06387235     19.62136193      0.00000000 Au
  constrain_relaxation .true.
atom       3.94745380     19.62136193      0.00000000 Au
  constrain_relaxation .true.
atom       6.83103526     19.62136193      0.00000000 Au
  constrain_relaxation .true.
atom       9.71461672     19.62136193      0.00000000 Au
  constrain_relaxation .true.
atom      12.59819816     19.62136193      0.00000000 Au
  constrain_relaxation .true.
atom      15.48177961     19.62136193      0.00000000 Au
  constrain_relaxation .true.
atom      16.92357034     22.11861672      0.00000000 Au
  constrain_relaxation .true.
atom      19.80715179     22.11861672      0.00000000 Au
  constrain_relaxation .true.
atom      22.69073325     22.11861672      0.00000000 Au
  constrain_relaxation .true.
atom      25.57431470     22.11861672      0.00000000 Au
  constrain_relaxation .true.
atom      28.45789615     22.11861672      0.00000000 Au
  constrain_relaxation .true.
atom      31.34147761     22.11861672      0.00000000 Au
  constrain_relaxation .true.
atom       2.50566307     22.11861672      0.00000000 Au
  constrain_relaxation .true.
atom       5.38924453     22.11861672      0.00000000 Au
  constrain_relaxation .true.
atom       8.27282599     22.11861672      0.00000000 Au
  constrain_relaxation .true.
atom      11.15640744     22.11861672      0.00000000 Au
  constrain_relaxation .true.
atom      14.03998890     22.11861672      0.00000000 Au
  constrain_relaxation .true.
atom      18.36536107     24.61587152      0.00000000 Au
  constrain_relaxation .true.
atom      21.24894252     24.61587152      0.00000000 Au
  constrain_relaxation .true.
atom      24.13252397     24.61587152      0.00000000 Au
  constrain_relaxation .true.
atom      27.01610543     24.61587152      0.00000000 Au
  constrain_relaxation .true.
atom      29.89968688     24.61587152      0.00000000 Au
  constrain_relaxation .true.
atom       1.06387235     24.61587152      0.00000000 Au
  constrain_relaxation .true.
atom       3.94745380     24.61587152      0.00000000 Au
  constrain_relaxation .true.
atom       6.83103526     24.61587152      0.00000000 Au
  constrain_relaxation .true.
atom       9.71461672     24.61587152      0.00000000 Au
  constrain_relaxation .true.
atom      12.59819816     24.61587152      0.00000000 Au
  constrain_relaxation .true.
atom      15.48177961     24.61587152      0.00000000 Au
  constrain_relaxation .true.
atom      16.92357034     27.11312631      0.00000000 Au
  constrain_relaxation .true.
atom      19.80715179     27.11312631      0.00000000 Au
  constrain_relaxation .true.
atom      22.69073325     27.11312631      0.00000000 Au
  constrain_relaxation .true.
atom      25.57431470     27.11312631      0.00000000 Au
  constrain_relaxation .true.
atom      28.45789615     27.11312631      0.00000000 Au
  constrain_relaxation .true.
atom      31.34147761     27.11312631      0.00000000 Au
  constrain_relaxation .true.
atom       2.50566307     27.11312631      0.00000000 Au
  constrain_relaxation .true.
atom       5.38924453     27.11312631      0.00000000 Au
  constrain_relaxation .true.
atom       8.27282599     27.11312631      0.00000000 Au
  constrain_relaxation .true.
atom      11.15640744     27.11312631      0.00000000 Au
  constrain_relaxation .true.
atom      14.03998890     27.11312631      0.00000000 Au
  constrain_relaxation .true.
atom      18.36536107     29.61038110      0.00000000 Au
  constrain_relaxation .true.
atom      21.24894252     29.61038110      0.00000000 Au
  constrain_relaxation .true.
atom      24.13252397     29.61038110      0.00000000 Au
  constrain_relaxation .true.
atom      27.01610543     29.61038110      0.00000000 Au
  constrain_relaxation .true.
atom      29.89968688     29.61038110      0.00000000 Au
  constrain_relaxation .true.
atom       1.06387235     29.61038110      0.00000000 Au
  constrain_relaxation .true.
atom       3.94745380     29.61038110      0.00000000 Au
  constrain_relaxation .true.
atom       6.83103526     29.61038110      0.00000000 Au
  constrain_relaxation .true.
atom       9.71461672     29.61038110      0.00000000 Au
  constrain_relaxation .true.
atom      12.59819816     29.61038110      0.00000000 Au
  constrain_relaxation .true.
atom      15.48177961     29.61038110      0.00000000 Au
  constrain_relaxation .true.
atom      16.92357034      2.14057839      0.00000000 Au
  constrain_relaxation .true.
atom      19.80715179      2.14057839      0.00000000 Au
  constrain_relaxation .true.
atom      22.69073325      2.14057839      0.00000000 Au
  constrain_relaxation .true.
atom      25.57431470      2.14057839      0.00000000 Au
  constrain_relaxation .true.
atom      28.45789615      2.14057839      0.00000000 Au
  constrain_relaxation .true.
atom      31.34147761      2.14057839      0.00000000 Au
  constrain_relaxation .true.
atom       2.50566307      2.14057839      0.00000000 Au
  constrain_relaxation .true.
atom       5.38924453      2.14057839      0.00000000 Au
  constrain_relaxation .true.
atom       8.27282599      2.14057839      0.00000000 Au
  constrain_relaxation .true.
atom      11.15640744      2.14057839      0.00000000 Au
  constrain_relaxation .true.
atom      14.03998890      2.14057839      0.00000000 Au
  constrain_relaxation .true.
atom      18.36536107      4.63783318      0.00000000 Au
  constrain_relaxation .true.
atom      21.24894252      4.63783318      0.00000000 Au
  constrain_relaxation .true.
atom      24.13252397      4.63783318      0.00000000 Au
  constrain_relaxation .true.
atom      27.01610543      4.63783318      0.00000000 Au
  constrain_relaxation .true.
atom      29.89968688      4.63783318      0.00000000 Au
  constrain_relaxation .true.
atom       1.06387235      4.63783318      0.00000000 Au
  constrain_relaxation .true.
atom       3.94745380      4.63783318      0.00000000 Au
  constrain_relaxation .true.
atom       6.83103526      4.63783318      0.00000000 Au
  constrain_relaxation .true.
atom       9.71461672      4.63783318      0.00000000 Au
  constrain_relaxation .true.
atom      12.59819816      4.63783318      0.00000000 Au
  constrain_relaxation .true.
atom      15.48177961      4.63783318      0.00000000 Au
  constrain_relaxation .true.
atom      16.92357034      7.13508798      0.00000000 Au
  constrain_relaxation .true.
atom      19.80715179      7.13508798      0.00000000 Au
  constrain_relaxation .true.
atom      22.69073325      7.13508798      0.00000000 Au
  constrain_relaxation .true.
atom      25.57431470      7.13508798      0.00000000 Au
  constrain_relaxation .true.
atom      28.45789615      7.13508798      0.00000000 Au
  constrain_relaxation .true.
atom      31.34147761      7.13508798      0.00000000 Au
  constrain_relaxation .true.
atom       2.50566307      7.13508798      0.00000000 Au
  constrain_relaxation .true.
atom       5.38924453      7.13508798      0.00000000 Au
  constrain_relaxation .true.
atom       8.27282599      7.13508798      0.00000000 Au
  constrain_relaxation .true.
atom      11.15640744      7.13508798      0.00000000 Au
  constrain_relaxation .true.
atom      14.03998890      7.13508798      0.00000000 Au
  constrain_relaxation .true.
atom      18.36536107      9.63234276      0.00000000 Au
  constrain_relaxation .true.
atom      21.24894252      9.63234276      0.00000000 Au
  constrain_relaxation .true.
atom      24.13252397      9.63234276      0.00000000 Au
  constrain_relaxation .true.
atom      27.01610543      9.63234276      0.00000000 Au
  constrain_relaxation .true.
atom      29.89968688      9.63234276      0.00000000 Au
  constrain_relaxation .true.
atom       1.06387235      9.63234276      0.00000000 Au
  constrain_relaxation .true.
atom       3.94745380      9.63234276      0.00000000 Au
  constrain_relaxation .true.
atom       6.83103526      9.63234276      0.00000000 Au
  constrain_relaxation .true.
atom       9.71461672      9.63234276      0.00000000 Au
  constrain_relaxation .true.
atom      12.59819816      9.63234276      0.00000000 Au
  constrain_relaxation .true.
atom      15.48177961      9.63234276      0.00000000 Au
  constrain_relaxation .true.
atom      18.36536107     12.96201581      2.35443440 Au
  constrain_relaxation .true.
atom      21.24894252     12.96201581      2.35443440 Au
  constrain_relaxation .true.
atom      24.13252397     12.96201581      2.35443440 Au
  constrain_relaxation .true.
atom      27.01610543     12.96201581      2.35443440 Au
  constrain_relaxation .true.
atom      29.89968688     12.96201581      2.35443440 Au
  constrain_relaxation .true.
atom       1.06387235     12.96201581      2.35443440 Au
  constrain_relaxation .true.
atom       3.94745380     12.96201581      2.35443440 Au
  constrain_relaxation .true.
atom       6.83103526     12.96201581      2.35443440 Au
  constrain_relaxation .true.
atom       9.71461672     12.96201581      2.35443440 Au
  constrain_relaxation .true.
atom      12.59819816     12.96201581      2.35443440 Au
  constrain_relaxation .true.
atom      15.48177961     12.96201581      2.35443440 Au
  constrain_relaxation .true.
atom      16.92357034     15.45927061      2.35443440 Au
  constrain_relaxation .true.
atom      19.80715179     15.45927061      2.35443440 Au
  constrain_relaxation .true.
atom      22.69073325     15.45927061      2.35443440 Au
  constrain_relaxation .true.
atom      25.57431470     15.45927061      2.35443440 Au
  constrain_relaxation .true.
atom      28.45789615     15.45927061      2.35443440 Au
  constrain_relaxation .true.
atom      31.34147761     15.45927061      2.35443440 Au
  constrain_relaxation .true.
atom       2.50566307     15.45927061      2.35443440 Au
  constrain_relaxation .true.
atom       5.38924453     15.45927061      2.35443440 Au
  constrain_relaxation .true.
atom       8.27282599     15.45927061      2.35443440 Au
  constrain_relaxation .true.
atom      11.15640744     15.45927061      2.35443440 Au
  constrain_relaxation .true.
atom      14.03998890     15.45927061      2.35443440 Au
  constrain_relaxation .true.
atom      18.36536107     17.95652540      2.35443440 Au
  constrain_relaxation .true.
atom      21.24894252     17.95652540      2.35443440 Au
  constrain_relaxation .true.
atom      24.13252397     17.95652540      2.35443440 Au
  constrain_relaxation .true.
atom      27.01610543     17.95652540      2.35443440 Au
  constrain_relaxation .true.
atom      29.89968688     17.95652540      2.35443440 Au
  constrain_relaxation .true.
atom       1.06387235     17.95652540      2.35443440 Au
  constrain_relaxation .true.
atom       3.94745380     17.95652540      2.35443440 Au
  constrain_relaxation .true.
atom       6.83103526     17.95652540      2.35443440 Au
  constrain_relaxation .true.
atom       9.71461672     17.95652540      2.35443440 Au
  constrain_relaxation .true.
atom      12.59819816     17.95652540      2.35443440 Au
  constrain_relaxation .true.
atom      15.48177961     17.95652540      2.35443440 Au
  constrain_relaxation .true.
atom      16.92357034     20.45378019      2.35443440 Au
  constrain_relaxation .true.
atom      19.80715179     20.45378019      2.35443440 Au
  constrain_relaxation .true.
atom      22.69073325     20.45378019      2.35443440 Au
  constrain_relaxation .true.
atom      25.57431470     20.45378019      2.35443440 Au
  constrain_relaxation .true.
atom      28.45789615     20.45378019      2.35443440 Au
  constrain_relaxation .true.
atom      31.34147761     20.45378019      2.35443440 Au
  constrain_relaxation .true.
atom       2.50566307     20.45378019      2.35443440 Au
  constrain_relaxation .true.
atom       5.38924453     20.45378019      2.35443440 Au
  constrain_relaxation .true.
atom       8.27282599     20.45378019      2.35443440 Au
  constrain_relaxation .true.
atom      11.15640744     20.45378019      2.35443440 Au
  constrain_relaxation .true.
atom      14.03998890     20.45378019      2.35443440 Au
  constrain_relaxation .true.
atom      18.36536107     22.95103499      2.35443440 Au
  constrain_relaxation .true.
atom      21.24894252     22.95103499      2.35443440 Au
  constrain_relaxation .true.
atom      24.13252397     22.95103499      2.35443440 Au
  constrain_relaxation .true.
atom      27.01610543     22.95103499      2.35443440 Au
  constrain_relaxation .true.
atom      29.89968688     22.95103499      2.35443440 Au
  constrain_relaxation .true.
atom       1.06387235     22.95103499      2.35443440 Au
  constrain_relaxation .true.
atom       3.94745380     22.95103499      2.35443440 Au
  constrain_relaxation .true.
atom       6.83103526     22.95103499      2.35443440 Au
  constrain_relaxation .true.
atom       9.71461672     22.95103499      2.35443440 Au
  constrain_relaxation .true.
atom      12.59819816     22.95103499      2.35443440 Au
  constrain_relaxation .true.
atom      15.48177961     22.95103499      2.35443440 Au
  constrain_relaxation .true.
atom      16.92357034     25.44828978      2.35443440 Au
  constrain_relaxation .true.
atom      19.80715179     25.44828978      2.35443440 Au
  constrain_relaxation .true.
atom      22.69073325     25.44828978      2.35443440 Au
  constrain_relaxation .true.
atom      25.57431470     25.44828978      2.35443440 Au
  constrain_relaxation .true.
atom      28.45789615     25.44828978      2.35443440 Au
  constrain_relaxation .true.
atom      31.34147761     25.44828978      2.35443440 Au
  constrain_relaxation .true.
atom       2.50566307     25.44828978      2.35443440 Au
  constrain_relaxation .true.
atom       5.38924453     25.44828978      2.35443440 Au
  constrain_relaxation .true.
atom       8.27282599     25.44828978      2.35443440 Au
  constrain_relaxation .true.
atom      11.15640744     25.44828978      2.35443440 Au
  constrain_relaxation .true.
atom      14.03998890     25.44828978      2.35443440 Au
  constrain_relaxation .true.
atom      18.36536107     27.94554457      2.35443440 Au
  constrain_relaxation .true.
atom      21.24894252     27.94554457      2.35443440 Au
  constrain_relaxation .true.
atom      24.13252397     27.94554457      2.35443440 Au
  constrain_relaxation .true.
atom      27.01610543     27.94554457      2.35443440 Au
  constrain_relaxation .true.
atom      29.89968688     27.94554457      2.35443440 Au
  constrain_relaxation .true.
atom       1.06387235     27.94554457      2.35443440 Au
  constrain_relaxation .true.
atom       3.94745380     27.94554457      2.35443440 Au
  constrain_relaxation .true.
atom       6.83103526     27.94554457      2.35443440 Au
  constrain_relaxation .true.
atom       9.71461672     27.94554457      2.35443440 Au
  constrain_relaxation .true.
atom      12.59819816     27.94554457      2.35443440 Au
  constrain_relaxation .true.
atom      15.48177961     27.94554457      2.35443440 Au
  constrain_relaxation .true.
atom      16.92357034      0.47574186      2.35443440 Au
  constrain_relaxation .true.
atom      19.80715179      0.47574186      2.35443440 Au
  constrain_relaxation .true.
atom      22.69073325      0.47574186      2.35443440 Au
  constrain_relaxation .true.
atom      25.57431470      0.47574186      2.35443440 Au
  constrain_relaxation .true.
atom      28.45789615      0.47574186      2.35443440 Au
  constrain_relaxation .true.
atom      31.34147761      0.47574186      2.35443440 Au
  constrain_relaxation .true.
atom       2.50566307      0.47574186      2.35443440 Au
  constrain_relaxation .true.
atom       5.38924453      0.47574186      2.35443440 Au
  constrain_relaxation .true.
atom       8.27282599      0.47574186      2.35443440 Au
  constrain_relaxation .true.
atom      11.15640744      0.47574186      2.35443440 Au
  constrain_relaxation .true.
atom      14.03998890      0.47574186      2.35443440 Au
  constrain_relaxation .true.
atom      18.36536107      2.97299666      2.35443440 Au
  constrain_relaxation .true.
atom      21.24894252      2.97299666      2.35443440 Au
  constrain_relaxation .true.
atom      24.13252397      2.97299666      2.35443440 Au
  constrain_relaxation .true.
atom      27.01610543      2.97299666      2.35443440 Au
  constrain_relaxation .true.
atom      29.89968688      2.97299666      2.35443440 Au
  constrain_relaxation .true.
atom       1.06387235      2.97299666      2.35443440 Au
  constrain_relaxation .true.
atom       3.94745380      2.97299666      2.35443440 Au
  constrain_relaxation .true.
atom       6.83103526      2.97299666      2.35443440 Au
  constrain_relaxation .true.
atom       9.71461672      2.97299666      2.35443440 Au
  constrain_relaxation .true.
atom      12.59819816      2.97299666      2.35443440 Au
  constrain_relaxation .true.
atom      15.48177961      2.97299666      2.35443440 Au
  constrain_relaxation .true.
atom      16.92357034      5.47025144      2.35443440 Au
  constrain_relaxation .true.
atom      19.80715179      5.47025144      2.35443440 Au
  constrain_relaxation .true.
atom      22.69073325      5.47025144      2.35443440 Au
  constrain_relaxation .true.
atom      25.57431470      5.47025144      2.35443440 Au
  constrain_relaxation .true.
atom      28.45789615      5.47025144      2.35443440 Au
  constrain_relaxation .true.
atom      31.34147761      5.47025144      2.35443440 Au
  constrain_relaxation .true.
atom       2.50566307      5.47025144      2.35443440 Au
  constrain_relaxation .true.
atom       5.38924453      5.47025144      2.35443440 Au
  constrain_relaxation .true.
atom       8.27282599      5.47025144      2.35443440 Au
  constrain_relaxation .true.
atom      11.15640744      5.47025144      2.35443440 Au
  constrain_relaxation .true.
atom      14.03998890      5.47025144      2.35443440 Au
  constrain_relaxation .true.
atom      18.36536107      7.96750623      2.35443440 Au
  constrain_relaxation .true.
atom      21.24894252      7.96750623      2.35443440 Au
  constrain_relaxation .true.
atom      24.13252397      7.96750623      2.35443440 Au
  constrain_relaxation .true.
atom      27.01610543      7.96750623      2.35443440 Au
  constrain_relaxation .true.
atom      29.89968688      7.96750623      2.35443440 Au
  constrain_relaxation .true.
atom       1.06387235      7.96750623      2.35443440 Au
  constrain_relaxation .true.
atom       3.94745380      7.96750623      2.35443440 Au
  constrain_relaxation .true.
atom       6.83103526      7.96750623      2.35443440 Au
  constrain_relaxation .true.
atom       9.71461672      7.96750623      2.35443440 Au
  constrain_relaxation .true.
atom      12.59819816      7.96750623      2.35443440 Au
  constrain_relaxation .true.
atom      15.48177961      7.96750623      2.35443440 Au
  constrain_relaxation .true.
atom      16.92357034     10.46476102      2.35443440 Au
  constrain_relaxation .true.
atom      19.80715179     10.46476102      2.35443440 Au
  constrain_relaxation .true.
atom      22.69073325     10.46476102      2.35443440 Au
  constrain_relaxation .true.
atom      25.57431470     10.46476102      2.35443440 Au
  constrain_relaxation .true.
atom      28.45789615     10.46476102      2.35443440 Au
  constrain_relaxation .true.
atom      31.34147761     10.46476102      2.35443440 Au
  constrain_relaxation .true.
atom       2.50566307     10.46476102      2.35443440 Au
  constrain_relaxation .true.
atom       5.38924453     10.46476102      2.35443440 Au
  constrain_relaxation .true.
atom       8.27282599     10.46476102      2.35443440 Au
  constrain_relaxation .true.
atom      11.15640744     10.46476102      2.35443440 Au
  constrain_relaxation .true.
atom      14.03998890     10.46476102      2.35443440 Au
  constrain_relaxation .true.
atom      16.92418814     13.82263538      4.80987925 Au
atom      19.80738668     13.82212650      4.81012773 Au
atom      22.69159315     13.82235313      4.80988459 Au
atom      25.57459147     13.82209857      4.81008114 Au
atom      28.45836844     13.82242328      4.81050949 Au
atom      31.34184569     13.82229776      4.81052499 Au
atom       2.50586283     13.82249039      4.81055986 Au
atom       5.38958061     13.82259934      4.81060359 Au
atom       8.27286483     13.82255678      4.81047231 Au
atom      11.15701510     13.82292334      4.81042249 Au
atom      14.04022510     13.82259892      4.81031140 Au
atom      18.36584675     16.31990788      4.80993876 Au
atom      21.24944589     16.31986249      4.81055160 Au
atom      24.13292020     16.31966221      4.81017034 Au
atom      27.01654651     16.31984503      4.81058584 Au
atom      29.90003284     16.31993818      4.81049863 Au
atom       1.06408185     16.31969650      4.81052020 Au
atom       3.94775617     16.31978949      4.81053279 Au
atom       6.83098254     16.31988456      4.81053538 Au
atom       9.71518718     16.32004424      4.81045257 Au
atom      12.59819926     16.32011141      4.81005214 Au
atom      15.48240027     16.32000685      4.81029834 Au
atom      16.92396726     18.81748872      4.81033025 Au
atom      19.80756191     18.81761408      4.81042961 Au
atom      22.69095491     18.81733789      4.81009944 Au
atom      25.57489174     18.81737185      4.81028825 Au
atom      28.45821624     18.81701276      4.81055982 Au
atom      31.34160432     18.81696923      4.81056845 Au
atom       2.50592645     18.81700043      4.81056249 Au
atom       5.38935030     18.81684884      4.81052180 Au
atom       8.27292185     18.81733456      4.81049577 Au
atom      11.15668205     18.81731702      4.81045947 Au
atom      14.04012176     18.81761148      4.81029354 Au
atom      18.36586992     21.31463528      4.81067524 Au
atom      21.24909128     21.31473838      4.81015207 Au
atom      24.13288769     21.31483116      4.81059029 Au
atom      27.01650323     21.31449590      4.81054020 Au
atom      29.89988822     21.31438608      4.81053059 Au
atom       1.06419168     21.31421019      4.81060022 Au
atom       3.94753084     21.31426695      4.81061529 Au
atom       6.83124794     21.31446534      4.81054582 Au
atom       9.71456696     21.31443590      4.81049412 Au
atom      12.59838326     21.31476943      4.81026963 Au
atom      15.48174163     21.31492121      4.80997446 Au
atom      16.92356025     23.81217010      4.81056324 Au
atom      19.80733925     23.81210826      4.81055040 Au
atom      22.69113867     23.81183684      4.81046958 Au
atom      25.57472270     23.81183865      4.81052815 Au
atom      28.45822022     23.81132330      4.81056841 Au
atom      31.34180560     23.81148363      4.81054318 Au
atom       2.50594163     23.81141598      4.81056873 Au
atom       5.38940131     23.81154809      4.81056367 Au
atom       8.27258940     23.81170224      4.81052282 Au
atom      11.15651140     23.81181344      4.81045607 Au
atom      14.03990994     23.81183988      4.81043418 Au
atom      18.36558795     26.30932140      4.81034509 Au
atom      21.24906567     26.30926543      4.81042584 Au
atom      24.13295906     26.30896061      4.81058686 Au
atom      27.01635880     26.30881818      4.81056193 Au
atom      29.90023743     26.30878838      4.81059807 Au
atom       1.06418931     26.30867545      4.81058713 Au
atom       3.94767870     26.30878029      4.81057714 Au
atom       6.83103244     26.30883868      4.81062189 Au
atom       9.71435096     26.30907683      4.81054021 Au
atom      12.59792220     26.30917641      4.81045384 Au
atom      15.48166452     26.30936607      4.81043493 Au
atom      16.92329413     28.80640009      4.81052622 Au
atom      19.80726358     28.80606448      4.81066687 Au
atom      22.69096990     28.80600255      4.81063359 Au
atom      25.57481613     28.80589322      4.81057087 Au
atom      28.45834870     28.80600330      4.81060027 Au
atom      31.34178771     28.80592368      4.81057171 Au
atom       2.50607029     28.80589871      4.81062945 Au
atom       5.38923434     28.80599552      4.81060215 Au
atom       8.27272370     28.80613537      4.81057407 Au
atom      11.15594672     28.80636518      4.81058301 Au
atom      14.04006388     28.80647440      4.81056549 Au
atom      18.36533763      1.33631419      4.81031721 Au
atom      21.24925733      1.33584828      4.81053980 Au
atom      24.13291385      1.33601220      4.81057902 Au
atom      27.01663229      1.33604193      4.81052117 Au
atom      29.90010879      1.33598611      4.81057941 Au
atom       1.06411736      1.33622684      4.81063571 Au
atom       3.94766163      1.33610041      4.81061553 Au
atom       6.83098084      1.33637913      4.81062712 Au
atom       9.71440945      1.33607946      4.81058738 Au
atom      12.59792926      1.33665624      4.81034257 Au
atom      15.48154301      1.33607522      4.81038800 Au
atom      16.92373096      3.83340139      4.81075256 Au
atom      19.80699300      3.83311785      4.81044566 Au
atom      22.69129024      3.83319391      4.81060678 Au
atom      25.57488426      3.83281288      4.81050173 Au
atom      28.45832454      3.83323202      4.81053072 Au
atom      31.34197978      3.83327420      4.81060750 Au
atom       2.50579291      3.83348861      4.81061274 Au
atom       5.38952642      3.83350774      4.81055789 Au
atom       8.27229922      3.83367197      4.81057458 Au
atom      11.15668173      3.83366311      4.81061561 Au
atom      14.03961710      3.83363755      4.81029502 Au
atom      18.36544515      6.33041212      4.81051381 Au
atom      21.24943763      6.32993985      4.81015421 Au
atom      24.13280161      6.33023664      4.81056147 Au
atom      27.01683265      6.33027454      4.81052675 Au
atom      29.89999132      6.33043792      4.81059419 Au
atom       1.06434021      6.33055666      4.81056985 Au
atom       3.94758619      6.33084300      4.81055384 Au
atom       6.83115726      6.33072052      4.81052521 Au
atom       9.71474279      6.33108669      4.81057971 Au
atom      12.59801675      6.33081839      4.80999702 Au
atom      15.48193139      6.33049859      4.81066225 Au
atom      16.92397684      8.82723669      4.80999064 Au
atom      19.80726392      8.82731256      4.81023332 Au
atom      22.69170565      8.82722234      4.80998917 Au
atom      25.57468051      8.82741657      4.81027288 Au