# 
# This is the geometry file that corresponds to the current relaxation step.
# If you do not want this file to be written, set the "write_restart_geometry" flag to .false.
#  aims_uuid : 1ED8308A-8DBF-453B-AAA0-EA9BE8E3230C                                
# 
  set_vacuum_level        35.488892
lattice_vector     28.20000000      0.00000000      0.00000000
lattice_vector      0.00000000     39.48000000      0.00000000
lattice_vector      0.00000000      0.00000000     62.32960834
atom       7.50525276     14.81855607      0.05228644 Au
atom      10.32408900     14.82523004     -0.01630953 Au
atom      13.14627665     14.81836300      0.05258116 Au
atom      15.96478020     14.82464211     -0.01174760 Au
atom      18.78663956     14.81798127      0.05703655 Au
atom      21.60534721     14.82531937     -0.00946606 Au
atom      24.42660417     14.81809299      0.05874906 Au
atom      27.24391083     14.82653604     -0.01054260 Au
atom       1.86600309     14.81817733      0.05607961 Au
atom       4.68486124     14.82642323     -0.01595111 Au
atom       8.91199331     17.28982095      0.03438765 Au
atom      11.73757688     17.28993730      0.03311119 Au
atom      14.55248346     17.28935843      0.03037438 Au
atom      17.37864312     17.28931408      0.03342134 Au
atom      20.19313110     17.28908252      0.03757647 Au
atom      23.01807231     17.28970796      0.03993237 Au
atom      25.83355183     17.28981436      0.04252248 Au
atom       0.45651186     17.29059948      0.04222934 Au
atom       3.27299581     17.29077707      0.04200144 Au
atom       6.09678589     17.29018615      0.04027312 Au
atom       7.50506937     19.76016188      0.11035333 Au
atom      10.32502793     19.76416459      0.05551786 Au
atom      13.14615292     19.76013335      0.09889079 Au
atom      15.96459074     19.76357449      0.04995184 Au
atom      18.78571850     19.75884645      0.10329317 Au
atom      21.60607333     19.76316404      0.05865067 Au
atom      24.42584666     19.75943358      0.11115828 Au
atom      27.24493620     19.76389529      0.06494497 Au
atom       1.86535578     19.76008842      0.11439594 Au
atom       4.68479168     19.76444784      0.06608965 Au
atom       8.91409139     22.22326484      0.08617400 Au
atom      11.73572685     22.22337189      0.07861889 Au
atom      14.55455188     22.22257299      0.07625637 Au
atom      17.37574378     22.22326830      0.07888775 Au
atom      20.19482728     22.22262723      0.08171510 Au
atom      23.01596142     22.22318925      0.08618614 Au
atom      25.83509932     22.22236310      0.08815516 Au
atom       0.45510089     22.22345064      0.08981133 Au
atom       3.27442399     22.22277493      0.09096347 Au
atom       6.09571361     22.22360526      0.08991213 Au
atom       7.50481132     24.69301375      0.09808368 Au
atom      10.32537635     24.69078139      0.10137484 Au
atom      13.14527515     24.69323170      0.09038426 Au
atom      15.96569290     24.69067437      0.09800347 Au
atom      18.78493330     24.69334910      0.09279415 Au
atom      21.60628351     24.69012448      0.10207432 Au
atom      24.42456180     24.69297681      0.09719954 Au
atom      27.24552817     24.68958414      0.10431674 Au
atom       1.86491733     24.69255301      0.09893949 Au
atom       4.68547133     24.69006884      0.10568868 Au
atom       8.91685967     27.15262927      0.06857136 Au
atom      11.73293863     27.15409980      0.06808354 Au
atom      14.55768291     27.15362613      0.06816839 Au
atom      17.37308073     27.15366153      0.06828596 Au
atom      20.19720422     27.15284001      0.06887112 Au
atom      23.01308185     27.15289140      0.06877610 Au
atom      25.83708391     27.15217024      0.06881346 Au
atom       0.45236456     27.15288654      0.06794924 Au
atom       3.27688622     27.15217221      0.06819749 Au
atom       6.09345486     27.15309080      0.06879070 Au
atom       7.50452693     29.62493614      0.01253803 Au
atom      10.32602716     29.61877605      0.06556459 Au
atom      13.14476290     29.62573076      0.01394822 Au
atom      15.96638896     29.61873054      0.06762732 Au
atom      18.78455945     29.62552180      0.01447000 Au
atom      21.60626990     29.61840728      0.06665398 Au
atom      24.42419424     29.62511648      0.01332882 Au
atom      27.24568293     29.61823798      0.06502364 Au
atom       1.86438802     29.62479551      0.01153055 Au
atom       4.68588013     29.61859648      0.06357537 Au
atom       8.91741147     32.08884518      0.01526319 Au
atom      11.73270632     32.08927026      0.01700197 Au
atom      14.55769872     32.08902458      0.01809861 Au
atom      17.37280912     32.08915174      0.01864364 Au
atom      20.19744600     32.08857135      0.01823793 Au
atom      23.01258189     32.08862287      0.01774055 Au
atom      25.83774672     32.08830153      0.01684916 Au
atom       0.45163640     32.08873937      0.01552701 Au
atom       3.27760189     32.08846114      0.01458368 Au
atom       6.09253010     32.08886455      0.01488366 Au
atom       7.50420494     34.56644299     -0.01114612 Au
atom      10.32621746     34.55892226      0.05727822 Au
atom      13.14471632     34.56627022     -0.00928495 Au
atom      15.96605385     34.55864445      0.05953861 Au
atom      18.78455739     34.56630327     -0.00825608 Au
atom      21.60638607     34.55883480      0.05941176 Au
atom      24.42418868     34.56634603     -0.00913188 Au
atom      27.24590052     34.55875142      0.05843635 Au
atom       1.86438233     34.56633127     -0.01108060 Au
atom       4.68597982     34.55917835      0.05639617 Au
atom       8.91711827     37.03081947      0.04010836 Au
atom      11.73273815     37.03031392      0.04086121 Au
atom      14.55748470     37.03055203      0.04138823 Au
atom      17.37322864     37.03028235      0.04197661 Au
atom      20.19709430     37.03014512      0.04156540 Au
atom      23.01285784     37.02987417      0.04189801 Au
atom      25.83756498     37.03016263      0.04145624 Au
atom       0.45198639     37.02991800      0.04108200 Au
atom       3.27757383     37.03041710      0.03996813 Au
atom       6.09289461     37.03017506      0.04057880 Au
atom       7.50483404      0.02369788      0.06323400 Au
atom      10.32573938      0.01956986      0.11159398 Au
atom      13.14505584      0.02366218      0.06302495 Au
atom      15.96554446      0.01891420      0.11150907 Au
atom      18.78474190      0.02318886      0.06297262 Au
atom      21.60596577      0.01903900      0.11114720 Au
atom      24.42459556      0.02330321      0.06301813 Au
atom      27.24521268      0.01913926      0.11135210 Au
atom       1.86512827      0.02372983      0.06263239 Au
atom       4.68558564      0.01979587      0.11116184 Au
atom       8.91551962      2.48368954      0.08896780 Au
atom      11.73494690      2.48270799      0.08898920 Au
atom      14.55543556      2.48355171      0.08835510 Au
atom      17.37516211      2.48279455      0.08783379 Au
atom      20.19507967      2.48319713      0.08738388 Au
atom      23.01466364      2.48262701      0.08760491 Au
atom      25.83541367      2.48324229      0.08761243 Au
atom       0.45396187      2.48267486      0.08769330 Au
atom       3.27569871      2.48326475      0.08773229 Au
atom       6.09488814      2.48283127      0.08928167 Au
atom       7.50587090      4.94981236      0.10507876 Au
atom      10.32536027      4.95262492      0.09836102 Au
atom      13.14644628      4.94968648      0.10548639 Au
atom      15.96507499      4.95283242      0.09871310 Au
atom      18.78528784      4.94940474      0.10428041 Au
atom      21.60536599      4.95266996      0.09763691 Au
atom      24.42494239      4.94964290      0.10360631 Au
atom      27.24428074      4.95260021      0.09663880 Au
atom       1.86528758      4.95000858      0.10301980 Au
atom       4.68488188      4.95255114      0.09617183 Au
atom       8.91371772      7.41308978      0.06688913 Au
atom      11.73791276      7.41229404      0.06937952 Au
atom      14.55363132      7.41272717      0.07115871 Au
atom      17.37740891      7.41228387      0.07100874 Au
atom      20.19290972      7.41304233      0.06984900 Au
atom      23.01670850      7.41217615      0.06925298 Au
atom      25.83228467      7.41268815      0.06725855 Au
atom       0.45638510      7.41192647      0.06574973 Au
atom       3.27252063      7.41303630      0.06387055 Au
atom       6.09747975      7.41249460      0.06435261 Au
atom       7.50592231      9.87873146      0.05695420 Au
atom      10.32494988      9.88382088      0.00970176 Au
atom      13.14759418      9.87800469      0.06729795 Au
atom      15.96477293      9.88381907      0.01609672 Au
atom      18.78635663      9.87753680      0.06938787 Au
atom      21.60465554      9.88449430      0.01454529 Au
atom      24.42526625      9.87768956      0.06536949 Au
atom      27.24346170      9.88445182      0.00943280 Au
atom       1.86561473      9.87810902      0.05787843 Au
atom       4.68499351      9.88442442      0.00460581 Au
atom       8.91198944     12.34883674      0.00867199 Au
atom      11.73853831     12.34825076      0.01301272 Au
atom      14.55242019     12.34852162      0.01747700 Au
atom      17.37879051     12.34866358      0.01924933 Au
atom      20.19263052     12.34848026      0.01870633 Au
atom      23.01759518     12.34866171      0.01790988 Au
atom      25.83226277     12.34924507      0.01515980 Au
atom       0.45735133     12.34891507      0.01225172 Au
atom       3.27191696     12.34920109      0.00761268 Au
atom       6.09792880     12.34822982      0.00696872 Au
atom       7.50463631     13.18066877      2.65533248 Au
atom      10.32560438     13.18468954      2.55011473 Au
atom      13.14447110     13.18217219      2.66335681 Au
atom      15.96567542     13.18558913      2.55834460 Au
atom      18.78504102     13.18195145      2.66863524 Au
atom      21.60599080     13.18469858      2.56076957 Au
atom      24.42565653     13.18051921      2.66739190 Au
atom      27.24556069     13.18379538      2.55496416 Au
atom       1.86589217     13.18023729      2.65964291 Au
atom       4.68588837     13.18349725      2.54712955 Au
atom       8.91613942     15.64255353      2.63541848 Au
atom      11.73368461     15.64338744      2.63575987 Au
atom      14.55614645     15.64449935      2.63456473 Au
atom      17.37373990     15.64444373      2.63954224 Au
atom      20.19628352     15.64410402      2.64160305 Au
atom      23.01344758     15.64378751      2.64560988 Au
atom      25.83736031     15.64329921      2.64482314 Au
atom       0.45349774     15.64228981      2.64391425 Au
atom       3.27669787     15.64218376      2.64093019 Au
atom       6.09419183     15.64163461      2.63822290 Au
atom       7.50573054     18.09547396      2.69316539 Au
atom      10.32582195     18.11432104      2.60165430 Au
atom      13.14535616     18.09593555      2.68239951 Au
atom      15.96511193     18.11501665      2.59782642 Au
atom      18.78448284     18.09589632      2.68775973 Au
atom      21.60534630     18.11445184      2.60773260 Au
atom      24.42550258     18.09588089      2.69679311 Au
atom      27.24517839     18.11452429      2.61373465 Au
atom       1.86593619     18.09570055      2.69866769 Au
atom       4.68584906     18.11391552      2.61291813 Au
atom       8.91734245     20.57709037      2.71374871 Au
atom      11.73386921     20.57733605      2.70589229 Au
atom      14.55667402     20.57754385      2.70163358 Au
atom      17.37346986     20.57744641      2.70481667 Au
atom      20.19584406     20.57738830      2.70924594 Au
atom      23.01330783     20.57732985      2.71615330 Au
atom      25.83669019     20.57727748      2.71784326 Au
atom       0.45332854     20.57710534      2.72113366 Au
atom       3.27673505     20.57712732      2.72103138 Au
atom       6.09433664     20.57664465      2.71931399 Au
atom       7.50586278     23.03870365      2.68648725 Au
atom      10.32623214     23.06162237      2.68191617 Au
atom      13.14615679     23.03847853      2.67686744 Au
atom      15.96450247     23.06210895      2.67604014 Au
atom      18.78470440     23.03773043      2.67933747 Au
atom      21.60493044     23.06175378      2.68496340 Au
atom      24.42510379     23.03830986      2.68736851 Au
atom      27.24437447     23.06225275      2.68887865 Au
atom       1.86559074     23.03927453      2.69042126 Au
atom       4.68558084     23.06222619      2.69074755 Au
atom       8.91709588     25.52815054      2.71711029 Au
atom      11.73369867     25.52809935      2.71454007 Au
atom      14.55683448     25.52783029      2.71262447 Au
atom      17.37296397     25.52834700      2.71388687 Au
atom      20.19598139     25.52823883      2.71690424 Au
atom      23.01364680     25.52833702      2.71806647 Au
atom      25.83565390     25.52798233      2.71897753 Au
atom       0.45416094     25.52773922      2.71922970 Au
atom       3.27540066     25.52793483      2.71989629 Au
atom       6.09427860     25.52790010      2.71932385 Au
atom       7.50514958     27.99101717      2.61715580 Au
atom      10.32563766     28.00494111      2.70016128 Au
atom      13.14613973     27.99068519      2.61612533 Au
atom      15.96449769     28.00493642      2.70081389 Au
atom      18.78548308     27.99071042      2.61805417 Au
atom      21.60511184     28.00533710      2.70123691 Au
atom      24.42568079     27.99046068      2.61786553 Au
atom      27.24436316     28.00596574      2.69967547 Au
atom       1.86594102     27.99052993      2.61681756 Au
atom       4.68517674     28.00582405      2.69930174 Au
atom       8.91426874     30.46291612      2.64460583 Au
atom      11.73434259     30.46317308      2.64604412 Au
atom      14.55484805     30.46314809      2.64667466 Au
atom      17.37515898     30.46336855      2.64770545 Au
atom      20.19441587     30.46324438      2.64670393 Au
atom      23.01492560     30.46334384      2.64619707 Au
atom      25.83474208     30.46286304      2.64447849 Au
atom       0.45449767     30.46278026      2.64410040 Au
atom       3.27465877     30.46265523      2.64263441 Au
atom       6.09489765     30.46261474      2.64317234 Au
atom       7.50493679     32.92439527      2.55653883 Au
atom      10.32507511     32.92148764      2.66624099 Au
atom      13.14576991     32.92462410      2.55959313 Au
atom      15.96470436     32.92181657      2.66854127 Au
atom      18.78558444     32.92453583      2.56030220 Au
atom      21.60536870     32.92109701      2.66862936 Au
atom      24.42556116     32.92407895      2.55925410 Au
atom      27.24475905     32.92114567      2.66667750 Au
atom       1.86569259     32.92422582      2.55717663 Au
atom       4.68523903     32.92097836      2.66480542 Au
atom       8.91306154     35.38303163      2.64307664 Au
atom      11.73537058     35.38327524      2.64434582 Au
atom      14.55353353     35.38313225      2.64472314 Au
atom      17.37594977     35.38331189      2.64579878 Au
atom      20.19294367     35.38341927      2.64538374 Au
atom      23.01615646     35.38339050      2.64580736 Au
atom      25.83381906     35.38354571      2.64437691 Au
atom       0.45545531     35.38338447      2.64445494 Au
atom       3.27357235     35.38336120      2.64272593 Au
atom       6.09608010     35.38345697      2.64276425 Au
atom       7.50484692     37.85470692      2.61092345 Au
atom      10.32522761     37.83589871      2.69558998 Au
atom      13.14526146     37.85469937      2.61165790 Au
atom      15.96495622     37.83604432      2.69631596 Au
atom      18.78516182     37.85485341      2.61151145 Au
atom      21.60547099     37.83572707      2.69685137 Au
atom      24.42547640     37.85493279      2.61169758 Au
atom      27.24494804     37.83535268      2.69603891 Au
atom       1.86569472     37.85498588      2.61134026 Au
atom       4.68539986     37.83535319      2.69516582 Au
atom       8.91284332      0.83738147      2.71873436 Au
atom      11.73608359      0.83731694      2.71875085 Au
atom      14.55317908      0.83730282      2.71808447 Au
atom      17.37665748      0.83709771      2.71764910 Au
atom      20.19228169      0.83754786      2.71772536 Au
atom      23.01726925      0.83724340      2.71772535 Au
atom      25.83295654      0.83800669      2.71753617 Au
atom       0.45643348      0.83782422      2.71785070 Au
atom       3.27295733      0.83786395      2.71801710 Au
atom       6.09683069      0.83793576      2.71800617 Au
atom       7.50444341      3.32275486      2.68907602 Au
atom      10.32566346      3.29976592      2.68940340 Au
atom      13.14534716      3.32257001      2.69028987 Au
atom      15.96528386      3.29976461      2.68820697 Au
atom      18.78517048      3.32240770      2.68815053 Au
atom      21.60540222      3.29922105      2.68797935 Au
atom      24.42491754      3.32202745      2.68793099 Au
atom      27.24497805      3.29830337      2.68738018 Au
atom       1.86510046      3.32260500      2.68827688 Au
atom       4.68568232      3.29895105      2.68805298 Au
atom       8.91405625      5.78875735      2.71884814 Au
atom      11.73520107      5.78791842      2.72044243 Au
atom      14.55562472      5.78786807      2.72059677 Au
atom      17.37532819      5.78767170      2.71991234 Au
atom      20.19394029      5.78773582      2.71997257 Au
atom      23.01556155      5.78779220      2.71910563 Au
atom      25.83371611      5.78829269      2.71845957 Au
atom       0.45567539      5.78850241      2.71738324 Au
atom       3.27322669      5.78882971      2.71679220 Au
atom       6.09664306      5.78897100      2.71758106 Au
atom       7.50458701      8.26716287      2.69385767 Au
atom      10.32587765      8.25211583      2.61500757 Au
atom      13.14545789      8.26722077      2.70206856 Au
atom      15.96569246      8.25101219      2.62059039 Au
atom      18.78513154      8.26662116      2.70324877 Au
atom      21.60583374      8.25096401      2.61948123 Au
atom      24.42455746      8.26636533      2.70004017 Au
atom      27.24544588      8.25115726      2.61479797 Au
atom       1.86517735      8.26680074      2.69398030 Au
atom       4.68601037      8.25192486      2.60954214 Au
atom       8.91399841     10.72245742      2.63595373 Au
atom      11.73472328     10.72306816      2.64343912 Au
atom      14.55481170     10.72296216      2.64665195 Au
atom      17.37571334     10.72303907      2.64917635 Au
atom      20.19435776     10.72296761      2.64865386 Au
atom      23.01545694     10.72274109      2.64649123 Au
atom      25.83485061     10.72312638      2.64322733 Au
atom       0.45522922     10.72253751      2.63786550 Au
atom       3.27440062     10.72282036      2.63308579 Au
atom       6.09602432     10.72272187      2.63306612 Au
atom       7.50219117     13.17074226      5.69667198 Cl
atom       7.50259890     15.98763147      8.54468892 Cl
atom       7.50087555     13.17143403      8.36305995 Na
atom       7.50006398     16.00537891      5.79668768 Na
atom       7.50100619     18.82080342      5.72642587 Cl
atom       7.50288156     21.62218237      8.57367209 Cl
atom       7.50399629     18.80726561      8.38206294 Na
atom       7.49817184     21.62973819      5.82206223 Na
atom       7.49665823     24.44232955      5.74964981 Cl
atom       7.49421013     27.26164708      8.57806206 Cl
atom       7.49919236     24.43634566      8.39511616 Na
atom       7.49345246     27.24094673      5.83322541 Na
atom       7.49248381     30.07296190      5.72430958 Cl
atom       7.49041377     32.90609513      8.56481194 Cl
atom       7.49157192     30.07838174      8.37095973 Na
atom       7.49108078     32.90489112      5.83161071 Na
atom       7.49179576     35.73814168      5.72462136 Cl
atom       7.49173184     38.55193674      8.57486430 Cl
atom       7.49092490     35.73450979      8.37002768 Na
atom       7.49228885     38.57360797      5.83177103 Na
atom       7.49452531      1.89563711      5.75303783 Cl
atom       7.49542839      4.71726711      8.57512007 Cl
atom       7.49350156      1.90020919      8.39565496 Na
atom       7.49653150      4.71078557      5.82458649 Na
atom       7.49870458      7.52140512      5.73159109 Cl
atom       7.49504215     10.35802161      8.54992437 Cl
atom       7.49583749      7.53510504      8.38355173 Na
atom       7.49963220     10.33672364      5.79561638 Na
atom      10.32289705     13.16744415      5.82687223 Na
atom      13.14254539     13.16653359      5.70079253 Cl
atom      10.32344636     15.99757069      8.36461494 Na
atom      13.14356903     15.98661295      8.54253706 Cl
atom      13.14061270     13.17048135      8.36594550 Na
atom      10.32175161     13.16993576      8.56222120 Cl
atom      13.14632927     16.00036417      5.79548170 Na
atom      10.32304343     16.00021302      5.71439491 Cl
atom      10.32129220     18.83543612      5.82461873 Na
atom      13.14264251     18.81810101      5.72025893 Cl
atom      10.32336670     21.63520698      8.38939172 Na
atom      13.14545877     21.61612738      8.57138091 Cl
atom      13.14387346     18.80579554      8.37783669 Na
atom      10.32298206     18.81279986      8.56885936 Cl
atom      13.14149948     21.62746155      5.81260682 Na
atom      10.32124567     21.63400838      5.74514182 Cl
atom      10.31469450     24.45074578      5.81882931 Na
atom      13.13730523     24.44059280      5.74138513 Cl
atom      10.31434389     27.26561808      8.38821833 Na
atom      13.13410435     27.25849255      8.57526235 Cl
atom      13.13936019     24.43270910      8.38668175 Na
atom      10.31951734     24.44993654      8.57068093 Cl
atom      13.13368752     27.24159658      5.83246341 Na
atom      10.31349440     27.25571765      5.73606424 Cl
atom      10.31194966     30.07121368      5.80447247 Na
atom      13.13189453     30.07257816      5.72608045 Cl
atom      10.30975448     32.90594050      8.36926780 Na
atom      13.12991272     32.90460895      8.56698574 Cl
atom      13.13136157     30.07542777      8.37313044 Na
atom      10.31140472     30.08817112      8.55429619 Cl
atom      13.13013041     32.90423597      5.83369035 Na
atom      10.31085165     32.90484832      5.70598070 Cl
atom      10.31161050     35.74017992      5.80378313 Na
atom      13.13080992     35.73625218      5.72616269 Cl
atom      10.31114202     38.54697673      8.38603380 Na
atom      13.13076552     38.54991512      8.57558453 Cl
atom      13.12995722     35.73289200      8.37154904 Na
atom      10.31022342     35.72453474      8.55228118 Cl
atom      13.13071840     38.57224373      5.83255206 Na
atom      10.31160547     38.55896544      5.73210232 Cl
atom      10.31429268      1.88976825      5.82380400 Na
atom      13.13287973      1.89381933      5.75322619 Cl
atom      10.31468216      4.70198743      8.39540929 Na
atom      13.13428154      4.71318092      8.57853358 Cl
atom      13.13274829      1.89684243      8.39546359 Na
atom      10.31284550      1.88460138      8.57593321 Cl
atom      13.13539506      4.70997995      5.82636614 Na
atom      10.31603086      4.70601145      5.74984654 Cl
atom      10.32017424      7.50331421      5.83074768 Na
atom      13.13720722      7.51887979      5.74012875 Cl
atom      10.31653273     10.34505079      8.36894639 Na
atom      13.13658766     10.35389600      8.55488409 Cl
atom      13.13516129      7.53140923      8.39204313 Na
atom      10.31526560      7.52796970      8.57491052 Cl
atom      13.14147632     10.33252492      5.80453771 Na
atom      10.31966361     10.33832200      5.72023274 Cl
atom      15.96425530     13.16281057      5.83182397 Na
atom      18.78165590     13.16158968      5.70867433 Cl
atom      15.96161880     15.99548981      8.36479370 Na
atom      18.78242932     15.98387734      8.54874182 Cl
atom      18.78011589     13.16506995      8.37170432 Na
atom      15.96185229     13.16829435      8.56399570 Cl
atom      18.78549213     15.99452208      5.79993633 Na
atom      15.96455677     15.99531435      5.71884231 Cl
atom      15.96552254     18.82884597      5.82028805 Na
atom      18.78419053     18.81263192      5.72371296 Cl
atom      15.96059939     21.63273654      8.38623805 Na
atom      18.78064244     21.61752416      8.56401607 Cl
atom      18.78064183     18.80391205      8.37756620 Na
atom      15.95845902     18.81173911      8.56753829 Cl
atom      18.78286408     21.62358434      5.81406486 Na
atom      15.96080818     21.63005424      5.74210215 Cl
atom      15.96003808     24.44676705      5.81612580 Na
atom      18.77971926     24.43982917      5.74360899 Cl
atom      15.95365637     27.26283962      8.38665048 Na
atom      18.77445577     27.25724575      8.57654467 Cl
atom      18.77698584     24.43127349      8.38884194 Na
atom      15.95823166     24.44717436      8.56590474 Cl
atom      18.77499355     27.23883825      5.83237719 Na
atom      15.95411444     27.25446151      5.73465411 Cl
atom      15.95284485     30.06919113      5.80600566 Na
atom      18.77248887     30.07044446      5.72632146 Cl
atom      15.94999206     32.90365858      8.37091750 Na
atom      18.77059617     32.90253021      8.56741855 Cl
atom      18.77207155     30.07433955      8.37272776 Na
atom      15.95159635     30.08572498      8.55519094 Cl
atom      18.77016173     32.90142347      5.83447780 Na
atom      15.95028943     32.90271326      5.70763418 Cl
atom      15.95094732     35.73743309      5.80534114 Na
atom      18.77077977     35.73374468      5.72689100 Cl
atom      15.95053666     38.54419062      8.38619397 Na
atom      18.77081412     38.54746724      8.57551253 Cl
atom      18.77036669     35.73060615      8.37214960 Na
atom      15.95004208     35.72225988      8.55354776 Cl
atom      18.77068781     38.56877895      5.83269808 Na
atom      15.95068049     38.55558119      5.73215008 Cl
atom      15.95217910      1.88743766      5.82379324 Na
atom      18.77239774      1.89004902      5.75231169 Cl
atom      15.95444585      4.69632964      8.39607296 Na
atom      18.77435771      4.70820491      8.57698924 Cl
atom      18.77251917      1.89337516      8.39474910 Na
atom      15.95230496      1.88092335      8.57512626 Cl
atom      18.77376643      4.70662682      5.82538235 Na
atom      15.95419611      4.70295258      5.75108794 Cl
atom      15.95647690      7.50221683      5.83689834 Na
atom      18.77538936      7.51447229      5.74061003 Cl
atom      15.95713354     10.34007142      8.37585965 Na
atom      18.77828248     10.34690885      8.55864101 Cl
atom      18.77628520      7.52483693      8.39215627 Na
atom      15.95590129      7.52251127      8.58150018 Cl
atom      18.77851352     10.32938516      5.80887057 Na
atom      15.95910788     10.33353475      5.72897506 Cl
atom      21.60007473     13.16106294      5.83536611 Na
atom      24.41927579     13.16277874      5.70704754 Cl
atom      21.60179516     15.99083143      8.37099812 Na
atom      24.42207657     15.98098083      8.55425227 Cl
atom      24.42151646     13.16316339      8.37034474 Na
atom      21.60046095     13.16321552      8.56941670 Cl
atom      24.42252757     15.99643072      5.80526019 Na
atom      21.60359795     15.99198620      5.72564528 Cl
atom      21.60449981     18.82659750      5.82917725 Na
atom      24.42402459     18.81329296      5.73245887 Cl
atom      21.60001234     21.63085857      8.39009632 Na
atom      24.42053995     21.61828765      8.57433467 Cl
atom      24.42169765     18.80242072      8.38668313 Na
atom      21.60158082     18.80643755      8.57147128 Cl
atom      24.42270150     21.62376226      5.82271639 Na
atom      21.60330091     21.62808577      5.74767482 Cl
atom      21.59997061     24.44423608      5.82156490 Na
atom      24.41914685     24.43899775      5.74897653 Cl
atom      21.59471391     27.26274970      8.38862561 Na
atom      24.41471739     27.25876855      8.57697563 Cl
atom      24.41776124     24.43329169      8.39401475 Na
atom      21.59754154     24.44556949      8.57323847 Cl
atom      24.41528259     27.23806921      5.83299429 Na
atom      21.59536118     27.25250934      5.73708183 Cl
atom      21.59295439     30.06782957      5.80552730 Na
atom      24.41318020     30.07086415      5.72518923 Cl
atom      21.59094457     32.90245867      8.37016403 Na
atom      24.41146078     32.90295410      8.56612698 Cl
atom      24.41303811     30.07511446      8.37178608 Na
atom      21.59251684     30.08491843      8.55437361 Cl
atom      24.41101557     32.90242849      5.83317722 Na
atom      21.59092566     32.90194231      5.70686911 Cl
atom      21.59146641     35.73642697      5.80533164 Na
atom      24.41159580     35.73457482      5.72645460 Cl
atom      21.59122636     38.54290897      8.38595531 Na
atom      24.41203203     38.54796697      8.57523964 Cl
atom      24.41153911     35.73100654      8.37154888 Na
atom      21.59088499     35.72106789      8.55343265 Cl
atom      24.41172056     38.56939837      5.83244027 Na
atom      21.59120173     38.55410525      5.73199182 Cl
atom      21.59286978      1.88505024      5.82286662 Na
atom      24.41342905      1.89038147      5.75200514 Cl
atom      21.59466072      4.69418925      8.39474649 Na
atom      24.41541865      4.70935702      8.57559814 Cl
atom      24.41352182      1.89415873      8.39429975 Na
atom      21.59287724      1.87929517      8.57424956 Cl
atom      24.41470503      4.70610252      5.82415255 Na
atom      21.59423249      4.70007629      5.74966673 Cl
atom      21.59500354      7.49929759      5.83490795 Na
atom      24.41558723      7.51411166      5.73731735 Cl
atom      21.59888226     10.33505990      8.37481383 Na
atom      24.41902506     10.34694846      8.55374698 Cl
atom      24.41723891      7.52605294      8.38893942 Na
atom      21.59659533      7.51908434      8.57897503 Cl
atom      24.41777208     10.32963274      5.80469764 Na
atom      21.59775397     10.33067344      5.72801758 Cl
atom      27.23890553     13.16553888      5.83001531 Na