# 
# This is the geometry file that corresponds to the current relaxation step.
# If you do not want this file to be written, set the "write_restart_geometry" flag to .false.
#  aims_uuid : 649D1C9D-5DF6-4AC3-A45A-264ADFD778A5                                
# 
  set_vacuum_level        44.015273
lattice_vector     28.20000000      0.00000000      0.00000000
lattice_vector      0.00000000     39.48000000      0.00000000
lattice_vector      0.00000000      0.00000000     62.32960834
atom       5.96467491      7.08576137     12.83117900 Br
atom      14.29849519     24.53010731     12.59077286 Br
atom       8.19833668     15.11921091     12.52457018 N
atom      10.79636381     13.86910721     12.48412727 N
atom       9.46081597     17.74267419     12.49949546 N
atom      12.05858285     16.49285763     12.44412998 N
atom       8.62476677     12.67908648     12.55499753 C
atom       7.78101528     13.80599452     12.54753381 C
atom      10.03141566     12.72320790     12.52198355 C
atom       7.05966536     15.89432270     12.53605713 C
atom      12.11233972     13.46339021     12.45460636 C
atom       7.97695780     11.32884422     12.61729555 C
atom       6.33483863     13.75371387     12.57100791 C
atom      10.89350675     11.56031812     12.51662866 C
atom      11.63340940     18.93304512     12.47710840 C
atom       5.89003071     15.04690718     12.56116128 C
atom      12.18079718     12.02054207     12.47234253 C
atom      10.22652043     18.88867368     12.49995529 C
atom      12.47633132     17.80593758     12.44494089 C
atom       7.03893292     17.29271321     12.53245997 C
atom      13.21748523     14.31935779     12.41887823 C
atom       8.14462661     18.14851713     12.52050841 C
atom      13.19687581     15.71757147     12.41647610 C
atom      12.28324564     20.28367708     12.50065398 C
atom       9.36499413     20.05159148     12.52250461 C
atom       7.71824907     10.74154811     13.87552669 C
atom       7.63449605     10.65750000     11.42302409 C
atom      13.92267307     17.85835186     12.41418954 C
atom       8.07693620     19.59157502     12.53319311 C
atom      14.36662684     16.56476588     12.39553377 C
atom       7.11561970      9.47697638     13.92847541 C
atom       7.03688499      9.39171101     11.49887325 C
atom      12.59208034     20.88417414     13.74099474 C
atom      12.58140215     20.94102711     11.28684526 C
atom       6.78854740      8.82378331     12.74452117 C
atom      13.19469479     22.14995037     13.75682805 C
atom      13.18266978     22.20699951     11.32524526 C
atom      13.47466071     22.79085680     12.55433415 C
atom       5.74398507     12.84216814     12.58926364 H
atom      10.55159877     10.52959538     12.54221687 H
atom       4.86143311     15.39948958     12.57363925 H
atom      13.09883801     11.43821899     12.45465504 H
atom       6.05611668     17.76558105     12.54682771 H
atom      14.20027682     13.84648217     12.39743200 H
atom       9.70794819     21.08226448     12.52841917 H
atom      14.51361532     18.76968688     12.40916112 H
atom       8.08389854     11.45106367     15.15550131 C
atom       9.16655807     11.63583189     15.21311141 H
atom       7.79070922     10.85620530     16.02955950 H
atom       7.58925431     12.43123340     15.22447545 H
atom       7.88944798     11.28687455     10.07548382 C
atom       7.28893972     12.19988386      9.94625705 H
atom       7.63494973     10.59336313      9.26448087 H
atom       8.94303573     11.58007501      9.96215236 H
atom       7.15905859     20.17408594     12.55007160 H
atom      15.39489731     16.21192389     12.37207071 H
atom      12.28509501     20.18528109     15.04211583 C
atom      11.20631347     20.00000311     15.15160187 H
atom      12.61814082     20.78659521     15.89720825 H
atom      12.78297777     19.20575979     15.09576556 H
atom      12.27723377     20.29649116      9.95691079 C
atom      12.86964419     19.37956748      9.81655305 H
atom      12.50502898     20.98004566      9.12975715 H
atom      11.21917091     20.00639115      9.88421940 H
atom       6.90904601      9.00828453     14.89056913 H
atom       6.76194864      8.85923979     10.58868349 H
atom      13.43816076     22.62791607     14.70558573 H
atom      13.41782549     22.72882680     10.39795919 H
atom      10.12859375     15.80567525     12.48689930 Zn
# 
# What follows is the current estimated Hessian matrix constructed by the BFGS algorithm.
# This is NOT the true Hessian matrix of the system.
# If you do not want this information here, switch it off using the "hessian_to_restart_geometry" keyword.
# 
trust_radius             0.0787421967
hessian_file
