#===============================================================================
# Created using the Atomic Simulation Environment (ASE)

# Tue Dec 23 22:26:16 2025

#=======================================================
lattice_vector 28.1999999999999993 0.0000000000000000 0.0000000000000000 
lattice_vector 0.0000000000000000 39.4799999999999969 0.0000000000000000 
lattice_vector 0.0000000000000000 0.0000000000000000 62.3296083400000001 
atom 7.5035436400000002 14.8924424200000001 -0.5447447700000000 Au
atom 10.2507043200000005 14.7473662799999996 -0.2965919600000000 Au
atom 13.1055700700000006 14.8015280199999992 -0.2093377600000000 Au
atom 15.9408466499999992 14.7957274600000002 -0.1459572800000000 Au
atom 18.7624388099999990 14.7321967500000000 0.3338078100000000 Au
atom 21.6574904799999999 14.8904487799999998 -0.2147469900000000 Au
atom 24.4137160000000009 14.8594970699999998 0.0219649900000000 Au
atom 27.2965572099999996 14.9534324800000000 -0.0350256800000000 Au
atom 1.8347145000000000 14.9269407399999992 0.0695048500000000 Au
atom 4.6764039600000000 14.8550422199999996 -0.1609468800000000 Au
atom 8.6703784299999995 17.3750671899999993 -0.1531336700000000 Au
atom 11.7494183900000007 17.1791558100000010 -0.2226315400000000 Au
atom 14.4904320400000000 17.2097999500000007 0.3765071300000000 Au
atom 17.4359796699999983 17.2528784699999989 -0.0522985900000000 Au
atom 20.0395192800000004 17.1960457300000016 0.0413898700000000 Au
atom 22.9582575400000017 17.3913948100000013 0.0871902100000000 Au
atom 25.7473058700000017 17.3808401799999999 0.1618937900000000 Au
atom 0.3828021000000000 17.3927982199999995 0.0906103200000000 Au
atom 3.2224380300000002 17.3934394599999997 0.0321264900000000 Au
atom 5.9559242599999997 17.4866723300000011 -0.5283189300000000 Au
atom 7.4095202200000001 19.8565088199999984 -0.0799074700000000 Au
atom 10.2758886300000007 19.7071637099999997 -0.4699469100000000 Au
atom 13.1059069200000007 19.6058324199999987 0.0040912300000000 Au
atom 15.8377148099999996 19.5927944399999987 0.1314223600000000 Au
atom 18.6104778199999998 19.7065018700000003 0.0211165700000000 Au
atom 21.4059450799999986 19.7592770400000006 0.0663124300000000 Au
atom 24.3384807800000011 19.7299580399999996 0.2866505000000000 Au
atom 27.3044986999999999 19.8128791000000000 -0.1658996400000000 Au
atom 1.8659694499999999 19.7703306699999999 -0.3994276800000000 Au
atom 4.6654298699999996 19.8838677299999986 -0.5012111000000000 Au
atom 8.9340760400000008 22.2182005300000007 -0.1013328300000000 Au
atom 11.8072990499999992 22.1127561700000008 -0.0704017100000000 Au
atom 14.6414168399999998 22.5199137900000004 0.3336439200000000 Au
atom 17.3235232500000009 22.1627784000000005 0.3813512600000000 Au
atom 20.1379700700000015 22.1617655599999992 -0.1197641100000000 Au
atom 22.9222996499999994 22.1047474199999989 0.1250668000000000 Au
atom 25.6985502399999994 22.2168379599999994 0.1121645200000000 Au
atom 0.3771128200000000 22.3180756000000002 -0.0001293900000000 Au
atom 3.1655603600000002 22.3487674399999996 -0.1152555000000000 Au
atom 6.0623384299999996 22.3246059700000004 -0.0897639200000000 Au
atom 7.4613952399999999 24.7393285200000008 0.0542244300000000 Au
atom 10.1868925699999995 24.6446524899999986 0.1627052700000000 Au
atom 12.9963712400000002 24.6331923400000008 0.3515154100000000 Au
atom 15.8107601899999999 24.3115932599999987 0.0618223200000000 Au
atom 18.7239259400000009 24.7197403700000002 0.0717377300000000 Au
atom 21.5012425299999990 24.5665037700000006 0.1328366200000000 Au
atom 24.3016308000000016 24.7076406000000013 -0.0867520900000000 Au
atom 27.0659545000000001 24.7028560599999985 0.1274009900000000 Au
atom 1.7352921800000001 24.8430356600000017 -0.0167393900000000 Au
atom 4.6320589600000002 24.8561919700000011 0.0167591000000000 Au
atom 8.8270173100000004 27.1701831799999987 -0.2137256600000000 Au
atom 11.5696013200000003 27.1872688099999991 0.0602536500000000 Au
atom 14.3632803100000004 27.1347061799999985 -0.2036614000000000 Au
atom 17.2869032199999992 27.1785910699999995 0.0366694600000000 Au
atom 20.1334585900000000 27.1002960500000007 -0.1067673200000000 Au
atom 22.8654837300000011 27.1419861900000008 -0.0567252500000000 Au
atom 25.5998367199999990 27.3389779600000011 -0.0394919700000000 Au
atom 0.2617398800000000 27.1367369099999998 0.0457947700000000 Au
atom 3.2161548199999999 27.3071413700000001 0.0257249000000000 Au
atom 5.9666020900000003 27.3131409400000003 -0.0872830900000000 Au
atom 7.3750669499999999 29.7295722299999987 -0.0396596200000000 Au
atom 10.1516148600000005 29.6172019400000011 -0.1524087800000000 Au
atom 12.9632971500000007 29.6792830099999989 -0.2921647200000000 Au
atom 15.8383687599999998 29.6440933000000015 0.0199751100000000 Au
atom 18.6542396100000012 29.6563302200000010 -0.0378729400000000 Au
atom 21.4139035399999997 29.5802891599999995 0.0291820300000000 Au
atom 24.2693635199999989 29.5149434299999989 0.1056099200000000 Au
atom 27.1347844100000017 29.7165315700000008 0.1974080400000000 Au
atom 1.6874398200000000 29.5678913700000017 0.4083180700000000 Au
atom 4.5853306700000003 29.6874208300000006 0.0840953900000000 Au
atom 8.7650052200000008 32.1430996799999988 -0.2683569100000000 Au
atom 11.5745440300000002 32.1463950899999986 -0.2103677000000000 Au
atom 14.5074549299999997 32.1539235099999985 -0.4161351500000000 Au
atom 17.3386349899999992 32.1455499599999968 -0.1244682700000000 Au
atom 20.1307851199999988 32.1143235099999984 0.0532922900000000 Au
atom 22.8805696599999990 31.9998232099999989 0.0909321400000000 Au
atom 25.7813337500000017 32.1219011399999985 0.1097673200000000 Au
atom 0.3172487300000000 32.1351210600000030 -0.1430267900000000 Au
atom 3.1926299999999999 32.0292057799999981 -0.2871195700000000 Au
atom 5.9361633300000003 32.2049488899999972 -0.1860287400000000 Au
atom 7.3389036499999998 34.6242658000000034 -0.0467622300000000 Au
atom 10.0658728199999992 34.7012006499999970 -0.4130618900000000 Au
atom 13.0346130099999993 34.4906687100000013 -0.0626173500000000 Au
atom 15.9241042000000004 34.6432458700000012 -0.1751994100000000 Au
atom 18.8361909300000008 34.6041343500000025 0.1047103100000000 Au
atom 21.6242592599999988 34.4837648399999992 0.2408382000000000 Au
atom 24.4135921200000006 34.5148468399999970 -0.0498384400000000 Au
atom 27.2052349699999994 34.5795142899999988 0.2744041100000000 Au
atom 1.7952182800000001 34.5987164200000024 -0.1637490800000000 Au
atom 4.5320770899999996 34.5759834600000033 -0.0637310800000000 Au
atom 8.7271167599999995 37.1009979700000017 0.0343277100000000 Au
atom 11.6045156600000006 37.0417107800000025 -0.1916078300000000 Au
atom 14.3533069399999995 36.9876244299999968 -0.0808857800000000 Au
atom 17.3014644900000008 37.0055915399999975 -0.1162063800000000 Au
atom 20.1999668800000016 37.0511366200000012 0.0757031400000000 Au
atom 23.0022840299999984 36.9837203000000017 -0.0897439200000000 Au
atom 25.7928693899999999 37.0942933800000034 0.1577365500000000 Au
atom 0.4191195300000000 37.0809387500000014 0.3209552900000000 Au
atom 3.1523137200000000 37.1163161099999996 -0.0869255900000000 Au
atom 5.9596271999999999 37.0726991399999974 0.1156155900000000 Au
atom 7.4161899199999999 0.0369058000000000 -0.0970057300000000 Au
atom 10.2051319700000001 -0.0777630500000000 0.0928290700000000 Au
atom 13.0870386900000000 0.0420873700000000 -0.0312149400000000 Au
atom 15.8342017399999992 -0.0816494200000000 0.1046470800000000 Au
atom 18.7311339200000013 -0.0195589000000000 0.1464726300000000 Au
atom 21.6140402899999984 -0.0268673200000000 0.1222656700000000 Au
atom 24.5432704699999995 0.0363814000000000 0.1129286900000000 Au
atom 27.2784665199999985 0.0788785000000000 0.2840844200000000 Au
atom 1.8400413700000000 0.0719023900000000 0.1859706700000000 Au
atom 4.6441744600000003 0.0319730100000000 0.1014466800000000 Au
atom 8.8904529199999995 2.4023847300000001 -0.1931975200000000 Au
atom 11.7724013000000003 2.4283534699999998 -0.0157223300000000 Au
atom 14.5913964400000005 2.5523872600000002 0.1077422600000000 Au
atom 17.4158153300000009 2.4111704899999999 0.0760171100000000 Au
atom 20.1632106299999982 2.4337451300000001 0.0732903300000000 Au
atom 22.9803552700000004 2.3996832499999998 0.2636322500000000 Au
atom 25.7323072000000010 2.5386683799999998 0.1180677000000000 Au
atom 0.4697451800000000 2.5239112200000000 0.2212948100000000 Au
atom 3.3000029799999999 2.4269712299999999 0.2972775700000000 Au
atom 6.0584968400000001 2.5498958799999998 -0.1474408200000000 Au
atom 7.5062077100000000 5.0586024900000002 -0.0526321700000000 Au
atom 10.3220345800000004 4.9607326199999999 0.0663255400000000 Au
atom 13.0909672100000005 4.9053839000000004 0.1509297200000000 Au
atom 16.0281732300000002 4.9973320899999996 0.1812227400000000 Au
atom 18.7924387099999990 4.9570384100000000 0.0540494000000000 Au
atom 21.5098003800000015 5.0199017399999999 0.0807107400000000 Au
atom 24.4926269300000001 4.9539674400000004 0.2337739100000000 Au
atom 27.2350060300000010 4.8807574100000002 0.1859876500000000 Au
atom 2.1010522100000002 4.8948760199999999 0.4104955900000000 Au
atom 4.3718127800000000 4.9625278399999999 0.3043566400000000 Au
atom 9.0246026399999995 7.4189501599999996 -0.1208809000000000 Au
atom 11.8076633300000005 7.3967372600000001 -0.0552087800000000 Au
atom 14.5380769399999998 7.3843191499999996 -0.1529039300000000 Au
atom 17.3371525099999992 7.4584899000000000 0.0320246800000000 Au
atom 20.2157858600000004 7.2980231399999997 -0.3202998500000000 Au
atom 23.0266616900000010 7.4313469100000002 -0.0116836100000000 Au
atom 25.8067203499999991 7.3992016700000001 0.1750509700000000 Au
atom 0.4650249500000000 7.3400753700000001 0.3712233600000000 Au
atom 3.2385440299999999 7.3928819099999998 0.0243427100000000 Au
atom 6.0611318100000000 7.3971675699999997 -0.3121822400000000 Au
atom 7.4722475299999997 9.9085311699999998 -0.1722922400000000 Au
atom 10.3449429700000000 9.8840081899999994 -0.0610525600000000 Au
atom 13.1042719099999996 9.9403566199999993 0.0049920800000000 Au
atom 15.9363189300000005 9.8892790799999997 -0.0360070200000000 Au
atom 18.7929240399999991 9.7702383600000005 -0.1698017900000000 Au
atom 21.5527372899999996 9.8353067299999992 -0.2984723800000000 Au
atom 24.5693678099999993 9.8026006700000003 -0.3128783500000000 Au
atom 27.3523109399999989 9.9012894399999993 0.1519731100000000 Au
atom 1.8832001300000001 9.8701254200000008 0.2273677800000000 Au
atom 4.7330454099999999 9.9225517599999993 0.0776453200000000 Au
atom 8.8462952300000008 12.3631826700000005 -0.3394006800000000 Au
atom 11.7963732199999995 12.3169179300000007 -0.2805003800000000 Au
atom 14.6337080600000000 12.3562142399999999 -0.1918188800000000 Au
atom 17.4780709300000012 12.2300782500000000 0.1042391300000000 Au
atom 20.1825113899999984 12.4296084300000000 -0.1996811300000000 Au
atom 22.9283654400000003 12.3156302899999996 -0.1939796200000000 Au
atom 25.8122839400000004 12.3044375899999991 -0.2214991000000000 Au
atom 0.4558983700000000 12.4002691899999995 -0.0149198000000000 Au
atom 3.2373733200000001 12.4643146999999992 -0.0083825800000000 Au
atom 6.0452444200000004 12.3564324400000007 -0.1216899700000000 Au
atom 7.5770994500000004 13.4490497199999997 2.2451007999999999 Au
atom 10.3107861300000003 13.2819528600000005 2.3025751799999998 Au
atom 13.0408942700000008 12.8821735099999994 2.3071406400000001 Au
atom 15.9560076599999991 13.0966427299999992 2.3775529299999998 Au
atom 18.8398455399999989 13.2419852099999993 2.7721370099999998 Au
atom 21.5434004399999992 13.2545172699999991 2.3642103400000001 Au
atom 24.3488427099999996 13.1231471800000001 2.5431689700000000 Au
atom 27.3165134499999986 13.2136104999999997 2.4506764799999998 Au
atom 1.9404927000000001 13.2447478200000006 2.7890986500000001 Au
atom 4.9825393000000000 13.0381037600000003 2.6971299100000001 Au
atom 8.4817862799999997 15.5883208399999997 2.3594520900000000 Au
atom 11.7679988099999999 15.6423402500000002 2.3947784300000001 Au
atom 14.4495320899999999 15.4699382500000002 2.5986635300000001 Au
atom 17.3543369500000004 15.6294416799999993 2.7731347099999999 Au
atom 19.8599080000000008 16.1608529700000005 2.5574648299999998 Au
atom 22.9179157400000015 15.7099413299999995 2.6492268800000001 Au
atom 25.8085749600000014 15.5924246499999999 2.5361864100000000 Au
atom 0.4705650000000000 15.6038506199999993 2.8146606699999999 Au
atom 3.3836957399999998 15.6600126399999997 2.3256090899999999 Au
atom 6.4794684100000000 15.7821243700000000 2.3370383600000002 Au
atom 7.5031803400000001 18.2630946999999999 2.5931368099999998 Au
atom 10.2425904299999999 18.1886600999999999 2.1832768499999999 Au
atom 12.9598955000000000 18.0669570399999984 2.8637936800000001 Au
atom 15.8248105100000007 18.0863279199999987 2.8218419899999998 Au
atom 18.8552279600000006 17.7559390899999983 2.5463463599999998 Au
atom 21.4406762999999998 18.2070248399999990 2.6423050600000000 Au
atom 24.3280728699999997 18.0821488899999991 2.8833989199999999 Au
atom 27.2582451500000005 18.0910523400000010 2.6896885500000001 Au
atom 1.9090218200000000 18.1247756200000012 2.5656555800000000 Au
atom 4.7385086200000002 18.1439137799999983 2.2418254300000000 Au
atom 8.9318195500000002 20.6091374700000003 2.2277495100000002 Au
atom 11.7208369200000000 20.5915806100000012 2.5512063500000002 Au
atom 14.5113681700000008 20.5080657299999984 2.7051868899999998 Au
atom 17.1458954000000006 20.6696589000000017 2.9511381999999999 Au
atom 20.0908267699999996 20.7185300400000010 2.5097761599999999 Au
atom 22.8802590300000013 20.5338585599999988 2.8474973200000000 Au
atom 25.7973367099999997 20.5849248899999999 2.7396568499999998 Au
atom 0.4950016600000000 20.5713752800000016 2.5245525500000001 Au
atom 3.2801827600000002 20.6042396299999986 2.1277016899999999 Au
atom 6.0319477800000003 20.5977619499999989 2.3611766300000001 Au
atom 7.4753031099999996 23.0183352600000006 2.4815370300000001 Au
atom 10.3944085400000006 23.1152866199999991 2.5981862400000000 Au
atom 12.8413017200000006 23.0579028900000012 2.8268004599999998 Au
atom 15.7931883400000004 23.1270197000000017 2.9347193400000000 Au
atom 18.7142586999999985 23.1182796800000006 2.6739853800000000 Au
atom 21.5434014199999986 23.1188239499999995 2.5983229699999999 Au
atom 24.3773385400000002 23.0656604999999999 2.6898232700000002 Au
atom 27.2914347799999994 23.1181682200000012 2.5732974199999998 Au
atom 1.8743327800000000 23.1539157799999984 2.6035420500000002 Au
atom 4.6476256899999999 23.1221705499999999 2.4871484499999998 Au
atom 8.8227034199999999 25.5668532400000004 2.5568290299999998 Au
atom 11.6907132800000007 25.5771243599999991 2.7917641700000000 Au
atom 14.4980003800000006 25.6304986100000001 2.6304780800000001 Au
atom 17.2715116900000005 25.5662550999999993 2.7656860100000000 Au
atom 20.1925584200000010 25.6230761800000018 2.6293719200000001 Au
atom 23.0409672999999984 25.5204208199999982 2.5995862500000002 Au
atom 25.6588227800000013 25.4920494700000013 2.6259942999999999 Au
atom 0.3447438000000000 25.5520180600000018 2.8439549799999999 Au
atom 3.2615692100000002 25.6545226900000003 2.5200782600000000 Au
atom 6.0357813399999998 25.5629054999999994 2.5873778100000000 Au
atom 7.4426114999999999 28.1308454400000016 2.6804528799999998 Au
atom 10.2307539300000006 28.0204025200000011 2.5974469600000001 Au
atom 13.1333942199999996 28.0133704799999990 2.4784071999999999 Au
atom 15.8517651999999991 28.0909889100000001 2.7160429800000001 Au
atom 18.6702644999999983 28.0425570899999990 2.4403535600000001 Au
atom 21.3699504000000005 27.9405743300000005 2.5937712899999998 Au
atom 24.4000071299999988 28.0270527499999993 2.7121630099999998 Au
atom 27.1518428999999983 28.0968562900000016 2.6353131200000002 Au
atom 1.8288048500000000 28.0568298600000006 3.0004690100000002 Au
atom 4.5900703500000004 28.0855372199999991 2.7354752499999999 Au
atom 8.8981098799999998 30.4458308799999990 2.3607581700000000 Au
atom 11.9251170900000005 30.4082876599999992 2.3738612899999998 Au
atom 14.2536267300000006 30.4818115499999998 2.4080047100000002 Au
atom 17.2816926600000009 30.4830716099999997 2.6905305700000000 Au
atom 20.1276232200000003 30.4544978300000011 2.6727652200000001 Au
atom 22.8628456100000008 30.4040967000000002 2.6548456100000002 Au
atom 25.7164757299999991 30.5063312300000007 2.9663732199999999 Au
atom 0.3001682500000000 30.6123069600000015 2.7660504100000001 Au
atom 3.2227643000000001 30.6351250999999998 2.7035065800000000 Au
atom 6.2432831899999996 30.9084445000000017 2.5250291100000002 Au
atom 7.2050505899999999 32.5647395399999979 2.3819536600000002 Au
atom 10.2112786500000006 32.9703725399999996 2.2230967700000002 Au
atom 13.0754476900000007 32.8729272200000011 2.4540685700000000 Au
atom 15.8425640300000001 32.8308725300000006 2.2784114799999999 Au
atom 18.6389328799999987 32.9983297699999980 2.7053116099999999 Au
atom 21.7178286400000005 32.9301606000000007 2.8100793500000001 Au
atom 24.0066865999999983 33.0069198500000027 2.7225353200000000 Au
atom 27.0131767300000014 32.9587477199999981 2.9343905299999999 Au
atom 1.6910955999999999 32.9679790400000030 2.4120905900000000 Au
atom 4.6580903899999999 33.0432377599999967 2.3301430800000000 Au
atom 8.8793788199999995 35.3629991600000011 2.6216454699999998 Au
atom 11.6427823799999999 35.3793202100000030 2.2913365099999998 Au
atom 14.3954200300000004 35.4090760099999997 2.5283506099999999 Au
atom 17.1879532799999986 35.3791117800000023 2.4348079100000000 Au
atom 20.1362159200000015 35.3787834500000002 2.7934624499999998 Au
atom 22.9071794400000002 35.4078350799999981 2.8039799300000001 Au
atom 25.6781666599999987 35.3868046400000011 2.6978094800000001 Au
atom 0.4491527900000000 35.3781759800000017 2.9270472600000002 Au
atom 3.2034879100000002 35.4047870899999992 2.5783472500000002 Au
atom 6.0505090299999997 35.4804491399999975 2.5698491400000001 Au
atom 7.4238517999999996 37.9631313000000006 2.5813296399999999 Au
atom 10.2299985099999997 37.8707182899999992 2.7179590100000000 Au
atom 12.9480816700000005 37.7893861499999986 2.5417897699999998 Au
atom 15.7431867699999994 37.8294178399999979 2.6344760100000002 Au
atom 18.6993925899999986 37.8737063499999991 2.6243297999999999 Au
atom 21.5529199100000000 37.7977835900000017 2.6035513099999998 Au
atom 24.3777973299999999 37.9619227000000024 2.7414610000000001 Au
atom 27.1376983000000003 37.7714790100000002 2.8893366800000000 Au
atom 2.0094277300000001 37.8587301700000012 2.7807111099999999 Au
atom 4.3231020200000003 37.8823645499999984 2.6309899799999998 Au
atom 8.7773236400000005 0.9137884200000000 2.4714002399999999 Au
atom 11.6135875399999993 0.8472317200000000 2.6497853899999999 Au
atom 14.4229602799999999 0.7934874900000000 2.7741361699999998 Au
atom 17.2796306400000006 0.7506645500000000 2.7989601799999999 Au
atom 20.1215612700000008 0.8707424300000000 2.6313193899999998 Au
atom 22.8974351899999995 0.9402755600000000 2.7967912199999998 Au
atom 25.6988643100000012 0.9330824900000000 2.8989337200000000 Au
atom 0.3822515600000000 0.8980068400000000 2.7598284799999999 Au
atom 3.2157689500000002 0.8338567200000000 2.9312640700000001 Au
atom 5.9909845300000004 0.9154237300000000 2.6693224299999998 Au
atom 7.4088155400000000 3.2867090100000000 2.3798202399999999 Au
atom 10.2992953200000006 3.2705682299999999 2.4565108400000000 Au
atom 13.1111236499999997 3.2286990499999999 2.6847124700000000 Au
atom 15.8948646399999998 3.3065531500000001 2.7213878700000000 Au
atom 18.7281207199999997 3.3091830799999999 2.5776532699999999 Au
atom 21.5541860900000017 3.3383650700000000 2.7475867699999998 Au
atom 24.3059248900000000 3.4607386999999998 2.6196086099999998 Au
atom 27.0717565499999999 3.3948321600000000 2.7060321500000000 Au
atom 1.7288459199999999 3.3362058100000000 2.9088092600000000 Au
atom 4.5307688199999996 3.5061490599999998 2.8140618100000001 Au
atom 8.8501982199999993 5.7904186500000003 2.5787437199999999 Au
atom 11.6399095100000007 5.8063576399999999 2.8176142199999998 Au
atom 14.5337564799999992 5.7398357999999998 2.5873347999999998 Au
atom 17.3611261500000005 5.8244492699999997 2.7587182200000000 Au
atom 20.2373092300000010 5.7694620299999997 2.6600809600000002 Au
atom 23.0100017600000015 5.9888776699999999 2.9454080299999998 Au
atom 25.3326287699999995 5.9267719999999997 2.6956911799999999 Au
atom 0.9586785200000000 5.8087530300000001 2.9340186400000001 Au
atom 3.2840889299999998 5.9945727199999999 2.9002839200000001 Au
atom 6.2427971299999996 5.8633466500000004 2.6259596100000002 Au
atom 7.5019779700000004 8.3689468199999997 2.1168613999999999 Au
atom 10.2497506000000005 8.2647864099999993 2.5755832600000002 Au
atom 13.0839820000000007 8.1196712899999994 2.5412200899999999 Au
atom 15.9490780799999996 8.2476617900000004 2.5402788900000002 Au
atom 18.7289680400000016 8.2488598100000008 2.5229638200000002 Au
atom 21.4966780399999990 8.2455712499999994 2.4173714700000000 Au
atom 24.3854834199999999 8.3659160200000002 2.6214384900000001 Au
atom 27.3377657599999999 8.3805492899999994 2.8359826500000000 Au
atom 1.8863078600000001 8.4843096399999993 2.9658527700000001 Au
atom 4.8150168700000000 8.3097436499999997 2.6115388799999999 Au
atom 8.8992803200000008 10.8039861100000003 2.4788836999999999 Au
atom 11.8574685700000000 10.9139321099999993 2.4005424600000000 Au
atom 14.5538592300000005 10.6093701199999995 2.4288861200000000 Au
atom 17.3509747999999995 10.7543380800000001 2.6553914900000000 Au
atom 20.1292628499999999 10.8037461799999992 2.5253290599999998 Au
atom 22.9711864599999984 10.6896474799999996 2.2131859100000000 Au
atom 25.8518894999999986 10.7555195000000001 2.3996631800000001 Au
atom 0.5179837200000000 10.8968314100000008 2.8991830400000000 Au
atom 3.3433401800000002 10.8448153400000002 2.7338936500000002 Au
atom 5.9307559799999998 11.2271151099999997 2.6181283999999998 Au
atom 8.0909203800000000 12.9588841000000006 5.7271967899999998 Cl
atom 8.1306574999999999 15.7898179800000005 8.4836869299999993 Cl
atom 8.1106923099999992 13.1957141100000008 8.4419545899999999 Na
atom 7.9864617000000004 15.7579732900000007 5.6122523800000002 Na
atom 8.1131707800000008 18.5447056100000012 5.5712729599999999 Cl
atom 7.9958034099999997 21.5960022199999990 8.3360228700000008 Cl
atom 8.1247115900000004 18.7726541500000010 8.2238278699999992 Na
atom 8.0530900400000007 21.4496494999999996 5.6941807200000003 Na
atom 7.8417446599999998 24.0997621899999999 5.4482740200000004 Cl
atom 8.0714991800000000 26.8510018499999994 8.4060395400000001 Cl
atom 8.0587333799999996 23.9553986399999985 8.2623317899999993 Na
atom 8.1539134900000008 26.9135373099999988 5.6119392100000001 Na
atom 7.9936096200000000 29.8791421200000009 5.5984290200000002 Cl
atom 8.0251803000000006 32.7718765199999993 8.5012872599999998 Cl
atom 8.0225762599999992 29.8926450700000004 8.4065866800000002 Na
atom 7.8590763900000002 32.7790287600000028 5.7857964600000003 Na
atom 7.8182369999999999 35.6627550400000004 5.6477518499999997 Cl
atom 7.8890488699999999 38.3687496100000018 8.6360202200000007 Cl
atom 7.8709081400000001 35.4882657200000011 8.3794679900000002 Na
atom 7.8044891099999996 38.9815533299999970 5.7347407099999996 Na
atom 7.8549545500000004 1.1152897700000000 5.8621911999999998 Cl
atom 7.9861071499999996 4.5087403200000002 8.5196219299999996 Cl
atom 7.6772010000000002 1.5702089699999999 8.0389132799999992 Na
atom 7.9319121700000004 4.6808499599999998 5.7508766500000004 Na
atom 7.9264393499999999 7.3832535600000000 5.5636202499999996 Cl
atom 8.3235700599999998 10.2109132000000002 8.5645013100000007 Cl
atom 8.2101032400000005 7.4190459400000002 8.5963073300000001 Na
atom 8.3240188800000006 10.2393307100000008 5.6551870299999996 Na
atom 10.9063541799999992 13.1170053800000002 5.7616890700000001 Na
atom 13.7158151400000001 12.9202742399999995 5.9277917000000002 Cl
atom 10.8387990700000003 15.7185820199999995 8.2323319799999997 Na
atom 13.5047800099999993 15.6778231500000000 8.5229867699999993 Cl
atom 13.5936998700000000 12.8857283700000007 8.2503294900000004 Na
atom 10.8525609500000009 12.9886143900000004 8.4670644900000003 Cl
atom 13.5124789599999993 15.8538127600000003 5.5735798699999997 Na
atom 10.7771688799999996 15.7898636700000008 5.4587187500000001 Cl
atom 10.6538513199999993 18.4919461699999985 5.5284358500000002 Na
atom 13.5162256000000003 18.5586664399999997 6.0643760300000000 Cl
atom 10.9255910400000005 21.1766232499999987 8.2816878599999999 Na
atom 13.6575044200000004 21.3517509499999996 8.4119117400000007 Cl
atom 13.5907742799999998 18.4539253400000014 7.7353522000000003 Na
atom 10.8118821799999996 18.6144047800000010 8.5043454399999998 Cl
atom 13.6783941599999999 21.6433318899999989 5.5415903399999999 Na
atom 10.8824134099999998 21.3766595700000011 5.4360726599999998 Cl
atom 11.0925477600000004 24.1200537200000014 5.8858668500000002 Na
atom 13.8231251499999992 24.1756290500000013 5.8692069699999996 Cl
atom 10.7842899499999998 26.9217484300000010 8.7894005100000001 Na
atom 13.5491316699999995 27.0653698200000008 8.7337121000000000 Cl
atom 13.5838640999999996 24.2777831299999995 8.5256303599999992 Na
atom 10.8513754500000008 24.0877989899999996 8.2356160500000009 Cl
atom 13.6301905100000003 27.1107227600000016 5.5822529500000000 Na
atom 10.8495839899999993 26.9930322800000013 5.4569162599999999 Cl
atom 10.7446296300000004 29.8987603899999996 5.9707577100000000 Na
atom 13.5871118400000004 29.8634605999999998 6.0432970800000003 Cl
atom 10.8126796200000008 32.7570114999999973 8.2359606999999997 Na
atom 13.4510386499999992 32.7917517799999985 8.5739862299999992 Cl
atom 13.4536912700000002 29.8299001900000000 8.2485832600000002 Na
atom 10.6884907200000008 29.9747620700000006 8.6692990499999993 Cl
atom 13.5889870199999994 32.7285651600000023 5.7110164299999999 Na
atom 10.7902787500000006 32.7176659000000001 5.8265449499999997 Cl
atom 10.7430735700000000 35.4896749700000029 5.8636266700000004 Na
atom 13.5033395100000000 35.5113136399999973 5.8338368999999997 Cl
atom 10.6169353500000003 38.1329549000000014 8.5934759399999994 Na
atom 13.4360079599999995 38.3669731399999989 8.8145281299999994 Cl
atom 13.4084771499999995 35.5771017799999996 8.6089121599999991 Na
atom 10.5408179799999999 35.6710702100000034 8.7782987400000003 Cl
atom 13.4199271099999997 38.2684897099999972 6.1247793599999998 Na
atom 10.7113521899999995 38.3660295099999971 5.9002041299999997 Cl
atom 10.6455061600000001 1.8842372199999999 5.7434328700000004 Na
atom 13.6005814800000007 1.7066646900000000 6.2182038899999998 Cl
atom 10.9023735300000002 4.6314389599999997 8.3861516300000005 Na
atom 13.5783379499999999 4.5296841499999996 8.5854758499999999 Cl
atom 13.3539271500000005 1.7012016999999999 8.3612166600000002 Na
atom 10.9139651799999999 1.6356734399999999 8.7226659200000007 Cl
atom 13.5740221299999995 4.4509832500000002 5.8179456500000004 Na
atom 10.7860232600000003 4.6059362100000003 5.6922126100000003 Cl
atom 10.8200364600000007 7.3469617700000001 5.5535612900000002 Na
atom 13.7011195299999997 7.3783444899999999 5.7362060399999999 Cl
atom 10.5717477100000004 10.1816677500000008 8.4701035600000001 Na
atom 13.5202006699999995 10.1897500999999995 8.6242650899999997 Cl
atom 13.6259063400000002 7.3307087400000004 8.4998800699999997 Na
atom 10.7923617800000002 7.3847601200000001 8.2570270200000007 Cl
atom 13.5761594999999993 10.0615961200000008 5.7526764200000002 Na
atom 10.7726118100000008 10.1865798999999999 5.5554475900000000 Cl
atom 16.3240875800000005 13.3032409000000005 5.7085198400000001 Na
atom 19.1457939800000005 12.6455508499999993 5.5064260300000001 Cl
atom 16.4084744399999991 15.7547344900000006 8.9189822099999994 Na
atom 19.2202085899999986 15.7600124800000003 8.5364638999999993 Cl
atom 19.1863024300000014 12.9570109200000001 8.5968756600000003 Na
atom 16.4796127299999995 12.8825425399999993 8.5628300799999995 Cl
atom 19.1296454800000006 15.8511658900000008 5.7635308800000002 Na
atom 16.4505744100000015 15.7205647000000006 5.3414895800000002 Cl
atom 16.3252355999999992 18.5839478599999985 5.6007711100000002 Na
atom 19.2136917400000016 18.6214985599999991 5.9594324199999997 Cl
atom 16.5373487600000004 21.3872781299999986 8.3848959399999998 Na
atom 19.2518993000000016 21.5745973699999993 8.5795358799999999 Cl
atom 19.2023173800000002 18.6227635599999992 8.2734427999999998 Na
atom 16.3350378700000007 18.6818283399999991 8.4406672100000009 Cl
atom 19.2550448000000003 21.5404695799999999 5.7805155800000003 Na
atom 16.5284012099999984 21.4772079500000004 5.6847180599999998 Cl
atom 16.5053905000000007 24.3279705700000015 5.7815031100000001 Na
atom 19.2660845599999995 24.3839066799999991 5.4546192700000002 Cl
atom 16.4030855699999982 27.0904701199999991 8.3224371900000005 Na
atom 19.2167666200000014 27.2719912600000001 8.5541190000000000 Cl
atom 19.2190759100000008 24.4663516399999992 8.8937927400000003 Na
atom 16.3446762999999997 24.0740455900000008 8.4981274899999999 Cl
atom 19.3159399799999996 27.2338479199999988 5.8628344800000001 Na
atom 16.5617641700000000 27.1874903600000017 5.6014273200000000 Cl
atom 16.3792382399999994 30.1297094500000000 6.1230539400000001 Na
atom 19.2403481099999993 30.0503665099999999 5.7554577099999999 Cl
atom 16.3121937800000012 32.9849924999999971 8.3680551100000002 Na
atom 19.1796578099999984 32.8428106400000033 8.7053101599999998 Cl
atom 18.8572099699999995 30.0808335199999988 8.4529744999999998 Na
atom 16.6192689300000005 29.9606925599999983 8.4628558100000006 Cl
atom 19.4964663000000016 32.9139645099999996 5.9008018499999997 Na
atom 16.3865962600000010 32.6433600700000000 5.6495990200000001 Cl
atom 16.2760859899999986 35.6223659999999995 5.8876707699999997 Na
atom 19.0474351499999983 35.8333412300000020 5.7726016500000004 Cl
atom 16.3266213799999989 38.3532115900000008 8.5903763000000009 Na
atom 19.1900515600000006 38.4696825400000009 8.7282413400000003 Cl
atom 18.8359791600000008 35.5501434900000035 8.5230104699999991 Na
atom 16.4877093899999991 35.7010650699999985 8.7717909899999995 Cl
atom 19.0312078599999985 43.0496121299999999 5.9776817299999996 Na