#===============================================================================
# Created using the Atomic Simulation Environment (ASE)

# Tue Dec 23 22:27:00 2025

#=======================================================
lattice_vector 28.1999999999999993 0.0000000000000000 0.0000000000000000 
lattice_vector 0.0000000000000000 39.4799999999999969 0.0000000000000000 
lattice_vector 0.0000000000000000 0.0000000000000000 62.3296083400000001 
atom 7.5941200499999999 14.8573999800000003 0.0491797900000000 Au
atom 10.4860326300000004 14.7423876299999996 0.0252718400000000 Au
atom 13.2039932300000000 14.6247269800000002 0.2857719200000000 Au
atom 15.9840996600000000 14.7740297599999995 -0.1976863800000000 Au
atom 18.8069194599999996 14.7294000100000009 -0.1564079700000000 Au
atom 21.7323906300000012 14.7259549799999991 -0.1917952700000000 Au
atom 24.5418562400000013 14.6652799399999996 -0.1561361700000000 Au
atom 27.2937063699999989 14.7690035599999998 -0.0872704900000000 Au
atom 2.0188143099999998 14.8162959799999996 -0.2315464700000000 Au
atom 4.7656760900000004 14.9976678400000001 -0.0969744000000000 Au
atom 8.9893505200000003 17.2030692000000016 0.1320398200000000 Au
atom 11.8748741500000001 17.2330338500000018 0.1962955900000000 Au
atom 14.6253948000000005 17.1537743300000010 0.1789825900000000 Au
atom 17.4394687499999996 17.1833506299999996 0.1328018200000000 Au
atom 20.3049065199999994 17.1729826000000010 -0.2613439600000000 Au
atom 23.0754609399999993 17.2031842200000007 -0.5058304900000000 Au
atom 25.8390293399999997 17.2650267900000003 -0.0259259700000000 Au
atom 0.5348113300000000 17.3134158999999990 0.0322414300000000 Au
atom 3.2572723899999998 17.3365469999999995 0.0480146400000000 Au
atom 6.2338346500000004 17.3839719600000002 -0.0807598300000000 Au
atom 7.6215407500000003 19.7705434599999990 0.0561007800000000 Au
atom 10.3722856599999993 19.6400898999999995 0.0701456100000000 Au
atom 13.2827304200000000 19.6635966400000015 0.1028760900000000 Au
atom 16.1278826899999999 19.6814808700000015 0.3459444900000000 Au
atom 18.9141891499999986 19.7253597399999983 -0.1128045400000000 Au
atom 21.6322833099999983 19.7754447900000017 -0.0619998500000000 Au
atom 24.3751933799999989 19.7031006700000013 -0.1725958900000000 Au
atom 27.2573783300000017 19.7328989300000011 -0.1110578300000000 Au
atom 1.8350432600000000 19.7642792900000011 0.0634182000000000 Au
atom 4.7511097700000002 19.7699785100000014 0.0640957500000000 Au
atom 8.9780099399999997 22.2797209100000018 0.0314350000000000 Au
atom 11.8446070100000007 22.0972896900000002 0.1451586900000000 Au
atom 14.6363768099999998 22.1747356599999996 0.1491739100000000 Au
atom 17.4921740399999983 22.2079681899999990 0.3406703800000000 Au
atom 20.2466387800000014 22.2269164400000001 0.0879648400000000 Au
atom 23.0113333900000008 22.2589654000000010 -0.0202377300000000 Au
atom 25.9417794400000012 22.1710116399999997 -0.1258181600000000 Au
atom 0.5300961500000000 22.2620810499999990 -0.1850169700000000 Au
atom 3.3425517000000000 22.1342242899999988 -0.1967367900000000 Au
atom 6.1589324200000002 22.2097588100000003 0.1070706200000000 Au
atom 7.5166522599999999 24.6414191000000002 0.1641577600000000 Au
atom 10.4139307399999996 24.7020750100000015 0.1863839500000000 Au
atom 13.1407229099999991 24.6956068399999999 0.2275786500000000 Au
atom 15.9578109099999992 24.6165530299999986 0.0968053900000000 Au
atom 18.7814641500000015 24.6841090799999989 0.2020461700000000 Au
atom 21.5669725800000016 24.7064613699999995 0.0581341600000000 Au
atom 24.4228714400000015 24.6169659299999992 0.0243392200000000 Au
atom 27.3380412799999988 24.6140808399999997 0.0182137200000000 Au
atom 1.9258360100000000 24.7238696500000010 -0.0507689600000000 Au
atom 4.7781486400000004 24.6784125699999990 0.0758563800000000 Au
atom 9.0547153999999992 27.1373254700000004 0.2810952400000000 Au
atom 11.8467552099999995 27.1028627200000010 0.2523309200000000 Au
atom 14.5861680699999994 27.0891615500000000 0.3330037800000000 Au
atom 17.2376812699999995 27.1803589300000006 -0.0070825500000000 Au
atom 20.3203601599999999 27.2656444100000002 0.2997290900000000 Au
atom 23.0495287200000014 27.3612651299999996 0.1879494900000000 Au
atom 25.9155638099999983 27.2022929799999993 0.1621115900000000 Au
atom 0.5987561400000000 27.2107508500000002 -0.0188461100000000 Au
atom 3.3831838799999998 27.1145551900000008 0.2093502900000000 Au
atom 6.1484675800000002 27.0896808000000000 0.0710531400000000 Au
atom 7.6983297799999999 29.6101702600000003 0.1621575800000000 Au
atom 10.4594071199999998 29.5862204099999992 0.2052311000000000 Au
atom 13.2378742700000007 29.5758231500000015 0.2567104500000000 Au
atom 15.9984165899999997 29.6024923300000005 0.2227288300000000 Au
atom 18.9385833599999991 29.7194631600000001 0.0078060700000000 Au
atom 21.8318627200000002 29.3243005900000000 0.1715585000000000 Au
atom 24.4910232199999989 29.6141448499999989 -0.1523406400000000 Au
atom 27.2210812699999991 29.6751108899999991 -0.0995887300000000 Au
atom 1.9875948400000001 29.6874483699999985 0.0299346700000000 Au
atom 4.8513759700000003 29.6459574699999990 0.1834195300000000 Au
atom 9.1206558500000003 32.0162246399999972 -0.0815260200000000 Au
atom 11.8914055199999993 31.9458496799999985 0.0338726900000000 Au
atom 14.7002995700000003 32.0034669300000019 0.2214182400000000 Au
atom 17.5430084800000010 32.1934791999999987 0.0820351800000000 Au
atom 20.3800229900000005 32.0778714799999989 0.0353878500000000 Au
atom 23.1038241199999987 32.0418711599999995 0.2573938300000000 Au
atom 25.9317742500000001 32.0722560600000008 -0.3580768800000000 Au
atom 0.4444584200000000 32.1017195200000032 0.0715535900000000 Au
atom 3.2969627799999999 31.9830134199999989 -0.0844374200000000 Au
atom 6.2220002699999997 32.0651125400000012 -0.0186896900000000 Au
atom 7.6011455100000003 34.5486250900000016 -0.0462635400000000 Au
atom 10.5587733799999999 34.3939543899999975 -0.0195263800000000 Au
atom 13.1749697599999998 34.4747898899999967 0.0431346200000000 Au
atom 15.9782367799999996 34.4954479700000007 0.2604365800000000 Au
atom 18.8422671199999989 34.4041620400000028 0.2196665000000000 Au
atom 21.6615633199999991 34.5704244200000019 0.1665546500000000 Au
atom 24.4039096399999984 34.4658700299999978 -0.2511250200000000 Au
atom 27.1679326799999998 34.5028532099999978 0.1234430400000000 Au
atom 1.8329875000000000 34.4900199400000034 0.0956203200000000 Au
atom 4.7426611699999999 34.6828237400000035 -0.0584803700000000 Au
atom 9.1053424799999991 37.0118054300000026 0.0763658500000000 Au
atom 11.8496439400000000 36.9157228099999983 -0.0874728500000000 Au
atom 14.6560494000000006 36.8701936000000003 0.0936252500000000 Au
atom 17.4724141899999985 36.9231386299999969 0.3048530000000000 Au
atom 20.2865134900000008 36.9448372299999974 0.1269597700000000 Au
atom 23.0822085100000010 36.9449982200000022 0.1392282900000000 Au
atom 24.5658912200000010 37.0167684299999991 -0.3550123800000000 Au
atom 1.5876153500000001 37.0245985399999995 -0.0996748600000000 Au
atom 3.0696789899999999 36.9451094599999976 0.0203484800000000 Au
atom 6.1299449399999997 37.0088120500000031 -0.0231971400000000 Au
atom 7.5136807299999999 -0.0234092100000000 0.0423649000000000 Au
atom 10.3946894600000004 -0.0424121600000000 0.2229360700000000 Au
atom 13.1510338299999994 -0.0859946200000000 -0.1220904600000000 Au
atom 15.8965423000000001 -0.0731732800000000 -0.1677116200000000 Au
atom 18.7361187800000017 -0.1624884500000000 -0.0633615200000000 Au
atom 21.5759716200000007 -0.0514499200000000 -0.0363935400000000 Au
atom 24.4664507299999983 -0.0811845200000000 -0.1611617300000000 Au
atom 27.3493889900000013 0.0390124800000000 0.0086270500000000 Au
atom 1.8872412700000001 0.0000764000000000 -0.0963735700000000 Au
atom 4.6567299400000000 -0.1661282000000000 -0.1982509600000000 Au
atom 9.0468843000000003 2.4110949900000000 -0.1307334300000000 Au
atom 11.8288680199999998 2.4221490600000002 0.0557268400000000 Au
atom 14.5976967500000008 2.4728648299999998 0.2713219700000000 Au
atom 17.4097846499999989 2.3819388600000000 -0.1148147600000000 Au
atom 19.9703635800000008 2.2861542600000000 -0.0365941800000000 Au
atom 23.0815007100000003 2.3494567599999998 -0.1277016700000000 Au
atom 25.8864859900000006 2.4812412300000002 -0.1586354400000000 Au
atom 0.5751550100000000 2.4374998699999999 0.2180607400000000 Au
atom 3.4532609200000000 2.6758830499999999 0.0059005600000000 Au
atom 6.0852945399999996 2.3652589599999998 0.0081040100000000 Au
atom 7.6230133899999997 4.8685912499999997 -0.5109210700000000 Au
atom 10.3963601000000008 4.8735263900000003 -0.0707722700000000 Au
atom 13.1968217600000006 4.9477099000000004 0.2778449600000000 Au
atom 15.9684765899999999 4.8980235299999997 0.3001213300000000 Au
atom 18.6731714999999987 4.9275897999999998 -0.0827835500000000 Au
atom 21.5329041299999986 4.7702840599999998 -0.3893473600000000 Au
atom 24.3014606200000003 5.0189261199999997 -0.0623459500000000 Au
atom 27.2517027700000014 4.9692542900000003 0.0304509100000000 Au
atom 1.9362581699999999 4.9265160000000003 -0.1931994000000000 Au
atom 4.6317778799999996 4.7310895100000003 -0.0581006100000000 Au
atom 8.9229122699999994 7.3625534300000002 -0.1667289900000000 Au
atom 11.8629534400000001 7.7269842000000004 0.0143395800000000 Au
atom 14.5462962000000005 7.3266067899999996 0.0038686600000000 Au
atom 17.3280196000000011 7.4123456000000001 -0.1791246000000000 Au
atom 20.0965041299999996 7.3860254100000002 -0.3445512600000000 Au
atom 22.9277250700000010 7.4588334600000001 -0.5070744600000000 Au
atom 25.8429343299999985 7.2538558799999997 -0.5730923000000000 Au
atom 0.4734882100000000 7.2921720199999998 -0.4111210800000000 Au
atom 3.2667694599999999 7.3493972899999997 0.1631676100000000 Au
atom 6.0586972299999999 7.3908980199999998 -0.3388557300000000 Au
atom 7.6263117300000003 9.8930944600000004 -0.0793952500000000 Au
atom 10.1122442100000001 9.9217453700000000 0.1481594400000000 Au
atom 12.9575215200000002 9.4443169699999991 0.1668280100000000 Au
atom 15.9062196799999995 9.8250107999999994 -0.2466931800000000 Au
atom 18.7687759900000017 9.8080511700000006 -0.1057820100000000 Au
atom 21.5755635300000002 9.8716606299999992 -0.5193955700000000 Au
atom 24.4324998899999990 9.7886408800000009 -0.4922344900000000 Au
atom 27.2484687900000004 9.7726544099999995 -0.5895246100000000 Au
atom 1.9240203700000000 9.8738591499999995 -0.4020332800000000 Au
atom 4.7248906499999999 9.9015278099999993 -0.0107588000000000 Au
atom 8.9369093999999993 12.4925852600000002 -0.0790733100000000 Au
atom 11.7628680800000005 12.2635324299999997 0.2081107200000000 Au
atom 14.5684694599999993 12.2518930400000006 0.1208064100000000 Au
atom 17.3957810500000001 12.3294620500000001 0.0545580700000000 Au
atom 20.2494504699999993 12.2848973299999997 -0.2160092500000000 Au
atom 23.1245936000000007 12.2928779299999995 -0.4105312400000000 Au
atom 24.9676410699999991 12.3089086800000000 -0.3185312900000000 Au
atom 1.3495078300000001 12.2808158800000005 -0.3048695100000000 Au
atom 3.4594868600000002 12.4279730300000004 -0.3852603600000000 Au
atom 5.9919040600000004 12.4684545000000000 -0.3542474300000000 Au
atom 7.5628308400000002 12.8879996200000004 2.4011403499999999 Au
atom 10.3704840699999998 13.1798205500000005 2.7180795199999999 Au
atom 13.5310301099999997 13.0298079199999997 2.8981078400000002 Au
atom 16.0606307999999984 13.0926345499999996 2.5923169800000001 Au
atom 18.9594376599999990 13.1365636099999996 2.7540609400000000 Au
atom 21.6531836899999988 13.1853788600000001 2.1189177600000000 Au
atom 24.4447550999999983 13.1620280800000007 2.5487463400000001 Au
atom 29.7567838199999990 13.1370864899999997 2.3052521800000001 Au
atom -0.6475940700000000 13.3716667900000008 2.2490007599999999 Au
atom 4.6978393799999996 13.2642994800000000 2.3399831700000000 Au
atom 8.9377846400000003 15.4427789400000002 2.6855774200000000 Au
atom 11.7224323899999998 15.6759424900000006 2.7598825300000001 Au
atom 14.5790596000000008 15.6044555500000008 2.7200222799999998 Au
atom 17.3938428300000005 15.6123533800000001 2.5937707500000000 Au
atom 20.0785291999999984 15.6314475500000007 2.3560157899999998 Au
atom 23.0687573899999983 15.5835562299999992 2.5271494099999998 Au
atom 25.8731580500000007 15.5822377400000001 2.6121604500000002 Au
atom 0.4476781400000000 15.4943521900000007 2.5156957200000001 Au
atom 3.2314831599999998 15.5643919999999998 2.5293467500000002 Au
atom 6.1022517399999998 15.6309325999999995 2.6492941000000001 Au
atom 7.4439576699999996 18.0550413700000014 2.7173475800000002 Au
atom 10.2889867000000006 18.0170104100000010 2.7589126400000001 Au
atom 13.2037753299999991 18.0911951199999983 2.7576916800000002 Au
atom 16.0483671399999999 17.9829304500000013 2.5759186299999999 Au
atom 18.7728165199999992 18.0376156600000002 2.5854542199999999 Au
atom 21.6899664500000000 18.0155578399999996 2.2589209299999999 Au
atom 24.4428407800000009 17.9725304699999988 2.4203003900000000 Au
atom 29.0864733999999991 18.1148249800000016 2.4852519100000001 Au
atom 0.0221642100000000 18.0736162600000014 2.6711198899999999 Au
atom 4.6677769500000004 17.9850595999999996 2.5123642799999999 Au
atom 8.9209752499999997 20.4181312699999999 2.6988639999999999 Au
atom 11.8574310500000006 20.5151174800000007 2.7310623600000001 Au
atom 14.6290392699999998 20.5945372800000008 2.7743407499999999 Au
atom 17.6199852099999994 20.5452735400000002 2.8426800399999999 Au
atom 20.0005636899999999 20.5026050099999999 2.6759684199999998 Au
atom 23.0245179200000010 20.5313151299999994 2.6832192500000001 Au
atom 25.8378116400000017 20.5531300700000017 2.5374114400000001 Au
atom 0.4140660000000000 20.6027194199999997 2.7081983300000001 Au
atom 3.1658082500000000 20.4637163899999983 2.6513931199999998 Au
atom 6.0958570900000000 20.4285112099999999 2.7072049200000001 Au
atom 7.5177566899999997 22.8798105700000001 2.7399680000000002 Au
atom 10.3244659300000006 22.8611231699999990 2.5632487199999998 Au
atom 13.2234032700000004 23.0377737099999997 2.7599741400000002 Au
atom 16.0406293099999999 23.0744363600000000 2.7431218700000000 Au
atom 18.7856565099999990 23.0862952999999997 2.8920032500000001 Au
atom 21.6420985500000000 23.0597006499999999 2.8088122000000002 Au
atom 24.3951848799999986 23.0135662600000011 2.4451332300000002 Au
atom 27.3047076100000012 23.0280924300000009 2.4996949800000001 Au
atom 1.9593634799999999 22.9771726600000008 2.4232029399999999 Au
atom 4.6812778599999998 22.9268991900000003 2.6920019499999999 Au
atom 8.9597708500000000 25.3118440199999988 2.7773636100000001 Au
atom 11.7179096800000000 25.4431394100000006 2.9099071900000002 Au
atom 14.5907215400000005 25.4887130100000014 2.6355780700000002 Au
atom 17.2723664100000001 25.8583412400000014 2.7564790399999999 Au
atom 20.2603609700000007 25.4991351199999983 2.8939177400000000 Au
atom 23.0301208899999992 25.5242894599999985 2.6246019999999999 Au
atom 25.9146721100000015 25.5597175300000004 2.6905185299999999 Au
atom 0.5762713400000000 25.5018282300000010 2.7660723100000002 Au
atom 3.3884526400000001 25.4422552499999988 2.8519413299999998 Au
atom 6.2320382700000003 25.3872260700000005 2.6745991199999999 Au
atom 7.6067660400000001 27.8640947399999988 2.7207359800000002 Au
atom 10.4343099600000002 28.0141263400000007 2.7508877400000000 Au
atom 13.2134268499999994 27.9483454999999985 2.8973667999999999 Au
atom 16.0808163700000009 27.9465583700000018 2.9131225199999999 Au
atom 18.7759399999999985 28.0695349199999988 2.7742113599999998 Au
atom 21.6764614400000006 27.9759874500000016 2.8718445500000001 Au
atom 24.5475568600000003 28.0056302099999996 2.6447409700000000 Au
atom 27.3664975599999991 28.0500237000000006 2.7210605900000000 Au
atom 1.9657648800000000 28.0015308900000015 2.6318661400000001 Au
atom 4.7769211800000004 28.0494558699999992 2.7464933500000002 Au
atom 9.0363750599999992 30.4777111500000011 2.7529747699999998 Au
atom 11.9570765899999998 30.5368960800000018 2.9405258500000002 Au
atom 14.2284951700000004 30.4274331599999996 2.8478391300000001 Au
atom 17.3313296100000009 30.5399497900000014 2.5426026400000001 Au
atom 20.3892404800000016 30.4485295399999991 2.5102391900000001 Au
atom 23.1658867300000004 30.5769096500000011 2.7106718900000000 Au
atom 25.9092976200000003 30.5710240599999992 2.4002109599999999 Au
atom 0.5486984100000000 30.4788055200000016 2.5776943200000000 Au
atom 3.4597662300000001 30.5385589499999988 2.6012755799999998 Au
atom 6.1790327600000001 30.4106785700000017 2.9588013300000000 Au
atom 7.6444878699999999 32.9501035799999968 2.5554288900000000 Au
atom 10.4264348600000005 32.9044049700000016 2.6469200200000000 Au
atom 13.2247211399999998 32.9557081199999971 2.6566079899999999 Au
atom 16.0067462999999996 32.8817256299999983 2.9981276800000001 Au
atom 18.8972857300000001 32.8744492200000025 2.7196389500000002 Au
atom 21.6786534400000015 32.8638369299999979 2.7849972799999998 Au
atom 24.6145043200000018 33.0254822500000031 2.4541841899999999 Au
atom 27.3776889600000004 32.9681829100000030 2.6690855500000001 Au
atom 1.9999353099999999 32.9768985099999981 2.6026725499999999 Au
atom 4.8512123200000001 32.9093531299999995 2.4820251700000000 Au
atom 8.9983193499999992 35.4202644200000023 2.6956777700000001 Au
atom 11.8171510899999994 35.5110905499999987 2.5178868200000002 Au
atom 14.6391351099999998 35.4229133600000026 2.6621004400000001 Au
atom 17.4376762899999989 35.3628204600000018 2.9888119000000000 Au
atom 20.2413010200000016 35.3405350700000014 2.7317768999999998 Au
atom 23.0661230400000008 35.3612922599999990 2.8111094699999999 Au
atom 25.9071563000000005 35.0801670399999992 2.4325601200000002 Au
atom 0.5121311500000000 35.5126659100000026 2.6414312099999999 Au
atom 3.3894242499999998 35.5187488799999969 2.4279939499999998 Au
atom 6.2686101299999999 35.3983655500000012 2.5504488300000001 Au
atom 7.6967237800000001 37.9093555999999978 2.5641196399999999 Au
atom 10.4066483499999993 37.9722409000000027 2.9753229800000001 Au
atom 13.1689345499999995 37.9891818199999989 2.4377288799999999 Au
atom 15.9194027299999998 37.8198280599999990 2.8002428300000002 Au
atom 18.8362302600000007 37.9365534900000014 2.7260487300000000 Au
atom 21.5864622900000001 37.8630804699999999 2.7838594099999998 Au
atom 24.2764409999999984 38.0634353299999972 2.6339541299999998 Au
atom 27.2314105700000013 38.0067322399999981 2.4571527899999999 Au
atom 2.1638779700000002 36.7242393900000010 2.4977965700000002 Au
atom 4.7689737499999998 37.8053393499999970 2.4232365699999998 Au
atom 9.0554488200000005 1.4437862299999999 2.6818101300000001 Au
atom 11.8452820699999997 0.9184622000000000 2.6314290100000002 Au
atom 14.7054920100000004 0.8472917700000000 2.6371454700000001 Au
atom 17.4280770800000013 0.8210817200000000 2.4596112500000000 Au
atom 20.3125558499999990 0.8102932800000000 2.7824842500000000 Au
atom 23.1007268699999990 0.8457209900000000 2.5091904000000000 Au
atom 25.9163711499999998 0.8789373300000000 2.4830376799999998 Au
atom 0.3263041400000000 -2.9071061000000000 2.6947880799999999 Au
atom 3.1676909200000001 5.5194376299999997 2.4874692600000001 Au
atom 6.1137297200000003 0.7701215000000000 2.8280341500000001 Au
atom 7.6546656799999999 2.9379244299999998 2.5075941700000000 Au
atom 10.1058871999999997 3.0899103200000000 2.6903260200000001 Au
atom 13.2904673700000000 3.3295732299999998 2.8102746000000001 Au
atom 16.1306910700000010 3.2935350300000001 2.7538783100000002 Au
atom 18.8712417399999985 3.3041022299999998 2.3574613400000000 Au
atom 21.6334531599999984 3.2326627100000001 2.1986322199999999 Au
atom 24.4749554600000003 3.2958767999999998 2.3960124800000000 Au
atom 27.2950251299999991 3.3412721300000001 2.7592726000000001 Au
atom 1.8753611400000001 3.1897556699999998 2.7159640899999999 Au
atom 4.7117506499999999 3.2971668400000000 2.6652690200000002 Au
atom 8.8999145599999991 5.7055973599999996 2.3420844999999999 Au
atom 11.7668769700000002 5.7172311100000002 2.5276883200000002 Au
atom 14.5874612300000006 5.7694760599999997 2.9706370299999998 Au
atom 17.4296626799999999 5.8171979900000004 2.5972092600000001 Au
atom 20.2709098700000006 5.8073422600000004 2.2447296400000001 Au
atom 23.0927086400000015 5.6976205100000001 2.3416982499999999 Au
atom 25.9096684900000014 5.8776898800000001 2.4028607599999998 Au
atom 0.5612882800000000 5.7549051599999999 2.3563969299999998 Au
atom 3.3450464100000001 5.7068554300000001 2.7260257200000000 Au
atom 6.1553545099999996 5.8035655400000001 2.2279196799999998 Au
atom 7.4570085600000002 8.3388445400000002 2.4078488299999998 Au
atom 10.3463120699999997 8.2579242100000005 2.3831188499999998 Au
atom 13.2071288599999992 8.1512522199999999 2.7021851099999998 Au
atom 16.0061074199999993 8.2606499000000007 2.6262281000000001 Au
atom 18.8472591200000004 8.1722260200000001 2.5095125399999998 Au
atom 21.7057177299999999 8.2545049800000001 2.1115133799999999 Au
atom 24.4669480200000002 8.2533791000000001 1.9975035800000001 Au
atom 27.3000799500000007 8.3452245699999992 2.0905332900000002 Au
atom 1.8151651000000000 8.2944853900000002 2.4392073700000001 Au
atom 4.6849336600000004 8.1591265300000000 2.4705640099999999 Au
atom 8.9676105300000000 10.9413557299999997 2.6593249399999999 Au
atom 11.7918993400000005 10.7136984900000005 2.7840304200000001 Au
atom 14.6676828199999996 10.6874230400000005 2.5963467699999998 Au
atom 17.4172419400000003 10.6044759699999993 2.3688900600000000 Au
atom 20.2359273000000002 10.5564487200000006 2.3392908900000000 Au
atom 23.0149036299999992 10.7321197000000002 2.2400635100000001 Au
atom 25.8125557999999984 10.7582170500000007 2.1849563600000002 Au
atom 0.4712974500000000 10.7475646200000003 2.2707572599999999 Au
atom 3.4295711199999999 10.7423308700000000 2.3712832399999999 Au
atom 5.8457057600000004 10.7336859199999992 2.6106926200000000 Au
atom 7.4937478300000002 13.2842486900000001 5.8910471400000004 Cl
atom 7.3898301300000000 16.3300695400000002 8.5349898900000003 Cl
atom 7.5524317700000001 13.4964664800000005 8.3545178900000003 Na
atom 7.1689875799999996 16.3814804100000018 5.7831798699999997 Na
atom 7.3757433600000004 19.2091987199999998 5.7271993300000004 Cl
atom 7.2993534999999996 21.9407080900000011 8.6632451400000008 Cl
atom 7.3294546299999999 19.0104819399999982 8.4663047599999999 Na
atom 7.3489894700000002 21.9050938100000003 5.9200561499999997 Na
atom 7.4771236900000000 24.7417530300000017 5.9304586900000000 Cl
atom 7.2464960400000002 27.3930839699999993 8.4893718000000007 Cl
atom 7.3737634600000002 24.6643478800000011 8.5076130800000005 Na
atom 7.4839816199999998 27.3630718399999999 6.0795546299999996 Na
atom 7.7983018399999997 30.4737525600000012 5.8036985200000002 Cl
atom 7.4960478799999999 33.0015153599999991 8.6971869300000009 Cl
atom 7.3998538800000002 30.3885799200000015 8.7365614800000007 Na
atom 7.5821182100000000 32.9670453600000002 6.0082185600000004 Na
atom 7.4549767100000004 35.8489020299999979 5.8697188799999997 Cl
atom 7.4516652800000003 38.7421492100000009 8.5549559300000002 Cl
atom 7.5454109200000001 35.8207030499999988 8.5262729200000003 Na
atom 7.5377571799999998 40.8357443800000013 5.8225261699999997 Na
atom 7.5028623999999997 -0.7323245600000000 5.5501862199999996 Cl
atom 7.5120698299999997 4.8779969200000002 8.4366632300000006 Cl
atom 7.5196531799999997 2.2569105100000000 8.7457764400000002 Na
atom 7.3887657500000001 4.8834639900000001 5.6178123500000003 Na
atom 7.2978495800000003 7.7218038000000000 5.7721563600000003 Cl
atom 7.6470011700000002 10.4656774699999993 8.3535965900000004 Cl
atom 7.4111084099999998 7.6767321099999997 7.9683793500000002 Na
atom 7.6424754300000002 10.5025605700000000 5.7268106899999998 Na
atom 9.9434613600000006 13.3542013399999995 5.7989837599999996 Na
atom 12.7971625800000002 13.4927349000000003 6.0979913100000003 Cl
atom 10.0663153300000001 16.3537291399999987 8.1713477500000007 Na
atom 12.9940702600000009 16.1269144000000004 8.3937994400000004 Cl
atom 12.9672053999999992 13.4028671599999996 8.4701693900000006 Na
atom 9.8299186200000008 13.1337288000000001 8.3016462000000004 Cl
atom 13.0384901099999997 16.3220741300000007 5.8637201499999998 Na
atom 10.0665948600000004 16.2974224399999983 5.7017857100000002 Cl
atom 10.0776523699999991 19.3765520000000002 5.5096348400000004 Na
atom 13.0078049900000003 19.2115752300000011 5.9624769000000004 Cl
atom 10.1999270499999994 21.9067896299999987 8.2569063299999996 Na
atom 12.9823781999999994 22.0014166200000005 8.7709828499999993 Cl
atom 13.2121444900000000 19.1178867699999984 8.2335826300000008 Na
atom 10.1578756600000002 18.9904767399999983 8.8257347700000004 Cl
atom 13.0318323800000009 22.0459205599999990 5.8440161499999999 Na
atom 10.3346756499999994 22.0422824000000013 6.1487697099999998 Cl
atom 10.3156723299999999 24.7963419899999984 6.1035576599999999 Na
atom 13.0293209099999991 24.7559153499999987 5.9266737300000001 Cl
atom 10.5041799099999995 27.6668432300000013 8.7384784599999996 Na
atom 12.9749230499999992 27.6736137299999996 8.8386182200000007 Cl
atom 13.1065973800000002 24.9086867100000013 8.8516401299999998 Na
atom 10.1418848300000004 24.6729293900000002 8.9333468600000003 Cl
atom 13.0709298799999996 27.4376738799999984 5.7056523400000003 Na
atom 10.1801939099999998 27.6207830299999983 5.8859851100000000 Cl
atom 10.0652702999999999 30.1189159699999998 5.9192823700000003 Na
atom 13.0813201899999996 30.1804917599999989 5.6333712100000000 Cl
atom 10.3905500499999999 33.0933391800000010 8.4544363100000002 Na
atom 13.3795720500000002 33.2862337500000010 8.6280762499999994 Cl
atom 13.1073304600000000 30.3919852699999993 8.3526371899999994 Na
atom 10.2494901200000008 30.4061159299999986 8.7139533500000006 Cl
atom 13.2039406699999997 33.0163059699999977 5.8831191299999999 Na
atom 10.3809386099999994 32.9923576600000032 5.7532010600000003 Cl
atom 10.3186177000000008 36.1039674599999998 5.9583192299999999 Na
atom 13.1547496499999994 36.0987673099999995 5.6858987499999998 Cl
atom 10.3619844899999993 38.6686509199999975 8.4235586700000002 Na
atom 13.2559421900000007 38.7731806700000021 8.5797095599999995 Cl
atom 13.1964459499999993 35.5815536200000011 8.4308013400000004 Na
atom 10.2569306099999995 35.8734515200000033 8.7272985900000002 Cl
atom 13.4593297799999991 38.7055566700000000 5.7976343899999998 Na
atom 10.2411660599999994 38.4251382200000009 5.8092086600000004 Cl
atom 10.3437874399999998 1.9417580000000001 5.7821904399999999 Na
atom 13.4432453100000000 2.1220954399999998 5.7881835700000002 Cl
atom 10.4671897400000002 4.8995085600000001 8.4620686200000002 Na
atom 12.9069728200000000 4.9041968799999998 8.7092525900000002 Cl
atom 13.0802547600000008 2.0999998899999999 8.4791921299999995 Na
atom 10.2480978799999995 1.9106772999999999 8.5497955999999995 Cl
atom 13.0520346200000006 4.8473286699999996 5.7976576900000003 Na
atom 10.2240522600000006 4.7145297099999999 5.6903703700000001 Cl
atom 10.3571724300000003 7.6039120799999997 6.1132894499999999 Na
atom 13.0728474899999991 7.6013868499999999 5.6693191399999998 Cl
atom 10.2208513500000002 10.5173138799999997 8.2707065699999998 Na
atom 13.0819507700000006 10.4530907600000003 8.5687109600000007 Cl
atom 13.2464573600000008 7.5538925900000002 8.3882420100000008 Na
atom 10.3472147600000000 7.6921226899999997 8.1077871199999993 Cl
atom 13.0957293000000004 10.5210884799999995 5.8704628300000001 Na
atom 10.1501811100000001 10.4629104399999999 5.7184397000000002 Cl
atom 15.9368270299999999 13.5424403600000005 5.9405963300000000 Na
atom 18.5952976600000000 13.4746711999999995 5.7256552999999997 Cl
atom 15.6473744200000002 16.2141251900000007 8.4465832800000005 Na
atom 18.8618885799999987 16.2685684299999984 8.4438799499999995 Cl
atom 18.6602349700000012 13.4897115200000002 8.0908811200000006 Na
atom 15.6539773800000006 13.4134479899999999 8.7253135999999998 Cl
atom 18.6270558199999989 16.2215672399999988 5.5687094100000003 Na
atom 15.7829025600000001 16.3015001400000017 5.9139859799999996 Cl
atom 15.8484352000000008 19.0797871000000008 5.6742489500000000 Na
atom 18.6001185800000002 18.9607618600000016 5.5584571399999998 Cl
atom 15.8623002599999996 21.7806886000000013 8.4652434499999991 Na
atom 18.8482832500000015 21.7366124899999988 8.3395576499999997 Cl
atom 18.8885949800000006 18.9171229899999993 8.3073650499999996 Na
atom 15.9311098700000002 19.0722699099999993 8.7737720299999999 Cl
atom 18.6998750600000001 22.0829811999999990 6.1539671499999997 Na
atom 15.8950465600000008 21.8625224399999993 5.7432095099999998 Cl
atom 15.9534901700000002 24.5843815100000000 5.9492780099999996 Na
atom 18.7458075899999983 24.8704481900000012 6.0175033999999998 Cl
atom 15.8869321200000009 27.5241058699999996 8.7231112000000000 Na
atom 18.6302843299999985 27.4460715399999984 8.8281992700000007 Cl
atom 18.7470685900000014 24.5551722499999983 8.4532140099999999 Na
atom 16.0239775100000017 24.5188498700000004 8.8065428699999995 Cl
atom 18.8387261700000010 27.4477685600000001 6.1099084799999996 Na
atom 15.9519360900000002 27.3748553799999996 6.0422867699999996 Cl
atom 15.9824960300000001 30.0987368800000006 5.8479385400000004 Na
atom 18.8266534199999995 30.2317568100000003 5.6897174899999996 Cl
atom 15.8639905999999993 33.0683912200000023 8.5945533899999997 Na
atom 18.7986937400000009 32.8962638100000007 8.7131617000000006 Cl
atom 18.7030766700000015 30.3076988500000013 8.4512927999999992 Na
atom 16.0118958900000017 30.2152122500000004 8.8611766599999999 Cl
atom 18.6439440099999985 33.0477966999999992 5.9174178900000003 Na
atom 15.7115837299999992 33.2355953300000024 5.7722205000000004 Cl
atom 15.9643551499999994 35.9773594400000007 5.7552895199999998 Na
atom 18.7007405099999993 35.9480812600000021 5.8787519000000001 Cl
atom 15.9969383399999998 38.7582670700000023 8.4178743300000001 Na
atom 18.7928734999999989 38.7127391599999982 8.6300398099999995 Cl
atom 18.7342000000000013 35.8988035100000005 8.6852278300000005 Na
atom 15.8683890200000004 36.0193664999999967 8.6603005300000007 Cl
atom 18.8344640900000009 38.8497771400000005 5.9013308699999998 Na