#===============================================================================
# Created using the Atomic Simulation Environment (ASE)

# Tue Dec 23 22:26:40 2025

#=======================================================
lattice_vector 28.1999999999999993 0.0000000000000000 0.0000000000000000 
lattice_vector 0.0000000000000000 39.4799999999999969 0.0000000000000000 
lattice_vector 0.0000000000000000 0.0000000000000000 62.3296083400000001 
atom 7.4484536700000001 14.8423416499999998 -0.1919792600000000 Au
atom 10.4340968000000007 14.8262489800000008 -0.3471967700000000 Au
atom 13.2048050700000008 14.8316417900000008 -0.3527954000000000 Au
atom 16.0486927600000016 14.7922894700000001 -0.2302577800000000 Au
atom 18.8067080400000002 14.8016357299999992 -0.1059057700000000 Au
atom 21.6136538400000013 14.8252225499999994 -0.0710194500000000 Au
atom 24.3788692800000000 14.7748713600000006 0.1950906800000000 Au
atom 27.1845441399999999 14.7366276599999999 -0.0591215800000000 Au
atom 1.7681523200000000 14.7993155900000009 -0.1267428600000000 Au
atom 4.6058521399999997 14.8520284799999995 -0.1256947700000000 Au
atom 8.7916437100000007 17.3049514199999983 -0.5082250900000000 Au
atom 11.7225097399999996 17.2796487200000008 -0.6742188900000000 Au
atom 14.6215889099999998 17.2374885800000008 -0.5930405300000000 Au
atom 17.4179338100000010 17.2323389099999993 -0.3158997700000000 Au
atom 20.1703251600000009 17.3165641100000016 -0.0109050200000000 Au
atom 22.9365920999999986 17.2566686400000009 0.0144971400000000 Au
atom 25.7906017399999996 17.1608504500000016 0.0424421900000000 Au
atom 0.4156831000000000 17.2228726099999996 0.1010542900000000 Au
atom 3.2980046399999998 17.2970882300000000 -0.0555641200000000 Au
atom 6.0604866900000003 17.3140615400000009 -0.2323345200000000 Au
atom 7.4097817499999996 19.8120957299999993 -0.1982209000000000 Au
atom 10.2472103200000006 19.7911439499999986 -0.4228301700000000 Au
atom 13.0480385900000009 19.7577196099999988 -0.5460022700000000 Au
atom 15.8902457899999998 19.6974683000000006 -0.0799299600000000 Au
atom 18.6874926200000004 19.6846875200000007 -0.0730889300000000 Au
atom 21.5286910499999991 19.7832952099999986 0.0146403900000000 Au
atom 24.3894821999999998 19.7424382200000004 -0.0285094700000000 Au
atom 27.2192242799999988 19.6714468099999991 0.1780803000000000 Au
atom 1.8119782200000001 19.6865199799999999 0.1050592800000000 Au
atom 4.6059302899999999 19.7563761299999996 -0.2089270900000000 Au
atom 8.8441756300000005 22.3781577799999987 -0.4085737500000000 Au
atom 11.5930386700000003 22.2593246899999997 -0.3704781100000000 Au
atom 14.4024096000000004 22.2175367900000005 -0.2382350000000000 Au
atom 17.2147453699999993 22.3224751200000000 -0.0296172100000000 Au
atom 20.0734320400000001 22.1254678799999986 0.0524024500000000 Au
atom 22.9388180499999983 22.2591058900000007 0.0079213400000000 Au
atom 25.8071615700000017 22.1843620199999982 0.1817157500000000 Au
atom 0.3967645700000000 22.1515681499999992 0.2528002900000000 Au
atom 3.2042129400000001 22.1442973899999984 0.0150715000000000 Au
atom 5.9732693699999997 22.2591693200000016 -0.0673664900000000 Au
atom 7.4024236200000004 24.7864382300000017 -0.0514751300000000 Au
atom 10.2086185500000006 24.8963843300000001 -0.1822269200000000 Au
atom 12.9338894799999995 24.7108212800000011 -0.0028157500000000 Au
atom 15.7353813900000006 24.7267582099999998 -0.0570655500000000 Au
atom 18.6781755999999994 24.6641689500000005 -0.0149061000000000 Au
atom 21.4658256399999985 24.6013855100000001 0.0187050600000000 Au
atom 24.3961281099999994 24.6491146999999984 0.1945919600000000 Au
atom 27.2437920200000008 24.6719051000000000 0.3308711000000000 Au
atom 1.7794738900000000 24.6032695699999984 0.0222816200000000 Au
atom 4.5151393999999998 24.6827703199999995 0.2015989300000000 Au
atom 8.7696631699999994 27.2776105800000011 -0.0797508800000000 Au
atom 11.5974388600000005 27.2447203999999985 -0.0691595300000000 Au
atom 14.4351215899999996 27.1671010700000011 0.1522192200000000 Au
atom 17.3094542500000017 27.1298383600000008 -0.0635572800000000 Au
atom 20.1211964600000002 27.0321502799999998 0.0341529500000000 Au
atom 22.9705615300000012 27.1183388500000007 0.0448399900000000 Au
atom 25.8117357299999988 27.0641104599999984 0.1256542500000000 Au
atom 0.3749999500000000 27.1377891200000008 -0.0092344300000000 Au
atom 3.1503168700000002 27.1799047400000013 0.2346258900000000 Au
atom 5.9708085600000000 27.1373854799999989 0.1220768800000000 Au
atom 7.4030077099999998 29.7023204900000017 0.0010281000000000 Au
atom 10.1773255400000000 29.7199230999999990 -0.0292356900000000 Au
atom 13.0733528200000002 29.6556697199999988 -0.0223400800000000 Au
atom 15.9342739800000004 29.5778019599999986 -0.0507213100000000 Au
atom 18.8140640099999992 29.5287034599999991 0.1262527500000000 Au
atom 21.5534906799999995 29.5129804799999995 -0.0979588000000000 Au
atom 24.1217235400000014 29.6008431499999993 0.1657504400000000 Au
atom 27.3727218000000008 29.6609900400000015 -0.0074465700000000 Au
atom 1.7187037700000001 29.6554826600000005 0.0528572500000000 Au
atom 4.5370410300000001 29.6236063600000001 -0.0544255500000000 Au
atom 8.8568472400000005 32.1623245299999994 -0.0005235300000000 Au
atom 11.6552959900000008 32.1515756599999989 0.0027899100000000 Au
atom 14.4955972600000003 32.1270612499999970 -0.0784860500000000 Au
atom 17.3728395700000000 32.0172774999999987 -0.0118552300000000 Au
atom 20.1531957000000013 31.9980976699999999 -0.0832198200000000 Au
atom 22.9066682499999992 32.0319734199999999 0.0275278400000000 Au
atom 25.7352273800000013 32.1115547799999987 -0.0914971100000000 Au
atom 0.5273078100000000 32.0783634300000031 -0.1901866600000000 Au
atom 3.0928631100000001 32.1318519699999996 0.0467556000000000 Au
atom 6.0320158700000004 32.1202760799999965 -0.1692429000000000 Au
atom 7.4180666700000000 34.7039512500000029 0.0693224900000000 Au
atom 10.2857000200000002 34.6185128999999989 0.0256953600000000 Au
atom 13.1556379099999994 34.5440889600000034 0.1718882000000000 Au
atom 15.9398309099999995 34.4960630899999998 0.0950793900000000 Au
atom 18.7754370199999983 34.5404958199999967 0.1492281900000000 Au
atom 21.5383356100000007 34.4743484299999992 0.1683259100000000 Au
atom 24.3238348500000008 34.5517499700000030 0.2447005900000000 Au
atom 27.2223593299999997 34.5458300600000001 0.0461418800000000 Au
atom 1.8164608000000000 34.6093435599999992 -0.0439541900000000 Au
atom 4.6504500599999998 34.5449024300000005 0.0418957000000000 Au
atom 8.9105187800000003 36.9759977599999985 -0.0479523200000000 Au
atom 11.7388774700000003 37.0302322399999966 0.1131674100000000 Au
atom 14.5722447400000004 36.9488950900000006 0.1100225300000000 Au
atom 17.4102991500000002 37.0623966100000004 0.1172030100000000 Au
atom 20.1656425500000012 37.0033361899999989 0.1134631400000000 Au
atom 22.9377885200000016 37.0035533000000001 0.2567990000000000 Au
atom 25.7943455200000002 36.9789069899999987 0.4946492800000000 Au
atom 0.3726255200000000 36.9574603499999981 0.2494388000000000 Au
atom 2.9896302700000001 37.0559398099999981 0.1198263800000000 Au
atom 6.3858124900000002 40.1359069900000023 -0.1597457900000000 Au
atom 7.4747769300000000 0.0214236400000000 -0.0348975300000000 Au
atom 10.3299559999999992 0.0397528700000000 -0.0521280000000000 Au
atom 13.1039039400000004 -0.0373852900000000 0.2646269100000000 Au
atom 15.9567510699999993 -0.0770448500000000 0.1108460800000000 Au
atom 18.8100962400000000 -0.0803815400000000 0.3143158400000000 Au
atom 21.6274915300000004 0.0670253200000000 0.1781900600000000 Au
atom 24.4264262199999997 0.0191913000000000 0.2976930400000000 Au
atom 27.2154621100000007 -0.0283303600000000 0.2573480000000000 Au
atom 1.8196218300000000 -0.0451398300000000 0.3568191300000000 Au
atom 4.5634310300000003 -3.0025839099999998 0.2121195400000000 Au
atom 8.9550580100000001 2.4892646300000001 -0.0238101200000000 Au
atom 11.7835958299999994 2.5728654000000000 -0.1359084400000000 Au
atom 14.5573008200000000 2.3201549300000002 0.1576906200000000 Au
atom 17.3936431099999993 2.3745521799999998 0.3083126700000000 Au
atom 20.1805929800000001 2.4665713800000000 0.2966586000000000 Au
atom 22.9888632900000012 2.4980104100000000 0.2038431200000000 Au
atom 25.7755800599999993 2.4117653600000000 0.2461079800000000 Au
atom 0.4084683200000000 2.4578905600000001 0.0908366700000000 Au
atom 3.2593567299999999 2.4156808100000000 0.2301614500000000 Au
atom 6.1308141100000002 2.4928027400000001 -0.0109499400000000 Au
atom 7.5452692800000003 4.9611824200000001 -0.0231666800000000 Au
atom 10.4156238099999996 5.0285849499999999 -0.0970158900000000 Au
atom 13.2166678700000002 4.9562265800000000 0.1062414800000000 Au
atom 15.9886784899999999 4.8917307499999998 0.0596614900000000 Au
atom 18.8084629200000002 4.9001607199999997 0.2687632100000000 Au
atom 21.6610801600000009 5.0105725300000001 0.2540658200000000 Au
atom 24.4254208999999989 5.0032886799999998 0.1457517700000000 Au
atom 27.2095396799999989 4.8990530300000001 0.2823395400000000 Au
atom 1.8722364400000000 4.8623641700000002 0.3211773700000000 Au
atom 4.6303382500000003 4.9543888599999999 0.0317373600000000 Au
atom 8.9334211900000007 7.3705691599999996 -0.2019787400000000 Au
atom 11.7676974800000007 7.4770257700000000 0.0605441000000000 Au
atom 14.6378050099999992 7.3488045800000004 0.2696715900000000 Au
atom 17.4300429900000005 7.3737895099999999 0.0269718400000000 Au
atom 20.2009731099999996 7.4026382899999996 0.0108952700000000 Au
atom 23.1194291800000009 7.4694177200000000 0.0895639200000000 Au
atom 25.9435648699999994 7.4636057999999998 0.0675428900000000 Au
atom 0.5669720100000000 7.3631093300000003 0.1968902000000000 Au
atom 3.1813063800000001 7.3883491499999998 0.0291353300000000 Au
atom 6.0438969900000004 7.3266213499999999 -0.1885968200000000 Au
atom 7.4465401599999996 9.8074359900000001 -0.1929625300000000 Au
atom 10.2700856999999992 9.9203898099999996 -0.0962618700000000 Au
atom 13.2094427299999992 9.8250676299999995 0.0183012600000000 Au
atom 15.9839510800000006 9.8531691299999995 -0.0671473200000000 Au
atom 18.7825893400000012 9.9475041799999993 0.0097838900000000 Au
atom 21.6571187999999992 9.8290555299999998 -0.2337097800000000 Au
atom 24.5361476200000013 9.8629890099999997 -0.0818721400000000 Au
atom 27.3205063199999998 9.8950773400000003 0.0457119400000000 Au
atom 1.8583849100000001 9.8962978400000008 0.1774145100000000 Au
atom 4.6217043699999998 9.8237636199999994 -0.0482164300000000 Au
atom 8.9499086600000002 12.4442602000000004 -0.2098987300000000 Au
atom 11.7705280699999992 12.3174756199999997 -0.0668811700000000 Au
atom 14.5056643199999993 12.4539910700000007 0.1656041400000000 Au
atom 17.3617807100000014 12.2750123400000000 -0.0334505800000000 Au
atom 20.2332045600000008 12.3428300300000000 -0.3166294400000000 Au
atom 23.0633749200000011 12.3213759700000001 0.0139816500000000 Au
atom 25.8456873300000005 12.3425457200000004 0.1136455000000000 Au
atom 0.4544489400000000 12.3346185800000008 0.0405993300000000 Au
atom 3.2570000399999999 12.3705995200000007 -0.0748620900000000 Au
atom 6.1017392499999996 12.3930075100000003 -0.1726681000000000 Au
atom 7.5449302800000000 13.2142399800000003 2.4526509500000002 Au
atom 10.2825424499999993 13.3489324200000006 2.3332752299999999 Au
atom 13.0425842900000006 13.3606253499999994 2.5986411399999998 Au
atom 16.0186983500000011 13.1886141299999995 2.5397540099999998 Au
atom 18.8420033700000005 13.1183751999999991 2.3213593399999999 Au
atom 21.6484675099999997 13.1849655400000003 2.4221331799999999 Au
atom 24.3885846599999994 13.2090687899999999 2.7131983399999999 Au
atom 27.2864360400000017 13.2121267000000007 2.5712294400000002 Au
atom 1.9364159000000001 13.2331138500000005 2.6246633799999999 Au
atom 4.7595584300000002 13.2168018000000007 2.4142926700000000 Au
atom 8.8995576900000000 15.6986555899999995 2.2467906200000001 Au
atom 11.8228432899999998 15.6700612600000007 2.2712412400000002 Au
atom 14.5872500299999999 15.6128997799999993 2.2585903599999999 Au
atom 17.4320148199999991 15.6755957899999991 2.4602163500000001 Au
atom 20.2036873499999992 15.6127547300000007 2.6120703199999999 Au
atom 23.0050274600000009 15.7136020300000006 2.5378285100000002 Au
atom 25.8256756100000011 15.6169456699999998 2.8250597700000002 Au
atom 0.4757506500000000 15.5765285099999993 2.5422244599999999 Au
atom 3.2810908599999999 15.6619691000000003 2.5614384600000002 Au
atom 6.1004334299999998 15.6898872600000008 2.4010421700000002 Au
atom 7.4809618999999996 18.1292016800000013 2.3893306600000002 Au
atom 10.3433614899999995 18.0846212999999985 2.1040722100000000 Au
atom 13.1934590899999993 18.0530348499999995 2.0770736400000001 Au
atom 15.9464394400000007 18.0439202600000002 2.3408497499999998 Au
atom 18.7811504099999986 18.1493991600000015 2.5748193200000000 Au
atom 21.5875000399999983 18.2033031100000002 2.5974155600000000 Au
atom 24.4065678300000002 18.0720012899999993 2.5874836600000002 Au
atom 27.2977665999999992 17.9750596300000005 2.7734671199999998 Au
atom 1.9204423200000000 18.0267823900000010 2.5947605800000000 Au
atom 4.6832586000000003 18.1243890999999984 2.3438008799999999 Au
atom 8.8909360900000003 20.6050073199999986 2.2619780399999998 Au
atom 11.7229664800000002 20.5954546600000015 2.0702584000000002 Au
atom 14.5222809500000007 20.4875678400000005 2.3618146499999999 Au
atom 17.2875423999999995 20.5644682100000011 2.4704262500000000 Au
atom 20.1694761500000013 20.6228745800000013 2.7239703400000002 Au
atom 23.1142624999999988 20.5229767299999999 2.7326992799999998 Au
atom 25.8923463600000012 20.4258977900000005 2.6322262599999999 Au
atom 0.4796614100000000 20.5124951499999995 2.9081652700000000 Au
atom 3.2144117300000001 20.5281723599999992 2.6938497099999998 Au
atom 6.0348288400000003 20.5930257899999987 2.5085774000000001 Au
atom 7.4637129900000003 23.0626399999999983 2.5163801399999999 Au
atom 10.2839770599999998 23.0331578000000015 2.1963515899999999 Au
atom 13.0687581599999998 23.0048728400000009 2.4029978700000001 Au
atom 15.8779287100000008 23.0341662199999995 2.5834827900000001 Au
atom 18.6764021199999988 23.0437493599999996 2.5908286600000001 Au
atom 21.6044911999999982 22.9894037299999994 2.6071404500000002 Au
atom 24.4189354099999996 23.0194095400000016 2.6712960699999999 Au
atom 27.2059647700000014 23.0393333899999995 2.9578778400000001 Au
atom 1.8275697099999999 22.9900582699999987 2.7617133699999998 Au
atom 4.6053346599999996 23.0048110600000015 2.7064748100000000 Au
atom 8.8173151099999991 25.5768710199999987 2.5535719700000001 Au
atom 11.5930368000000001 25.5427794500000012 2.6273813499999998 Au
atom 14.4500750399999998 25.4792962100000011 2.6581927599999999 Au
atom 17.2990463500000011 25.4921466400000014 2.6009208199999998 Au
atom 20.1542371399999993 25.4467015500000002 2.6998019900000001 Au
atom 22.9347874900000015 25.4923063200000009 2.6812166400000002 Au
atom 25.8232362900000005 25.5313745400000016 2.9594502199999999 Au
atom 0.4106170300000000 25.5050571499999990 2.7613912100000002 Au
atom 3.2081653000000001 25.5296814000000012 2.7750829100000001 Au
atom 6.0013418200000004 25.4631617100000014 2.7195077599999999 Au
atom 7.4787422399999999 28.1509878399999991 2.6679420899999999 Au
atom 10.2166517300000006 28.0172341299999985 2.5368195700000000 Au
atom 13.0909218099999993 27.9463711500000009 2.5996282100000001 Au
atom 15.9230865000000001 27.9650188300000018 2.6697052299999999 Au
atom 18.7379272800000010 27.8975550000000005 2.6207030200000001 Au
atom 21.5695369600000006 27.9386018500000013 2.5307422700000002 Au
atom 24.3370202800000008 27.9395332100000005 2.7197540600000001 Au
atom 27.1222767199999986 27.9830043599999989 2.5317018000000000 Au
atom 1.7715650300000001 27.9772458499999992 2.7540081299999999 Au
atom 4.6831594799999996 28.1327565200000009 2.7473826600000000 Au
atom 8.8311910900000008 30.5684677499999999 2.5297885600000001 Au
atom 11.6124258000000005 30.4410754899999993 2.4819227499999998 Au
atom 14.5311430000000001 30.3781337600000008 2.5392178500000000 Au
atom 17.3495930399999985 30.3574811199999992 2.6829862900000001 Au
atom 20.1970310799999986 30.3806254500000001 2.5509684699999999 Au
atom 22.9329028800000003 30.3735899399999987 2.7273654899999999 Au
atom 25.7417589699999994 30.4415790299999998 2.7450711200000000 Au
atom 0.3945635500000000 30.4733673100000004 2.5609408899999999 Au
atom 3.1611779000000002 30.3897064199999996 2.5736913200000000 Au
atom 5.9140746699999998 30.4278370100000011 2.5382850700000001 Au
atom 7.3582117199999999 32.9024016400000008 2.4128901599999999 Au
atom 10.2694068200000004 32.8930926600000006 2.6513078000000001 Au
atom 13.0969588199999993 32.8657077000000015 2.5115080800000000 Au
atom 15.9159669600000004 32.7792834799999966 2.6975447699999999 Au
atom 18.7214684499999997 32.8681621799999988 2.5639231300000001 Au
atom 21.5505647799999984 32.7936013799999984 2.7451645299999998 Au
atom 24.3664625299999997 32.8429150899999982 2.6306016400000001 Au
atom 27.1495356100000009 32.8954357100000010 2.4591116400000002 Au
atom 1.7364753799999999 32.8832751899999991 2.5118851800000002 Au
atom 4.5365676700000002 32.8692771099999987 2.7683423700000001 Au
atom 8.9100035299999991 35.3907229900000004 2.7844375200000000 Au
atom 11.7160536299999993 35.2892968399999987 2.7492423399999999 Au
atom 14.5644087599999992 35.2752029800000031 2.8496069400000001 Au
atom 17.4265788400000012 35.3412534500000035 2.8391193299999999 Au
atom 20.4399342699999984 35.3821607300000025 2.7751739999999998 Au
atom 22.7110908699999996 35.3706437600000001 2.9029027200000002 Au
atom 25.8057851700000001 35.2994891199999969 2.9321697100000002 Au
atom 0.4546186700000000 35.2945086100000012 2.7326013499999999 Au
atom 3.1510018000000000 35.4486079200000006 2.6057376200000002 Au
atom 6.1967713199999999 35.3980677500000027 2.8091723700000002 Au
atom 7.4885218099999999 37.8255350800000016 2.4126139200000001 Au
atom 10.4059871800000003 37.7987788900000012 2.5446510000000000 Au
atom 13.2049717100000006 37.7652322400000031 2.7238434599999999 Au
atom 16.0056659600000017 37.7920358399999969 2.6292030899999999 Au
atom 18.7341877399999994 37.7816372599999966 2.8103308000000000 Au
atom 21.6278684800000001 37.8199579300000011 2.7353448600000001 Au
atom 24.4653107900000002 37.8629174399999968 2.8881970099999998 Au
atom 27.3083057400000015 37.8327098899999967 3.0438882999999999 Au
atom 1.9274740900000000 37.8193448700000019 2.8720188699999998 Au
atom 4.6782383500000000 37.9439724599999977 2.7906086299999999 Au
atom 8.8549048399999997 0.7377948900000000 2.6360029200000001 Au
atom 11.7458624999999994 0.8423902900000000 2.6106313800000001 Au
atom 14.6068945600000006 0.8009554800000001 2.9368908399999998 Au
atom 17.3369236899999990 0.7923277100000000 2.9233776599999999 Au
atom 20.1595591600000006 0.7670214300000000 2.9742157100000002 Au
atom 22.9652143799999990 0.8904445200000000 2.8815536599999998 Au
atom 25.7986626299999990 0.8700334100000000 2.8113779700000001 Au
atom 0.4337076900000000 0.8468948800000000 2.9682173199999999 Au
atom 3.2171660000000002 0.8906134200000000 2.9216861600000001 Au
atom 6.0740912800000002 0.8475877900000000 2.6388355099999998 Au
atom 7.5738129499999998 3.3035548600000002 2.5002988799999999 Au
atom 10.3471232600000000 3.2879033099999999 2.3608351700000001 Au
atom 13.1394269599999998 3.3264570600000001 2.7512273999999999 Au
atom 15.9184054899999996 3.2807775800000001 2.6603218700000002 Au
atom 18.7396512000000008 3.3020675000000002 2.9321695299999999 Au
atom 21.5082902300000001 3.3850774000000001 2.9653734500000000 Au
atom 24.3391761700000018 3.3744235200000001 2.7421797099999998 Au
atom 27.2315297100000002 3.3028847099999998 2.7720671100000001 Au
atom 1.8537723200000000 3.2986153300000001 2.8919667499999999 Au
atom 4.7363439700000001 3.3072867399999999 2.7385471899999998 Au
atom 8.9888650400000003 5.8127031000000002 2.5263108200000000 Au
atom 11.7989067799999994 5.7972965700000003 2.5971904800000001 Au
atom 14.5723108499999991 5.8048523300000001 2.6975895599999999 Au
atom 17.3985742200000004 5.8284632900000002 2.7095464699999998 Au
atom 20.1891866899999997 5.8913931899999996 2.8116857099999999 Au
atom 23.0075776699999999 5.8419632400000001 2.7418601599999999 Au
atom 25.8052917099999988 5.9264456799999996 2.7982437000000000 Au
atom 0.4255100100000000 5.8633065000000002 2.8270899599999999 Au
atom 3.2665563899999999 5.7962544500000002 2.7500508600000000 Au
atom 6.1131369099999997 5.8680722100000002 2.5651634400000001 Au
atom 7.4621561800000000 8.3245519699999999 2.3953096000000000 Au
atom 10.2751751200000001 8.3038569899999999 2.4598902400000000 Au
atom 13.1259091600000009 8.3803408200000007 2.8250678300000001 Au
atom 15.9475060299999996 8.3534495199999999 2.6177072099999998 Au
atom 18.7685437800000017 8.3599555100000007 2.7374555900000002 Au
atom 21.6386706900000014 8.2650921000000004 2.5207636899999999 Au
atom 24.4179455200000000 8.3376488599999998 2.7505874600000002 Au
atom 27.2972115100000003 8.3085803200000008 2.7095468899999999 Au
atom 1.9286281199999999 8.2709126499999996 2.8260222399999999 Au
atom 4.6789750200000002 8.2111962700000003 2.5392426299999999 Au
atom 8.8961754200000005 10.7691572400000002 2.4645855299999999 Au
atom 11.6496126800000006 10.8818067599999999 2.6252276900000000 Au
atom 14.5301001599999999 10.8643384300000001 2.5955892999999999 Au
atom 17.3907251299999999 10.7274676699999993 2.5747587799999998 Au
atom 20.2215630299999987 10.7172067500000008 2.4226083200000001 Au
atom 22.9851930099999997 10.7990623299999999 2.4735191500000000 Au
atom 25.7991576299999998 10.8000686899999998 2.7336660899999998 Au
atom 0.4786383800000000 10.7782881800000006 2.7689924399999999 Au
atom 3.3177337599999999 10.7865953099999992 2.7106792899999999 Au
atom 6.1109190399999997 10.7428666400000008 2.4001151100000002 Au
atom 7.6238746900000001 13.4103853700000002 5.3806394600000003 Cl
atom 7.6812092999999999 16.0063120499999982 8.3608183500000006 Cl
atom 7.8948983400000001 13.2456052100000008 8.3865421799999993 Na
atom 7.7333206299999997 16.1196742099999994 5.5429365900000001 Na
atom 7.5658300299999999 18.9596261400000010 5.3658548699999997 Cl
atom 7.7416491499999998 21.5570293799999995 8.3316026200000000 Cl
atom 7.6259335999999998 18.8158072199999999 8.2257968899999998 Na
atom 7.6443526700000000 21.6855325699999995 5.5710052499999998 Na
atom 7.4740121999999998 24.5348058299999998 5.1889696399999998 Cl
atom 7.6099457099999999 27.5013606700000004 8.5205427000000000 Cl
atom 7.5901616499999998 24.5452343299999995 8.7425333999999992 Na
atom 7.5847177900000000 27.3406190199999983 5.6421247899999996 Na
atom 7.4541597199999998 30.1539616300000013 5.6470221299999999 Cl
atom 7.7125345400000000 33.0145786799999996 8.5451246399999992 Cl
atom 7.5675898000000004 30.2264500799999993 8.0679084700000008 Na
atom 7.7077848500000004 32.9797183499999988 5.5276547200000001 Na
atom 7.6155729100000000 35.9174372199999965 5.7519354199999997 Cl
atom 7.5808321799999998 38.6474144499999994 8.4726679199999992 Cl
atom 7.6411487300000003 35.8381661700000009 8.0771384099999999 Na
atom 7.6457656500000004 38.6263854299999991 5.7598869800000001 Na
atom 7.6877230699999997 1.9330604300000001 5.6828279200000003 Cl
atom 7.5689678300000001 4.8486109600000002 8.5437809300000005 Cl
atom 7.6466741799999998 1.9832743600000000 8.1765971600000000 Na
atom 7.6971855900000001 4.7635328499999998 5.6945135499999999 Na
atom 7.7871481500000002 7.4644041799999998 5.5903585700000002 Cl
atom 7.7374233900000000 10.5476735799999997 8.1286000000000005 Cl
atom 7.9548022400000002 7.5465332099999998 8.3224555000000002 Na
atom 7.6641695399999996 10.4606720699999993 5.5232069600000004 Na
atom 10.4707629499999992 13.2380541100000002 5.8193419700000000 Na
atom 13.2504395000000006 13.1475327199999992 5.1837178300000000 Cl
atom 10.5908712800000000 16.1156808399999996 7.7372426599999997 Na
atom 13.4328803600000004 15.7499043000000007 8.2900350399999994 Cl
atom 13.2984639900000001 13.6391518699999992 8.5783310799999999 Na
atom 10.4177101699999994 13.3204636700000005 8.1551637400000008 Cl
atom 13.3754749799999999 16.0529845900000012 5.4962543500000001 Na
atom 10.4766978200000000 16.1912916500000001 6.0150813500000000 Cl
atom 10.5299343000000007 18.9450647699999983 5.5437594900000002 Na
atom 13.4121046100000001 18.8303493899999985 5.1824909100000003 Cl
atom 10.3640373100000005 21.7772621400000013 8.2224792999999998 Na
atom 13.4469667099999999 21.7742224100000001 8.2279640100000009 Cl
atom 13.3225790699999997 18.6870731499999998 8.0180151199999994 Na
atom 10.4517395499999992 19.0303371199999987 8.2917304800000000 Cl
atom 13.3364350199999997 21.6474555799999990 5.5228425500000000 Na
atom 10.3850056300000002 21.7075642000000002 5.4571009899999998 Cl
atom 10.3014638099999996 24.6033799299999991 5.5431596100000000 Na
atom 13.4630445400000003 24.7815009400000008 5.5399391700000002 Cl
atom 10.4469045900000008 27.5051042300000006 8.2027508200000003 Na
atom 13.2843701000000003 27.3590374599999997 8.4418588700000008 Cl
atom 13.0796113799999993 24.5192667799999988 7.9986710600000004 Na
atom 10.4527015599999995 24.6001584899999983 8.2071746999999995 Cl
atom 13.2511033099999995 27.5116058099999989 5.7464529100000004 Na
atom 10.3620252500000003 27.3511938999999984 5.5089027000000002 Cl
atom 10.3842941599999996 30.1933761499999989 5.5827196299999997 Na
atom 13.2783929100000009 30.3270615600000006 5.8797534799999998 Cl
atom 10.5293785100000008 33.0645025700000019 8.3543417400000006 Na
atom 13.2569363199999994 33.1011031299999985 8.5772480800000004 Cl
atom 13.2998606699999993 30.2283847500000000 8.1712653399999997 Na
atom 10.3979961400000001 30.2031744099999990 8.4170005099999994 Cl
atom 13.3808033099999992 33.1248879400000007 5.8041084400000003 Na
atom 10.6190520399999997 33.1253477200000006 5.6218672500000002 Cl
atom 10.4323201099999991 35.8818854100000024 5.7766102999999998 Na
atom 13.3348396099999995 36.0298716200000015 5.6701773800000002 Cl
atom 10.4134437599999998 38.7277441499999995 8.3122250799999993 Na
atom 13.2153374499999998 38.6642844300000021 8.5234398700000007 Cl
atom 13.3060793700000008 35.9687867199999971 8.4528309999999998 Na
atom 10.4635905299999994 35.8327928200000017 8.5818647400000003 Cl
atom 13.2452897800000002 38.7676950199999979 5.8355386700000000 Na
atom 10.5602057899999995 38.6517204100000029 5.5870254199999998 Cl
atom 10.4799475700000002 2.0000782400000001 5.7648576699999996 Na
atom 13.2125462900000006 2.0527457500000001 5.8847044999999998 Cl
atom 10.4019783700000001 4.8297099899999996 8.2734246900000006 Na
atom 13.1778738400000002 4.8226971900000004 8.4908911200000006 Cl
atom 13.2473810000000007 1.8794510300000000 8.2613733699999994 Na
atom 10.4135798699999995 1.9980278700000000 8.6078447199999992 Cl
atom 13.2335735600000000 4.7763256199999997 5.7108493100000004 Na
atom 10.4701100300000007 4.7615031900000000 5.6279868999999998 Cl
atom 10.4930886399999999 7.5131981699999999 5.7271138199999996 Na
atom 13.4359380700000006 7.4657163700000000 5.6832250499999999 Cl
atom 10.5325779799999992 10.5494536599999993 8.1150356600000002 Na
atom 13.2291455700000000 10.4399319100000003 8.5714841800000006 Cl
atom 13.2483283699999994 7.5288954199999996 8.0553800800000008 Na
atom 10.4086925200000007 7.5565330199999998 8.5223899900000006 Cl
atom 13.3242821199999995 10.4032183699999994 5.7995983799999999 Na
atom 10.6086708200000004 10.3422481899999994 5.5815682100000004 Cl
atom 16.1309895099999991 13.3711377200000001 5.6172239900000003 Na
atom 19.0530422900000005 13.3453127600000006 5.4906603299999999 Cl
atom 16.0300546799999992 16.1381693000000013 8.1493635900000001 Na
atom 18.9689129700000016 15.9898872799999996 8.1451098700000006 Cl
atom 18.9371837399999983 13.1519745900000000 8.4784712199999994 Na
atom 16.0684016099999987 13.1740240400000008 8.3144674500000004 Cl
atom 19.1515980200000016 16.1092930099999982 5.9113268799999998 Na
atom 16.2653595899999992 16.1069711700000013 5.4712156399999996 Cl
atom 16.1498691500000007 18.8013065200000007 5.6118411500000001 Na
atom 18.9515635799999984 18.9398437000000008 5.8772902499999997 Cl
atom 16.3029841399999995 21.8693274799999990 8.6945578099999992 Na
atom 18.4295447400000008 21.4335700600000010 8.2932679300000007 Cl
atom 18.9014071699999988 18.8464492999999997 8.3131155299999993 Na
atom 16.1307781299999995 18.9188887100000009 8.5045554699999997 Cl
atom 19.0267191400000009 21.6312296900000014 5.8218023099999998 Na
atom 16.0460082499999999 21.7675100499999985 5.7048724699999998 Cl
atom 15.8722790400000004 24.6646152000000001 5.8369385999999999 Na
atom 19.3698864200000003 24.7691400299999991 5.9684017699999998 Cl
atom 16.1251690399999994 27.4325900599999990 8.2894263299999995 Na
atom 18.8457528900000000 27.4027203800000017 8.6528174100000008 Cl
atom 18.7900505200000012 24.4664186699999995 8.6522863099999991 Na
atom 16.0293924600000004 24.6586097899999999 8.5869993099999995 Cl
atom 18.8954580999999990 27.2555453300000003 5.9676191100000002 Na
atom 16.2063399600000011 27.4757564000000016 5.5592373300000002 Cl
atom 15.9955037200000003 30.1487118800000005 5.8313476000000000 Na
atom 18.7921042900000010 30.3290585600000000 6.3888772100000004 Cl
atom 16.0860814800000007 33.0338914299999971 8.5253417599999999 Na
atom 18.8896369600000007 33.0422648600000031 8.8069124799999994 Cl
atom 18.8929753200000015 30.2468250000000012 8.2319951299999996 Na
atom 16.0309320299999989 30.2626031900000001 8.6274345500000003 Cl
atom 18.9792872800000012 32.8110411199999987 6.0094337900000001 Na
atom 15.8141241899999994 33.0361948600000019 5.5544613800000002 Cl
atom 16.0866674699999983 35.9123380099999991 5.7680730400000000 Na
atom 18.7870950199999989 35.7958416900000032 6.1621646900000000 Cl
atom 16.1323244700000004 38.6531920099999979 8.4479117200000005 Na
atom 18.8896183800000017 38.5839153800000005 8.7801711499999993 Cl
atom 18.8952584700000017 35.7425117900000018 8.2835116800000002 Na
atom 16.1541676199999991 35.9138042299999967 8.5987287899999991 Cl
atom 18.7086770000000016 38.6823021399999973 5.9164859400000003 Na