#===============================================================================
# Created using the Atomic Simulation Environment (ASE)

# Tue Dec 23 21:42:37 2025

#=======================================================
lattice_vector 28.1999999999999993 0.0000000000000000 0.0000000000000000 
lattice_vector 0.0000000000000000 39.4799999999999969 0.0000000000000000 
lattice_vector 0.0000000000000000 0.0000000000000000 62.3296083400000001 
atom 7.4948626500000000 14.9003103400000008 -0.3235563700000000 Au
atom 10.2624776099999995 14.8028012499999999 -0.3738974700000000 Au
atom 13.0874981800000008 14.8890452999999994 -0.3025687200000000 Au
atom 16.0056703400000018 14.8283833299999994 -0.1560359700000000 Au
atom 18.7811707199999987 14.8449711900000008 -0.2260043400000000 Au
atom 21.5556476500000009 14.8938311799999994 -0.1561838200000000 Au
atom 24.4717231899999987 14.8156034299999995 -0.0740588500000000 Au
atom 27.2650839800000000 14.8874386699999999 -0.2136327700000000 Au
atom 1.8173086599999999 14.8613381100000002 -0.1065137100000000 Au
atom 4.6797830200000003 14.8040713999999998 -0.0801167300000000 Au
atom 8.9264413900000008 17.3333781199999990 -0.1990286600000000 Au
atom 11.7648259999999993 17.3275497899999991 -0.1799695000000000 Au
atom 14.5035334200000001 17.3479881099999993 -0.0259403500000000 Au
atom 17.3584885900000003 17.3558091499999989 -0.0915173000000000 Au
atom 20.1632033100000001 17.3566926200000005 -0.0519186800000000 Au
atom 23.0819527499999992 17.2589329400000011 -0.0699962200000000 Au
atom 25.9144343100000007 17.2747731400000006 -0.2155847700000000 Au
atom 0.4180954100000000 17.3275630499999984 -0.2219402900000000 Au
atom 3.2798270700000001 17.2926968599999995 0.0589681800000000 Au
atom 6.1143858900000003 17.4094621799999985 -0.0879094400000000 Au
atom 7.4687567300000000 19.8472681199999990 -0.0146251700000000 Au
atom 10.3103371799999994 19.8893172800000002 -0.0680972800000000 Au
atom 13.0869899000000007 19.7585341600000000 0.0846735200000000 Au
atom 15.9823540800000004 19.7812221100000016 0.0708012500000000 Au
atom 18.7564538799999987 19.7845294699999990 0.2689361900000000 Au
atom 21.6237085499999999 19.7690409299999992 0.1594353600000000 Au
atom 24.4329829300000014 19.7475247200000013 0.1702867200000000 Au
atom 27.2614046799999983 19.7281649500000000 -0.0223324100000000 Au
atom 1.8458223800000000 19.7483156099999988 0.0055037500000000 Au
atom 4.6161581099999998 19.8240746600000008 -0.0402001000000000 Au
atom 8.8629169200000000 22.2864356400000005 0.1663191400000000 Au
atom 11.7154751800000003 22.2179431799999989 0.2895280500000000 Au
atom 14.5218959800000000 22.1772798699999996 0.2395890100000000 Au
atom 17.3949765999999997 22.2093628000000010 0.1485240900000000 Au
atom 20.1653683999999984 22.2267471699999994 0.3171241100000000 Au
atom 22.9832722599999997 22.2525134999999992 0.4216569100000000 Au
atom 25.7950487600000002 22.1842336899999992 0.0302889700000000 Au
atom 0.3224551700000000 22.1292428200000018 0.0821192400000000 Au
atom 3.1856540299999998 22.2795462399999984 -0.1807711100000000 Au
atom 6.0176738800000003 22.3040170899999985 0.1669484300000000 Au
atom 7.5503421399999997 24.6719062800000017 0.0420855000000000 Au
atom 10.3959825800000001 24.6777670799999989 0.2772891600000000 Au
atom 13.1844905099999998 24.6952547799999991 0.2146027100000000 Au
atom 16.0367409400000014 24.6942000099999994 0.0488346000000000 Au
atom 18.8368165300000001 24.6849117900000010 0.3990531500000000 Au
atom 21.5845115000000014 24.5941127900000005 0.5018043000000000 Au
atom 24.4658053399999993 24.6657940599999996 0.2247924900000000 Au
atom 27.2538889399999995 24.6145845200000011 0.2106831500000000 Au
atom 1.8515799200000000 24.6660086300000003 -0.0715533500000000 Au
atom 4.6888534499999999 24.6390494599999990 0.0865332900000000 Au
atom 8.9279692100000005 27.1970278500000013 -0.0172158000000000 Au
atom 11.7335396500000009 27.1115746800000004 0.3715354400000000 Au
atom 14.5925591200000007 27.1025025100000008 0.3915234400000000 Au
atom 17.4075191700000005 27.1448046500000011 0.1715184700000000 Au
atom 20.2660435800000016 27.1229878199999987 0.5640777500000000 Au
atom 23.0589840399999986 27.1015968899999997 0.2138915300000000 Au
atom 25.8629986000000009 27.0866503600000001 0.1167215700000000 Au
atom 0.5666447600000000 27.0928418800000017 0.0714865800000000 Au
atom 3.3356673200000002 27.1026326900000001 0.0964077100000000 Au
atom 6.1149108900000000 27.1971645899999999 0.0509293000000000 Au
atom 7.5173114500000002 29.6645818800000001 0.0431372500000000 Au
atom 10.2973930700000000 29.5543670899999995 0.3216483100000000 Au
atom 13.0670221899999994 29.5462701900000013 0.2429422200000000 Au
atom 15.9044205099999996 29.5325775399999984 0.1849937900000000 Au
atom 18.8229548599999994 29.5891908900000011 0.1308138500000000 Au
atom 21.6727250399999996 29.5721237600000002 0.0842462500000000 Au
atom 24.5226653299999988 29.5646554799999990 0.1841962900000000 Au
atom 27.4216769800000009 29.5753999500000013 0.2461950000000000 Au
atom 1.9196945000000001 29.5910663700000001 -0.0734114300000000 Au
atom 4.6695984800000003 29.6162327199999993 0.0473827100000000 Au
atom 8.9130695200000005 32.0337638100000035 0.1322483000000000 Au
atom 11.7508425400000007 32.0073381300000008 0.1870967500000000 Au
atom 14.6538449499999999 32.0462766099999996 0.1931394900000000 Au
atom 17.4311178099999999 32.0535331000000028 0.0191344000000000 Au
atom 20.2398147199999983 32.0337302800000003 -0.2080225500000000 Au
atom 23.0809327999999994 32.0252125199999966 -0.1146410600000000 Au
atom 25.9150433900000010 31.9670101500000001 0.0275366200000000 Au
atom 0.4934132900000000 32.0738945800000010 -0.0161736600000000 Au
atom 3.2469871600000002 32.1140801800000020 0.1267145200000000 Au
atom 6.0384425400000001 32.0950788900000035 -0.0969839300000000 Au
atom 7.5456951800000001 34.6143467099999995 -0.0845024800000000 Au
atom 10.3476859200000000 34.4502326599999975 0.0641920700000000 Au
atom 13.1365609299999999 34.5354141400000003 0.1332023700000000 Au
atom 15.9988527900000008 34.5416351100000014 0.3939215600000000 Au
atom 18.8064382799999983 34.5261264100000034 0.0334598900000000 Au
atom 21.6435371100000005 34.5377516200000017 0.0035404200000000 Au
atom 24.4585933000000004 34.5504834199999991 0.2172650400000000 Au
atom 27.2341820400000003 34.5300607599999978 -0.2038751900000000 Au
atom 1.8867120200000000 34.5585559800000013 -0.0415519600000000 Au
atom 4.7306653399999998 34.5948840200000021 0.0211825600000000 Au
atom 8.8553811200000005 36.9756886099999988 0.0759935900000000 Au
atom 11.6857794599999991 36.9509029499999997 0.1707330700000000 Au
atom 14.4925847099999991 36.9300676900000013 0.1548363700000000 Au
atom 17.3503117300000014 37.0620855199999966 0.0643367500000000 Au
atom 20.1700178100000009 36.9389269600000034 0.0773269600000000 Au
atom 23.0754216800000016 37.0046282200000007 0.1365738900000000 Au
atom 25.9634256999999984 37.0438130300000026 0.1573023700000000 Au
atom 0.4614178600000000 37.0266087299999995 -0.1566267700000000 Au
atom 3.2691192999999998 37.0358421399999997 -0.1165606900000000 Au
atom 6.1011502300000000 37.0423394600000009 -0.0505003500000000 Au
atom 7.5428385300000000 -0.0304469600000000 0.1877296800000000 Au
atom 10.3332388099999992 -0.0504008800000000 0.0705356300000000 Au
atom 13.1260871300000002 -0.0695179000000000 0.1356718800000000 Au
atom 15.8902666200000002 -0.0194175400000000 0.1245895000000000 Au
atom 18.7661653299999998 -0.0238440100000000 -0.0296403300000000 Au
atom 21.5389986299999983 0.0022332300000000 0.3612183100000000 Au
atom 24.3927726500000013 -0.0065185400000000 0.1745600500000000 Au
atom 27.3357525999999993 0.0982830000000000 0.1041985000000000 Au
atom 1.8930795199999999 0.1494399900000000 -0.0768359400000000 Au
atom 4.6792551500000004 0.0304275000000000 -0.0171113600000000 Au
atom 8.8236735300000007 2.4359643400000000 -0.0098735800000000 Au
atom 11.6618738499999992 2.4643724100000002 -0.0071387400000000 Au
atom 14.5380764800000009 2.3964677499999998 0.1378635300000000 Au
atom 17.3338503599999996 2.4330276999999998 0.0737740700000000 Au
atom 20.1479566699999992 2.4070901999999998 0.2654150700000000 Au
atom 22.9866604499999987 2.4123108300000000 0.0564483700000000 Au
atom 25.7532600500000015 2.5429127100000000 0.0316717100000000 Au
atom 0.3820152400000000 2.5819347100000001 0.0523257100000000 Au
atom 3.2326510900000001 2.5389474800000000 -0.0294680000000000 Au
atom 6.0339617099999998 2.5349303999999999 0.1126679900000000 Au
atom 7.4519119900000002 4.9693321900000003 -0.0385931900000000 Au
atom 10.2968477699999994 4.8389256400000003 0.0008556800000000 Au
atom 13.1084279200000005 4.8110229999999996 0.1703643900000000 Au
atom 15.9526847099999998 4.8324812000000001 -0.0277655000000000 Au
atom 18.7530698200000003 4.8991287799999998 0.1130315100000000 Au
atom 21.5836535100000013 4.8757151700000003 0.0013063200000000 Au
atom 24.3355195500000008 4.9839423900000002 0.1635558200000000 Au
atom 27.1536840999999995 5.0798314099999997 0.2002112200000000 Au
atom 1.8067731499999999 5.0534367600000003 0.2198875800000000 Au
atom 4.6175982700000002 4.9905634799999996 0.0661205200000000 Au
atom 8.9192876900000009 7.3043398499999999 -0.1317982000000000 Au
atom 11.7609118000000006 7.2897103500000000 -0.1358092900000000 Au
atom 14.5491239300000004 7.3210666800000004 -0.1525982400000000 Au
atom 17.3963703999999986 7.3919247099999996 -0.0758056100000000 Au
atom 20.1474111499999999 7.3306376400000000 0.0465458800000000 Au
atom 22.8908242699999995 7.3468425799999997 -0.0359151700000000 Au
atom 25.7161288399999997 7.4718989300000000 0.0463904100000000 Au
atom 0.3721844200000000 7.5022659300000001 0.0143228700000000 Au
atom 3.2761393399999998 7.4349141200000002 0.0156937300000000 Au
atom 6.1567457599999997 7.3819289599999998 -0.0485570600000000 Au
atom 7.5240809100000003 9.8896274000000002 -0.1131917900000000 Au
atom 10.3816588099999993 9.7355350000000005 -0.1957538400000000 Au
atom 13.1700497300000006 9.8251608499999996 -0.1734433500000000 Au
atom 15.9461250000000003 9.9045906000000006 -0.1049240400000000 Au
atom 18.8117082700000005 9.8368662699999998 -0.2038062800000000 Au
atom 21.5852250199999993 9.8515994399999993 -0.0584000100000000 Au
atom 24.4221690299999992 9.8957843200000006 -0.1734802900000000 Au
atom 27.3216702200000014 9.8619003099999993 -0.1278093700000000 Au
atom 1.9506091999999999 9.8448828699999993 0.0384026400000000 Au
atom 4.7001426500000001 9.8418270799999998 -0.1900277500000000 Au
atom 8.9356747799999994 12.2486984400000001 -0.1998861700000000 Au
atom 11.7393325900000001 12.3967420100000005 -0.1073578700000000 Au
atom 14.4961178900000007 12.3002077500000002 -0.1624802100000000 Au
atom 17.4196654100000003 12.3366402500000003 -0.2380563000000000 Au
atom 20.2619864400000012 12.4555051999999993 -0.0944360600000000 Au
atom 22.9669089299999989 12.4149427299999999 -0.1881446900000000 Au
atom 25.7802895899999989 12.3866831800000003 -0.4239204900000000 Au
atom 0.4848552400000000 12.2794723599999998 -0.2052135200000000 Au
atom 3.3313804999999999 12.3947046000000007 -0.2730186700000000 Au
atom 6.1059238100000002 12.3652204200000000 -0.2895680300000000 Au
atom 7.4703180199999997 13.2733588499999993 2.3342966999999999 Au
atom 10.3580209799999992 13.2875766500000001 2.4049390700000002 Au
atom 13.2605686899999995 13.0896058499999999 2.4316687799999999 Au
atom 16.0242329099999985 13.1704109500000008 2.3829940199999999 Au
atom 18.7672893800000011 13.1789089199999996 2.4905740399999998 Au
atom 21.5553519700000003 13.2174500800000008 2.5070312700000001 Au
atom 24.4585367900000001 13.0914682500000001 2.5116575499999998 Au
atom 27.2445084100000017 13.1863097699999994 2.1598673200000000 Au
atom 1.8437255200000000 13.2066708500000001 2.4162962399999999 Au
atom 4.6440205299999997 13.2154685399999998 2.4044984500000002 Au
atom 8.8780141500000003 15.7240076500000008 2.4653722100000000 Au
atom 11.7239368600000002 15.5875763799999998 2.3472941899999999 Au
atom 14.5712600099999996 15.5375550800000006 2.4796975200000002 Au
atom 17.3259594600000000 15.6411466800000003 2.4296636000000000 Au
atom 20.1777815999999994 15.5758641900000008 2.5499974200000000 Au
atom 22.9937976000000006 15.6267200400000004 2.4794305400000001 Au
atom 25.8392887299999998 15.5016298700000004 2.5184336599999999 Au
atom 0.5067188700000000 15.7048291199999994 2.4170312500000000 Au
atom 3.2752706200000001 15.6140286899999996 2.6103054000000001 Au
atom 6.0781939700000001 15.7363193399999997 2.3817272799999998 Au
atom 7.4686211699999996 18.1679680599999998 2.6023236500000002 Au
atom 10.3860087100000005 18.1253878099999994 2.2748938900000000 Au
atom 13.2263422399999993 18.0173457299999988 2.6616205499999999 Au
atom 16.0484964999999988 18.1233992599999993 2.5049574799999998 Au
atom 18.8795505000000006 18.0185903100000004 2.7030914899999998 Au
atom 21.6780210699999998 18.0473222399999997 2.4982324000000000 Au
atom 24.4315469900000011 17.9795492299999999 2.6633564500000002 Au
atom 27.2121865900000017 18.1312241599999986 2.4992151400000000 Au
atom 1.8770006500000000 18.1382476600000011 2.6710043099999998 Au
atom 4.6446672700000002 18.1390171000000002 2.5142884400000001 Au
atom 8.9265221900000000 20.5292789800000008 2.7589293700000002 Au
atom 11.7590728000000002 20.5312420600000003 2.7699391300000000 Au
atom 14.5520433800000006 20.4683926800000009 2.8220321300000002 Au
atom 17.3701564399999988 20.5134795099999998 2.8340999899999999 Au
atom 20.3347577500000014 20.5553387500000007 2.9012355400000001 Au
atom 23.0893486599999989 20.5973251399999988 2.9242601200000000 Au
atom 25.8583732499999996 20.5729970800000004 2.7895617499999998 Au
atom 0.4287079500000000 20.5214178700000005 2.6363325600000000 Au
atom 3.2060581400000001 20.6786496699999987 2.6727400900000000 Au
atom 5.9760315300000002 20.6264961599999985 2.6063538600000000 Au
atom 7.5395731100000001 23.1063015999999983 2.6996726700000000 Au
atom 10.3855860199999999 22.9575525200000001 3.0368110800000001 Au
atom 13.1350148699999991 23.0177322400000008 2.8005491999999998 Au
atom 15.9483393800000002 23.0374164599999993 2.7072124899999999 Au
atom 18.7788789999999999 22.9629738900000007 2.9466246900000002 Au
atom 21.5776314900000017 23.0807583899999997 3.0942715100000000 Au
atom 24.4886482399999998 23.0976975300000014 2.8884254500000002 Au
atom 27.2741874600000003 23.0659539000000002 2.8079583800000001 Au
atom 1.7860556900000000 23.0861871699999988 2.5595753600000002 Au
atom 4.6076393700000002 23.1601839299999988 2.6309046299999999 Au
atom 8.9432750700000003 25.5142629999999997 2.7645414399999999 Au
atom 11.7412162599999998 25.4930182499999987 2.9043059900000001 Au
atom 14.5570301799999999 25.5332489799999998 2.8002359399999999 Au
atom 17.3672326999999989 25.5433283600000003 2.9372962800000000 Au
atom 20.1728851700000007 25.5283373900000008 3.1944367400000000 Au
atom 23.0163762900000002 25.5093106600000006 2.8598428600000001 Au
atom 25.8510965800000001 25.5693653400000009 2.8531910400000000 Au
atom 0.4586092300000000 25.5371308200000016 2.6012151299999999 Au
atom 3.2351736299999998 25.6225886299999992 2.7064609399999999 Au
atom 6.1787381400000001 25.5541455599999985 2.6638847900000000 Au
atom 7.6246050500000004 28.0854176600000010 2.5197440900000001 Au
atom 10.3445158599999996 27.9766769800000006 2.8856212499999998 Au
atom 13.1531215300000000 27.9706943899999985 2.9489979800000001 Au
atom 16.0538965199999986 28.0409523599999986 2.9607271599999998 Au
atom 18.8293843800000005 28.0386586000000015 2.9186473099999999 Au
atom 21.6183893100000013 28.0543797700000006 2.8668878100000001 Au
atom 24.5049613999999991 28.0317434600000013 2.6639182899999998 Au
atom 27.2704655600000017 28.0425793500000005 2.7857267499999998 Au
atom 1.8831302000000001 28.0603673600000008 2.6450329500000000 Au
atom 4.7309344600000003 28.0556130300000000 2.8253213700000002 Au
atom 8.9612421300000005 30.5301625899999998 2.8380960800000001 Au
atom 11.8224939199999994 30.4798607699999984 2.8691684300000002 Au
atom 14.6466267600000002 30.4514292100000006 2.8716244700000000 Au
atom 17.3630232299999996 30.4721434199999983 2.7189282000000001 Au
atom 20.2044857299999983 30.4761974799999997 2.6074372499999998 Au
atom 23.0371747999999990 30.4324831600000003 2.6547478799999999 Au
atom 25.9343064800000001 30.4822036099999991 2.7279877799999999 Au
atom 0.5159007200000000 30.5104673899999987 2.7071071600000001 Au
atom 3.2790720699999998 30.4965454499999993 2.6057023400000001 Au
atom 6.1116975900000003 30.5534782599999986 2.7423984899999998 Au
atom 7.5038048399999999 32.9528976100000008 2.4953005600000000 Au
atom 10.3932204000000006 32.9094351299999985 2.7780647599999999 Au
atom 13.2112605599999995 33.0134814600000013 2.7822113000000002 Au
atom 15.9811207199999998 32.8968658499999975 2.8731658699999998 Au
atom 18.7545786499999991 32.8828343300000014 2.5203173099999998 Au
atom 21.6491729299999989 32.8368739599999984 2.5923381200000000 Au
atom 24.5247102999999989 32.9348794400000031 2.5530883200000001 Au
atom 27.3249471899999996 32.9953084599999968 2.6449699999999998 Au
atom 1.9008097700000000 33.0459823699999973 2.6084829599999999 Au
atom 4.7170816000000002 33.0250453199999967 2.4766522800000002 Au
atom 8.9800491299999994 35.3904356000000035 2.7566169700000001 Au
atom 11.7167188000000007 35.4829224799999992 2.7049644399999999 Au
atom 14.5506330100000003 35.3345723199999995 2.8545509800000000 Au
atom 17.4219436300000012 35.4392982500000002 2.7114860500000000 Au
atom 20.2416608499999988 35.3195288800000000 2.6723625800000002 Au
atom 23.0096188599999998 35.3240000899999984 2.6649882100000002 Au
atom 25.9612737200000012 35.4278602600000028 2.6684475100000000 Au
atom 0.5489217700000000 35.4492420899999985 2.3758239500000000 Au
atom 3.3690316400000002 35.5015335900000011 2.6529686300000002 Au
atom 6.1513240800000002 35.5038261600000027 2.5977295499999999 Au
atom 7.4955354999999999 37.9702990899999975 2.6224495299999999 Au
atom 10.2350910600000002 37.8935098199999985 2.8153116300000001 Au
atom 13.0967467899999992 37.8872916500000017 2.7999977500000002 Au
atom 15.8914586599999996 37.7904116799999983 2.6994276500000001 Au
atom 18.8107380000000006 37.8043316899999979 2.6088926099999998 Au
atom 21.6930294900000007 37.8008848500000028 2.8525006300000002 Au
atom 24.4605382300000009 37.7846941199999975 2.5993821300000000 Au
atom 27.3536094299999988 37.8607402100000030 2.7962076800000002 Au
atom 1.8658347700000000 37.9345352200000008 2.4435360199999998 Au
atom 4.7039521600000000 37.9623957900000022 2.6110539799999999 Au
atom 8.9383587799999997 0.9611180100000000 2.6872819400000001 Au
atom 11.7337884999999993 0.8751696900000000 2.7234074300000000 Au
atom 14.5600296100000008 0.7776095800000000 2.7897587000000001 Au
atom 17.3436317299999985 0.7565534300000000 2.7376389500000000 Au
atom 20.1341140299999992 0.7239483300000000 2.7724786099999998 Au
atom 23.0725081000000003 0.8116892700000000 2.9934089099999999 Au
atom 25.9147961900000006 0.8468209000000000 2.7020623800000001 Au
atom 0.4571728100000000 0.9337541000000000 2.7283428000000001 Au
atom 3.2791196600000001 0.9435813000000000 2.6146201699999998 Au
atom 6.1141279199999996 0.9099853900000000 2.7839417800000001 Au
atom 7.5181336400000003 3.4389953800000002 2.6755538600000000 Au
atom 10.3105538800000005 3.3115891300000002 2.5131242299999998 Au
atom 13.2394597399999991 3.2938651900000000 2.6455441899999999 Au
atom 15.9958834599999999 3.2558662100000002 2.6701861899999999 Au
atom 18.7551169900000012 3.3094309100000001 2.8452498500000001 Au
atom 21.6047875500000011 3.2065379200000002 2.6455503299999998 Au
atom 24.4621187300000003 3.2902981499999999 2.7764806900000001 Au
atom 27.2029922500000012 3.3288647199999999 2.6714799600000001 Au
atom 1.8667530200000000 3.4292859700000000 2.6157150400000000 Au
atom 4.6884249400000000 3.3552668799999998 2.6208504499999998 Au
atom 8.8704565599999992 5.8613137599999998 2.6103245500000001 Au
atom 11.7129849099999994 5.7464134700000002 2.6874406500000001 Au
atom 14.4536286100000009 5.8537250700000003 2.7129855900000002 Au
atom 17.2626710599999988 5.7861004300000003 2.6627636400000001 Au
atom 20.1787633600000014 5.7160930399999996 2.7699915200000000 Au
atom 22.9519628199999985 5.7614799000000003 2.8189434100000001 Au
atom 25.8448573300000000 5.8582472499999998 2.9071721500000001 Au
atom 0.4249679600000000 5.8848672600000000 2.8595435100000000 Au
atom 3.3143367499999998 5.8360771600000003 2.7096088100000002 Au
atom 6.0136350700000003 5.8531824900000000 2.6226648400000001 Au
atom 7.4823040900000004 8.3523537799999996 2.5309711199999998 Au
atom 10.2903682500000002 8.2404280799999992 2.4254490400000002 Au
atom 13.0552703000000001 8.2755297199999998 2.4264043000000002 Au
atom 15.8517165400000000 8.1743596400000005 2.3771489099999998 Au
atom 18.7112702800000008 8.2660398900000001 2.5865750699999999 Au
atom 21.5515792399999988 8.2801352999999995 2.6091552400000002 Au
atom 24.3642310100000010 8.3005105599999993 2.5210732800000000 Au
atom 27.2308740399999998 8.2409571499999998 2.6179371200000001 Au
atom 1.8492137000000000 8.2737170599999992 2.6551814600000001 Au
atom 4.6435290599999997 8.3972800799999998 2.4893314300000000 Au
atom 8.9129000600000001 10.7892413600000001 2.4647625600000000 Au
atom 11.7019035700000007 10.7493693599999993 2.3946716000000001 Au
atom 14.5608590699999993 10.6616899699999994 2.5139987600000002 Au
atom 17.3448795999999987 10.7351128899999999 2.4089514500000000 Au
atom 20.1977637399999992 10.7790641399999991 2.4798986599999999 Au
atom 22.9672932199999984 10.7067631100000007 2.5484284700000002 Au
atom 25.8451131499999995 10.6969145999999995 2.2876101100000001 Au
atom 0.5209295000000000 10.7773158400000000 2.6820859700000002 Au
atom 3.3331909500000001 10.8450044499999994 2.5955454100000002 Au
atom 6.1515640899999999 10.8250442699999994 2.3881628300000002 Au
atom 7.4440340699999998 13.2423081200000006 5.4839500699999997 Cl
atom 7.5436207599999996 15.9673760500000004 8.5950999699999997 Cl
atom 7.4896321800000001 13.2422270700000002 8.2168438899999998 Na
atom 7.4373204199999998 15.8672946400000008 5.6767130999999997 Na
atom 7.5937069599999996 18.9140842199999994 5.6936028199999997 Cl
atom 7.4208909099999998 21.6230705699999994 8.6253408799999995 Cl
atom 7.2938409899999996 18.5809989599999987 8.3188527299999997 Na
atom 7.5032045299999997 21.7803967199999988 5.8657068399999996 Na
atom 7.3958728400000000 24.5190422300000002 5.9173892700000001 Cl
atom 7.5582099800000000 27.2166070500000004 8.7499400200000004 Cl
atom 7.3135132000000000 24.4657885300000011 8.5092815399999999 Na
atom 7.4118549199999997 27.1544429200000010 5.9636395799999997 Na
atom 7.4750567999999999 30.1093622900000000 5.9821819700000001 Cl
atom 7.3942691900000002 32.9032122400000020 8.7311961300000007 Cl
atom 7.4131830000000001 30.1006044899999985 8.6706847899999993 Na
atom 7.4940962999999998 32.9945430400000035 5.9813540200000004 Na
atom 7.4311922900000003 35.8588543299999998 5.8526666599999997 Cl
atom 7.4706060299999999 38.6574450299999981 8.7226833100000007 Cl
atom 7.5422579399999998 35.6566365199999993 8.4739404199999999 Na
atom 7.4020342100000001 38.6293998299999970 5.9832936600000002 Na
atom 7.2163208699999997 1.9729536000000001 5.8115071100000000 Cl
atom 7.4669376200000004 4.8056316800000003 8.6113407100000003 Cl
atom 7.5202672200000000 1.9910006800000000 8.4888179800000003 Na
atom 7.2836771000000002 4.6735559200000001 5.7510555600000002 Na
atom 7.3901833600000000 7.5428910699999996 5.5133780799999998 Cl
atom 7.5024667400000000 10.4365834300000007 8.2852693199999994 Cl
atom 7.2997163000000000 7.5752820099999996 8.1941444600000004 Na
atom 7.4366979000000004 10.4283199000000000 5.4755294599999997 Na
atom 10.2129477099999999 13.2255671800000005 5.5950669199999998 Na
atom 13.0656006500000004 13.3964241499999996 5.4854921399999998 Cl
atom 10.2591816599999994 16.0837653200000013 8.2140047999999997 Na
atom 13.0879315199999997 16.0380627999999987 8.6725920799999994 Cl
atom 13.0153912799999993 13.1568943300000001 8.1821789999999996 Na
atom 10.2643946499999998 13.1629600599999996 8.3629440099999997 Cl
atom 13.0071847500000004 16.0048693399999991 5.9027409200000003 Na
atom 10.1996887399999991 16.2049310099999992 5.6186712500000002 Cl
atom 10.2143223699999997 18.9654476199999991 5.8516681200000003 Na
atom 12.9847870200000006 18.9180054999999996 5.6653742999999999 Cl
atom 10.2919126399999996 21.7081642499999994 8.5655763500000006 Na
atom 13.1069888799999994 21.5054082300000005 8.7330850200000008 Cl
atom 12.9777378500000005 18.8770052600000007 8.2903303899999994 Na
atom 10.3280231800000006 18.9133437399999984 8.5818802600000001 Cl
atom 13.1702566099999991 21.7401202399999995 6.0489953200000004 Na
atom 10.2697812499999994 21.6747814500000011 5.7936088600000000 Cl
atom 10.2560292700000009 24.5677646100000011 6.0393125100000002 Na
atom 13.0844630300000002 24.5359673899999997 6.0760711000000001 Cl
atom 10.2355209899999995 27.2288412899999983 8.4641465199999999 Na
atom 13.0416239300000001 27.4336880500000007 8.8099027299999992 Cl
atom 13.1428228399999991 24.4719941500000004 8.7069200299999991 Na
atom 10.3732629999999997 24.4944729499999987 8.8585420799999994 Cl
atom 13.1263500799999999 27.3034846400000006 6.1429251300000001 Na
atom 10.2596481700000002 27.2619497200000005 5.8390300000000002 Cl
atom 10.2836147199999992 30.1837276900000013 5.9764928099999999 Na
atom 13.2658319599999999 30.0885715199999986 5.8384966299999999 Cl
atom 10.1880881599999995 32.9938359599999984 8.5960234599999996 Na
atom 13.0406801699999999 32.9461591000000027 8.6242444299999992 Cl
atom 12.9247847100000008 30.2681491800000018 8.3935649600000009 Na
atom 10.2550251699999997 30.2191047700000013 8.6231743000000005 Cl
atom 13.0397952799999999 32.9045363800000032 5.7712218200000001 Na
atom 10.2738282900000009 32.9560312199999998 5.8005537399999998 Cl
atom 10.2159168099999995 35.8629804300000004 5.7315112600000004 Na
atom 13.0670750400000006 35.7666691499999985 5.7256805300000000 Cl
atom 10.2139009800000000 38.6639948400000009 8.3900090699999996 Na
atom 12.9711604900000008 38.6620240199999969 8.5806003999999998 Cl
atom 13.1204967600000000 35.7871877500000011 8.3925151200000006 Na
atom 10.2721553199999995 35.8538598299999975 8.4300553600000008 Cl
atom 13.0458730700000007 38.7503831499999976 5.7934676700000001 Na
atom 10.1461846500000004 38.8501341899999986 5.7751857299999996 Cl
atom 10.2190678300000002 1.9103988300000001 5.8986751699999997 Na
atom 13.0081544600000001 2.0482762000000001 5.8026235399999999 Cl
atom 10.1316229300000007 4.9777699000000002 8.3921343299999993 Na
atom 13.1066421000000002 4.8227161399999998 8.5068968799999993 Cl
atom 12.9918154000000001 1.9947413899999999 8.4884818099999997 Na
atom 10.2974355200000005 2.0451012899999998 8.7093442400000001 Cl
atom 13.0499016999999995 4.7179107199999999 5.7364979099999998 Na
atom 10.3500958599999997 4.5433542100000004 5.7170498700000003 Cl
atom 10.0923095499999995 7.5298385799999998 5.5082611699999999 Na
atom 12.9489385699999993 7.6500475400000001 5.6422075800000000 Cl
atom 10.2946716499999997 10.3434398499999993 8.1706085099999992 Na
atom 13.0282408099999998 10.4045590699999995 8.3232006799999994 Cl
atom 13.0508166800000005 7.6269091700000002 8.1551368400000008 Na
atom 10.1526762599999998 7.6706590200000004 8.3583500700000002 Cl
atom 13.0878207599999996 10.3243463900000005 5.6258732299999998 Na
atom 10.2868673499999996 10.4109945400000008 5.5446862000000001 Cl
atom 15.7993596899999993 13.2940213400000005 5.6289469399999996 Na
atom 18.6257840600000009 13.1324260800000001 5.5595406699999996 Cl
atom 15.8237797800000006 16.1177872899999990 8.3034500900000001 Na
atom 18.6952080000000009 15.8487488400000007 8.5496278500000003 Cl
atom 18.6558869799999982 13.0013173000000002 8.2478504400000006 Na
atom 15.8366433200000003 13.2192894699999997 8.2695265899999999 Cl
atom 18.5916018899999997 16.0799956199999983 5.7700307100000003 Na
atom 15.9670588400000000 16.1320436200000010 5.5339243400000004 Cl
atom 15.8945962999999999 19.0198563599999986 5.7277015499999999 Na
atom 18.6973326200000010 18.8374226900000004 5.7067811400000004 Cl
atom 15.8274209900000002 21.6947222099999983 8.5916867000000003 Na
atom 18.7523179900000017 21.5985712300000010 8.5190110400000005 Cl
atom 18.5757575300000006 18.8115642500000000 8.2788452199999991 Na
atom 15.8234399000000003 18.8119839999999989 8.4245560499999996 Cl
atom 18.8536164200000016 21.5648766999999992 5.9407574199999997 Na
atom 15.9226813600000003 21.7545352299999983 5.8346674500000004 Cl
atom 15.9355166599999993 24.4988468200000007 6.1042567999999999 Na
atom 18.7023285100000010 24.6451923999999991 6.0182077999999999 Cl
atom 15.8261580100000003 27.4951048100000008 8.6229663799999994 Na
atom 18.8099666799999987 27.3852369899999992 8.8888720200000009 Cl
atom 18.7803900699999993 24.4289697299999986 8.5481066899999991 Na
atom 15.8809279100000005 24.4600754400000007 8.8348410800000003 Cl
atom 18.7153838099999987 27.2305895699999994 6.1436820699999997 Na
atom 15.8321150100000008 27.2480433799999986 5.9726898999999998 Cl
atom 15.9511837700000001 30.2846793000000005 5.9654499400000001 Na
atom 18.8093016499999983 30.0035141100000011 5.7646402300000004 Cl
atom 15.8409812799999994 32.9339047799999989 8.5523621399999996 Na
atom 18.6828403300000012 32.9852735899999985 8.6665179299999995 Cl
atom 18.8767319399999991 30.2136031799999998 8.5354983699999991 Na
atom 15.9282517000000006 30.1961691999999999 8.7067413400000007 Cl
atom 18.7113349100000015 33.0423862299999982 5.7786862899999996 Na
atom 15.9252719799999998 33.0491553199999970 5.8245334299999998 Cl
atom 15.7023064399999992 35.8548937899999984 5.8550551899999999 Na
atom 18.6184227900000003 35.8391204999999999 5.6415760099999996 Cl
atom 15.9103910400000004 38.7112939599999990 8.4540156700000004 Na
atom 18.7317067699999988 38.5689157099999989 8.4941987300000008 Cl
atom 18.6227235799999988 35.7599658000000034 8.3621120700000002 Na
atom 15.8473223599999997 35.8864962299999988 8.7410523700000002 Cl
atom 18.6753357000000015 38.6424135000000035 5.6933302200000000 Na