#===============================================================================
# Created using the Atomic Simulation Environment (ASE)

# Tue Dec 23 22:26:01 2025

#=======================================================
lattice_vector 28.1999999999999993 0.0000000000000000 0.0000000000000000 
lattice_vector 0.0000000000000000 39.4799999999999969 0.0000000000000000 
lattice_vector 0.0000000000000000 0.0000000000000000 62.3296083400000001 
atom 7.4860238800000003 14.7989245999999994 0.0850680300000000 Au
atom 10.3358609599999998 14.7853576300000000 -0.0302852500000000 Au
atom 13.1502469800000004 14.8938470400000007 -0.1379206800000000 Au
atom 15.9298766399999998 14.7329034500000002 -0.0075770000000000 Au
atom 18.7787561899999993 14.8087728999999992 0.0276267700000000 Au
atom 21.5849407000000006 14.8978025100000000 -0.0270680400000000 Au
atom 24.4540255699999989 14.7957401599999994 0.1023096300000000 Au
atom 27.2848105899999993 14.7619218799999992 0.0783807200000000 Au
atom 1.7912593999999999 14.8214127100000006 -0.0866426800000000 Au
atom 4.6877550100000001 14.7957989800000007 -0.0374181300000000 Au
atom 8.9015328300000007 17.3062308599999994 0.0350768300000000 Au
atom 11.7166503100000003 17.2929552300000005 0.0016370400000000 Au
atom 14.5730629999999994 17.2743726899999999 -0.1166049300000000 Au
atom 17.3968203999999993 17.2471681900000000 0.0129688400000000 Au
atom 20.1884594899999996 17.3266133099999990 0.0492831200000000 Au
atom 23.0858334399999983 17.2485267299999983 0.0834482100000000 Au
atom 25.8417486099999998 17.2039152199999990 0.1377850800000000 Au
atom 0.4991938900000000 17.3091006599999986 0.2949823400000000 Au
atom 3.3015418099999998 17.2947923900000013 -0.1180630300000000 Au
atom 6.1046726900000001 17.2930013400000000 0.0596587500000000 Au
atom 7.4578883999999999 19.7336478399999997 0.0826115200000000 Au
atom 10.3040161999999995 19.7515701099999994 -0.0262857000000000 Au
atom 13.1927629300000007 19.6881369600000014 0.1634142400000000 Au
atom 15.9722503400000004 19.6912039400000012 -0.0032500600000000 Au
atom 18.7868375900000011 19.7433937099999994 0.0842947400000000 Au
atom 21.5855466599999986 19.7219973499999988 0.0952542700000000 Au
atom 24.4033714000000010 19.6994243199999985 0.1000433900000000 Au
atom 27.2384626800000014 19.7262252199999999 0.0235438400000000 Au
atom 1.8647372900000001 19.7621604899999994 0.1082049100000000 Au
atom 4.6867933300000004 19.7599177499999996 0.0958114300000000 Au
atom 8.9263629000000009 22.1837771600000018 -0.0294548400000000 Au
atom 11.7417078200000002 22.2044733100000009 0.0012759100000000 Au
atom 14.5902820200000001 22.2174811599999984 -0.0752574900000000 Au
atom 17.3813383100000003 22.1888610300000018 -0.0296224300000000 Au
atom 20.1858892899999987 22.2053556800000003 -0.0397106900000000 Au
atom 22.9964608199999994 22.1704414000000014 0.0128243200000000 Au
atom 25.8848985700000007 22.2379063499999994 0.0577718300000000 Au
atom 0.4272533000000000 22.0931785800000000 0.1292954800000000 Au
atom 3.2595186900000002 22.2626946600000011 0.1332914600000000 Au
atom 6.0534296999999997 22.2129841100000007 0.0975036100000000 Au
atom 7.4741936999999998 24.6855037599999996 0.0158066000000000 Au
atom 10.2492467200000004 24.6248763299999993 0.1309438600000000 Au
atom 13.0735080499999992 24.6549202799999989 0.0703536700000000 Au
atom 15.9279202899999994 24.7006845700000000 0.0312023000000000 Au
atom 18.7172154500000012 24.6831877599999991 0.1501784100000000 Au
atom 21.6116453300000018 24.7215673299999992 0.1652007800000000 Au
atom 24.4181548299999989 24.6762241300000014 0.0374106100000000 Au
atom 27.2240836000000002 24.5847275399999994 -0.0813966100000000 Au
atom 1.8540967800000001 24.6234201100000014 0.1448566400000000 Au
atom 4.6627075600000003 24.7398077399999998 0.1948494100000000 Au
atom 8.9049454600000004 27.1122542499999994 0.1289215000000000 Au
atom 11.7102594999999994 27.1322946700000003 0.0208223500000000 Au
atom 14.5548596900000007 27.1888032200000005 -0.0293403300000000 Au
atom 17.3744773799999983 27.1319562800000007 0.0753104300000000 Au
atom 20.2011483399999996 27.1033528299999986 0.0878308800000000 Au
atom 23.0393900500000015 27.1192751700000017 0.0845214900000000 Au
atom 25.8285821499999990 27.1861766500000002 -0.0120888300000000 Au
atom 0.4491645000000000 27.1229584400000014 0.0402820700000000 Au
atom 3.2745270199999998 27.1179095200000013 0.0129637400000000 Au
atom 6.0755629700000000 27.1422661900000008 0.0438548600000000 Au
atom 7.5305237099999998 29.6011291099999987 0.0032623700000000 Au
atom 10.3570480400000005 29.5843197199999999 0.0069386100000000 Au
atom 13.1291635899999992 29.6413905399999997 -0.0192913700000000 Au
atom 15.9880873200000000 29.6004166200000007 -0.0136854200000000 Au
atom 18.7668845299999987 29.6055675200000010 0.0456147900000000 Au
atom 21.6192701000000014 29.6091228899999983 0.1519631500000000 Au
atom 24.4720606499999995 29.5423590300000001 -0.0554874800000000 Au
atom 27.2918580400000010 29.7372936599999989 0.1070678200000000 Au
atom 1.8819351700000000 29.6672911299999988 -0.0127834300000000 Au
atom 4.6735925900000002 29.5675504400000015 0.0745607200000000 Au
atom 8.9686398799999996 32.1535096200000012 0.0030143500000000 Au
atom 11.7763960599999997 32.0753648600000005 0.0722756500000000 Au
atom 14.5820702799999999 32.1060831200000010 0.1098010600000000 Au
atom 17.3602419499999989 32.0546279900000002 0.1274928900000000 Au
atom 20.1886024800000001 32.0585325999999995 0.0795776400000000 Au
atom 23.0244001300000001 32.1043304000000020 -0.0795020400000000 Au
atom 25.8402159900000008 32.0708452100000017 -0.0146814200000000 Au
atom 0.4860945200000000 32.1575055500000033 -0.0258683500000000 Au
atom 3.3561252600000002 32.0865941899999996 -0.0197775700000000 Au
atom 6.1778781399999998 32.1012613099999982 -0.0030138200000000 Au
atom 7.5501141599999997 34.5869547599999976 -0.0187790200000000 Au
atom 10.3298518399999999 34.5141676000000004 0.0382196100000000 Au
atom 13.1436399399999999 34.5721582199999986 0.0230945500000000 Au
atom 15.9671161599999998 34.5677432800000020 0.0213352200000000 Au
atom 18.7692583299999995 34.5053269200000017 0.0162610100000000 Au
atom 21.6018026399999989 34.5566575300000025 -0.0399364200000000 Au
atom 24.4371668900000003 34.5696570899999998 0.0646371200000000 Au
atom 27.2464788300000009 34.6999940199999983 0.0724017800000000 Au
atom 1.9122898699999999 34.4918813399999991 -0.0396437700000000 Au
atom 4.6843703400000001 34.5635304799999972 0.0436565800000000 Au
atom 8.8665441400000002 37.0597282600000000 -0.0100203900000000 Au
atom 11.6728343500000005 37.0120346300000023 0.0667956900000000 Au
atom 14.5934085899999992 36.9846925399999975 0.1042144800000000 Au
atom 17.3758324299999991 36.9791471400000020 0.0646174900000000 Au
atom 20.2715317699999993 36.9959862099999981 0.0381590100000000 Au
atom 23.0528524499999996 36.9537915200000029 0.2003050500000000 Au
atom 25.9699537499999984 37.1503124199999988 0.1347408000000000 Au
atom 0.4661500400000000 37.1675304899999972 0.1252844700000000 Au
atom 3.2485372099999998 36.9974174099999971 0.0193215700000000 Au
atom 6.2394072899999999 37.0930394100000029 0.0530514100000000 Au
atom 7.6352171699999998 0.0331085300000000 -0.2115334700000000 Au
atom 10.3793492900000004 0.0473078000000000 -0.1241975900000000 Au
atom 13.3690390600000004 0.0072801000000000 -0.0371437700000000 Au
atom 15.9148681100000005 0.0114372900000000 0.0475846900000000 Au
atom 18.7406170299999992 0.0030885900000000 -0.0913419300000000 Au
atom 21.4008187200000002 -0.0032274700000000 0.1029945200000000 Au
atom 24.1546297400000007 0.0231356900000000 0.3834495300000000 Au
atom 27.2448425199999988 0.0816563500000000 0.3477722100000000 Au
atom 1.9789263500000001 0.0101980900000000 0.2932611200000000 Au
atom 4.6913017799999999 0.0164102700000000 0.0258926500000000 Au
atom 8.9219024499999993 2.4575148599999999 0.0275475000000000 Au
atom 11.7161319699999993 2.4778679000000001 0.0570248900000000 Au
atom 14.5221539300000000 2.4822942600000002 0.0322820700000000 Au
atom 17.3599666500000005 2.4582458200000001 0.0697755300000000 Au
atom 20.1579381799999986 2.4291324200000002 0.0821512900000000 Au
atom 22.9940488899999984 2.4815640100000000 0.0615785500000000 Au
atom 25.8198213199999991 2.5149893400000001 0.0621219000000000 Au
atom 0.4378253100000000 2.3934598600000001 0.0959622000000000 Au
atom 3.2443914000000000 2.4831001800000001 0.1025684400000000 Au
atom 6.0787998999999999 2.4987201500000000 -0.0933414200000000 Au
atom 7.4970070299999998 4.9574667799999999 0.0067378100000000 Au
atom 10.2977468200000004 4.9607177099999999 0.1215526500000000 Au
atom 13.1337081999999992 4.9492108799999999 0.1871190300000000 Au
atom 15.9581943800000001 4.9496856600000001 0.0137727200000000 Au
atom 18.8008180100000004 4.9671671000000002 0.0567308900000000 Au
atom 21.5746764700000000 4.9983181500000002 0.0505444700000000 Au
atom 24.4265274099999985 4.9414286799999996 0.1583555500000000 Au
atom 27.2322836499999994 4.9844374699999996 0.0639167400000000 Au
atom 1.8426965500000001 4.9314037099999997 0.0313834600000000 Au
atom 4.6454414999999996 4.9576140999999998 0.0938727700000000 Au
atom 8.9126762399999997 7.4167735300000004 0.1543143900000000 Au
atom 11.6927793100000006 7.3874165700000001 0.0628821600000000 Au
atom 14.5553775400000003 7.3973158100000003 -0.0065267600000000 Au
atom 17.3851300100000010 7.4588946199999997 0.1770997400000000 Au
atom 20.1885959200000009 7.4011516600000000 0.1396373100000000 Au
atom 23.0322971800000005 7.4175973099999997 0.0340496800000000 Au
atom 25.8589383499999990 7.3458441499999996 -0.1531893700000000 Au
atom 0.4708650200000000 7.3608321999999999 -0.0920170600000000 Au
atom 3.2121538100000002 7.4459009700000003 0.0112550300000000 Au
atom 6.0762367700000004 7.4739937799999998 0.0294152900000000 Au
atom 7.4872503200000002 9.9000920299999997 0.0590910000000000 Au
atom 10.3072131099999993 9.8638276299999994 -0.0051423300000000 Au
atom 13.2522327200000003 9.8332115099999999 -0.0190291600000000 Au
atom 15.9908502200000004 9.8616286700000000 0.0244965900000000 Au
atom 18.8114507899999985 9.9479629200000002 0.0592221800000000 Au
atom 21.5816355599999987 9.8825968900000003 0.0122417900000000 Au
atom 24.4334978400000011 9.8857672799999996 0.0765514500000000 Au
atom 27.2561347100000013 9.9928179099999994 -0.0193831000000000 Au
atom 1.8813987299999999 9.9220026600000004 -0.0809949000000000 Au
atom 4.6516928599999998 9.8814972700000006 0.0060968100000000 Au
atom 8.9003598299999993 12.2997457600000004 0.0152442300000000 Au
atom 11.7161345499999996 12.3061473499999998 -0.2483123900000000 Au
atom 14.5757985500000000 12.2735809000000007 -0.1223190900000000 Au
atom 17.3762288399999996 12.3426651500000002 0.0714723000000000 Au
atom 20.1430624099999989 12.3882337299999996 -0.0299711800000000 Au
atom 23.0243041800000015 12.4134203099999993 0.0006477300000000 Au
atom 25.8549655200000004 12.2891728100000002 -0.0021802200000000 Au
atom 0.4598705500000000 12.3021533600000001 -0.2895354300000000 Au
atom 3.3092583300000000 12.3882922900000008 -0.0021562800000000 Au
atom 6.1105983699999999 12.3471022599999998 -0.0525492700000000 Au
atom 7.5208997000000002 13.1349403900000006 2.7030938999999998 Au
atom 10.3546768599999996 13.1642271100000006 2.4979074600000000 Au
atom 13.1420379500000006 13.2019107499999997 2.2942823099999998 Au
atom 15.9535654699999991 13.2288688200000006 2.5512886500000000 Au
atom 18.7884362100000004 13.2257776000000007 2.6971553699999999 Au
atom 21.6102075800000009 13.2329918099999997 2.5822187799999998 Au
atom 24.4394266000000009 13.1700895899999999 2.6319775200000000 Au
atom 27.2382652500000013 13.1498552600000007 2.5128974700000000 Au
atom 1.8922644500000001 13.1659192300000001 2.6744678099999999 Au
atom 4.7425321599999997 13.2061156099999994 2.5802005100000001 Au
atom 8.9031875800000009 15.6243180200000005 2.6272017000000001 Au
atom 11.7364394000000001 15.6200636399999997 2.5705755300000002 Au
atom 14.5298317800000003 15.6623922800000006 2.5408373900000001 Au
atom 17.4264905799999994 15.6731683400000001 2.6436044200000000 Au
atom 20.2299064999999985 15.6864279700000004 2.5387860899999999 Au
atom 23.0346080899999990 15.6596011300000004 2.7028124999999998 Au
atom 25.9118764500000012 15.6788954100000009 2.7019602300000001 Au
atom 0.4736760300000000 15.6041970200000009 2.6444368100000002 Au
atom 3.3042588799999999 15.7001126600000003 2.5203531600000000 Au
atom 6.0951963400000002 15.6266727400000001 2.5976750599999998 Au
atom 7.5152558300000001 18.1419802600000004 2.7015709299999999 Au
atom 10.3345197800000008 18.0604363399999990 2.4920595400000001 Au
atom 13.1720321899999995 18.0642314199999987 2.5747149800000000 Au
atom 15.8929831200000002 18.0989133600000009 2.5010536000000001 Au
atom 18.7752430900000000 18.1210187500000011 2.6750865600000000 Au
atom 21.5974562699999986 18.0609256500000015 2.6446041700000000 Au
atom 24.4184838299999996 18.0880671900000003 2.8376759200000001 Au
atom 27.2417167300000003 18.2936237099999985 2.6646068600000001 Au
atom 1.8693280400000001 18.0849438099999986 2.6022725000000002 Au
atom 4.7046006800000004 18.1398596199999993 2.6258621099999999 Au
atom 8.8869511100000000 20.5679816600000009 2.6800732900000002 Au
atom 11.6896927999999996 20.5294001000000002 2.6919528700000002 Au
atom 14.5460779599999999 20.6086305100000011 2.5797334400000000 Au
atom 17.3855072700000015 20.5853541900000003 2.6299170900000002 Au
atom 20.2232336400000001 20.5689626499999996 2.6564340299999998 Au
atom 23.0077610700000008 20.5612742699999984 2.6961429400000001 Au
atom 25.7936115100000016 20.5800886200000015 2.6123019300000001 Au
atom 0.4704026100000000 20.5476184000000011 2.6391012100000002 Au
atom 3.3053382299999998 20.6432903900000007 2.6914502599999999 Au
atom 6.0405634800000003 20.6076077099999999 2.7200532399999999 Au
atom 7.5594801699999996 23.0965568499999989 2.6570321899999998 Au
atom 10.4138030799999992 23.0483358900000006 2.5808485299999999 Au
atom 13.2088166299999994 23.0224558500000001 2.5533288700000001 Au
atom 16.0267506200000014 23.0932136499999991 2.4842357200000000 Au
atom 18.8042912700000002 23.0782011099999984 2.6175938699999999 Au
atom 21.5973634799999985 23.0892623700000001 2.5597496799999999 Au
atom 24.3828346200000006 23.0786804600000011 2.6037254900000000 Au
atom 27.2304706199999984 23.0886372999999985 2.5336872000000001 Au
atom 1.8485555300000001 23.0993735700000009 2.7089664400000002 Au
atom 4.6941198000000002 23.1355305700000002 2.6638288100000000 Au
atom 8.9600557199999997 25.4862144199999996 2.6813995600000000 Au
atom 11.7574370199999994 25.5597381400000003 2.7110046600000000 Au
atom 14.5223780100000006 25.5229892199999995 2.5916899199999999 Au
atom 17.3176492599999996 25.5988539599999996 2.6783004199999998 Au
atom 20.1620227700000001 25.5922662800000005 2.6957607600000002 Au
atom 22.9891255200000018 25.5490225600000009 2.7567730600000000 Au
atom 25.8241979899999983 25.5165708500000008 2.6825875500000000 Au
atom 0.4366896500000000 25.5393216400000007 2.6276047500000002 Au
atom 3.2624949100000000 25.5803285100000011 2.7448760100000000 Au
atom 6.1190746000000003 25.5677050600000015 2.7243307300000001 Au
atom 7.4819890200000003 28.0453929700000018 2.6363067899999999 Au
atom 10.3120711099999998 27.9936514000000010 2.6774872699999999 Au
atom 13.1190507899999993 28.0123529500000004 2.4893499000000001 Au
atom 15.9176090099999996 28.0394454199999998 2.5924008100000000 Au
atom 18.7331314900000017 27.9997998599999995 2.6265277600000001 Au
atom 21.6349201800000017 28.0328138500000001 2.7809750200000001 Au
atom 24.4266173199999983 28.0156096000000012 2.5768062100000000 Au
atom 27.2398542399999997 28.0672106799999987 2.6903787000000001 Au
atom 1.8103280100000001 27.9540038499999994 2.6138989100000001 Au
atom 4.6944032299999998 28.0006662000000013 2.7005279299999998 Au
atom 8.9220155099999996 30.4352905000000007 2.6047299599999998 Au
atom 11.7144399799999999 30.5309331300000011 2.6562868900000001 Au
atom 14.5281043800000003 30.4641878800000008 2.6304263200000002 Au
atom 17.3463945300000013 30.4735458399999999 2.6446003999999999 Au
atom 20.1519796500000012 30.4463604100000005 2.6720950999999999 Au
atom 23.0045064199999985 30.4879013599999986 2.6180830500000001 Au
atom 25.8124979500000009 30.4333573000000008 2.6082109899999999 Au
atom 0.4321805000000000 30.3806630999999996 2.9162140999999999 Au
atom 3.2373107100000000 30.5520251000000016 2.6958917400000000 Au
atom 6.0477648600000000 30.4780589999999982 2.6036698899999999 Au
atom 7.4543394100000002 32.8990247899999986 2.5642447499999999 Au
atom 10.3193862799999998 32.9437205500000019 2.6976954399999999 Au
atom 13.1137273499999996 32.9171798899999999 2.7327179199999998 Au
atom 15.9921170400000001 32.9690402399999982 2.6905972700000000 Au
atom 18.8006343800000018 32.8990320099999991 2.6285343600000002 Au
atom 21.6116936200000005 32.9225069399999981 2.6935304200000001 Au
atom 24.4185419699999997 32.8779349400000029 2.5951210100000002 Au
atom 27.2281782499999991 33.0845090099999979 2.4363969600000002 Au
atom 1.8754215200000000 32.9790804000000009 2.4902787000000002 Au
atom 4.7125629000000000 32.9476929100000007 2.6764080600000000 Au
atom 8.8997871400000008 35.3948764800000006 2.6239338100000000 Au
atom 11.7256960899999996 35.4025171500000013 2.6662227900000000 Au
atom 14.5690052699999999 35.3834231100000025 2.5632535399999998 Au
atom 17.3985019500000000 35.3948383299999989 2.6215905400000001 Au
atom 20.2601052599999996 35.3203939899999995 2.6176375599999999 Au
atom 23.0434517099999994 35.3261273800000026 2.6123250800000002 Au
atom 25.8011083600000006 35.3531700500000028 2.7422375300000001 Au
atom 0.4262954300000000 35.1667135900000005 2.8068566700000002 Au
atom 3.2723287000000001 35.4051869999999980 2.6823287900000001 Au
atom 6.1016684000000003 35.3962003099999976 2.7403746099999999 Au
atom 7.4071310300000004 37.8650919800000025 2.5321410200000001 Au
atom 10.2441842899999997 37.8595583899999966 2.4251746999999999 Au
atom 13.1137857199999992 37.8423235400000024 2.4581959300000000 Au
atom 16.0721402500000003 37.8454961600000033 2.6498029399999998 Au
atom 18.8527900499999994 37.8451649300000028 2.4353372000000002 Au
atom 21.6455765699999994 37.8278186499999975 2.7338066300000001 Au
atom 24.6499218700000000 37.8530494399999995 2.6959993999999998 Au
atom 27.4196468600000003 37.8369796599999972 2.8348079700000000 Au
atom 1.7091507399999999 37.7933676800000029 2.5715044400000000 Au
atom 4.7106574099999996 37.8731392999999983 2.7684031899999999 Au
atom 8.8727720500000000 0.8604928200000000 2.7028491799999999 Au
atom 11.8026133800000004 0.8195393800000000 2.7097086699999999 Au
atom 14.6377157100000002 0.8364564500000000 2.7523315899999998 Au
atom 17.3800457799999997 0.8413349000000000 2.7244993800000001 Au
atom 20.1477416799999993 0.8268937200000001 2.7624379100000001 Au
atom 23.0121355200000011 0.8922707600000001 2.7525439000000000 Au
atom 25.8656674600000009 0.8895611600000000 2.8371607800000000 Au
atom 0.3970525200000000 0.7285894200000000 2.4262121099999998 Au
atom 3.3408019699999998 0.8926203900000000 2.8429528099999999 Au
atom 6.1835355900000000 0.8133646000000000 2.5691743900000001 Au
atom 7.5526052400000001 3.2955487600000000 2.5504899299999999 Au
atom 10.3342590300000001 3.3423129700000000 2.7361782600000000 Au
atom 13.1115982100000004 3.3440755499999999 2.7601558100000001 Au
atom 15.9524288599999995 3.3631151199999998 2.7171897700000001 Au
atom 18.7740034000000016 3.3696370800000000 2.6835846499999998 Au
atom 21.5844504499999985 3.3209421400000001 2.6086105800000001 Au
atom 24.4507705599999987 3.3161805800000002 2.7741342699999998 Au
atom 27.2289803900000003 3.3455059000000000 2.6342271899999998 Au
atom 1.8716737100000000 3.3629764000000000 2.7054721700000002 Au
atom 4.6904673800000003 3.3328779399999999 2.6706186600000001 Au
atom 8.8914028100000007 5.8089581499999996 2.6977151899999998 Au
atom 11.6971517299999999 5.7872548999999998 2.7971800899999999 Au
atom 14.6245003300000000 5.7910353199999998 2.6398327699999999 Au
atom 17.3690246700000017 5.8378476800000003 2.7850604300000001 Au
atom 20.1380534000000004 5.8125153999999997 2.7305559300000000 Au
atom 23.0447443400000012 5.7945266699999998 2.7213235700000000 Au
atom 25.8517947499999998 5.7667047000000000 2.8188034700000002 Au
atom 0.4754341900000000 5.7461293199999997 2.8683604900000002 Au
atom 3.2774207600000000 5.8022575900000000 2.6916666700000000 Au
atom 6.1120739799999999 5.8546976700000002 2.7307623799999998 Au
atom 7.5381078300000004 8.2960687699999998 2.7610572200000001 Au
atom 10.3571464300000002 8.2380694299999995 2.7418457300000001 Au
atom 13.2182622599999995 8.2854467799999991 2.5474365300000001 Au
atom 15.9923315499999994 8.3077910999999993 2.6976744199999998 Au
atom 18.8288081900000002 8.3004210100000009 2.8432499800000000 Au
atom 21.6226935900000008 8.2296893499999992 2.6636796999999999 Au
atom 24.4549959900000005 8.2515632599999993 2.5703332799999998 Au
atom 27.2137521500000013 8.2656133700000005 2.6552296300000000 Au
atom 1.8687419000000001 8.2573633799999993 2.6293853899999999 Au
atom 4.6829695600000001 8.3029498400000001 2.5683008500000000 Au
atom 8.9227225299999997 10.7513838600000007 2.6957189200000000 Au
atom 11.7440928200000005 10.7212901100000000 2.4533174999999998 Au
atom 14.6011497400000003 10.7461387599999991 2.6564288600000001 Au
atom 17.3890967200000013 10.7839952500000003 2.7277236899999999 Au
atom 20.2171547899999986 10.7734259600000009 2.5336328400000001 Au
atom 23.0318846300000004 10.6751282199999995 2.6493075799999999 Au
atom 25.8362173900000016 10.6877333300000004 2.6171956399999998 Au
atom 0.5115743800000000 10.6747133800000000 2.7177368600000000 Au
atom 3.2729919999999999 10.7302984699999993 2.6563872700000002 Au
atom 6.1145232399999996 10.7395486699999996 2.5690783399999999 Au
atom 7.4987102400000003 13.0058542100000007 5.7428920899999998 Cl
atom 7.4995035500000000 15.9018172799999995 8.3188162699999992 Cl
atom 7.4812585299999999 13.1010438600000008 8.4989457700000006 Na
atom 7.3903806500000000 15.9031869500000003 5.5801578899999997 Na
atom 7.2958361199999997 18.8335464899999998 5.6900993599999996 Cl
atom 7.4101920000000003 21.6574568899999989 8.5521227399999997 Cl
atom 7.3791054699999998 18.8015273000000001 8.2577318500000008 Na
atom 7.2583419200000003 21.7592515900000016 5.8443696899999997 Na
atom 7.1290257199999996 24.5024870499999992 5.7299411100000004 Cl
atom 7.3193690199999999 27.3396300399999994 8.6433255399999993 Cl
atom 7.4160564400000002 24.4473531500000014 8.4048031299999995 Na
atom 7.2290047700000004 27.2794489200000001 5.9029089099999998 Na
atom 7.3382786700000002 30.2320283600000010 5.7341399500000003 Cl
atom 7.4694970200000004 32.9566267000000011 8.5489712999999998 Cl
atom 7.4112175699999998 30.1678317400000005 8.4004643699999999 Na
atom 7.5062277000000002 32.9476987600000015 5.7685602899999999 Na
atom 7.5256501800000004 35.7776904400000006 5.7138457200000001 Cl
atom 7.5109776200000002 38.5313662499999978 8.5517273100000004 Cl
atom 7.4838725000000004 35.7942938300000009 8.4283810700000004 Na
atom 7.9456010499999996 38.5704178399999975 5.5624869700000001 Na
atom 7.4026881900000001 1.8071725800000000 5.7127221099999996 Cl
atom 7.4149323799999998 4.5946474100000003 8.6012364600000009 Cl
atom 7.5001475400000004 1.7714354699999999 8.3311566199999998 Na
atom 7.4856519400000003 4.6269376900000001 5.9343710800000000 Na
atom 7.5067641700000003 7.4134131700000001 5.8683274499999998 Cl
atom 7.4878027100000004 10.3133256699999993 8.6596799099999995 Cl
atom 7.4214616099999997 7.3039239800000004 8.4721090100000005 Na
atom 7.3920829299999999 10.1931581900000001 5.7320695700000002 Na
atom 10.2329810000000005 12.9594738599999992 5.9001195099999997 Na
atom 13.0133535100000000 13.0137115600000008 5.9639275700000001 Cl
atom 10.1065698499999996 16.0867472099999986 8.1526360699999998 Na
atom 13.0573750600000000 16.0430198900000001 8.5091844299999995 Cl
atom 12.9135671100000007 13.5682179400000003 8.9151132000000004 Na
atom 10.1310791499999997 13.1339008600000007 8.7065302399999993 Cl
atom 13.1008256400000000 15.8119667199999991 5.6671897700000002 Na
atom 10.1861801700000001 15.9708966500000002 5.5541626800000001 Cl
atom 10.0927319600000001 18.9537818099999988 5.6400930799999998 Na
atom 12.9970965799999991 18.8425426999999992 5.6693375300000000 Cl
atom 10.2549053200000007 21.7014813500000017 8.2297216199999994 Na
atom 13.0115551400000005 21.7473767699999989 8.3307170799999994 Cl
atom 13.0693252100000006 18.7573260499999996 8.2661368799999995 Na
atom 10.3197525599999995 18.8531410400000006 8.3102505499999992 Cl
atom 12.9806415400000006 21.7904241100000000 5.3981931999999997 Na
atom 9.9100969299999999 21.9077441999999998 5.6072567600000003 Cl
atom 10.1539066800000004 24.6937905300000011 5.7327543800000003 Na
atom 13.0423390599999998 24.7302936699999982 5.6765108000000000 Cl
atom 10.2040576900000008 27.3129366699999991 8.3282608099999997 Na
atom 13.1738652500000004 27.2759873000000006 8.4196881700000006 Cl
atom 13.2259184600000008 24.5308996999999991 8.2900165200000000 Na
atom 10.1948048100000008 24.4625580199999995 8.5030352499999999 Cl
atom 12.9875499100000003 27.4216549600000015 5.7065784600000002 Na
atom 9.9451896299999998 27.4971114900000018 5.6642459699999996 Cl
atom 10.2015505199999996 30.2245734699999993 5.8499388699999999 Na
atom 12.9749311800000005 30.2217343599999992 5.7719675500000003 Cl
atom 10.3122674599999993 32.9793441899999991 8.3594537700000000 Na
atom 13.2117194300000005 32.9709371300000029 8.5603878600000005 Cl
atom 13.0503591500000002 30.1359822299999998 8.3999917199999992 Na
atom 10.2783548400000004 30.1533469499999995 8.5995712999999991 Cl
atom 13.1718269200000009 33.0018267900000026 5.8706647399999996 Na
atom 10.3101452600000005 33.0002597300000033 5.6843135199999999 Cl
atom 10.2972109900000000 35.7823954799999981 5.7648096000000004 Na
atom 13.1550678500000000 35.7625687000000028 5.6906888400000000 Cl
atom 10.6425748299999992 38.4805391800000010 8.4880663199999997 Na
atom 13.3653817099999994 38.4785239300000015 8.5592061200000007 Cl
atom 13.1034170000000003 35.7553446300000033 8.3406597300000005 Na
atom 10.3221177999999991 35.7403093300000023 8.6310379899999994 Cl
atom 13.1951142699999995 38.5135378499999987 5.8944460100000002 Na
atom 10.5186484900000004 38.4876479400000022 5.5662480900000002 Cl
atom 10.2792549500000003 1.7456806000000000 5.8750616999999998 Na
atom 13.2322078600000008 1.7010909299999999 5.8594120800000002 Cl
atom 10.3881951800000003 4.5042682300000001 8.5605957299999993 Na
atom 13.1408178499999995 4.5098095499999999 8.6946296699999994 Cl
atom 13.0411607000000007 1.6809038900000000 8.3862756100000002 Na
atom 10.1283127900000007 1.7098479900000001 8.6585945300000002 Cl
atom 13.2042873000000007 4.6429848500000004 5.9019003000000003 Na
atom 10.2970350600000007 4.4475584799999996 5.8371259100000001 Cl
atom 10.2802865000000008 7.2100649299999997 5.8424564200000004 Na
atom 13.0827623499999994 7.4665108599999996 5.8952413799999999 Cl
atom 10.0438339299999999 10.0955939000000008 8.5637626400000002 Na
atom 13.0652990500000001 10.3476459599999995 8.7776982100000005 Cl
atom 13.1805277800000002 7.2723787399999997 8.5693967999999998 Na
atom 10.4096703399999999 7.3228642500000003 8.6656432900000002 Cl
atom 13.0661436900000005 10.4159828700000006 6.0429670199999999 Na
atom 10.2658773100000005 10.0709948600000008 5.7558650299999998 Cl
atom 15.7329880000000006 12.8776515699999994 5.8632751000000001 Na
atom 18.9534914199999989 12.9871202300000004 5.7109531200000001 Cl
atom 15.9991415900000007 16.1183776399999985 8.1661520000000003 Na
atom 18.7700926700000004 16.0484459800000003 8.2690839900000004 Cl
atom 18.9318771699999999 13.0480693500000005 8.2600741099999997 Na
atom 15.8896190700000002 13.2695785500000003 8.6675896300000002 Cl
atom 18.7783332300000012 15.9953301600000000 5.5522735599999997 Na
atom 15.8188196100000003 15.9947508400000000 5.5074533700000003 Cl
atom 16.0745198699999996 19.0229748600000015 5.3833255099999997 Na
atom 19.0479866199999996 18.9709628200000004 5.5947208899999996 Cl
atom 15.7411287499999997 21.7441293599999987 8.0867391400000006 Na
atom 18.6958948099999986 21.4853270800000011 8.4689864600000000 Cl
atom 18.7803569099999983 18.8752542500000011 8.2236263800000007 Na
atom 15.8783444899999999 18.8597408299999998 7.9974384799999996 Cl
atom 18.8984705499999990 21.7629252300000005 5.7755276499999999 Na
atom 15.9667195500000005 22.0107910300000000 5.4646852700000004 Cl
atom 16.1156854199999984 24.5228619999999999 5.7105063999999999 Na
atom 18.9961027999999992 24.5504877300000004 5.4906084300000000 Cl
atom 15.9273436299999993 27.2754063299999991 8.5454427299999995 Na
atom 18.7890223300000017 27.3435078099999984 8.6638049499999994 Cl
atom 18.9599440799999996 24.4339080600000003 8.4427013700000000 Na
atom 15.7939253399999995 24.3888038499999986 8.4861108400000003 Cl
atom 18.9032728699999986 27.4184517300000010 5.6768202900000002 Na
atom 15.9181279100000008 27.2598625100000014 5.7166713900000001 Cl
atom 15.9238637399999998 30.0611267899999994 5.7677987200000000 Na
atom 18.8914595699999985 30.1382815599999994 5.7655819099999999 Cl
atom 16.0078368299999987 32.8974430700000013 8.4791534599999991 Na
atom 18.8636490600000002 32.9339580099999978 8.7229144200000004 Cl
atom 18.7742135400000016 30.0174349300000003 8.4922104800000007 Na
atom 15.9746857999999996 30.0841482599999992 8.4794303600000003 Cl
atom 18.8094953400000016 32.9390246399999995 5.9130012900000004 Na
atom 16.0068240700000004 32.9733767600000007 5.8481435900000003 Cl
atom 16.0667603099999994 35.7455827100000008 5.8718944100000003 Na
atom 18.7456052100000008 35.7752931699999976 5.7906253400000001 Cl
atom 15.9996682700000008 38.5019596799999988 8.2879639300000001 Na
atom 18.7862975900000002 38.5750068700000028 8.7187864800000003 Cl
atom 18.8095672500000006 35.8115148500000018 8.4498041300000004 Na
atom 16.0103451700000008 35.7807379699999970 8.6193541099999997 Cl
atom 18.9803728300000003 38.5604285200000021 6.1000950899999999 Na
atom 15.9881132200000007 38.5138316999999972 5.8175860699999999 Cl