#===============================================================================
# Created using the Atomic Simulation Environment (ASE)

# Tue Dec 23 21:42:18 2025

#=======================================================
lattice_vector 28.1999999999999993 0.0000000000000000 0.0000000000000000 
lattice_vector 0.0000000000000000 39.4799999999999969 0.0000000000000000 
lattice_vector 0.0000000000000000 0.0000000000000000 62.3296083400000001 
atom 7.4294121400000002 14.8408371900000002 0.0449686800000000 Au
atom 10.2911771000000005 14.7728495100000004 -0.1419499400000000 Au
atom 13.0993837899999992 14.9766811000000004 -0.5628913600000000 Au
atom 15.9186718900000006 14.8409306999999995 -0.5261067300000000 Au
atom 18.7173238600000005 14.8788775100000006 -0.3933974900000000 Au
atom 21.5688121799999983 14.7855445799999998 -0.2321898700000000 Au
atom 24.4208191100000001 14.6969881600000001 -0.0861462200000000 Au
atom 27.1865341799999989 14.7765440699999999 0.0617469200000000 Au
atom 1.8215044800000000 14.7278407300000005 -0.1518376700000000 Au
atom 4.6273109500000000 14.8405603100000008 -0.2077073500000000 Au
atom 8.8536253499999997 17.2171732700000000 -0.0826230000000000 Au
atom 11.6606971799999997 17.4598504800000001 -0.1961200300000000 Au
atom 14.5323083799999999 17.3929407400000002 -0.4719983400000000 Au
atom 17.4222585599999995 17.4175626900000005 -0.4254601600000000 Au
atom 20.1994459999999982 17.2469018699999985 0.0321003900000000 Au
atom 22.9927521100000014 17.1921330300000008 -0.1051479200000000 Au
atom 25.8192975999999987 17.3352245399999987 -0.0791762400000000 Au
atom 0.4462792000000000 17.2973191700000015 0.1620946900000000 Au
atom 3.2424874799999999 17.2886373900000017 -0.0536297300000000 Au
atom 6.0703469500000002 17.2962452300000002 -0.1570859600000000 Au
atom 7.4498850699999997 19.7448092499999994 0.0027632600000000 Au
atom 10.2907958300000004 19.7667403800000017 -0.0528744500000000 Au
atom 13.1360851099999998 19.8754955899999999 -0.3861900200000000 Au
atom 16.0522816000000006 19.8021125299999987 -0.2512935400000000 Au
atom 18.8221279499999987 19.7395920999999994 0.2052543100000000 Au
atom 21.5727877399999990 19.7044433800000007 -0.0784376200000000 Au
atom 24.3957497399999994 19.7678853600000011 0.1262539200000000 Au
atom 27.1786707099999987 19.7630080700000015 -0.0074737300000000 Au
atom 1.8586464100000000 19.7368081599999989 -0.0058354300000000 Au
atom 4.5769179299999996 19.7679485100000001 -0.0448932800000000 Au
atom 8.9478537399999993 22.1655074300000017 -0.1002751700000000 Au
atom 11.8167362600000008 22.2196586399999987 -0.1940374400000000 Au
atom 14.6502362300000009 22.2868178199999996 -0.1495369700000000 Au
atom 17.4274827799999983 22.2452382200000010 0.0905442400000000 Au
atom 20.2123562399999983 22.1933185600000016 0.0194229000000000 Au
atom 22.9903191000000007 22.2014269199999994 -0.1095190000000000 Au
atom 25.7823455300000006 22.2396318199999996 0.3007957200000000 Au
atom 0.3414820100000000 22.2475193199999985 0.1254530700000000 Au
atom 3.2135374400000001 22.1873350000000009 0.0123056600000000 Au
atom 6.1234405399999998 22.1434216799999994 -0.0036045000000000 Au
atom 7.5730733600000004 24.6407981800000009 -0.1520454700000000 Au
atom 10.4196620600000003 24.6292594499999993 -0.2641395800000000 Au
atom 13.1436867199999998 24.6570373300000014 -0.2261915400000000 Au
atom 15.9847999099999996 24.7376824500000012 0.1123628300000000 Au
atom 18.7970047300000012 24.6760521100000005 0.2264584100000000 Au
atom 21.5150126399999984 24.7194273200000012 -0.0574227800000000 Au
atom 24.3384915299999989 24.6806595599999987 0.3203740200000000 Au
atom 27.1498350399999993 24.6667403599999986 0.0803933800000000 Au
atom 1.9047412699999999 24.5971578599999994 0.0912329400000000 Au
atom 4.7240792100000002 24.6268593500000001 -0.0496169600000000 Au
atom 8.9556175099999997 27.0901154499999990 -0.2800351800000000 Au
atom 11.7996359000000002 27.1093469399999982 0.0978559400000000 Au
atom 14.5656188100000001 27.1338315200000011 -0.0609440800000000 Au
atom 17.3431741399999986 27.1906952299999993 0.0950967400000000 Au
atom 20.1468240899999991 27.1582511500000017 0.1267122500000000 Au
atom 23.0031818699999988 27.0920054700000001 0.1890615200000000 Au
atom 25.8264077100000016 27.1581656299999992 0.1962342000000000 Au
atom 0.4046521100000000 27.0848045999999982 0.0448843000000000 Au
atom 3.1704555200000000 27.1300946100000004 -0.1107198700000000 Au
atom 6.0768973500000003 27.0911374599999988 -0.0396462700000000 Au
atom 7.4806065700000000 29.5755406799999996 -0.2583070500000000 Au
atom 10.3373313899999992 29.5715363199999999 -0.1221059200000000 Au
atom 13.1984733100000007 29.5688781300000016 -0.1661347400000000 Au
atom 15.9407113000000003 29.6378151400000007 0.0978641200000000 Au
atom 18.7499129999999994 29.6560132000000003 0.1406889600000000 Au
atom 21.5950249399999983 29.6031681099999986 -0.0481038400000000 Au
atom 24.4706840099999994 29.6536293999999998 0.0193437500000000 Au
atom 27.2289248899999983 29.6533623499999983 -0.0771314900000000 Au
atom 1.8385716999999999 29.5848174399999984 0.1192496100000000 Au
atom 4.6323610200000003 29.5142908999999989 -0.1448583900000000 Au
atom 8.9001207099999995 32.0549493400000003 -0.0407485400000000 Au
atom 11.8254751900000006 32.0413594099999983 -0.1017720400000000 Au
atom 14.5384886099999999 32.0845755300000022 -0.0092521700000000 Au
atom 17.2948245299999996 32.0354214199999987 -0.1632025800000000 Au
atom 20.1204364799999986 32.0698731700000010 -0.0714678600000000 Au
atom 23.0593788199999992 32.1047736499999985 0.0313118000000000 Au
atom 25.8612034999999985 32.1454131200000006 -0.2403995800000000 Au
atom 0.3885517400000000 32.0754474800000011 0.0422266200000000 Au
atom 3.2095698399999999 32.0697930700000029 -0.0762307900000000 Au
atom 6.0582972100000001 32.0394157100000001 -0.1332288400000000 Au
atom 7.4248000200000002 34.4962728599999977 0.0070133900000000 Au
atom 10.2621024100000007 34.6209226200000018 -0.0455506900000000 Au
atom 13.0979033400000002 34.5816965599999975 0.1600458600000000 Au
atom 15.8869918200000004 34.6031472499999992 0.0024779700000000 Au
atom 18.7511856600000009 34.5180921199999986 0.1366086900000000 Au
atom 21.5742076099999984 34.5607044799999983 0.0922110800000000 Au
atom 24.4419556000000000 34.5947517399999995 0.0723310400000000 Au
atom 27.2705672099999994 34.6108627300000009 -0.0112320400000000 Au
atom 1.8470757700000000 34.5796115099999994 -0.1080775800000000 Au
atom 4.6680038599999998 34.4920650700000024 0.0037501800000000 Au
atom 8.8384110400000004 37.0854266199999998 0.1371820400000000 Au
atom 11.6661221600000005 37.1331011899999979 0.0237623500000000 Au
atom 14.5723440699999998 37.1414922399999980 0.0785270000000000 Au
atom 17.3559209599999988 37.0538550899999990 0.0420885700000000 Au
atom 20.1575422300000007 36.9649263900000022 -0.0064158300000000 Au
atom 22.9730933800000017 37.0190915599999997 0.0952589900000000 Au
atom 25.8295688299999995 37.0857500999999985 0.2147959400000000 Au
atom 0.4143499000000000 37.1048375299999975 0.1203575400000000 Au
atom 3.2531284899999999 36.9839038300000027 0.2199344600000000 Au
atom 6.0373335299999997 37.0026251700000017 0.0448656900000000 Au
atom 7.4707165399999997 0.0348901000000000 0.1627687000000000 Au
atom 10.3452862000000003 0.0791284000000000 0.1677009100000000 Au
atom 13.1422182700000008 0.1069257200000000 0.1644458200000000 Au
atom 16.0005038800000001 0.0788224600000000 0.0413512300000000 Au
atom 18.7928802300000015 0.0087488000000000 0.2824231000000000 Au
atom 21.5858518199999985 -0.0537714800000000 0.3508659700000000 Au
atom 24.3973215500000009 -0.0048434400000000 -0.0048987800000000 Au
atom 27.2654311599999986 0.0398656900000000 0.4441085900000000 Au
atom 1.8863813199999999 0.0342438900000000 0.1739552800000000 Au
atom 4.6750124599999996 0.0192981500000000 0.2762952500000000 Au
atom 8.9136806800000006 2.4732965199999999 0.0388349100000000 Au
atom 11.7202543099999996 2.5241690999999999 0.1630051800000000 Au
atom 14.5212196799999997 2.5327546900000000 0.1835485600000000 Au
atom 17.2946435100000002 2.5321713699999999 0.1372276300000000 Au
atom 20.1604685199999984 2.4443805699999999 0.2613776400000000 Au
atom 22.9612642399999984 2.4133177300000002 0.0622882500000000 Au
atom 25.8260628600000004 2.4647772500000000 0.0715815300000000 Au
atom 0.4196407700000000 2.4545043799999999 0.3016262500000000 Au
atom 3.2949696600000000 2.4702752900000000 0.2453989700000000 Au
atom 6.0788495899999999 2.5095270599999999 0.0666480400000000 Au
atom 7.5092669499999998 4.9627649800000002 0.2205634500000000 Au
atom 10.2966662899999992 4.9483726099999998 0.3395259700000000 Au
atom 13.1226720300000004 5.0073262100000004 0.1013725700000000 Au
atom 15.9134960999999997 4.9364901999999997 0.2484899900000000 Au
atom 18.7965532400000015 4.9636702100000001 0.1881472700000000 Au
atom 21.5882146000000006 4.8774703500000003 0.2527942900000000 Au
atom 24.3896646900000000 4.9271778499999996 0.1538337200000000 Au
atom 27.2135246299999984 4.9195576499999998 0.0725680800000000 Au
atom 1.8534703699999999 4.8888489399999999 0.1098157900000000 Au
atom 4.6643272600000003 4.9470145199999997 0.0848679700000000 Au
atom 8.8842397999999996 7.4209748700000002 0.0063676900000000 Au
atom 11.7460953299999993 7.4435268499999996 -0.0554895700000000 Au
atom 14.6265486899999999 7.3405616599999997 -0.0872796400000000 Au
atom 17.4606539299999994 7.4184474600000003 0.1829371700000000 Au
atom 20.2202201099999996 7.4160500799999998 0.0987494400000000 Au
atom 22.9374848799999995 7.3602472600000004 0.2264932500000000 Au
atom 25.8072746500000001 7.4045893300000003 0.1281357100000000 Au
atom 0.3881868000000000 7.3562532200000001 0.1361231800000000 Au
atom 3.1726582799999998 7.3823967799999997 0.0739155900000000 Au
atom 6.1115730299999997 7.4002544099999996 -0.0006637600000000 Au
atom 7.3991448200000001 9.8474596099999996 0.0013119000000000 Au
atom 10.2623450999999992 9.8970798099999993 -0.0545820200000000 Au
atom 13.1520837499999992 9.9357373100000004 -0.1815433900000000 Au
atom 15.9491651599999997 9.8135620899999996 -0.1532789800000000 Au
atom 18.7866642199999987 9.9199004700000000 0.1402975300000000 Au
atom 21.6075044900000002 9.8461995200000008 0.0690551800000000 Au
atom 24.3760303500000006 9.8068759300000004 0.2443050100000000 Au
atom 27.2266277199999998 9.8421237799999997 0.1693248600000000 Au
atom 1.8460131200000001 9.8887150100000003 0.0987595300000000 Au
atom 4.6826872000000002 9.8479953200000008 0.0081391800000000 Au
atom 8.7981529900000002 12.3307713700000008 0.0492276100000000 Au
atom 11.6487939699999998 12.3529790500000001 -0.2639340200000000 Au
atom 14.5578021000000000 12.4085134499999992 -0.3810058300000000 Au
atom 17.3359848999999997 12.3320115599999998 -0.1573945000000000 Au
atom 20.1266696600000010 12.4172716500000000 0.0656284200000000 Au
atom 22.9364741599999995 12.2829206600000003 0.0151467500000000 Au
atom 25.7944662600000001 12.2307875100000008 -0.0242349800000000 Au
atom 0.4444523700000000 12.3323198400000003 -0.0988321000000000 Au
atom 3.2967527599999999 12.3247875100000002 -0.1407620100000000 Au
atom 6.0004555499999999 12.3389122499999999 0.1359029700000000 Au
atom 7.5725778600000000 13.1813377700000007 2.6372634100000001 Au
atom 10.3779586899999998 13.2723437000000004 2.5177592799999999 Au
atom 13.0832221099999995 13.2961537700000001 2.0934945800000002 Au
atom 15.9470542099999992 13.2728159300000002 2.3766237399999999 Au
atom 18.7206214200000005 13.1840186900000003 2.3687549799999998 Au
atom 21.5871028500000008 13.1872906600000004 2.6388792900000002 Au
atom 24.4247347700000006 13.2138759599999993 2.5293897699999999 Au
atom 27.2700944800000009 13.1710511199999996 2.5962891899999998 Au
atom 1.9081010899999999 13.1524707200000002 2.4768297399999999 Au
atom 4.7627258899999996 13.1213852200000005 2.5529809499999998 Au
atom 8.9282461899999994 15.7063929000000009 2.5950812499999998 Au
atom 11.7342203800000000 15.7297070300000001 2.3802100400000001 Au
atom 14.4836831099999994 15.6850513800000009 2.1596977300000000 Au
atom 17.3280046600000013 15.6228374100000007 2.2332493499999999 Au
atom 20.1484892799999997 15.5639900499999992 2.4085307700000000 Au
atom 22.9527676499999984 15.6455253100000000 2.5588206400000000 Au
atom 25.7357215400000001 15.6669234199999998 2.4798230800000001 Au
atom 0.4366266200000000 15.6734879800000009 2.5614609800000001 Au
atom 3.2545640100000002 15.6038530000000009 2.3459620700000001 Au
atom 6.0371614400000002 15.5698420899999999 2.5106967899999999 Au
atom 7.5374725700000003 18.0735120900000013 2.4960059800000001 Au
atom 10.3548715799999993 18.1293235800000012 2.4568577700000001 Au
atom 13.1536661800000001 18.1616811799999986 2.3710810400000000 Au
atom 15.9832493499999995 18.1115463199999986 2.2710391699999999 Au
atom 18.7641914099999987 18.0473283000000002 2.6442579500000001 Au
atom 21.5935399100000005 18.1142419200000013 2.5421171500000002 Au
atom 24.3664595800000008 18.1018902500000003 2.6204118799999998 Au
atom 27.2249849300000015 18.0991355300000016 2.6730876600000002 Au
atom 1.9047126999999999 18.1595441499999986 2.7532442800000001 Au
atom 4.6963859799999996 18.1070062199999988 2.5353797899999999 Au
atom 8.9073283300000003 20.5725266299999987 2.5649378800000000 Au
atom 11.7845580900000009 20.5760320599999993 2.3775008500000001 Au
atom 14.5966117400000002 20.5636026299999983 2.3952931500000001 Au
atom 17.3463820700000007 20.5286079599999987 2.7553065399999999 Au
atom 20.1188219000000004 20.5321534899999989 2.6196464900000000 Au
atom 23.0254568100000014 20.5941197199999984 2.7151827000000002 Au
atom 25.7785874899999996 20.5688149699999983 2.8209765899999999 Au
atom 0.4493758800000000 20.5823767699999998 2.6064584100000001 Au
atom 3.2435134200000002 20.6022687900000001 2.6681716099999999 Au
atom 6.1044398099999997 20.5804948400000001 2.6699450699999998 Au
atom 7.5851514599999996 23.0060138099999989 2.5988543399999999 Au
atom 10.4465110400000007 23.0924661499999999 2.3895152500000001 Au
atom 13.2083862799999991 22.9876001300000006 2.5260078300000002 Au
atom 15.9768800500000001 23.0673975099999993 2.6650706300000002 Au
atom 18.8277994200000016 23.0226755999999995 2.6730636900000002 Au
atom 21.6148752900000005 23.1465802499999995 2.5205302600000001 Au
atom 24.3017243200000017 23.0309500199999988 2.8293743800000000 Au
atom 27.1371961699999993 23.1234594800000011 2.7340678899999999 Au
atom 1.8063552899999999 23.0442675199999982 2.6965113000000001 Au
atom 4.7064054500000001 23.0689556499999995 2.6310429800000001 Au
atom 8.9697757800000009 25.4788682699999995 2.3202618899999998 Au
atom 11.8085944699999992 25.4438682800000002 2.5637027400000001 Au
atom 14.5876896800000004 25.5291462200000012 2.6168548100000000 Au
atom 17.3877348000000005 25.5012364699999985 2.8063080500000002 Au
atom 20.1701742000000017 25.5136750300000017 2.7274972300000000 Au
atom 22.9831966299999984 25.5384822900000010 2.8172563199999998 Au
atom 25.8677062599999985 25.5335975200000007 2.8062361800000000 Au
atom 0.4124644800000000 25.5430838300000005 2.7183160100000001 Au
atom 3.3061676900000001 25.4999597800000011 2.5127065599999998 Au
atom 6.1965527199999997 25.5146246800000007 2.6758985499999999 Au
atom 7.5694920200000002 27.9184676100000004 2.3630621299999999 Au
atom 10.3493859799999992 27.9122089100000004 2.5688765600000001 Au
atom 13.1281156699999997 27.9328457499999985 2.6536194900000001 Au
atom 15.9202273000000005 28.0100824000000017 2.6929317699999999 Au
atom 18.7649286900000014 28.0516244000000015 2.7728373899999998 Au
atom 21.5577983899999985 28.0061680700000011 2.6034860700000002 Au
atom 24.3697323200000007 28.0308474200000006 2.7043969200000002 Au
atom 27.2051752600000007 28.1014205399999994 2.6046327200000001 Au
atom 1.8171663000000000 27.9818187000000016 2.4871413400000000 Au
atom 4.7237567100000000 27.9481802600000009 2.6914197400000002 Au
atom 8.9863755899999997 30.3588954499999986 2.3803867099999998 Au
atom 11.8180314800000001 30.4694582199999999 2.4785712300000000 Au
atom 14.5409711799999997 30.4415773600000001 2.6189145300000001 Au
atom 17.3926769000000014 30.4604436900000017 2.6011946799999999 Au
atom 20.2762976799999990 30.4789963499999992 2.7592486699999998 Au
atom 23.0242682800000011 30.4804013599999983 2.5708492299999999 Au
atom 25.8134628100000008 30.4429160600000017 2.4040018800000000 Au
atom 0.5356853300000000 30.5267257100000009 2.6791130500000002 Au
atom 3.2909526100000002 30.4432446399999996 2.5726423600000001 Au
atom 6.1083850599999998 30.3770668899999983 2.3874195299999998 Au
atom 7.4998941400000003 32.8877985700000011 2.4501198000000000 Au
atom 10.3438317499999997 32.8241542700000011 2.5047571600000000 Au
atom 13.1124899900000003 32.9346935299999970 2.6110208500000001 Au
atom 15.9284165099999999 32.8354631899999987 2.5368798199999998 Au
atom 18.7610938000000012 32.9057006999999970 2.6208238399999999 Au
atom 21.5874079799999983 32.9494177799999974 2.5992103900000001 Au
atom 24.4668743400000004 32.9415345299999984 2.5165814200000001 Au
atom 27.2682517500000010 32.9137301499999992 2.6605363600000000 Au
atom 1.9218719399999999 32.9810265899999990 2.4905849299999998 Au
atom 4.7053301500000000 32.8717068300000008 2.5667647100000002 Au
atom 8.9061182599999995 35.3453731299999987 2.6014923400000001 Au
atom 11.6951877999999994 35.4026967699999986 2.6326376599999999 Au
atom 14.5606903400000007 35.3544279700000033 2.6129995199999998 Au
atom 17.3368123499999989 35.3148571199999992 2.6702133699999999 Au
atom 20.1971824499999997 35.3759098399999985 2.7151236100000000 Au
atom 23.0659690399999988 35.3847531099999983 2.6350412200000002 Au
atom 25.8608553800000003 35.4209098400000002 2.6815149300000001 Au
atom 0.4485768400000000 35.4058393299999992 2.5860867900000000 Au
atom 3.2042473999999999 35.4052452500000001 2.6967221600000002 Au
atom 6.0670631200000003 35.3924966699999999 2.5517628700000001 Au
atom 7.4627020499999999 37.8167597899999990 2.6833346200000001 Au
atom 10.3578140500000000 37.8759072300000028 2.7940875200000002 Au
atom 13.1758107800000008 37.8520485900000025 2.6373911500000000 Au
atom 16.0124279999999999 37.8971071100000003 2.5540645099999999 Au
atom 18.8105147099999996 37.8023297100000022 2.6046300599999999 Au
atom 21.6221017899999985 37.8778414900000016 2.8496003700000001 Au
atom 24.3774359999999994 37.8756596300000012 2.6615744499999998 Au
atom 27.1810231100000017 37.8530121399999970 2.9054899199999999 Au
atom 1.7927059999999999 37.9490066500000012 2.7581091099999999 Au
atom 4.6087220000000002 37.8888305700000032 2.7592035099999999 Au
atom 8.9262060299999995 0.8335809300000000 2.8758827400000002 Au
atom 11.7105796499999997 0.8509841600000000 2.8046046300000000 Au
atom 14.5722522399999992 0.9068701900000000 2.7039351200000001 Au
atom 17.4144146299999996 0.8342713300000000 2.8204668200000000 Au
atom 20.1622091599999997 0.8765269400000000 2.8589234200000000 Au
atom 23.0208579799999988 0.8956806500000000 2.7585448399999999 Au
atom 25.7601225400000011 0.8248417000000000 2.6662229900000001 Au
atom 0.4493042900000000 0.8498539600000000 3.0013196299999998 Au
atom 3.2436573700000002 0.8870638100000000 2.9244430000000001 Au
atom 6.0640148299999996 0.8622406200000000 2.7634909200000002 Au
atom 7.4712527199999998 3.3631223800000001 2.6942808399999998 Au
atom 10.3062019199999995 3.2806244699999998 2.8144710100000001 Au
atom 13.1774574700000002 3.3807026200000001 2.7313811900000000 Au
atom 16.0474352499999995 3.3261015899999999 2.8573343300000000 Au
atom 18.7693152000000012 3.3733183499999999 2.8166098100000001 Au
atom 21.5838874300000008 3.2856264600000000 2.7270710500000002 Au
atom 24.4299627999999984 3.3615737100000000 2.6974052700000000 Au
atom 27.2621853799999982 3.3461271199999998 2.7423652100000000 Au
atom 1.8681250800000000 3.3107886700000000 2.8092385900000001 Au
atom 4.7365166700000003 3.3733761000000002 2.7941553200000002 Au
atom 8.9623925799999995 5.8169251099999997 2.8735717300000001 Au
atom 11.7321187800000004 5.8478747000000002 2.7423104800000000 Au
atom 14.5250727499999996 5.8317043200000001 2.7572334999999999 Au
atom 17.3484704100000009 5.8209805499999998 2.8361475899999999 Au
atom 20.2294395300000005 5.8126345600000002 2.6963589799999998 Au
atom 22.9859311999999996 5.7664370199999997 2.9253461800000000 Au
atom 25.8148344399999985 5.7921099500000004 2.8238759099999999 Au
atom 0.5023551300000000 5.7406174900000000 2.7224383300000001 Au
atom 3.2454096300000002 5.8085038999999998 2.7342968200000000 Au
atom 6.1429926100000003 5.8275178399999996 2.6591142099999998 Au
atom 7.5709707499999999 8.2364275100000004 2.6126432099999999 Au
atom 10.4031255500000004 8.2949647899999999 2.6115741300000002 Au
atom 13.2476213099999995 8.3594143699999996 2.3845792499999998 Au
atom 16.0039989300000016 8.3087233900000008 2.6026290099999998 Au
atom 18.8245809900000012 8.3251654199999994 2.8022548700000001 Au
atom 21.6499375200000017 8.2930963500000008 2.7584604399999999 Au
atom 24.4389777099999996 8.1861435900000004 2.7994332900000001 Au
atom 27.3008495300000007 8.2422041900000007 2.6884391100000000 Au
atom 1.9066930499999999 8.2974944599999993 2.7426482399999998 Au
atom 4.7183709299999999 8.2161711999999998 2.6004977500000002 Au
atom 9.0062579899999999 10.7539077299999999 2.7373384299999999 Au
atom 11.7511753999999993 10.8017897200000004 2.4104136500000002 Au
atom 14.5800228599999997 10.8545692500000008 2.3801369900000000 Au
atom 17.2765830899999990 10.7344140100000001 2.6104553600000000 Au
atom 20.2378771600000000 10.7150323499999995 2.6688826799999998 Au
atom 23.0313111100000008 10.7655486099999997 2.7174194599999999 Au
atom 25.8387222899999998 10.7270112300000005 2.7820863700000000 Au
atom 0.4864977800000000 10.7780181000000006 2.6913632100000000 Au
atom 3.3581858900000001 10.7097946299999993 2.5411120199999999 Au
atom 6.1964759000000003 10.6753982700000005 2.7190725400000000 Au
atom 7.2963575599999997 13.1856094099999996 5.4702453100000001 Cl
atom 7.4607927800000002 15.9761388600000007 8.0880479100000002 Cl
atom 7.6526990499999998 13.2138978300000005 7.9855188500000001 Na
atom 7.3962744699999998 15.9304896399999993 5.5943112299999997 Na
atom 7.6128796699999999 18.7898588500000017 5.5181886899999997 Cl
atom 7.5499346999999997 21.7253831700000006 8.6829721299999996 Cl
atom 7.6209324699999996 18.6934697900000018 8.2466285300000006 Na
atom 7.4344956299999998 21.5707302100000007 5.7953233800000001 Na
atom 7.5791580200000004 24.4131602399999998 5.7367884900000004 Cl
atom 7.5333811099999997 27.3777492299999992 8.5781725899999994 Cl
atom 7.5351721300000003 24.5441460000000014 8.3849059700000002 Na
atom 7.7600085300000003 27.2932508399999989 5.8622126100000003 Na
atom 7.7401220999999998 30.0276408100000012 5.6393933900000004 Cl
atom 7.5093551200000004 32.9341573600000004 8.5176276499999997 Cl
atom 7.5100480300000001 30.0731254800000016 8.3098411799999994 Na
atom 7.5192357200000002 32.9279220299999977 5.7839358699999996 Na
atom 7.6040589799999996 35.7109637000000006 5.6933893900000001 Cl
atom 7.5014048899999999 38.6202836499999975 8.7834175600000002 Cl
atom 7.5650651900000003 35.7331671800000024 8.3573768600000005 Na
atom 7.4881340999999999 38.5636529300000035 5.7932949100000002 Na
atom 7.4443053700000004 1.8355789199999999 5.8812883999999999 Cl
atom 7.5959165799999999 4.8339837299999999 8.6383818399999992 Cl
atom 7.5314591200000001 1.9123776100000001 8.3426153999999997 Na
atom 7.4909598500000003 4.8769057800000004 5.8434062100000004 Na
atom 7.4594817300000003 7.6580185800000002 5.7540798400000002 Cl
atom 7.5494524700000003 10.5048900900000000 8.1616421199999998 Cl
atom 7.4622748500000000 7.6356478900000004 8.2892776399999999 Na
atom 7.5121870700000004 10.3831628899999995 5.6106224600000001 Na
atom 10.4507547800000005 13.2323049499999996 5.6977604499999996 Na
atom 13.3096289999999993 13.3607471400000009 5.6223127200000000 Cl
atom 10.4051412400000007 15.8614146599999994 8.2698614900000003 Na
atom 13.3485606000000008 16.0238896699999991 8.3802781599999996 Cl
atom 13.1250816799999992 13.1941874400000003 8.4221549600000003 Na
atom 10.1751222499999994 13.2302886700000002 8.3805480600000006 Cl
atom 13.2729630400000005 16.0880515300000013 5.7595962399999996 Na
atom 10.3617491000000008 15.9560178500000003 5.6004616000000000 Cl
atom 10.4664962900000003 18.7729980599999990 5.8006644500000002 Na
atom 13.2076578399999995 18.7745401600000008 5.5107451799999998 Cl
atom 10.2879684600000001 21.6127821299999994 8.4177225799999995 Na
atom 13.1925154700000000 21.6735417499999983 8.4174485499999996 Cl
atom 13.1655648700000008 18.8786460100000006 8.3219716199999993 Na
atom 10.3317678399999995 18.7280397600000015 8.6275987099999991 Cl
atom 13.1700674699999993 21.6507407799999996 5.7434890500000000 Na
atom 10.1173447400000001 21.6273771699999990 5.8654522000000000 Cl
atom 10.4166361799999994 24.3817405700000016 5.8923930200000001 Na
atom 13.1530028600000009 24.4719083200000007 5.5483686499999996 Cl
atom 10.2961909200000008 27.3625548999999992 8.5007512100000007 Na
atom 13.1890566299999996 27.0920997399999983 8.4809632300000004 Cl
atom 13.1632020399999998 24.3801873899999997 8.4361832999999997 Na
atom 10.4422092699999993 24.5259110800000002 8.5786726800000004 Cl
atom 13.1321257500000002 27.2533766100000001 5.7620475300000003 Na
atom 10.3527079499999992 27.2084673300000013 5.8321608899999999 Cl
atom 10.3355644899999994 30.2600885400000017 5.8098847899999999 Na
atom 13.1621283299999998 30.1166923299999993 5.7314010800000004 Cl
atom 10.3131398099999991 33.0568232800000033 8.3876929499999999 Na
atom 13.0499225299999999 32.9193876900000006 8.5953505299999993 Cl
atom 13.2125709699999998 30.0795190499999983 8.3916952899999995 Na
atom 10.4750394199999999 30.1812574100000006 8.6628188500000007 Cl
atom 13.2583590400000002 32.9111379699999986 5.8722605699999999 Na
atom 10.5281467200000005 33.0374518499999965 5.7136432700000004 Cl
atom 10.3887485900000005 35.7701897500000001 5.8698645300000001 Na
atom 13.1266050700000001 35.7797702399999977 5.8245721200000000 Cl
atom 10.3519394800000004 38.5508057099999988 8.4764959900000001 Na
atom 13.2359779300000007 38.6191910499999977 8.6292780899999997 Cl
atom 13.1575618999999993 35.7610736099999968 8.4766970599999993 Na
atom 10.3794514699999993 35.7960465900000031 8.6174966600000005 Cl
atom 13.0885086899999994 38.6006115899999998 5.9918608000000004 Na
atom 10.3249774500000004 38.4709614499999972 5.7693220099999998 Cl
atom 10.3519769400000001 1.9905604200000000 5.7778258700000000 Na
atom 13.1045950300000005 1.8718401600000001 5.8916539700000001 Cl
atom 10.3314912299999992 4.7909084499999999 8.4333294100000007 Na
atom 13.1854688499999995 4.7956590700000001 8.6326322199999996 Cl
atom 13.1362301000000006 2.0594277700000001 8.4690984999999994 Na
atom 10.4654155400000004 2.0561357000000000 8.5786325199999993 Cl
atom 13.1842114699999993 4.6650893199999999 5.8504313400000001 Na
atom 10.3664104899999998 4.7736238699999998 5.7515065300000003 Cl
atom 10.3723753999999992 7.4622363700000003 5.6292246300000004 Na
atom 13.1955266000000009 7.4204841899999998 5.5640058600000000 Cl
atom 10.2353656999999991 10.4305455499999997 8.4076223300000006 Na
atom 13.0057611899999994 10.5306247800000001 8.3717505200000009 Cl
atom 13.2210359799999999 7.3681226000000004 8.1648674200000002 Na
atom 10.4876313999999997 7.5249696899999998 8.3305082400000003 Cl
atom 13.3015114000000008 10.5188380800000001 5.5926326399999997 Na
atom 10.4408540799999994 10.5186408799999995 5.5712645399999996 Cl
atom 16.1631516799999986 13.3753096500000002 5.8119125900000004 Na
atom 18.9627180700000011 13.1777706099999996 5.6147781099999996 Cl
atom 16.0257680299999983 15.9587038299999993 8.2169501399999998 Na
atom 18.8547511800000009 15.9121312499999998 8.5331829999999993 Cl
atom 18.8661018799999987 13.1114987700000007 8.3878276399999994 Na
atom 16.0538231099999997 13.3336668700000001 8.5746766300000008 Cl
atom 18.8535994400000000 15.8581590200000004 5.7954647000000001 Na
atom 15.9663092500000001 16.1563712799999983 5.4872294899999998 Cl
atom 15.9788450999999991 18.7762984700000004 5.5248213100000001 Na
atom 18.9971004000000008 18.8115887999999991 5.7781727900000002 Cl
atom 16.1863773799999997 21.5395486699999985 8.2655583799999999 Na
atom 18.8489841700000014 21.7435673099999995 8.4900122600000003 Cl
atom 18.8412336600000003 18.7067913099999998 8.2866240500000004 Na
atom 16.0663493499999994 18.7147134000000008 8.4136476299999998 Cl
atom 19.0050682299999991 21.6240834900000003 5.6858454199999997 Na
atom 16.1324490300000001 21.5717981399999985 5.6491392600000001 Cl
atom 16.0100810100000004 24.3845490100000006 5.8399755700000000 Na
atom 18.8215706099999984 24.4103496600000014 5.7776426499999998 Cl
atom 15.9408869200000005 27.1137824999999992 8.7361972699999999 Na
atom 18.8480737800000000 27.1326645800000001 8.6424538099999992 Cl
atom 18.9390213000000003 24.4683625300000003 8.3978511600000001 Na
atom 16.0054416900000014 24.2330495799999994 8.4989131600000007 Cl
atom 18.7288549700000004 27.1215731399999989 5.8428028200000002 Na
atom 16.1490176299999995 27.1223391599999992 5.7180273499999998 Cl
atom 16.0647473599999984 30.0557450300000006 5.9189254499999997 Na
atom 18.8035533599999987 29.8904743400000008 5.9079325000000003 Cl
atom 15.9615121999999996 32.9800178400000021 8.3982336199999992 Na
atom 18.7529192900000012 32.8725113899999997 8.6820738700000000 Cl
atom 18.8233193499999985 29.9397073800000015 8.6873517699999994 Na
atom 16.0210570099999998 30.0782013500000005 8.5740844099999993 Cl
atom 18.8264806200000017 32.9325252000000006 5.9313855100000001 Na
atom 15.9084882000000007 32.9075632200000001 5.8388609999999996 Cl
atom 16.0464409900000007 35.7438608699999989 5.9328372099999998 Na
atom 18.8087514800000015 35.7611390200000017 5.7849577099999996 Cl
atom 16.1113827000000001 38.6463033400000029 8.4761607100000003 Na
atom 18.8476031599999985 38.5716029900000024 8.6335666199999999 Cl
atom 18.8357346300000010 35.6870867700000005 8.4569224199999997 Na
atom 15.9981768800000008 35.6995996899999994 8.6910500400000004 Cl
atom 18.8469396399999987 38.6241179800000012 5.7097280200000000 Na