#===============================================================================
# Created using the Atomic Simulation Environment (ASE)

# Tue Dec 23 21:42:34 2025

#=======================================================
lattice_vector 28.1999999999999993 0.0000000000000000 0.0000000000000000 
lattice_vector 0.0000000000000000 39.4799999999999969 0.0000000000000000 
lattice_vector 0.0000000000000000 0.0000000000000000 62.3296083400000001 
atom 7.5166765499999997 14.7922196400000008 0.0178467100000000 Au
atom 10.3343684000000007 14.8476223399999991 0.0087318000000000 Au
atom 13.1435412500000002 14.7842531099999999 0.0174628800000000 Au
atom 15.9267697800000008 14.8355374100000006 -0.0187002900000000 Au
atom 18.7462883900000001 14.7815924400000007 0.0704954200000000 Au
atom 21.6093878400000001 14.8183988000000006 0.0023879100000000 Au
atom 24.4330582599999993 14.8019227099999995 0.0527205600000000 Au
atom 27.2536106899999986 14.8466590000000007 -0.0429396900000000 Au
atom 1.8599819600000000 14.8377849600000005 0.0445899200000000 Au
atom 4.6675143500000003 14.8260656500000003 0.0089029500000000 Au
atom 8.9050664200000007 17.3320461700000017 -0.0047560500000000 Au
atom 11.7193609500000004 17.2942687200000016 0.0239498900000000 Au
atom 14.5420177499999994 17.2725789600000006 0.0432873100000000 Au
atom 17.3612015799999995 17.2832785700000002 0.0207357300000000 Au
atom 20.1876272099999987 17.2933654600000004 0.0155081400000000 Au
atom 23.0092992900000013 17.2719667200000018 0.0366534900000000 Au
atom 25.8144546900000016 17.2938980200000003 0.0256359800000000 Au
atom 0.4449824400000000 17.2735585299999990 0.0238503500000000 Au
atom 3.2746520499999998 17.2799444000000015 0.0609339000000000 Au
atom 6.0983265299999996 17.2945626200000007 0.0228359300000000 Au
atom 7.5077843099999999 19.7741376899999999 0.0846900600000000 Au
atom 10.3307147700000002 19.7828641900000015 0.0469081200000000 Au
atom 13.1565306599999996 19.7288387100000016 0.0701173800000000 Au
atom 15.9345253400000004 19.7921694600000002 0.0482191000000000 Au
atom 18.7659382299999997 19.7351679500000010 0.1187363500000000 Au
atom 21.6248396400000011 19.7408156699999999 0.0857026600000000 Au
atom 24.4232920600000014 19.7506133599999991 0.1045818000000000 Au
atom 27.2433235399999987 19.7736738199999991 0.0926390400000000 Au
atom 1.8506835600000000 19.7475998600000011 0.0869536600000000 Au
atom 4.6887270599999997 19.7692815700000004 0.0654746400000000 Au
atom 8.9161269300000008 22.2233241899999996 0.0724050300000000 Au
atom 11.7431958800000000 22.2128954299999997 0.0505482700000000 Au
atom 14.5397204400000000 22.2329934800000011 0.0523715200000000 Au
atom 17.3729698799999994 22.1964584900000013 0.0780777300000000 Au
atom 20.1821027400000013 22.1899301800000011 0.0690807800000000 Au
atom 23.0096641700000006 22.2298788499999986 0.1187603100000000 Au
atom 25.8431769200000012 22.2131576700000011 0.0352755100000000 Au
atom 0.4505588600000000 22.2105248700000004 0.0466969300000000 Au
atom 3.2569190400000001 22.2063603900000004 0.0991049900000000 Au
atom 6.0962271699999997 22.2171255099999989 0.0797967500000000 Au
atom 7.5173762100000001 24.6792636999999999 0.1101701500000000 Au
atom 10.3508771700000004 24.6738603099999985 0.1018175900000000 Au
atom 13.1466840699999992 24.6823698299999990 0.0926503500000000 Au
atom 15.9747524100000007 24.6592574300000003 0.0747541700000000 Au
atom 18.7907702500000013 24.6744616900000011 0.0894906500000000 Au
atom 21.5804009500000014 24.6868148400000003 0.1111967300000000 Au
atom 24.4356645899999982 24.6917617900000010 0.0875193700000000 Au
atom 27.2780725500000010 24.6802962800000003 0.1081791100000000 Au
atom 1.8901438399999999 24.6971646199999988 0.1430500800000000 Au
atom 4.6814156400000000 24.6860046500000010 0.0530426800000000 Au
atom 8.9290144300000005 27.1488548799999982 0.0572294700000000 Au
atom 11.7300418000000004 27.1426334000000011 0.1064019800000000 Au
atom 14.5771206699999993 27.1436475500000007 0.0387367800000000 Au
atom 17.4029113899999999 27.1362656000000015 0.0445429200000000 Au
atom 20.2161004099999992 27.1606235100000006 0.0718793400000000 Au
atom 23.0055463200000005 27.1385566500000017 0.0658486100000000 Au
atom 25.8510978999999992 27.1636464300000000 0.0548862900000000 Au
atom 0.4653446300000000 27.1790242000000006 0.0658862000000000 Au
atom 3.2629191099999999 27.1735213699999996 0.0462082000000000 Au
atom 6.1114213700000004 27.1573828299999995 0.0663964100000000 Au
atom 7.5012294199999996 29.6178202100000014 0.0231935500000000 Au
atom 10.3119667100000001 29.5912138999999996 0.0466894300000000 Au
atom 13.1425565800000008 29.6220995199999990 -0.0068319400000000 Au
atom 15.9564625699999993 29.6334068799999990 0.0795392700000000 Au
atom 18.7888189099999998 29.6125245200000009 0.0290071800000000 Au
atom 21.6102649100000015 29.6089559000000015 0.0456231500000000 Au
atom 24.4063132399999994 29.6153575300000007 0.0052151800000000 Au
atom 27.2716311000000005 29.6128638299999984 0.0322975400000000 Au
atom 1.8776711699999999 29.6380991199999997 0.0262075300000000 Au
atom 4.6881587800000002 29.6077781599999987 0.0814999000000000 Au
atom 8.9190655400000001 32.0921686699999995 0.0139320900000000 Au
atom 11.7304775299999999 32.0802377400000012 0.0121002500000000 Au
atom 14.5675633999999992 32.1032663399999976 -0.0080991800000000 Au
atom 17.3762359300000000 32.0814337400000014 0.0507592300000000 Au
atom 20.2013301699999985 32.0905582800000033 -0.0009834900000000 Au
atom 23.0219281799999997 32.0746251599999965 0.0309871900000000 Au
atom 25.8267397599999988 32.0776926899999992 0.0264762000000000 Au
atom 0.4313596400000000 32.0915951899999996 0.0119292300000000 Au
atom 3.2740721000000002 32.0790031299999967 0.0029060900000000 Au
atom 6.0950016900000001 32.0878990499999972 -0.0033069100000000 Au
atom 7.4801846799999998 34.5885632399999992 -0.0092167600000000 Au
atom 10.2932030599999997 34.5349527099999989 0.0736849500000000 Au
atom 13.1527684699999998 34.5584113399999993 0.0255977900000000 Au
atom 15.9577103000000005 34.5956612700000008 0.0492945800000000 Au
atom 18.7790325299999985 34.5481509800000026 -0.0172310600000000 Au
atom 21.6129748699999986 34.5450301999999994 0.0276988800000000 Au
atom 24.4281171899999983 34.5683391399999991 0.0006313900000000 Au
atom 27.2173853900000005 34.5363716199999971 0.0671573400000000 Au
atom 1.8501740300000000 34.5490029999999990 -0.0091723800000000 Au
atom 4.6851090700000002 34.5471820500000035 -0.0007219700000000 Au
atom 8.9071748300000007 37.0326492800000011 -0.0005403700000000 Au
atom 11.7270871000000003 37.0247259799999995 0.0862342200000000 Au
atom 14.5530146299999998 37.0335817500000033 0.0211586300000000 Au
atom 17.3757064800000016 37.0310735099999988 0.0110463200000000 Au
atom 20.1980614500000009 37.0392506299999980 0.0326956600000000 Au
atom 23.0315559299999997 37.0249938600000021 0.0323923800000000 Au
atom 25.8427016800000011 37.0342880399999999 0.0293091200000000 Au
atom 0.4545910800000000 37.0126435099999966 0.0497635300000000 Au
atom 3.2865717100000000 37.0311707600000020 0.0445139200000000 Au
atom 6.0928158699999999 37.0553124699999969 0.0333864600000000 Au
atom 7.5115591999999998 0.0293662300000000 0.0205881700000000 Au
atom 10.3383301200000002 0.0343205800000000 0.1640410200000000 Au
atom 13.1241504800000008 0.0242412200000000 0.0722366800000000 Au
atom 15.9724320199999994 -0.0087409400000000 0.1154303300000000 Au
atom 18.7935989200000009 0.0553541000000000 0.0675325900000000 Au
atom 21.5888168100000009 -0.0095873000000000 0.0819383100000000 Au
atom 24.3985235100000004 0.0163910700000000 0.0280236100000000 Au
atom 27.2542444800000006 0.0000201100000000 0.1076731800000000 Au
atom 1.8664563900000000 0.0159585400000000 0.1063261300000000 Au
atom 4.6788892300000002 0.0452835200000000 0.0907830700000000 Au
atom 8.9247997100000003 2.4914902300000001 0.1055808400000000 Au
atom 11.7538107000000007 2.5100166000000002 0.0764602700000000 Au
atom 14.5814646499999991 2.4846478900000002 0.0872149000000000 Au
atom 17.3872819300000003 2.4839940199999999 0.0882037100000000 Au
atom 20.1874460900000017 2.4954890500000002 0.1019506700000000 Au
atom 23.0041054600000017 2.4629386499999999 0.1114573100000000 Au
atom 25.8278000299999988 2.4308250999999998 0.1166721800000000 Au
atom 0.4360728400000000 2.5048720100000001 0.0917708100000000 Au
atom 3.2675116100000001 2.4767378700000000 0.0734810000000000 Au
atom 6.1232899999999999 2.4832200499999999 0.0655824500000000 Au
atom 7.5301253800000003 4.9594269899999999 0.0983211900000000 Au
atom 10.3448677300000007 4.9455329199999998 0.0782273700000000 Au
atom 13.1497787000000006 4.9405559999999999 0.1099070500000000 Au
atom 15.9732513100000002 4.9547685899999996 0.0717540700000000 Au
atom 18.7690923100000013 4.9580992999999998 0.0829788200000000 Au
atom 21.6025332600000013 4.9460851300000002 0.1358939400000000 Au
atom 24.4324555299999986 4.9247424600000000 0.0851074100000000 Au
atom 27.2588785899999984 4.9370852500000000 0.1251283800000000 Au
atom 1.8677799900000001 4.9813559500000002 0.1103189100000000 Au
atom 4.6954314600000000 4.9446725699999998 0.0937729300000000 Au
atom 8.8986870299999996 7.3971342800000004 0.0632657600000000 Au
atom 11.7450597900000009 7.4280749899999998 0.0679391900000000 Au
atom 14.5458984900000008 7.4137735600000001 0.0572605700000000 Au
atom 17.3899504299999990 7.4257230300000003 0.0962721300000000 Au
atom 20.1984136700000008 7.4018053600000000 0.0269943900000000 Au
atom 23.0474152399999994 7.4034198399999998 0.0717839100000000 Au
atom 25.8392545399999989 7.4019069300000000 0.0138776500000000 Au
atom 0.4807731400000000 7.4007873100000001 0.0463080200000000 Au
atom 3.2773743999999998 7.4024977700000001 0.0641888800000000 Au
atom 6.0937086000000003 7.3989001600000002 0.0825629100000000 Au
atom 7.5019195099999996 9.8651400999999996 0.0550535800000000 Au
atom 10.3134490400000001 9.8950541199999993 -0.0193225700000000 Au
atom 13.1418173700000001 9.8904785900000007 0.0724180800000000 Au
atom 15.9706180300000007 9.8815420100000004 0.0180383800000000 Au
atom 18.7961447700000015 9.8745367799999997 0.0139117600000000 Au
atom 21.5900475500000013 9.8755789699999994 0.0180056600000000 Au
atom 24.4394008400000011 9.8542441499999995 0.0614488100000000 Au
atom 27.2718004399999998 9.8786509200000001 0.0182636700000000 Au
atom 1.9010473299999999 9.8661582400000007 0.0489517800000000 Au
atom 4.6741668499999998 9.8792392299999996 -0.0029170500000000 Au
atom 8.9003837299999997 12.3581207699999993 -0.0140832900000000 Au
atom 11.7361974300000007 12.3314684999999997 0.0104373700000000 Au
atom 14.5439166400000008 12.3510200599999997 0.0107579000000000 Au
atom 17.3847160699999996 12.3344901500000006 0.0058089100000000 Au
atom 20.2082597799999988 12.3323204000000004 -0.0032064900000000 Au
atom 23.0437297200000017 12.3289841199999994 -0.0044589400000000 Au
atom 25.8435309400000008 12.3454065899999996 0.0289174700000000 Au
atom 0.4481245400000000 12.3448326900000005 -0.0239322200000000 Au
atom 3.2498008600000001 12.3539339100000003 0.0092111500000000 Au
atom 6.0883406200000003 12.3148657499999992 0.0042965300000000 Au
atom 7.5203467100000001 13.1714655599999997 2.6814479800000002 Au
atom 10.3181601900000004 13.1803393900000003 2.5667988300000002 Au
atom 13.1313439499999998 13.1746000799999994 2.6837020100000002 Au
atom 15.9434308900000001 13.1919574799999992 2.5657188799999999 Au
atom 18.7659873099999999 13.1866012700000006 2.6609303999999998 Au
atom 21.5999421100000006 13.2242532199999996 2.5943657899999999 Au
atom 24.4312971800000014 13.1883804500000004 2.6513633900000002 Au
atom 27.2453369999999993 13.1912422899999999 2.5894548500000001 Au
atom 1.8693410300000000 13.1716498499999997 2.6655892200000002 Au
atom 4.6922252599999998 13.1408728200000002 2.5465545900000000 Au
atom 8.8894674299999998 15.6365373200000004 2.6224862000000000 Au
atom 11.7273037900000006 15.6488469200000004 2.6289965000000000 Au
atom 14.5328674099999997 15.6359995699999992 2.6511480000000001 Au
atom 17.3755189399999992 15.6604168700000006 2.6390724099999998 Au
atom 20.1965938800000018 15.6684291000000009 2.6680214000000002 Au
atom 23.0141314100000010 15.6489297999999994 2.6368038000000000 Au
atom 25.8216795200000000 15.6442349899999993 2.6800440299999999 Au
atom 0.4598982700000000 15.6394535200000000 2.6521479299999999 Au
atom 3.2672739100000001 15.6282711100000000 2.6603024899999999 Au
atom 6.0657474499999999 15.6103741500000002 2.6207893800000002 Au
atom 7.4916877499999996 18.0959908200000008 2.6918550899999998 Au
atom 10.2998404800000003 18.0913621999999989 2.6474857400000000 Au
atom 13.1434499700000007 18.1260993500000005 2.6857780700000000 Au
atom 15.9622095000000002 18.1382824300000003 2.5981011100000000 Au
atom 18.7810145599999991 18.1132778999999999 2.6651233300000001 Au
atom 21.6085533800000000 18.1248612499999986 2.6353748800000001 Au
atom 24.4184723400000010 18.0895841900000001 2.6930644899999998 Au
atom 27.2256871599999997 18.0851639999999989 2.5952974000000002 Au
atom 1.8347414500000001 18.0916990899999988 2.7128815700000000 Au
atom 4.6769800899999998 18.0963750499999989 2.6070141499999999 Au
atom 8.9219105600000006 20.5794329199999986 2.7132793999999998 Au
atom 11.7393834899999998 20.5470955400000008 2.7652045099999998 Au
atom 14.5545784099999995 20.5980991399999986 2.6839041899999998 Au
atom 17.3750859999999996 20.5768554899999998 2.6939234600000002 Au
atom 20.2081596599999997 20.5790937599999992 2.7109326399999998 Au
atom 23.0216067600000009 20.5546108200000006 2.6909218699999999 Au
atom 25.8379611999999987 20.5934982799999986 2.7283662700000000 Au
atom 0.4495350200000000 20.5842717300000011 2.7307701999999998 Au
atom 3.2476187900000002 20.5791263300000011 2.7254773999999999 Au
atom 6.0889059799999998 20.5532058400000004 2.7082321100000000 Au
atom 7.4867062400000002 23.0202048400000017 2.6877981000000002 Au
atom 10.3417168000000004 23.0678484600000004 2.6543598300000002 Au
atom 13.1462674199999991 23.0549754100000008 2.6840768800000001 Au
atom 15.9854161799999996 23.0585110100000001 2.6788531000000000 Au
atom 18.7759369700000001 23.0204595800000007 2.6854379300000000 Au
atom 21.6069941000000014 23.0479597399999996 2.6863738900000000 Au
atom 24.4233343699999992 23.0602538099999990 2.6887584300000000 Au
atom 27.2442515800000002 23.0559575999999993 2.6712145299999999 Au
atom 1.8468323400000000 23.0155657500000004 2.6897753400000002 Au
atom 4.6781313600000001 23.0780430400000007 2.6863931299999999 Au
atom 8.8971200300000000 25.5207779799999983 2.7433950100000000 Au
atom 11.7195020400000001 25.5390984400000001 2.7180649300000002 Au
atom 14.5178538499999998 25.5089166600000006 2.6931575699999999 Au
atom 17.3818933300000005 25.5360782700000009 2.7051508100000001 Au
atom 20.2030234399999991 25.5394037300000001 2.7400300799999999 Au
atom 23.0122169399999983 25.5544506600000005 2.7414047099999999 Au
atom 25.8356486499999995 25.5321350199999983 2.7077949399999999 Au
atom 0.4448922000000000 25.5239248900000000 2.6930615599999999 Au
atom 3.2354590399999998 25.5323066499999989 2.6762097200000001 Au
atom 6.0789261100000003 25.5451454200000008 2.7014370400000001 Au
atom 7.5099710999999996 27.9979912900000016 2.6613975200000000 Au
atom 10.2975710700000000 27.9809573000000000 2.7254334600000001 Au
atom 13.1280862400000000 28.0101122599999997 2.6401216000000001 Au
atom 15.9726537400000002 27.9854593800000018 2.6832950100000001 Au
atom 18.8104714699999995 28.0194905900000002 2.6210536400000000 Au
atom 21.6257774299999994 28.0195458200000012 2.7230970999999999 Au
atom 24.4441089100000006 28.0349341099999982 2.6308099700000001 Au
atom 27.2337702399999984 27.9991592500000017 2.7002258000000001 Au
atom 1.8569433399999999 27.9929354799999999 2.6369032300000002 Au
atom 4.6742277100000003 28.0125645299999988 2.6936217199999999 Au
atom 8.9348141000000005 30.4514265799999997 2.6263930200000001 Au
atom 11.7224006000000003 30.4449759200000010 2.6394970899999999 Au
atom 14.5529063799999996 30.4581019600000005 2.6287641399999999 Au
atom 17.3636692100000012 30.4638613599999992 2.6453818500000001 Au
atom 20.1948724000000013 30.4744450100000002 2.6700083100000001 Au
atom 23.0251827700000007 30.4752346299999992 2.6410515700000001 Au
atom 25.8445372300000002 30.4574188200000009 2.6623470100000000 Au
atom 0.4805737200000000 30.4733961099999995 2.6432720600000001 Au
atom 3.2750595699999998 30.4692203100000008 2.6656270300000000 Au
atom 6.1095575599999998 30.4544359100000008 2.6635304299999998 Au
atom 7.5022221699999996 32.9591590599999975 2.5362971700000001 Au
atom 10.3161520200000005 32.9241303599999995 2.6931930500000001 Au
atom 13.1541502500000007 32.9161877700000005 2.5843502500000000 Au
atom 15.9581021700000001 32.9379282900000021 2.7088082099999999 Au
atom 18.7822436699999997 32.9237511199999986 2.5658310700000002 Au
atom 21.5947132300000000 32.9282010100000022 2.6833463200000001 Au
atom 24.4374994100000009 32.9251583300000021 2.5957662500000001 Au
atom 27.2615331400000009 32.9356275600000004 2.6647647399999999 Au
atom 1.8553166800000001 32.9447924500000013 2.5937597399999999 Au
atom 4.6979105499999996 32.9058105800000007 2.7028175399999999 Au
atom 8.9295937799999994 35.3980710499999986 2.6610797399999999 Au
atom 11.7280385099999993 35.3938144999999977 2.6603258799999998 Au
atom 14.5495915100000008 35.3870758699999968 2.6138124199999999 Au
atom 17.3803939599999993 35.4031277599999967 2.6392061700000000 Au
atom 20.1886582399999988 35.3813183700000025 2.6576914700000001 Au
atom 22.9915588200000016 35.3887203499999998 2.6461765700000002 Au
atom 25.8230320900000017 35.3962405400000009 2.6346075600000001 Au
atom 0.4606724300000000 35.3598872199999974 2.6212470500000000 Au
atom 3.2972971300000000 35.3917907700000001 2.6168135399999999 Au
atom 6.0946553999999997 35.3899417599999992 2.6186029899999999 Au
atom 7.4924521100000003 37.8553114099999988 2.6114807999999998 Au
atom 10.3076600700000007 37.8302311899999992 2.7053990799999998 Au
atom 13.1209197399999997 37.8171327399999981 2.6365156500000002 Au
atom 15.9345613200000003 37.8272053700000015 2.6959708700000000 Au
atom 18.7946541700000012 37.8486473299999986 2.6147093699999999 Au
atom 21.6116895800000002 37.8806432800000010 2.6646402600000001 Au
atom 24.4196660899999998 37.8422948500000018 2.6160162100000002 Au
atom 27.2654550299999983 37.8211539300000013 2.7134356799999999 Au
atom 1.8841988599999999 37.8358507499999988 2.6516720600000001 Au
atom 4.6889753199999999 37.8464226800000034 2.7353690899999998 Au
atom 8.9140028000000004 0.8476822300000000 2.7293075999999998 Au
atom 11.7498737700000007 0.8520386100000000 2.6860052600000000 Au
atom 14.5553497000000007 0.8222446100000000 2.6977674700000001 Au
atom 17.3816021599999999 0.8430209600000000 2.7224714799999998 Au
atom 20.1709798400000011 0.8501212900000000 2.7315166199999998 Au
atom 23.0256831499999990 0.8378285700000000 2.7003161000000002 Au
atom 25.8320257600000005 0.8116688600000000 2.7303211599999999 Au
atom 0.4598875000000000 0.8481441300000000 2.6897153199999999 Au
atom 3.2804937600000001 0.8537724000000000 2.7189828600000001 Au
atom 6.1405287499999996 0.8128510600000000 2.7149250999999999 Au
atom 7.4971252300000000 3.3246849599999999 2.6884159099999998 Au
atom 10.3454448499999998 3.3093647000000002 2.6613032400000001 Au
atom 13.1926078899999997 3.3045924200000001 2.7229701199999998 Au
atom 15.9742059300000001 3.2929624300000002 2.7133227799999999 Au
atom 18.7649350400000010 3.3290915299999999 2.6588177900000001 Au
atom 21.6166470900000007 3.2954293400000001 2.7081605000000000 Au
atom 24.4445942800000005 3.3068904300000002 2.6757404800000000 Au
atom 27.2247004699999984 3.2702419900000002 2.6760606000000000 Au
atom 1.8440963800000001 3.3326356200000000 2.6723422100000001 Au
atom 4.6823192899999997 3.3059718000000000 2.6725752699999998 Au
atom 8.9239184399999996 5.8084694299999997 2.7054282500000002 Au
atom 11.7449736999999992 5.7769004400000004 2.7365197100000000 Au
atom 14.5783098899999999 5.7731367999999996 2.7368063399999998 Au
atom 17.3996080599999985 5.8238132800000004 2.7499323100000002 Au
atom 20.2037174700000008 5.8090144900000000 2.7210618700000002 Au
atom 23.0058370900000000 5.8156307399999996 2.7306406900000000 Au
atom 25.8372419700000009 5.8240192600000000 2.7323181499999998 Au
atom 0.4644343700000000 5.7991967400000002 2.7333645199999999 Au
atom 3.2986423199999999 5.7833612900000002 2.7138574200000001 Au
atom 6.1089661299999998 5.7728974099999997 2.7421774100000000 Au
atom 7.5299190600000001 8.2468414200000009 2.6960288700000001 Au
atom 10.3531188400000005 8.2558950600000003 2.6065521100000000 Au
atom 13.1808280199999999 8.2522623999999993 2.7189055199999999 Au
atom 15.9702062399999996 8.2755894600000008 2.6324317000000002 Au
atom 18.7761617899999997 8.2625176400000004 2.7056592899999998 Au
atom 21.5779079399999993 8.2883743899999995 2.6239582600000002 Au
atom 24.4308563800000016 8.2834045900000000 2.7075596700000002 Au
atom 27.2175959700000014 8.2922661699999995 2.6079419900000000 Au
atom 1.8520056800000000 8.2566457799999995 2.7261795900000001 Au
atom 4.6810806300000003 8.2498453400000002 2.6127359299999999 Au
atom 8.8894393500000000 10.7324692299999995 2.6391973800000001 Au
atom 11.7370797699999994 10.7258424399999992 2.6503856500000000 Au
atom 14.5639150199999996 10.7296714099999999 2.6470364200000001 Au
atom 17.3862341600000008 10.7103666499999992 2.6435866200000002 Au
atom 20.1850543199999990 10.7416137000000003 2.6909534100000001 Au
atom 23.0078186199999983 10.7322775299999993 2.6605188300000000 Au
atom 25.8262153400000010 10.7560387800000008 2.6408059300000000 Au
atom 0.4443019700000000 10.7167608500000000 2.6332619199999998 Au
atom 3.2718868500000000 10.6978552100000002 2.6642716599999998 Au
atom 6.1213911599999999 10.7109065599999997 2.6235289000000002 Au
atom 7.4500519499999998 13.1881611799999998 5.7173385500000000 Cl
atom 7.4592206900000004 16.0144392999999994 8.5566580800000001 Cl
atom 7.4659927599999998 13.1641239999999993 8.3496081300000000 Na
atom 7.4657472900000004 15.9830265600000008 5.7670171999999997 Na
atom 7.5130622999999996 18.8686212900000001 5.7417088600000001 Cl
atom 7.4641083300000002 21.6718535400000007 8.6305051600000002 Cl
atom 7.4640614799999998 18.8610742999999985 8.3964645900000008 Na
atom 7.4329932500000000 21.6513254699999997 5.8623851100000000 Na
atom 7.4708415600000002 24.4409451900000008 5.7945684999999996 Cl
atom 7.4535318100000003 27.2544537499999997 8.5604333199999996 Cl
atom 7.4987425500000002 24.4682385300000007 8.4249761799999998 Na
atom 7.4742470399999998 27.2438573499999990 5.7837114300000003 Na
atom 7.4623422200000000 30.0750998199999984 5.7528626200000001 Cl
atom 7.5554740499999999 32.9194165199999986 8.5530258600000000 Cl
atom 7.4908327799999999 30.1138584300000005 8.3901360399999998 Na
atom 7.4905746200000003 32.9491510399999967 5.7789572700000003 Na
atom 7.4885040199999997 35.7697207499999976 5.7361369099999999 Cl
atom 7.5647718199999998 38.5371222400000022 8.5369543100000005 Cl
atom 7.4902907900000004 35.7127306799999999 8.3653183200000001 Na
atom 7.5443285099999997 38.5732819199999994 5.7542542599999997 Na
atom 7.5016778000000004 1.8716648700000000 5.7811637400000002 Cl
atom 7.5184824299999997 4.6788632999999997 8.6502360800000009 Cl
atom 7.4974309300000002 1.8848482099999999 8.4067468099999996 Na
atom 7.5089743000000002 4.6646059600000003 5.8465433300000003 Na
atom 7.4879027100000002 7.4928955699999999 5.7738593099999997 Cl
atom 7.5524337199999998 10.3323979700000006 8.5399060900000006 Cl
atom 7.5256082299999996 7.5765708199999997 8.3991824600000005 Na
atom 7.5140407800000002 10.3486317700000008 5.7448197600000004 Na
atom 10.2226988399999996 13.1559411799999992 5.6303880700000004 Na
atom 13.1136650899999996 13.0962362900000002 5.5971767100000003 Cl
atom 10.2206055599999992 16.0689452599999996 8.2672150099999993 Na
atom 12.9500237400000007 16.2698755700000000 7.9706608399999999 Cl
atom 13.0737484500000001 13.2043813100000005 8.2785259799999995 Na
atom 10.2882477800000007 13.1920923299999995 8.4473380099999993 Cl
atom 13.0675110700000001 16.0005404800000015 5.3560830499999996 Na
atom 10.1806501899999997 15.9930830700000008 5.5841634400000002 Cl
atom 10.2729571100000001 18.8180410500000015 5.7337206600000004 Na
atom 13.1193036400000000 19.0038479000000002 5.4776728900000000 Cl
atom 10.2236083099999995 21.5858741099999989 8.4084564099999994 Na
atom 13.1569096600000002 21.6815311900000012 8.5192008099999992 Cl
atom 13.1638986100000004 19.0041599900000016 8.1729496699999995 Na
atom 10.2023726999999997 18.8971777600000017 8.6305515199999991 Cl
atom 13.1333655900000004 21.6673465599999986 5.6753012299999996 Na
atom 10.2964273500000001 21.6691525300000016 5.7525379599999997 Cl
atom 10.2084579499999997 24.4344171000000010 5.6996658299999998 Na
atom 13.0855313199999994 24.4580402399999990 5.5144717900000000 Cl
atom 10.2825809199999991 27.3110805200000009 8.3199716200000005 Na
atom 13.1825124999999996 27.2762211800000003 8.4320774899999993 Cl
atom 12.9287848299999997 24.3938662199999996 8.1389552100000007 Na
atom 10.2236781299999997 24.4612659000000008 8.5677037400000007 Cl
atom 13.1309490499999999 27.3369740099999987 5.7102113900000004 Na
atom 10.2778529499999998 27.2521273199999996 5.6821429400000003 Cl
atom 10.2650700500000003 30.0698504900000003 5.8079320200000000 Na
atom 13.1664210100000005 30.1164930200000001 5.7675337400000002 Cl
atom 10.3247361099999999 32.8709572200000011 8.3314636800000006 Na
atom 13.1220624000000008 32.8964383400000031 8.5576039700000006 Cl
atom 13.1325474300000007 30.1052027600000009 8.4040274900000007 Na
atom 10.3075612099999994 30.0554535200000004 8.5290939600000009 Cl
atom 13.1045232299999999 32.9156907300000015 5.8196997599999998 Na
atom 10.3238953900000006 32.9271420899999967 5.6907556000000001 Cl
atom 10.3167692199999994 35.7772425200000015 5.7483530900000002 Na
atom 13.2077639300000005 35.7643430099999975 5.7474871500000004 Cl
atom 10.3253085299999992 38.5699141400000016 8.3200368499999993 Na
atom 13.1428218399999999 38.5175356499999992 8.5825950599999992 Cl
atom 13.1232998300000006 35.7227528399999983 8.3682726100000000 Na
atom 10.2878805100000008 35.7065487400000023 8.4974441499999998 Cl
atom 13.2170480900000005 38.5650443899999971 5.8384392800000002 Na
atom 10.4033188899999995 38.5740973500000024 5.6527903999999998 Cl
atom 10.3208065500000004 1.8720766799999999 5.8132627799999996 Na
atom 13.1211084299999996 1.8846251300000001 5.7798052000000002 Cl
atom 10.3360433599999997 4.7320020500000002 8.3945447800000004 Na
atom 13.1285019900000002 4.6983548500000003 8.5767951000000000 Cl
atom 13.0926473300000001 1.8579557200000001 8.4384994399999993 Na
atom 10.3108490300000000 1.8943582800000001 8.5884891400000001 Cl
atom 13.1112147399999994 4.6847638199999997 5.8049715500000003 Na
atom 10.3344006799999999 4.6648396200000004 5.7816168699999997 Cl
atom 10.2894223500000006 7.5155082000000002 5.8139181100000004 Na
atom 13.0900376000000005 7.5347951599999998 5.7384775499999998 Cl
atom 10.3100108299999995 10.3296021200000006 8.3497436799999996 Na
atom 13.1799900300000008 10.3648600200000001 8.6466940700000006 Cl
atom 13.1531824900000007 7.5332058899999996 8.4482674299999996 Na
atom 10.3774665499999994 7.5499316199999997 8.5859013999999991 Cl
atom 13.1611554999999996 10.2309845500000005 5.7332575600000002 Na
atom 10.3191646699999993 10.3206259399999993 5.7112691000000000 Cl
atom 16.0485189000000013 13.1495696599999992 5.5405273299999998 Na
atom 18.9149351500000016 13.1930867999999997 5.5797793400000000 Cl
atom 15.9792045399999996 15.8819854100000004 8.1677764699999997 Na
atom 18.8300994999999993 16.0118609899999988 8.5661412800000001 Cl
atom 18.9603490199999989 13.1739621000000007 8.3151095700000006 Na
atom 16.2100669699999997 13.0023228999999994 8.2541999799999992 Cl
atom 18.8331233400000002 16.0134375300000009 5.7443095700000004 Na
atom 16.0250454200000014 16.0521496600000013 5.6157255700000004 Cl
atom 16.0141934699999986 18.8173138800000004 5.6989634300000001 Na
atom 18.8028362999999992 18.8202972700000011 5.7085467300000001 Cl
atom 16.1213301800000011 21.7237608299999998 8.1305749899999995 Na
atom 18.9028479599999990 21.5020409100000016 8.6669832400000004 Cl
atom 18.8650905000000009 18.7646632800000006 8.3436376800000005 Na
atom 15.9724760299999993 18.7904658100000006 8.5145736500000009 Cl
atom 18.8076276500000006 21.7564709000000001 5.7833972600000001 Na
atom 15.9623958399999992 21.4385808000000004 5.4821260900000004 Cl
atom 15.9550534699999993 24.5746821100000012 5.0380896699999997 Na
atom 19.1689283599999989 24.4640428599999993 5.5052127200000003 Cl
atom 16.0087486199999987 27.1451445199999988 8.1086725699999995 Na
atom 18.8068119100000004 27.3700428699999989 8.5789367300000006 Cl
atom 19.1047005799999994 24.4681539500000014 8.2265075099999994 Na
atom 16.5379736000000008 24.3036491300000002 7.6495385499999999 Cl
atom 18.8362343800000005 27.2299712000000014 5.7802966600000003 Na
atom 15.9492191400000003 27.4290388500000013 5.5849502099999997 Cl
atom 15.9296501700000004 30.1338847799999989 5.7845911200000000 Na
atom 18.7505550099999994 30.0787380000000013 5.7656187799999996 Cl
atom 15.9738205900000008 32.8746249000000006 8.3311690899999995 Na
atom 18.7226699500000002 32.9413852300000016 8.5548614500000006 Cl
atom 18.7414025399999993 30.1356672100000011 8.3571307600000004 Na
atom 15.9327208799999998 30.0840772600000008 8.5677892100000008 Cl
atom 18.7857956399999999 32.8775552500000003 5.7907677099999999 Na
atom 15.9368967999999995 32.8641789500000030 5.6918750400000002 Cl
atom 15.9733921999999993 35.7279395799999975 5.8088577700000004 Na
atom 18.7964582900000003 35.7489025599999977 5.7584881699999997 Cl
atom 15.9592874299999998 38.5234143099999997 8.3852159600000000 Na
atom 18.7784623199999992 38.5331028499999988 8.6159219900000004 Cl
atom 18.7746501499999994 35.7333708199999975 8.3796255899999998 Na
atom 15.9722213400000008 35.7282115000000005 8.5473605500000005 Cl
atom 18.7729663799999997 38.5773033600000019 5.8507246200000003 Na
atom 16.0011632900000009 38.5823721100000014 5.7377747499999998 Cl