#===============================================================================
# Created using the Atomic Simulation Environment (ASE)

# Tue Dec 23 21:42:27 2025

#=======================================================
lattice_vector 28.1999999999999993 0.0000000000000000 0.0000000000000000 
lattice_vector 0.0000000000000000 39.4799999999999969 0.0000000000000000 
lattice_vector 0.0000000000000000 0.0000000000000000 62.3296083400000001 
atom 7.5841688200000004 14.7825075500000001 0.2072472800000000 Au
atom 10.3364583499999991 14.8116454999999991 0.0477965600000000 Au
atom 13.2045920300000006 14.8264366699999997 0.0043879500000000 Au
atom 15.9924833500000005 14.7481061300000000 -0.0416931500000000 Au
atom 18.8029656000000003 14.8076370100000005 -0.3284556000000000 Au
atom 21.7321295700000015 14.7561741699999995 -0.3976195100000000 Au
atom 24.5770590499999990 14.7508286599999998 -0.8409488300000000 Au
atom 27.4228545900000000 14.8243183900000002 -0.6655644400000000 Au
atom 1.9550689600000000 14.7775852499999996 -0.0268804100000000 Au
atom 4.7610048599999999 14.8448572799999994 -0.0736238700000000 Au
atom 8.9126579300000000 17.2841793599999995 0.0193584600000000 Au
atom 11.8016589199999995 17.2758608400000000 0.1647771200000000 Au
atom 14.6585523400000000 17.2945687100000001 -0.1341251700000000 Au
atom 17.5054601900000009 17.2801289699999998 -0.3337079400000000 Au
atom 20.2791624599999984 17.4373658700000007 -0.2307024800000000 Au
atom 23.1313827500000002 17.1811562000000002 0.0533987100000000 Au
atom 25.9763896099999982 17.3562966799999998 -0.5668205600000000 Au
atom 0.5469360100000000 17.2678516199999983 -0.4067154400000000 Au
atom 3.3173103400000001 17.2193752700000005 -0.0595086300000000 Au
atom 6.1175224100000003 17.2892177400000016 0.1788761600000000 Au
atom 7.4897596499999999 19.6688575700000001 0.0146378100000000 Au
atom 10.3972493400000001 19.7504178999999986 0.0676020600000000 Au
atom 13.1662554099999998 19.8102956500000005 0.0924188400000000 Au
atom 16.0513425100000013 19.7524807799999991 -0.1556391200000000 Au
atom 18.8927506100000002 19.8296918600000005 0.1357977400000000 Au
atom 21.8000109900000005 19.8075689299999986 -0.0617519500000000 Au
atom 24.5419819799999992 19.6101992600000017 0.4461938000000000 Au
atom 27.3340913900000011 19.7850388300000013 -0.2358165400000000 Au
atom 1.8571725100000001 19.7389674500000005 -0.0146801600000000 Au
atom 4.6615201500000003 19.7327583100000012 0.0715104400000000 Au
atom 8.9459329499999996 22.1919551499999983 0.0348360000000000 Au
atom 11.7954035000000008 22.1850866700000005 0.0592308700000000 Au
atom 14.6389664600000007 22.2704415800000000 -0.0944162800000000 Au
atom 17.4269412499999987 22.2088907499999983 0.0681215000000000 Au
atom 20.2755718800000011 22.2177960399999996 0.4663617200000000 Au
atom 23.0830562099999987 22.2715313500000001 0.0302674300000000 Au
atom 25.9418940700000000 22.2189427500000001 0.1881259400000000 Au
atom 0.5045055800000000 22.3225105500000005 0.1293638400000000 Au
atom 3.2447229399999999 22.2184774099999984 0.0304138000000000 Au
atom 6.1187692599999997 22.1365048599999987 0.1713359800000000 Au
atom 7.4763789899999997 24.6297729200000006 0.3292337600000000 Au
atom 10.3234269100000002 24.6913324600000017 0.1313920300000000 Au
atom 13.1981877599999997 24.6605042099999991 0.0305496400000000 Au
atom 16.0210579300000013 24.6705053099999994 0.0122908400000000 Au
atom 18.8332259800000017 24.5909531799999996 0.0220561000000000 Au
atom 21.6334721499999993 24.6461761599999996 0.1045928800000000 Au
atom 24.4618776300000000 24.7056412300000012 0.0976675700000000 Au
atom 27.2270003100000011 24.6831287699999997 0.1756037500000000 Au
atom 1.8621207600000000 24.6846840299999997 0.0610591500000000 Au
atom 4.6767797199999999 24.6681475100000007 0.1343205000000000 Au
atom 8.9199777299999994 27.0767837500000006 0.2005032000000000 Au
atom 11.7326457099999999 27.1275826699999989 0.0913826700000000 Au
atom 14.5564281199999996 27.0442862400000017 0.1667150100000000 Au
atom 17.4045107100000003 27.1243403000000001 0.0862467700000000 Au
atom 20.2030232599999984 27.0719424599999989 0.0040962900000000 Au
atom 23.0140957200000003 27.0468244099999993 0.0742953800000000 Au
atom 25.7555051599999985 27.0699679199999999 0.1157625700000000 Au
atom 0.3802455200000000 27.0916912299999986 0.1421035700000000 Au
atom 3.1730741500000001 27.1315791399999995 0.0826427600000000 Au
atom 6.0055376999999996 27.1066131699999993 0.1428269500000000 Au
atom 7.5383903200000004 29.5065780599999989 -0.1015687000000000 Au
atom 10.3900488600000003 29.5880911799999993 -0.0205651700000000 Au
atom 13.1384198300000001 29.6093235899999989 0.0326007600000000 Au
atom 15.9340878200000002 29.5842290800000001 -0.0628342900000000 Au
atom 18.7263533399999993 29.5678421600000014 -0.0511402700000000 Au
atom 21.5234421199999986 29.5174200800000008 -0.0268346400000000 Au
atom 24.3972713200000015 29.4875728700000010 0.0947034900000000 Au
atom 27.2091480399999988 29.5748626500000000 0.1375862000000000 Au
atom 1.8031877300000001 29.7382847599999991 -0.0100732700000000 Au
atom 4.6467611599999996 29.6199240599999989 -0.1474546000000000 Au
atom 8.9184016400000008 32.0160092799999987 -0.1537270900000000 Au
atom 11.7401948199999993 32.0767399799999993 -0.0864175300000000 Au
atom 14.5179293499999993 32.0703605599999975 0.0445984600000000 Au
atom 17.3030270299999991 32.1123268999999993 -0.0313072700000000 Au
atom 20.1704836800000002 32.0637977599999999 -0.0994558100000000 Au
atom 23.0273837400000012 31.9501424299999996 -0.0181989500000000 Au
atom 25.8168494099999997 31.9211290299999995 -0.0049993700000000 Au
atom 0.4128783300000000 32.1091099499999970 -0.1063193800000000 Au
atom 3.3085018599999998 32.0996121399999979 -0.2275060400000000 Au
atom 6.1401058099999997 32.0724081700000028 -0.2585909700000000 Au
atom 7.4954762199999996 34.5689358899999988 -0.2308275500000000 Au
atom 10.3277361299999999 34.5849334299999995 -0.1672745500000000 Au
atom 13.1440977399999994 34.5238147900000030 0.0004066700000000 Au
atom 15.9812455999999994 34.5414535600000008 0.1501606700000000 Au
atom 18.8366035099999998 34.5639541899999969 0.0748210900000000 Au
atom 21.6600579999999994 34.4798056500000030 -0.0106008600000000 Au
atom 24.4355344599999995 34.4053021100000009 0.0078654100000000 Au
atom 27.2284573200000004 34.4826130499999977 0.0123275600000000 Au
atom 1.8612284500000000 34.5401140499999997 -0.0382604800000000 Au
atom 4.6669073699999997 34.6132848000000024 -0.1074011000000000 Au
atom 8.9126303799999995 37.0536052799999993 -0.0473260500000000 Au
atom 11.7334304399999994 37.0003779999999978 0.0723424100000000 Au
atom 14.5146355800000002 36.9432899199999980 0.0616984600000000 Au
atom 17.3230210000000007 36.9824504899999980 0.0840419400000000 Au
atom 20.1744302699999984 36.9738009300000030 -0.0475706600000000 Au
atom 22.9935749300000012 36.9255177100000012 0.0345786200000000 Au
atom 25.8413217899999985 36.9582702100000020 -0.0213720300000000 Au
atom 0.4325592800000000 37.0140149500000035 0.1610446700000000 Au
atom 3.2784767300000000 37.0897658399999983 0.1054516700000000 Au
atom 6.0882870100000002 37.0342631500000010 -0.0589743900000000 Au
atom 7.5277906100000003 -0.0363316000000000 0.0469771900000000 Au
atom 10.3468075499999994 0.0357589200000000 0.0415030200000000 Au
atom 13.1153796600000003 -0.0983202800000000 0.0275116900000000 Au
atom 15.9696189200000003 -0.0304201200000000 -0.0104055000000000 Au
atom 18.8142670699999996 -0.0335893100000000 0.0529281900000000 Au
atom 21.6162653599999999 -0.1032620800000000 0.2644469000000000 Au
atom 24.4223846699999996 -0.0880450000000000 0.0254062700000000 Au
atom 27.1851391000000007 -0.0809682100000000 0.3285804600000000 Au
atom 1.8329786800000001 0.0311845000000000 0.2203244300000000 Au
atom 4.6447104000000001 0.0066401300000000 0.2488095600000000 Au
atom 8.9098718600000009 2.4900247800000002 0.0003053000000000 Au
atom 11.7823142599999997 2.4481280399999998 -0.1328115200000000 Au
atom 14.5580433899999999 2.3875571999999998 0.0702115800000000 Au
atom 17.4066596099999984 2.4394098500000001 0.1799721600000000 Au
atom 20.2560684199999983 2.4717399200000001 0.3168433800000000 Au
atom 23.0287732100000007 2.4976536800000000 0.1582424400000000 Au
atom 25.8137451599999999 2.4422377399999999 0.2644340900000000 Au
atom 0.4770115900000000 2.4999422299999998 0.3093148700000000 Au
atom 3.2677066400000001 2.4789256900000001 0.0688407200000000 Au
atom 6.1332030599999996 2.4807784900000001 0.1542781500000000 Au
atom 7.6249858399999999 4.9624092800000001 0.2462709100000000 Au
atom 10.3829836499999999 4.9300737699999999 0.0107497000000000 Au
atom 13.2068474200000008 5.0069434099999999 0.0289366200000000 Au
atom 16.0122670499999984 4.9124780299999999 0.0730274400000000 Au
atom 18.8033861599999987 4.9123666300000002 0.2283338100000000 Au
atom 21.5712393599999999 4.9906074000000000 0.3494415000000000 Au
atom 24.3479267399999983 5.0372690899999997 0.0787897100000000 Au
atom 27.1686498400000005 4.9493155900000003 0.2649647700000000 Au
atom 1.7803596800000001 4.9355620099999999 0.2338601100000000 Au
atom 4.6554464400000004 4.9235018200000003 0.0688876700000000 Au
atom 8.9122508400000005 7.4387254699999996 0.0072057100000000 Au
atom 11.7573668799999993 7.3896549399999998 -0.0742378100000000 Au
atom 14.6492783600000003 7.3935762900000004 -0.0545623000000000 Au
atom 17.4757676099999983 7.4144496799999997 0.1137156100000000 Au
atom 20.2043201500000009 7.4016135399999996 0.0987309800000000 Au
atom 22.9903994800000007 7.4367370099999999 0.0877608400000000 Au
atom 25.7884582699999996 7.3776148499999996 0.0697178800000000 Au
atom 0.3468605600000000 7.3257993800000003 -0.0447634900000000 Au
atom 3.1968056100000002 7.3413373499999999 -0.2139437900000000 Au
atom 6.0309963099999999 7.3181384500000002 -0.0010033500000000 Au
atom 7.4361055299999999 9.8802820300000000 0.0694496100000000 Au
atom 10.3077387599999994 9.8848996400000004 -0.1583081100000000 Au
atom 13.1672279000000003 9.8325896099999994 -0.0299347900000000 Au
atom 16.0412410100000002 9.8108011299999998 0.0946270800000000 Au
atom 18.8388946900000001 9.9547376100000005 0.1209235800000000 Au
atom 21.6843223400000014 9.8774251500000005 0.1358161900000000 Au
atom 24.4654036099999992 9.8736094399999992 0.2562746000000000 Au
atom 27.3676406300000004 9.9549156199999995 0.3239912500000000 Au
atom 1.8362808900000001 9.7780628499999995 -0.0678643800000000 Au
atom 4.6600829199999998 9.8492113799999998 -0.0141072700000000 Au
atom 8.8743786199999999 12.2728022499999998 0.0495416800000000 Au
atom 11.6717981000000002 12.3706274199999999 -0.1570157800000000 Au
atom 14.5698194500000007 12.3400298599999996 -0.0050830800000000 Au
atom 17.3893670699999987 12.3460435400000001 -0.1187691900000000 Au
atom 20.2900320000000001 12.3776338399999997 -0.2704296400000000 Au
atom 23.1487428000000008 12.4123300299999997 -0.0588822800000000 Au
atom 25.9357842599999984 12.3378622000000000 -0.3948559500000000 Au
atom 0.5911688800000000 12.3986076799999996 -0.3250709600000000 Au
atom 3.3183488300000001 12.3283074999999993 -0.0755024600000000 Au
atom 6.1086410000000004 12.3737267000000006 -0.0308638000000000 Au
atom 7.4937608400000002 13.2108493800000009 2.7523794000000001 Au
atom 10.2697349199999994 13.1597758900000006 2.5656207400000000 Au
atom 13.1430829300000003 13.1957414199999992 2.5980228699999999 Au
atom 16.0592919700000003 13.2096745000000002 2.5742627499999999 Au
atom 18.8045764400000017 13.3027994500000002 2.3870161900000002 Au
atom 21.5409944700000011 13.2144310699999998 2.3245957300000000 Au
atom 24.3965825800000005 13.1740820299999992 2.5128764000000001 Au
atom 27.2978711700000005 13.0829743199999999 2.1565513100000002 Au
atom 1.7978104900000000 13.2506562599999995 2.6767989800000000 Au
atom 4.6771837400000003 13.3166039299999994 2.5359343999999999 Au
atom 8.9828627500000007 15.7310151999999999 2.6099710800000002 Au
atom 11.7583511400000003 15.6321529800000008 2.6349653100000001 Au
atom 14.5840963099999996 15.6432417899999994 2.6112619499999998 Au
atom 17.2739015999999985 15.7310761800000005 2.3330950100000001 Au
atom 20.2358182199999987 15.6560640899999992 2.3313833399999999 Au
atom 22.8617184800000004 15.6266967000000001 2.6796342499999999 Au
atom 25.5595811700000013 15.5137488300000008 1.7214500900000000 Au
atom 0.1396659300000000 15.5647200699999999 2.2223946899999998 Au
atom 3.1930082899999999 15.6517421500000005 2.5126601100000001 Au
atom 6.0953603400000000 15.6758180399999993 2.6511097200000000 Au
atom 7.4443416600000001 18.1640179999999987 2.6517399300000002 Au
atom 10.2496972500000005 18.1838908600000018 2.6621762300000000 Au
atom 13.1599860100000008 18.0506874599999989 2.6300627099999998 Au
atom 15.9848290800000008 18.1669030099999986 2.3368248100000000 Au
atom 18.7813596800000013 18.0254320999999997 2.6749384200000001 Au
atom 21.6956779699999984 18.1496413499999996 2.5128434400000002 Au
atom 24.5176167700000001 17.8719302800000008 2.9447548200000000 Au
atom 27.1267299999999985 18.0552237399999989 2.2018362400000000 Au
atom 1.7338987400000001 18.0081035500000013 2.4181614900000001 Au
atom 4.5738493000000000 18.1043285300000001 2.6562545100000001 Au
atom 8.8398743500000005 20.6084704999999992 2.5471020400000000 Au
atom 11.6677537900000008 20.5932052100000007 2.7318315800000001 Au
atom 14.6661773300000000 20.5754207999999998 2.5645780600000001 Au
atom 17.4447875699999990 20.5420772599999992 2.5905655300000001 Au
atom 20.2235818099999989 20.4493500200000007 2.9268513800000000 Au
atom 23.0422680900000003 20.6328924299999983 2.6951353600000001 Au
atom 25.8792086099999992 20.5275470200000001 2.7814627600000001 Au
atom 0.3706759700000000 20.4771334299999985 2.6293989999999998 Au
atom 3.1632005699999999 20.6105214600000011 2.5509820699999999 Au
atom 5.9850840900000000 20.5593459299999992 2.6387771500000001 Au
atom 7.5141723400000000 23.0572298499999988 2.9383204799999998 Au
atom 10.2449174099999993 23.0725890100000015 2.6475484599999999 Au
atom 13.1531433199999999 22.9391238199999989 2.6226348100000001 Au
atom 16.0629564100000017 23.0773470600000010 2.6043702500000001 Au
atom 18.8210557499999993 23.0666283300000003 2.7498062100000000 Au
atom 21.6634134600000010 23.0996466500000004 2.7627522799999999 Au
atom 24.4872241399999986 23.1795072500000003 2.7569969200000002 Au
atom 27.2474548600000013 23.0633206999999985 2.7559283300000001 Au
atom 1.8441732200000001 23.1398226099999995 2.6735373099999999 Au
atom 4.6687094900000004 23.0547353900000012 2.6737304499999999 Au
atom 8.9071408200000004 25.5330336699999982 2.8721824800000002 Au
atom 11.7036783199999999 25.5315899100000010 2.6541818699999999 Au
atom 14.5303503900000006 25.4677799299999990 2.7583382300000001 Au
atom 17.3692633100000009 25.5195401400000002 2.7228214999999998 Au
atom 20.2324976099999994 25.6107141399999989 2.5339588800000001 Au
atom 23.0049919600000017 25.6983929999999994 2.7523159000000001 Au
atom 25.8730548300000009 25.5941176900000009 2.7611023900000000 Au
atom 0.4784503300000000 25.5985200100000014 2.6988474899999999 Au
atom 3.2862190700000000 25.5835154100000004 2.7237975699999999 Au
atom 6.0745395899999997 25.5774595299999987 2.8411567099999999 Au
atom 7.4654472299999997 27.9734071799999988 2.6111478600000000 Au
atom 10.3000393399999997 28.0634930099999984 2.7656968800000001 Au
atom 13.1394316799999995 27.9696986599999988 2.6773506299999998 Au
atom 15.9874365699999998 27.9714196999999984 2.7887586799999999 Au
atom 18.7451210800000005 28.0097423499999998 2.6620824800000000 Au
atom 21.5046323199999989 28.1108792899999997 2.6473625799999998 Au
atom 24.3977248099999997 28.0627493100000009 2.7752540500000000 Au
atom 27.2639769899999997 28.1093107899999985 2.7143553400000000 Au
atom 1.8767612899999999 28.0899743099999988 2.5768409900000000 Au
atom 4.6752220500000004 28.0386451200000018 2.6983063100000000 Au
atom 8.9397838800000002 30.4391448699999998 2.5288848800000001 Au
atom 11.8534754099999997 30.4300250699999992 2.5181067100000001 Au
atom 14.6313686100000009 30.4346302800000004 2.5548331499999999 Au
atom 17.3479065500000011 30.4768899500000003 2.5117561300000002 Au
atom 20.1043519099999983 30.4892752499999986 2.6177999900000000 Au
atom 22.9054222299999992 30.4738440200000014 2.6371343899999999 Au
atom 25.7944637300000004 30.4798176900000009 2.7921436800000001 Au
atom 0.4264219500000000 30.4913814999999992 2.6342866800000002 Au
atom 3.2879369999999999 30.5374609100000001 2.5563277400000000 Au
atom 6.1162467400000002 30.4376670699999998 2.4023917300000002 Au
atom 7.4884373100000001 32.9597545000000025 2.4267818700000001 Au
atom 10.3500225100000005 32.8370523700000021 2.4381283100000002 Au
atom 13.1431573499999992 32.9356609199999966 2.7545749700000002 Au
atom 15.9484822000000008 32.9015749599999978 2.6567958699999998 Au
atom 18.7303761199999990 32.9195692400000013 2.4775427200000002 Au
atom 21.6024270099999995 32.8758611299999970 2.6020127099999999 Au
atom 24.3930483100000011 32.8745509399999989 2.5038469800000001 Au
atom 27.2263232500000001 32.9411375899999967 2.5309004300000000 Au
atom 1.8435041200000000 32.9835857200000007 2.4936012500000002 Au
atom 4.7160017099999996 32.9216247100000032 2.3634770999999999 Au
atom 8.9564098399999992 35.4069069499999998 2.4342489399999998 Au
atom 11.7318293199999992 35.3573338699999979 2.4983070199999999 Au
atom 14.5555992199999995 35.3742745699999972 2.7088610700000002 Au
atom 17.3771916299999987 35.3454431199999988 2.8018011999999999 Au
atom 20.2857053900000004 35.3277509699999968 2.5659483199999999 Au
atom 23.0907353099999995 35.3578966299999990 2.6038091099999998 Au
atom 25.8442760400000004 35.3593866200000022 2.5075349800000000 Au
atom 0.4901295300000000 35.3605841299999994 2.7341991200000000 Au
atom 3.3116266599999999 35.3880219699999969 2.5071068599999999 Au
atom 6.0635217199999998 35.3645187600000028 2.5033473499999999 Au
atom 7.5752090900000004 37.8532362099999986 2.6071650800000001 Au
atom 10.3341721500000006 37.8652600799999988 2.6242702699999998 Au
atom 13.0965416799999996 37.8345700400000027 2.6613032900000002 Au
atom 15.9258960399999996 37.8430827700000023 2.8119741999999999 Au
atom 18.8183918100000014 37.8095361100000034 2.6095494100000001 Au
atom 21.6014648700000009 37.7882689899999988 2.7770122200000000 Au
atom 24.4236899600000008 37.8433219799999989 2.5509288300000001 Au
atom 27.2138968800000001 37.7780181400000004 2.8965671999999998 Au
atom 1.8337586100000001 37.7859348400000030 2.7637593699999998 Au
atom 4.7305170299999997 37.7858912700000005 2.7963065800000000 Au
atom 8.9240095799999999 0.8670070200000000 2.6203603300000000 Au
atom 11.6822246799999991 0.8488960600000000 2.5732511699999998 Au
atom 14.5151536199999995 0.8176209700000000 2.6577152700000002 Au
atom 17.3875647899999990 0.7996395300000000 2.7641674599999999 Au
atom 20.1352085000000010 0.7715369399999999 2.8075025600000001 Au
atom 22.9289986699999986 0.8311270400000000 2.7013335399999998 Au
atom 25.7884949600000013 0.8595752900000000 2.8435017999999999 Au
atom 0.3327767300000000 0.7587610200000000 2.9241194600000000 Au
atom 3.2520953000000001 0.8065666800000000 2.8534727400000000 Au
atom 6.1474979699999999 0.8403244900000000 2.7689134300000000 Au
atom 7.5535548600000002 3.3266800900000000 2.8326064099999999 Au
atom 10.3765400600000000 3.3968455799999999 2.5546955699999998 Au
atom 13.1078084100000005 3.3094641800000000 2.5777558599999999 Au
atom 15.9058129499999996 3.3139542099999999 2.7289340000000002 Au
atom 18.7444444600000004 3.2783823299999999 2.8435816500000000 Au
atom 21.5760691400000013 3.2483539100000001 2.8982792800000001 Au
atom 24.3631800200000015 3.3176447599999999 2.6320461499999999 Au
atom 27.2046405200000017 3.3683738800000000 2.8377501000000001 Au
atom 1.8497166800000000 3.2296986599999999 2.7933220699999999 Au
atom 4.6632991700000002 3.2990449100000001 2.6354099600000001 Au
atom 8.9040188499999999 5.8747342199999997 2.8230661700000002 Au
atom 11.7241352899999995 5.8571153999999996 2.5578786099999999 Au
atom 14.5423155800000004 5.7909540699999997 2.7669523499999999 Au
atom 17.3296931799999996 5.8364185199999996 2.7986522599999999 Au
atom 20.1711672600000007 5.8654010500000000 2.8408609299999998 Au
atom 23.0360696199999992 5.8636270100000001 2.8297154299999998 Au
atom 25.7844081799999998 5.7884022899999996 2.7903848999999998 Au
atom 0.5108255500000000 5.7657765200000002 2.7823699400000002 Au
atom 3.3935735500000002 5.8057455800000000 2.6478999399999998 Au
atom 6.1468604100000004 5.7473006099999999 2.7971865899999999 Au
atom 7.5123589900000001 8.2843882400000002 2.5660416900000000 Au
atom 10.3164901699999998 8.2988804100000007 2.5623274299999999 Au
atom 13.1437998000000000 8.2577719399999996 2.5573450599999998 Au
atom 15.9765668000000005 8.3015298899999994 2.6660268999999999 Au
atom 18.8925690899999985 8.3632005100000004 2.6788562100000002 Au
atom 21.6206432900000003 8.3133411899999992 2.6664764600000002 Au
atom 24.4464337399999998 8.3776109400000003 2.8197087500000002 Au
atom 27.2755644000000004 8.2241485099999991 2.6804525699999999 Au
atom 1.9326653400000000 8.2427974800000001 2.4160667500000002 Au
atom 4.7096525600000003 8.3143461100000007 2.4413780599999999 Au
atom 8.9351523099999994 10.7228724500000006 2.6740956200000001 Au
atom 11.7522272200000000 10.6915904699999995 2.4113247499999999 Au
atom 14.5497651599999998 10.7944257900000000 2.5927180800000000 Au
atom 17.3883584199999994 10.7857282899999998 2.6238445499999998 Au
atom 20.1943765599999985 10.8496287799999998 2.8002418599999999 Au
atom 23.0213796899999998 10.7555384499999995 2.7878907399999999 Au
atom 25.8771135000000001 10.7933985099999994 2.8283093400000001 Au
atom 0.5083000800000000 10.7013027600000008 2.7712946500000002 Au
atom 3.2605238000000001 10.8023820700000002 2.5068205899999998 Au
atom 6.1023586700000001 10.7713648200000005 2.6134567199999998 Au
atom 7.7847314699999997 13.2384225499999992 5.4604611099999998 Cl
atom 7.5378528999999999 16.0112435499999997 8.5570885099999998 Cl
atom 7.6799409799999996 13.1602688499999996 8.3415768499999992 Na
atom 7.7647710700000001 15.8508211100000000 5.9401104599999996 Na
atom 7.7757996599999997 18.5232779000000001 5.5132963100000003 Cl
atom 7.4766335200000000 21.4467987999999998 8.6193818400000008 Cl
atom 7.6452481299999997 18.7150866200000010 8.4413947399999998 Na
atom 7.7177818499999997 21.3903577499999997 5.7109766400000002 Na
atom 7.7030941799999999 24.2119093300000010 5.9239388899999996 Cl
atom 7.3341857499999996 27.0150023300000015 8.6051015399999997 Cl
atom 7.2144608300000002 24.1818796700000007 8.4438139499999991 Na
atom 7.5025810699999997 26.9575574499999995 5.8444702800000004 Na
atom 7.4451496400000003 29.8139630300000000 5.6801278999999996 Cl
atom 7.5692443699999998 32.7355909099999991 8.6524493000000007 Cl
atom 7.4025894299999999 29.8931340600000013 8.3106557799999994 Na
atom 7.5321897399999997 32.7349369100000018 5.8208397600000001 Na
atom 7.6053059599999999 35.5466083600000005 5.6973603600000002 Cl
atom 7.6468013099999999 38.3865523699999969 8.6016456899999998 Cl
atom 7.5680735200000004 35.5376285899999971 8.4146953399999997 Na
atom 7.6176743499999997 38.4326369300000010 5.8095384399999999 Na
atom 7.5890637999999999 1.7416794400000000 5.9057249599999997 Cl
atom 7.6013897300000002 4.5567130400000000 8.5962423799999996 Cl
atom 7.6046743399999999 1.6461155999999999 8.5844703700000000 Na
atom 7.6357760800000003 4.5660099499999998 5.8527660299999997 Na
atom 7.4935705800000001 7.5753071900000002 5.8382948299999997 Cl
atom 7.4543969900000002 10.3742911000000007 8.4138666499999992 Cl
atom 7.4980748799999999 7.6120443699999996 8.4896381000000005 Na
atom 7.4040148300000004 10.1334086299999999 5.6686188499999997 Na
atom 10.2521235300000004 12.8846511600000007 5.7922489600000002 Na
atom 12.9681450399999996 12.7403519000000003 5.5839095399999996 Cl
atom 10.4247771199999999 15.9306514499999992 8.5160456599999996 Na
atom 13.0613908399999996 15.9323854499999999 8.5064146199999993 Cl
atom 13.0271335199999996 12.6424757000000003 8.4463491099999999 Na
atom 10.2477051400000008 13.2514953900000005 8.6397539800000001 Cl
atom 13.1635981399999995 15.7536722600000001 5.6474115700000000 Na
atom 10.3904734199999993 15.8752939800000004 5.8187735900000002 Cl
atom 10.3256376799999998 18.6541147900000013 5.8612515399999996 Na
atom 13.2115541299999997 18.8950321099999989 6.0240853200000002 Cl
atom 10.2558138400000001 21.5923959200000013 8.4997747700000001 Na
atom 13.0957191099999992 21.6840195700000002 8.8811169799999998 Cl
atom 12.8768014199999996 18.9415985300000003 8.7575386500000008 Na
atom 10.4702848300000007 18.7126256600000005 8.8420740700000007 Cl
atom 13.0762826000000008 21.8407101300000015 5.9969974600000002 Na
atom 10.5074591599999998 21.7099946300000006 5.8936842800000004 Cl
atom 10.3354569499999993 24.4377487000000002 6.0131579600000000 Na
atom 12.9884591700000005 24.6230567299999983 5.7768664100000002 Cl
atom 10.3555808000000003 27.1581924599999986 8.5832038700000002 Na
atom 13.2954634499999997 27.3450607199999993 8.7535625899999996 Cl
atom 13.3469290500000000 24.5110382700000002 8.4340449199999998 Na
atom 10.5275484000000006 24.3382810200000002 8.7096864400000005 Cl
atom 13.1282780900000002 27.1722174099999982 5.9215240900000001 Na
atom 10.1759942700000003 26.8577982000000013 6.0031999999999996 Cl
atom 10.2654629199999992 29.7838263599999991 5.8092940500000001 Na
atom 13.0136208799999995 29.8520212700000016 5.7926210899999999 Cl
atom 10.3239153800000008 32.7117681100000013 8.3584039299999997 Na
atom 13.0007143799999998 32.8486547899999977 8.6276662900000005 Cl
atom 13.0472936900000001 29.9908032700000007 8.4326259700000001 Na
atom 10.1944209299999997 29.9606860499999996 8.5012750599999993 Cl
atom 13.2022333199999995 32.5469321200000010 5.9422720000000000 Na
atom 10.2723081000000001 32.6227205900000001 5.6358763099999996 Cl
atom 10.3578630900000004 35.5255089099999992 5.9405097700000002 Na
atom 13.1444954099999993 35.5085478100000032 5.8924607800000004 Cl
atom 10.3763593499999995 38.4222159500000018 8.4238692000000004 Na
atom 13.2295498800000004 38.4062425799999971 8.6258613400000002 Cl
atom 13.0615741799999991 35.6135696199999998 8.4091319400000000 Na
atom 10.2910775000000001 35.6472483399999973 8.7338857599999997 Cl
atom 13.3504940199999993 38.4473653299999967 5.7047742299999999 Na
atom 10.3513679799999991 38.3768186599999979 5.8166094599999996 Cl
atom 10.4344421399999998 1.7446604800000001 5.8828666399999996 Na
atom 13.1906963400000006 1.9353603699999999 5.7019255900000001 Cl
atom 10.1360793499999993 4.4967594899999996 8.5017121200000005 Na
atom 12.9582964599999997 4.3366609900000004 8.5792775300000006 Cl
atom 13.1863470700000001 1.7222566200000000 8.4039221400000006 Na
atom 10.3035344000000002 1.6323353100000000 8.7048504100000006 Cl
atom 13.1188687399999999 4.5795926299999996 5.8696245300000003 Na
atom 10.2544184499999993 4.6216502200000003 5.8054881500000004 Cl
atom 10.2634960300000007 7.4755045300000003 5.7230362100000001 Na
atom 13.0596304199999995 7.1199232300000004 5.5239557300000000 Cl
atom 10.4560736199999997 10.1778088899999997 8.4022717300000007 Na
atom 13.1513977200000003 10.0413734800000007 8.5105937100000002 Cl
atom 13.1619270400000001 7.2303283100000000 8.1608188300000002 Na
atom 10.3076632200000002 7.3847316200000002 8.4893145699999994 Cl
atom 13.2274523399999993 9.7765738500000001 5.5840683599999998 Na
atom 10.4555216200000007 10.1088974300000007 5.7342900300000004 Cl
atom 16.0126096900000015 12.7301765299999996 5.7136900600000002 Na
atom 19.0101303100000010 13.2279574899999997 5.7982952299999999 Cl
atom 15.2333886300000003 17.4862857600000012 7.0447648899999997 Na
atom 17.7442217500000012 16.0478474599999998 8.2592434800000003 Cl
atom 18.8590114799999995 13.1389094699999998 8.1150274899999992 Na
atom 16.0035675799999986 12.7391231800000000 8.6615912999999995 Cl
atom 18.1025110299999987 15.9009701700000008 5.2650171700000001 Na
atom 15.6446903499999994 15.0714557100000004 5.5913229800000002 Cl
atom 15.7327303599999997 19.3351773599999994 5.0466799499999997 Na
atom 18.0537922699999989 18.9699602799999987 5.7471815199999998 Cl
atom 15.8611430599999998 21.6003839299999996 8.4817552900000006 Na
atom 18.5996274200000009 21.5058322199999985 8.2542187600000005 Cl
atom 18.2908171199999998 18.5156256100000007 8.3151887999999996 Na
atom 15.6037702700000001 18.9944622500000015 9.0477068099999993 Cl
atom 18.6189263400000016 21.6131099599999992 5.6713403299999996 Na
atom 15.8427633300000004 21.8134746899999996 5.7106566900000004 Cl
atom 16.0561089899999985 24.5632444099999994 5.8444637899999998 Na
atom 19.0225529800000004 24.5773524499999994 5.7650403499999996 Cl
atom 16.0668141999999996 27.2676450999999993 8.5948380300000000 Na
atom 18.9415752899999994 27.0493263199999987 8.6346331099999993 Cl
atom 18.7437841399999989 24.3103849899999993 8.4423329000000003 Na
atom 16.0735072999999993 24.3441457200000002 8.4530463999999998 Cl
atom 18.9989281599999984 27.1438591600000017 5.7846332299999998 Na
atom 16.0708872400000011 27.2714025500000012 5.8386468200000001 Cl
atom 16.1660628799999984 29.9128858199999996 6.1139733300000003 Na
atom 19.0621220700000009 29.8869019800000011 5.9269869899999996 Cl
atom 16.0729389100000013 32.7576136400000024 8.6617543599999998 Na
atom 19.0085189200000002 32.6392362699999978 8.7300791899999997 Cl
atom 19.0324147400000001 29.8278867100000014 8.5511027300000002 Na
atom 16.0652922499999988 29.9368090699999989 8.8400772500000002 Cl
atom 18.8598943100000014 32.7921755899999994 5.9152718699999998 Na
atom 16.1111053800000015 32.4496138200000033 5.9572672400000002 Cl
atom 15.9448860200000002 35.4695395500000004 6.0031214500000001 Na
atom 18.8593874300000017 35.4623159900000005 6.0030930400000004 Cl
atom 15.9319042799999995 38.5152592000000027 8.4343263400000001 Na
atom 18.8000566999999990 38.4699446300000005 8.5904361199999997 Cl
atom 18.7624792499999984 35.6478343499999966 8.6780389099999997 Na
atom 15.8624157199999996 35.4639653400000014 8.7056645300000000 Cl
atom 18.8628537499999993 38.4314101300000033 5.9759242900000000 Na