#===============================================================================
# Created using the Atomic Simulation Environment (ASE)

# Tue Dec 23 21:42:31 2025

#=======================================================
lattice_vector 28.1999999999999993 0.0000000000000000 0.0000000000000000 
lattice_vector 0.0000000000000000 39.4799999999999969 0.0000000000000000 
lattice_vector 0.0000000000000000 0.0000000000000000 62.3296083400000001 
atom 7.5137135500000003 14.8341139500000008 -0.3100880400000000 Au
atom 10.3149265799999998 14.8001419399999996 0.0229429800000000 Au
atom 13.3256825400000007 14.7500292399999999 -0.1334836600000000 Au
atom 16.1341471600000013 14.7930964199999995 -0.2850621800000000 Au
atom 18.9370292800000009 14.7789199500000006 -0.2447735200000000 Au
atom 21.7292160699999997 14.7216690600000000 -0.2245459600000000 Au
atom 24.5767763099999996 14.7648859899999998 -0.1379010500000000 Au
atom 27.3897121699999992 14.8595265100000002 -0.2667976100000000 Au
atom 1.9583603000000001 14.8347780000000000 -0.5809721300000000 Au
atom 4.6756562199999996 14.8771601300000000 -0.3665699200000000 Au
atom 8.9194214699999996 17.2681807700000007 -0.2010422900000000 Au
atom 11.7236232499999993 17.2910671499999999 -0.2903498500000000 Au
atom 14.6329045799999999 17.2363053099999988 -0.3409302900000000 Au
atom 17.4959659099999989 17.2306161200000005 -0.5965748400000001 Au
atom 20.2040596900000011 17.1751493300000000 -0.2724898200000000 Au
atom 23.1467735800000014 17.1446846700000002 -0.0947100000000000 Au
atom 25.9819018700000015 17.3011004799999988 -0.2140751800000000 Au
atom 0.5447119499999999 17.4261671500000013 -0.2951571100000000 Au
atom 3.3681773499999998 17.4004259099999992 -0.4495224800000000 Au
atom 6.1205344500000001 17.2713811899999996 -0.1385853600000000 Au
atom 7.5129631400000001 19.7129338599999997 0.1263994800000000 Au
atom 10.2169760200000006 19.7005247099999998 -0.2980172800000000 Au
atom 13.1446930700000006 19.7007029299999985 -0.2185256900000000 Au
atom 15.9980205099999999 19.7457738399999982 -0.1599921700000000 Au
atom 18.7667558399999983 19.7202500699999987 -0.2420115000000000 Au
atom 21.6396783399999997 19.7118360099999990 0.0061181800000000 Au
atom 24.4062367500000015 19.7074188499999998 0.4516953000000000 Au
atom 27.2789635399999995 19.8768752000000006 -0.1304134000000000 Au
atom 1.9873516400000000 19.9046154199999989 0.0015752800000000 Au
atom 4.6756199100000000 19.8662789900000014 -0.2360458800000000 Au
atom 8.9371255999999999 22.1330916900000005 0.1619243700000000 Au
atom 11.7638320499999995 22.3090974300000013 -0.2941318700000000 Au
atom 14.5876334700000001 22.1962166600000010 0.0493705300000000 Au
atom 17.3728931300000013 22.3046161500000011 -0.0812369900000000 Au
atom 20.1822250300000015 22.0593897900000009 0.0874989700000000 Au
atom 23.0342866000000015 22.1953886400000009 0.1261206800000000 Au
atom 25.7716516899999988 22.2235107099999993 0.2411948900000000 Au
atom 0.4218627200000000 22.2799632900000013 -0.0625741200000000 Au
atom 3.3104592600000000 22.3265063200000000 -0.1852207300000000 Au
atom 6.1586799900000004 22.1365038100000007 -0.0276480600000000 Au
atom 7.6140263299999997 24.5925770200000002 0.0395256500000000 Au
atom 10.4454018899999994 24.7600417600000000 0.2371123100000000 Au
atom 13.1680111400000008 24.6953155299999985 0.3934876200000000 Au
atom 15.9396407799999995 24.6971474899999990 0.2633920300000000 Au
atom 18.7673551100000005 24.7267606399999984 0.0649095200000000 Au
atom 21.5280591399999999 24.5921436900000003 0.0077018400000000 Au
atom 24.3744608199999995 24.6472571900000013 -0.0184651300000000 Au
atom 27.1668461599999986 24.6580422800000001 0.0631843100000000 Au
atom 1.8540326199999999 24.6690623500000008 -0.0916280300000000 Au
atom 4.8470529899999999 24.6944774699999989 -0.0924312800000000 Au
atom 8.9307156100000000 27.1594442200000010 -0.0893763900000000 Au
atom 11.9010255899999997 27.1648503199999993 0.1575657200000000 Au
atom 14.5510975200000008 27.2259359299999986 0.2238906800000000 Au
atom 17.4775880599999986 27.2161701100000002 0.2648826500000000 Au
atom 20.2614922799999988 27.1540969700000012 0.0220470600000000 Au
atom 22.9562874999999984 27.0421967999999993 -0.0861434400000000 Au
atom 25.8194593700000006 27.2329500600000003 0.1839700600000000 Au
atom 0.4526446200000000 27.0489654299999991 0.2101376200000000 Au
atom 3.2991006700000001 27.0790022999999991 0.1987464800000000 Au
atom 6.1342656199999999 27.1812709999999988 -0.1942435500000000 Au
atom 7.6115260400000002 29.6998509300000002 -0.1398750000000000 Au
atom 10.3332169100000009 29.5806075600000007 0.0585721000000000 Au
atom 13.1296967999999996 29.6175324999999994 0.0513995700000000 Au
atom 15.9099762800000004 29.6849978700000001 -0.1834054500000000 Au
atom 18.7724366499999995 29.6337008699999984 -0.0605304800000000 Au
atom 21.6172909100000012 29.6661518999999991 -0.2289134700000000 Au
atom 24.3945739699999997 29.5420537299999992 -0.2298033100000000 Au
atom 27.2646721599999999 29.6543922900000005 -0.1263840200000000 Au
atom 1.8685389299999999 29.5111788200000014 0.0672977100000000 Au
atom 4.6312012100000004 29.6421441299999984 -0.0977910800000000 Au
atom 9.0239666199999995 32.1520632800000001 -0.1130892600000000 Au
atom 11.7636906400000001 32.1055454500000010 0.2547117200000000 Au
atom 14.5730311399999994 32.1573343000000023 0.0637402600000000 Au
atom 17.4276749899999999 32.0971219199999993 -0.0665378700000000 Au
atom 20.2736259499999996 32.1870508299999969 0.0264664100000000 Au
atom 23.0632553700000003 32.0313307300000005 -0.1286026500000000 Au
atom 25.9180580700000007 32.0651955399999977 -0.2103480900000000 Au
atom 0.5453355800000000 32.0484743399999985 -0.0763981200000000 Au
atom 3.2781712100000000 32.1644059600000034 -0.0489552500000000 Au
atom 6.0928113000000002 32.1533894499999988 -0.1079459200000000 Au
atom 7.3631552300000003 34.6591754700000010 0.1627841400000000 Au
atom 10.2947150100000009 34.4859179199999986 0.3238876300000000 Au
atom 13.1044649100000008 34.6672756800000030 0.0930990900000000 Au
atom 16.0513656900000008 34.5761838700000013 -0.1353819000000000 Au
atom 18.8591865699999985 34.6499443000000014 -0.0179444500000000 Au
atom 21.7391467399999989 34.6014374499999988 0.1013949900000000 Au
atom 24.4843713700000016 34.5933421699999997 0.0171288600000000 Au
atom 27.3358454500000008 34.5106289200000020 0.1233202400000000 Au
atom 1.9214573200000000 34.5456083899999982 0.2202916900000000 Au
atom 4.6701098400000003 34.6455623700000004 -0.1375222000000000 Au
atom 8.9069069899999995 36.9750832200000019 0.2098507200000000 Au
atom 11.7637660200000003 37.0502340099999969 0.1210221200000000 Au
atom 14.5934875000000002 37.0319050100000027 0.0142131500000000 Au
atom 17.4046659599999991 37.0094071099999979 -0.1372697700000000 Au
atom 20.2681501100000006 37.0532796399999995 -0.0741866700000000 Au
atom 23.2265596700000003 37.0258407500000004 0.2062111500000000 Au
atom 26.0201827299999984 37.0165247099999988 0.2730128500000000 Au
atom 0.5406914400000000 36.9771959400000014 0.2943702700000000 Au
atom 3.3136402199999999 37.0531209099999970 0.1998272000000000 Au
atom 6.0301530899999998 37.0534241599999987 0.0398309100000000 Au
atom 7.5452304600000000 0.0828903500000000 0.3748058100000000 Au
atom 10.2686466999999997 0.0136566600000000 0.1571389100000000 Au
atom 13.0930087700000009 -0.0142568100000000 0.1347223700000000 Au
atom 15.9148615400000004 -0.0074424600000000 0.1003954300000000 Au
atom 18.7086494799999983 -0.0146791600000000 0.0627599600000000 Au
atom 21.6263517599999986 -0.0154234300000000 0.0193357200000000 Au
atom 24.5033995000000004 -0.0980731600000000 0.1979784200000000 Au
atom 27.3128548199999983 -0.0286546900000000 0.1999011300000000 Au
atom 1.9483216400000001 0.0411572200000000 0.4165226900000000 Au
atom 4.7469513599999997 0.0182106400000000 0.4613844100000000 Au
atom 8.8949176399999992 2.5561389399999999 0.2608717400000000 Au
atom 11.7498559700000005 2.4588392200000002 0.1818585200000000 Au
atom 14.4901290700000001 2.4392932300000001 0.3326952400000000 Au
atom 17.3066774199999998 2.4251300800000002 0.3798347000000000 Au
atom 20.1909292299999983 2.4349129000000000 0.0545681800000000 Au
atom 23.0203915799999983 2.3305299000000002 0.0237176100000000 Au
atom 25.8981607400000016 2.4945480899999999 0.1764282500000000 Au
atom 0.4330210700000000 2.4237038200000001 0.1923767200000000 Au
atom 3.3291340300000001 2.6358465299999998 0.3899762200000000 Au
atom 6.0867608100000004 2.5396978600000000 0.5802544500000000 Au
atom 7.5005100000000002 4.9514514399999996 0.2580641200000000 Au
atom 10.3925870299999996 4.9625474699999996 0.3224295500000000 Au
atom 13.1326193900000003 4.8745756000000000 0.3283055200000000 Au
atom 15.9582691000000008 4.8194755100000002 0.3313267700000000 Au
atom 18.8119454399999988 4.9167833200000004 0.3180382400000000 Au
atom 21.6396623099999985 4.8848746800000002 0.1350024100000000 Au
atom 24.3405073899999991 4.8866325499999999 0.0079132600000000 Au
atom 27.1333007799999990 4.9564829300000000 0.0415432300000000 Au
atom 1.8417671099999999 5.0086648199999999 0.2000552600000000 Au
atom 4.6426409000000000 4.9756300400000004 0.2883746600000000 Au
atom 8.8764361500000000 7.3909644700000001 0.2325811400000000 Au
atom 11.7763817900000003 7.4315535099999996 0.3406425000000000 Au
atom 14.5341283099999998 7.3741172900000000 0.3186931700000000 Au
atom 17.3436388800000003 7.3657336700000000 0.1737354900000000 Au
atom 20.1466203200000002 7.3061553100000003 0.3450079900000000 Au
atom 22.9639664000000003 7.3043678999999999 0.1173620000000000 Au
atom 25.8769668999999993 7.3722602899999998 -0.0391661200000000 Au
atom 0.4710188900000000 7.4232202000000003 -0.1530198700000000 Au
atom 3.2817997999999999 7.4407611899999999 0.0288501700000000 Au
atom 6.0730273800000001 7.3673951200000003 0.2577091200000000 Au
atom 7.5344020399999998 9.8066323099999995 0.1078934000000000 Au
atom 10.3595173599999999 9.8549856899999995 0.4351029900000000 Au
atom 13.0835524400000001 9.9254914400000001 0.3128112700000000 Au
atom 15.9569895899999992 9.8454085599999992 0.1258976400000000 Au
atom 18.7263491500000008 9.7895068900000002 0.0804065600000000 Au
atom 21.6296090200000002 9.8035203800000001 0.1115916500000000 Au
atom 24.3993424200000000 9.8014684400000007 -0.2431172300000000 Au
atom 27.2245184900000012 9.8864649500000006 -0.0418205300000000 Au
atom 1.8650510899999999 9.9723607399999992 -0.4511090200000000 Au
atom 4.7110219700000000 9.8419242899999997 -0.1564308600000000 Au
atom 8.9322095000000008 12.3542193600000001 -0.1678166900000000 Au
atom 11.7637607000000006 12.3011586099999999 -0.1667245200000000 Au
atom 14.6089926600000002 12.3074979700000000 -0.1709096500000000 Au
atom 17.4470916199999984 12.2369155700000007 -0.3308530900000000 Au
atom 20.2751050600000013 12.1651585600000001 -0.0939397400000000 Au
atom 23.1582477900000008 12.2657970699999996 -0.1717342100000000 Au
atom 25.9388267799999994 12.3649971500000007 -0.3033981000000000 Au
atom 0.4771912000000000 12.3888681500000004 -0.3772608100000000 Au
atom 3.3488807899999999 12.3229404700000007 -0.2895285300000000 Au
atom 6.1964963199999996 12.3021298600000009 -0.2257779800000000 Au
atom 7.5162769400000000 13.2370519200000007 2.3304287900000000 Au
atom 10.2910101899999997 13.1503848500000000 2.4891156300000001 Au
atom 13.1126630700000000 13.2290121400000000 2.3473709700000001 Au
atom 15.9500510599999998 13.1835164000000002 2.2299584000000001 Au
atom 18.8587221000000014 13.2157629799999992 2.3898280000000001 Au
atom 21.7056712500000017 13.1227404100000005 2.3294832500000000 Au
atom 24.4216227100000012 13.2179643500000008 2.4533627099999999 Au
atom 27.2925089900000017 13.1777635899999996 2.2301047800000000 Au
atom 1.9516910000000001 13.2106086000000005 2.0761204100000001 Au
atom 4.7043387100000000 13.2498217700000005 2.3514342099999999 Au
atom 8.9614031999999995 15.7373080999999999 2.4871934699999998 Au
atom 11.7697097500000005 15.6023268000000002 2.4778499300000001 Au
atom 14.6509576100000007 15.7195761500000000 2.3175548099999999 Au
atom 17.4747440400000009 15.6974525000000007 2.2439868999999999 Au
atom 20.3011737200000013 15.6352831499999994 2.4180574899999998 Au
atom 23.0438775599999985 15.6220359999999996 2.5548890499999999 Au
atom 25.8684849099999994 15.6683356499999995 2.3538130300000000 Au
atom 0.4917621600000000 15.6777400399999998 2.1769478300000000 Au
atom 3.3489544400000000 15.7496131199999994 2.0175842899999998 Au
atom 6.2037008199999999 15.6695873300000006 2.4350631800000002 Au
atom 7.5660303899999999 18.1712681700000012 2.6308763100000001 Au
atom 10.4413262899999992 18.1252714799999985 2.3517710900000002 Au
atom 13.1958280000000006 18.0748900100000007 2.2917517699999999 Au
atom 16.0538181800000004 18.1352665299999991 2.1902756600000002 Au
atom 18.8603479800000002 18.1454125600000005 2.2404671399999998 Au
atom 21.6972887599999993 18.0556665599999988 2.4331553900000000 Au
atom 24.5125139400000016 18.0304105800000016 2.8409439500000002 Au
atom 27.2552639799999987 18.1089796900000017 2.3558722400000001 Au
atom 1.9312931799999999 18.0883983700000002 2.3611269899999998 Au
atom 4.7507435200000003 18.1639136900000011 2.4031476800000000 Au
atom 9.0681196800000006 20.5235759400000006 2.7430029000000000 Au
atom 11.7333467099999993 20.6914805500000014 2.2282642400000001 Au
atom 14.5050038800000003 20.5384246499999996 2.4940923000000002 Au
atom 17.3527882799999986 20.5843258300000009 2.4247571699999999 Au
atom 20.1945321699999987 20.5028120700000009 2.7019516399999999 Au
atom 22.9104920599999993 20.5723829299999998 2.8654513599999998 Au
atom 25.8657448000000016 20.5496292800000013 2.9199961800000001 Au
atom 0.4789650700000000 20.6380664399999993 2.5663479100000002 Au
atom 3.3247474100000001 20.5425335500000017 2.3990743999999999 Au
atom 6.1405157600000004 20.6065602699999992 2.5745123500000000 Au
atom 7.5703030699999996 22.9977736700000008 2.5463733999999998 Au
atom 10.3248595000000005 23.2016395099999997 2.5695587400000002 Au
atom 13.1036137200000002 23.0843172999999986 2.6348945499999998 Au
atom 15.9784495100000008 23.0175600500000002 2.5627206199999999 Au
atom 18.7679472499999989 23.1191579000000011 2.4230407700000001 Au
atom 21.6224556600000000 23.0840998000000006 2.7200172100000000 Au
atom 24.4165617799999985 23.0911429599999991 2.7048114100000000 Au
atom 27.2724972399999999 23.1131089400000000 2.7093081899999998 Au
atom 1.8945497400000000 23.0026896399999998 2.4963646900000001 Au
atom 4.7380759399999999 23.0309561599999988 2.5978709599999998 Au
atom 8.9057659200000003 25.6521605599999987 2.6346262199999999 Au
atom 11.7218303600000002 25.5779627299999994 2.9844412400000002 Au
atom 14.7192449100000005 25.4803512199999993 2.8850137400000002 Au
atom 17.4757518199999993 25.4767149699999997 2.8053021400000002 Au
atom 20.1374700500000010 25.5959455899999995 2.6898963100000000 Au
atom 22.9675592100000010 25.5403246599999996 2.5470526100000002 Au
atom 25.8505557999999986 25.5651835699999985 2.6049103800000002 Au
atom 0.5749438400000000 25.4887553699999998 2.8355031899999998 Au
atom 3.3931171500000001 25.4976423099999998 2.5155324999999999 Au
atom 6.1462719600000000 25.6588534300000006 2.5671575799999999 Au
atom 7.5582361400000000 28.0555751399999984 2.5230089300000000 Au
atom 10.3038848900000009 28.0345700700000009 2.5538781600000000 Au
atom 13.1592439900000002 27.9870321799999999 2.8508623599999998 Au
atom 15.9950867500000005 28.0345894199999996 2.6177084399999999 Au
atom 18.8100643699999992 28.0364253599999991 2.8736055800000000 Au
atom 21.5416606900000005 28.0202519700000003 2.5513367599999999 Au
atom 24.3721469100000014 27.8659409099999991 2.6569700799999998 Au
atom 27.3490372800000010 27.9722567099999999 2.6573696700000000 Au
atom 1.9439914899999999 28.0518692700000010 2.7774867300000001 Au
atom 4.7271820399999998 28.0498991400000008 2.4592544599999999 Au
atom 8.8983827200000007 30.5495681200000000 2.4581922000000000 Au
atom 11.7784161199999993 30.4499190400000010 2.6309582100000002 Au
atom 14.6064298400000006 30.4870828699999983 2.7062042000000002 Au
atom 17.3576237800000008 30.4315214099999984 2.4250427700000001 Au
atom 20.1585039100000003 30.4181516199999997 2.4171250799999999 Au
atom 22.9932845700000001 30.3840134900000010 2.3798187999999998 Au
atom 25.8470422000000006 30.3656788800000008 2.3776411700000000 Au
atom 0.4899643700000000 30.4392387800000002 2.7655862400000002 Au
atom 3.2295936900000002 30.5371775099999994 2.5271501600000001 Au
atom 6.0345161000000003 30.5551688400000003 2.4271934399999999 Au
atom 7.5249104700000000 32.9619964500000009 2.5095110200000001 Au
atom 10.3639599400000009 32.9261952199999968 2.8725741800000000 Au
atom 13.1748483200000006 32.9734509800000026 2.7933382700000000 Au
atom 16.0158549599999986 32.8916892700000005 2.6323364900000001 Au
atom 18.7944181199999996 32.8637808000000007 2.5413567100000001 Au
atom 21.6312819000000012 32.8970413300000004 2.6733683500000001 Au
atom 24.4230256300000015 32.8675202900000016 2.3537180000000002 Au
atom 27.2524871399999995 32.8259627799999976 2.5704369400000000 Au
atom 1.8700989800000001 32.9502972299999968 2.5973629800000002 Au
atom 4.6170450399999998 32.9535615500000034 2.5622928699999998 Au
atom 8.9110849900000009 35.4223345099999989 2.8064554400000001 Au
atom 11.7258046599999997 35.4762044200000020 2.8121341100000001 Au
atom 14.5794652399999993 35.3689479800000015 2.5949525000000002 Au
atom 17.3963085299999989 35.2864235300000004 2.5433261300000001 Au
atom 20.2126881000000012 35.3219368299999985 2.6989768800000000 Au
atom 23.0808855400000006 35.3733255100000008 2.8439248300000002 Au
atom 25.8560493600000001 35.3165444799999975 2.7019001100000000 Au
atom 0.3675359500000000 35.3947203399999992 2.8394852300000002 Au
atom 3.2453219600000001 35.4067925299999970 2.8040990300000002 Au
atom 6.0191229899999996 35.4317653000000021 2.7588723700000002 Au
atom 7.5503643299999998 37.8609979499999980 2.6307470999999998 Au
atom 10.3629019699999994 37.9497461699999974 2.7033040200000000 Au
atom 13.1466193300000000 37.8334955500000021 2.7400232400000002 Au
atom 15.9741546799999998 37.7273997300000019 2.5893204399999998 Au
atom 18.8115299600000014 37.7267694700000007 2.4141263500000001 Au
atom 21.6221631300000006 37.8665474700000004 2.6598106499999998 Au
atom 24.4352184500000007 37.8976899500000002 2.8599000800000001 Au
atom 27.2782972400000006 37.8403864300000023 2.9559745899999998 Au
atom 1.9687382200000001 37.9150106299999976 2.8815786600000002 Au
atom 4.6547778700000002 37.8489803900000013 2.8137631800000000 Au
atom 8.9652033200000005 0.8843527900000000 2.8869889899999999 Au
atom 11.8407418300000007 0.8551181400000000 2.7501469400000000 Au
atom 14.6637481100000002 0.7479882500000000 2.7255053999999999 Au
atom 17.4666211300000001 0.6452677200000000 2.9662948999999998 Au
atom 20.2470511000000002 0.8281469500000000 2.6254573200000002 Au
atom 23.0111246099999995 0.9304210000000001 2.7893413699999998 Au
atom 25.8637583100000015 0.8470769900000000 2.7321816399999999 Au
atom 0.5592890000000000 0.9479933400000000 2.8886665699999998 Au
atom 3.2982691200000001 0.9246840700000000 3.0094571200000000 Au
atom 6.0868538499999998 0.8832417700000000 3.0979910400000001 Au
atom 7.5709454100000002 3.4060926000000000 2.9742469699999998 Au
atom 10.3669504700000008 3.2861088100000000 2.8323409499999999 Au
atom 13.1386705900000003 3.3185328799999998 2.9664208799999998 Au
atom 15.9652033299999996 3.2573644000000002 3.1011949900000002 Au
atom 18.7115916599999998 3.2220383899999998 2.7334681700000001 Au
atom 21.5910030800000001 3.3453296199999998 2.7163312899999998 Au
atom 24.3489654699999996 3.3635004500000001 2.6817948999999999 Au
atom 27.2304566500000007 3.3416342000000001 2.7141910500000002 Au
atom 1.9036124800000001 3.3877384400000001 2.8161692399999998 Au
atom 4.6701366899999996 3.4367323200000000 3.0899915800000000 Au
atom 8.8986959700000003 5.8614305299999998 2.8687194400000000 Au
atom 11.6685974199999993 5.7670677000000001 3.0412754299999998 Au
atom 14.5044253500000000 5.7678721499999996 2.8874191100000002 Au
atom 17.3299169000000006 5.7652653200000001 2.9208221100000000 Au
atom 20.1804466399999995 5.7159627899999998 2.8671000499999999 Au
atom 22.9331007500000013 5.8597293300000004 2.6973766499999998 Au
atom 25.7307878499999987 5.8625242999999996 2.6615186999999998 Au
atom 0.3911603500000000 5.8173135399999998 2.6864277599999999 Au
atom 3.1966032300000000 5.9164917199999998 2.7916220300000001 Au
atom 6.0179410999999998 5.8899628599999998 2.9825047100000002 Au
atom 7.4678422800000002 8.3340369600000006 2.7778584600000000 Au
atom 10.3277369799999992 8.3509684400000008 2.9897868500000002 Au
atom 13.1842767300000006 8.3045908399999995 3.0214110900000000 Au
atom 15.9251121900000001 8.2344911500000002 2.7512983000000002 Au
atom 18.7464742199999996 8.2386129500000003 2.7267396100000001 Au
atom 21.5984995499999997 8.3052151100000007 2.8116712200000000 Au
atom 24.4377846500000011 8.3448637199999993 2.4524872499999999 Au
atom 27.1951812199999985 8.3604506000000001 2.4979287299999999 Au
atom 1.7966423400000000 8.3589229300000003 2.5935972399999998 Au
atom 4.6617436799999998 8.3950606600000004 2.7180507299999999 Au
atom 8.8380784600000002 10.7437271299999999 2.7021084200000001 Au
atom 11.7552200899999999 10.8261936700000003 2.9012727699999998 Au
atom 14.5302703900000001 10.7420565700000008 2.6203637500000001 Au
atom 17.3917533400000011 10.8130201699999997 2.6029872900000002 Au
atom 20.2806058200000017 10.7065570599999997 2.5773202400000002 Au
atom 23.1205568799999988 10.7829008500000008 2.5808664399999999 Au
atom 25.8538421400000011 10.8360239899999993 2.3458761400000001 Au
atom 0.5218147200000000 10.7543978100000004 2.4002967700000002 Au
atom 3.3314995700000001 10.7739037500000006 2.3268596700000002 Au
atom 6.0764634900000001 10.8894031899999995 2.4804575899999999 Au
atom 7.5096010599999996 12.9685549400000006 5.7130142800000003 Cl
atom 7.2676494399999996 15.9375636099999998 8.5984610000000004 Cl
atom 7.4409016499999998 13.2328797599999994 8.4984650700000000 Na
atom 7.3178026699999998 15.7146978300000004 5.8285267599999999 Na
atom 7.2380730499999997 18.6640556099999984 5.6452819400000003 Cl
atom 7.2141327200000003 21.5138118100000000 8.3368213699999991 Cl
atom 7.3986942600000001 18.7502617200000010 8.3266456400000006 Na
atom 7.4744169899999999 21.4438242199999998 5.6826756400000003 Na
atom 7.1593078999999999 24.3582994200000016 5.6053702400000001 Cl
atom 7.2484224199999998 27.1227954800000006 8.3065377500000004 Cl
atom 7.1921897599999998 24.1754630800000001 8.2648832900000002 Na
atom 7.2283768500000001 27.2233337800000008 5.6815069500000002 Na
atom 7.0864265199999998 30.1059860099999987 5.4699308799999997 Cl
atom 7.3417753499999998 32.7813724700000009 8.7359115700000007 Cl
atom 7.2248029999999996 30.0228913800000008 8.2962904900000005 Na
atom 7.3657657399999996 32.9719603899999996 5.8815923100000003 Na
atom 7.2224325000000000 35.6375423100000006 5.9010180500000002 Cl
atom 7.3373195700000000 38.3055835799999969 8.8338001300000002 Cl
atom 7.2123256199999997 35.6134943699999980 8.5716423600000002 Na
atom 7.2735171200000002 38.4601900199999989 6.0474169900000003 Na
atom 7.2402389500000002 1.8165888200000000 5.9955281999999999 Cl
atom 7.3467552300000003 4.6299212199999999 8.8362970300000008 Cl
atom 7.3110866799999998 1.8690004300000000 8.5484814100000008 Na
atom 7.3671011000000002 4.5985591899999996 5.9860519800000001 Na
atom 7.5524680200000001 7.4124255400000001 5.9656198399999996 Cl
atom 7.4001309700000002 10.4352294699999995 8.6944870800000000 Cl
atom 7.4243877800000000 7.5077548199999997 8.5379806200000008 Na
atom 7.3771772699999998 10.2316415999999997 6.1112336500000000 Na
atom 10.1352254199999994 13.0179357899999992 5.5679018500000002 Na
atom 13.0437594699999995 13.0892556899999999 5.7844177900000000 Cl
atom 10.2169502600000008 15.9392982300000003 8.2844493499999992 Na
atom 12.9143209300000006 15.7750621399999993 8.6374714200000007 Cl
atom 12.9336622899999991 12.9556316799999998 8.6866263499999992 Na
atom 10.1970586599999997 13.1971282999999993 8.5276561799999993 Cl
atom 13.0080052100000003 15.8049666000000002 5.9585193099999998 Na
atom 10.0530793400000000 15.9530357600000006 5.6118439300000000 Cl
atom 10.1896446300000001 18.8291922300000003 5.6872503900000000 Na
atom 12.8554262000000001 18.5776113000000009 5.7665486399999999 Cl
atom 10.0943123000000003 21.4518455000000010 8.3719473400000002 Na
atom 13.1423615199999997 21.5093583700000011 8.4968618599999992 Cl
atom 12.9071717800000005 18.7562013500000013 8.4991893600000008 Na
atom 10.0852818099999997 18.8788823599999986 8.5104743900000006 Cl
atom 12.9842673899999994 21.5537154999999991 5.8193523799999998 Na
atom 10.2558735500000004 21.5384359200000013 5.6318441500000000 Cl
atom 10.1869001299999997 24.3679472100000005 5.6924738100000001 Na
atom 13.0642123699999999 24.2517070799999992 5.8051150700000003 Cl
atom 10.0575289899999998 26.9966299899999989 8.2850117000000001 Na
atom 12.8201232399999991 27.1079706000000016 8.5690390000000001 Cl
atom 12.8230730600000005 24.2570201499999989 8.4733374500000007 Na
atom 10.0420937800000001 24.2449961400000014 8.5399082199999992 Cl
atom 12.8851882300000007 27.1679651200000016 5.8765498300000001 Na
atom 10.0509254800000001 27.3448487200000017 5.5177335599999999 Cl
atom 9.9203863600000002 30.0431826999999991 5.5967116299999997 Na
atom 12.9695086300000000 30.1949694599999994 5.5743800600000002 Cl
atom 10.1711402700000004 32.7940855800000008 8.3285240599999995 Na
atom 12.9543544900000001 32.8805606100000034 8.5755220800000007 Cl
atom 12.8039491600000002 30.0595818900000005 8.2322918600000001 Na
atom 10.0370572599999992 30.0810674599999999 8.4571620700000008 Cl
atom 12.8153642399999992 33.0693564099999975 5.7389703299999999 Na
atom 10.0536163199999997 32.9550844799999965 5.6913383299999998 Cl
atom 9.9484825400000005 35.6752104600000024 5.9073263200000001 Na
atom 12.8839273199999997 35.7987070300000028 5.7947528999999998 Cl
atom 10.1078200999999996 38.4492460499999993 8.7074517900000004 Na
atom 13.1475509800000001 38.4316073500000002 8.7214602100000000 Cl
atom 12.9559902999999998 35.6656211099999965 8.3517911799999993 Na
atom 10.1395772799999992 35.6552699699999991 8.7318789300000006 Cl
atom 12.7311530200000007 38.5590278199999972 5.9419275999999996 Na
atom 10.0008963000000008 38.4813353199999995 5.9769597000000001 Cl
atom 10.3096922099999997 1.9020763100000000 5.9386429999999999 Na
atom 12.9634842900000002 1.9352978999999999 6.1427469300000004 Cl
atom 10.2340162499999998 4.6208194100000002 8.6981379800000003 Na
atom 13.0782400299999999 4.7317792399999998 8.8605101299999998 Cl
atom 13.0478146499999994 1.9956652200000000 8.7599030899999999 Na
atom 9.9797217800000002 1.9175114799999999 8.7877855999999994 Cl
atom 13.0237679100000001 4.7431713999999996 6.0608991699999999 Na
atom 10.1839303399999999 4.6892055700000004 5.9761508900000004 Cl
atom 10.2834012900000005 7.4570676699999998 6.0132040199999999 Na
atom 13.0306926500000007 7.5064187400000000 6.0342179500000004 Cl
atom 10.1646099099999994 10.2408978499999996 8.5025490200000000 Na
atom 12.9203185900000008 10.3971305399999991 8.7877139000000000 Cl
atom 12.9294071000000006 7.6176712899999997 8.6995672600000002 Na
atom 10.1899066800000000 7.4760961200000002 8.8658455000000007 Cl
atom 12.9777599699999993 10.2812365299999993 6.0445477099999998 Na
atom 10.1507037600000007 10.2615594399999992 5.9113057800000002 Cl
atom 15.7828205300000004 12.9615754899999995 5.6186951699999996 Na
atom 18.6239577899999986 13.0392679699999992 5.4674192000000001 Cl
atom 15.8102550700000002 15.8152088200000005 8.2175558599999992 Na
atom 18.6732738000000005 15.7526811700000007 8.2216691100000006 Cl
atom 18.6451844999999992 12.9364967300000000 8.2055576200000004 Na
atom 15.9166916100000009 12.9938122600000003 8.4756772500000004 Cl
atom 18.5722325899999987 16.0315854599999987 5.5288347199999999 Na
atom 15.6483170099999995 15.9765095000000006 5.4927652900000004 Cl
atom 15.5754991700000005 18.7107394999999990 5.8419130299999997 Na
atom 18.3379359199999996 18.8404990499999982 5.4749454999999996 Cl
atom 15.9285181100000006 21.4861357200000000 8.1710347399999996 Na
atom 18.6410256099999998 21.5864498699999992 8.4429394500000008 Cl
atom 18.6314194300000011 18.7419516699999988 8.3412273799999994 Na
atom 15.8042970199999999 18.6828361399999991 8.4723076899999992 Cl
atom 18.7410250000000005 21.5893892200000010 5.7119336499999998 Na
atom 15.7904691699999997 21.5447810000000004 5.5737684200000004 Cl
atom 15.7897808699999995 24.3780801499999988 5.9263447999999999 Na
atom 18.3573175999999982 24.2285220099999989 5.7896844200000004 Cl
atom 15.7732465299999998 27.1776288699999995 8.6273915199999998 Na
atom 18.5175207999999998 27.1485028300000018 8.3966306399999997 Cl
atom 18.6771552300000003 24.3846763300000013 8.3862100900000005 Na
atom 15.7483650599999994 24.1702227100000009 8.6034366200000001 Cl
atom 18.2805440899999994 27.1747794399999982 5.7329369300000002 Na
atom 15.4934893500000008 27.2362918000000001 5.8995667799999998 Cl
atom 15.8465967100000000 30.1377628000000009 5.7605920700000004 Na
atom 18.4656367000000010 30.0349916000000015 5.6565988000000003 Cl
atom 15.5943883900000007 32.8578496399999977 8.2529173300000007 Na
atom 18.3647678700000014 32.7572630599999997 8.3201488900000005 Cl
atom 18.5716644100000003 30.0777176600000011 8.2343418400000008 Na
atom 15.5865673600000001 30.1244609300000015 8.5271167899999991 Cl
atom 18.5355845499999994 33.0377172099999967 5.6831779700000000 Na
atom 15.7057696000000000 32.9327067600000021 5.6123962000000001 Cl
atom 15.6410105200000000 35.8093778300000025 5.8189089599999999 Na
atom 18.3633718600000009 35.7648118700000026 5.6329491100000002 Cl
atom 15.8696683699999994 38.5076667299999968 8.5564385000000005 Na
atom 18.4834259000000003 38.5122134300000027 8.7097005299999992 Cl
atom 18.4648283999999983 35.6134909600000000 8.3588229199999997 Na
atom 15.7426136400000001 35.6272064200000003 8.7435924200000006 Cl
atom 18.6179975700000000 38.6129201099999975 5.9532421600000003 Na