#===============================================================================
# Created using the Atomic Simulation Environment (ASE)

# Tue Dec 23 21:42:09 2025

#=======================================================
lattice_vector 28.1999999999999993 0.0000000000000000 0.0000000000000000 
lattice_vector 0.0000000000000000 39.4799999999999969 0.0000000000000000 
lattice_vector 0.0000000000000000 0.0000000000000000 62.3296083400000001 
atom 7.4547881900000004 14.8775524899999994 -0.0126379600000000 Au
atom 10.2831239599999993 14.7343129699999995 0.0717139800000000 Au
atom 13.1101843200000001 14.8006354899999995 0.1099685800000000 Au
atom 15.8948026400000000 14.7650827600000003 0.1221945600000000 Au
atom 18.7486599600000012 14.7830093599999994 0.0423408600000000 Au
atom 21.4915930499999988 14.8640081800000008 -0.0702153100000000 Au
atom 24.4247868100000005 14.9220839099999996 -0.1604681700000000 Au
atom 27.1612059700000010 14.6774827800000001 0.1289745400000000 Au
atom 1.8085692400000000 14.6961862500000002 0.1151102000000000 Au
atom 4.6274503500000002 14.7645084299999994 -0.1724994600000000 Au
atom 8.9181709799999993 17.2160849999999996 -0.1872503900000000 Au
atom 11.7642752999999995 17.3436238799999991 0.0988229400000000 Au
atom 14.5622128699999998 17.2331198699999995 0.2163212100000000 Au
atom 17.2635492100000008 17.2933325599999996 0.0929004700000000 Au
atom 20.2110644199999996 17.3787802499999984 -0.0680334700000000 Au
atom 22.9838544999999996 17.4687806399999985 -0.1991580600000000 Au
atom 25.7935974399999992 17.2662306299999990 0.2729862800000000 Au
atom 0.3765282000000000 17.2715084599999997 0.2006821800000000 Au
atom 3.2131480600000000 17.2741060600000012 -0.0833166300000000 Au
atom 6.0693200100000002 17.2911550399999996 0.0714857400000000 Au
atom 7.5265701900000002 19.6748696400000007 0.0548276900000000 Au
atom 10.3402233799999994 19.7239204900000011 -0.0696490900000000 Au
atom 13.1428574200000003 19.6969191099999996 0.1706801500000000 Au
atom 15.9800903900000009 19.8313109999999995 0.2162060400000000 Au
atom 18.6786791600000015 19.7724395000000008 -0.0889890000000000 Au
atom 21.5539741000000014 19.9039941899999988 0.0268262000000000 Au
atom 24.3971963199999990 19.8905766200000009 0.2370877000000000 Au
atom 27.2466827100000017 19.8023815499999998 0.1971423300000000 Au
atom 1.8617627200000000 19.6506029600000005 0.2090015700000000 Au
atom 4.6512314300000002 19.7174282699999992 -0.0324497800000000 Au
atom 8.8716998500000006 22.2081963800000004 -0.1146576100000000 Au
atom 11.7861676600000003 22.2223896799999991 -0.0697244600000000 Au
atom 14.5447391199999991 22.2013946000000004 -0.0294815900000000 Au
atom 17.3470686399999998 22.2039623500000012 -0.2343897200000000 Au
atom 20.1032014699999984 22.2910083199999995 0.2212940400000000 Au
atom 22.9939033200000011 22.2564828699999993 0.4001121400000000 Au
atom 25.7943797699999990 22.2565700500000005 0.3983631700000000 Au
atom 0.6114730700000000 22.3391277300000013 0.3088579200000000 Au
atom 3.3058571799999998 22.2024735000000000 0.1004554400000000 Au
atom 6.0325456300000004 22.1378534500000015 -0.1909255700000000 Au
atom 7.4519560299999998 24.6700352999999986 -0.2784328300000000 Au
atom 10.3167515299999994 24.6859922400000009 -0.2359465800000000 Au
atom 13.1202137499999996 24.7012901099999986 -0.0808056000000000 Au
atom 15.9239808099999998 24.7835669500000009 0.0467632900000000 Au
atom 18.7086031499999983 24.6964008600000007 0.4879949600000000 Au
atom 21.6238465899999994 24.7154510700000003 0.2742429700000000 Au
atom 24.4909142499999994 24.6635349200000000 0.3581183300000000 Au
atom 27.3134434800000001 24.6595211200000008 0.0704232100000000 Au
atom 1.9153838200000000 24.7807358899999990 0.1746253700000000 Au
atom 4.7690572700000002 24.6655987299999993 0.1829481300000000 Au
atom 8.8539535600000008 27.1107950399999993 -0.1014414000000000 Au
atom 11.7800413400000004 27.1045304599999994 -0.3772660800000000 Au
atom 14.6441996600000000 27.2948706600000008 -0.4094745200000000 Au
atom 17.4219160700000018 27.1094049699999999 -0.2561562800000000 Au
atom 20.1848750800000012 27.0207520800000012 -0.0813447300000000 Au
atom 23.0018845499999998 27.1701538099999986 0.1120892400000000 Au
atom 25.8892599700000012 27.1755110699999989 0.3818233700000000 Au
atom 0.4442485400000000 27.1188100799999994 0.0851910600000000 Au
atom 3.2583990599999999 27.2057625799999983 0.0306477700000000 Au
atom 6.0116321800000003 27.2426264099999997 0.0306003100000000 Au
atom 7.4730627700000003 29.6149987800000005 -0.0170921100000000 Au
atom 10.2731286599999994 29.5693784599999994 -0.3138887800000000 Au
atom 13.1146281400000007 29.6639305600000007 -0.3694320200000000 Au
atom 16.0403292499999992 29.7767164000000015 -0.5019040600000000 Au
atom 18.7980598599999986 29.6341390999999987 -0.1184999200000000 Au
atom 21.5436770700000011 29.6680014300000003 -0.1390143300000000 Au
atom 24.2845681999999989 29.6428048900000007 -0.0997461900000000 Au
atom 27.2133640700000008 29.5309271100000004 0.0460343500000000 Au
atom 1.8510317000000001 29.5347024699999992 0.0039752200000000 Au
atom 4.7329957800000004 29.6855385500000004 0.1857555900000000 Au
atom 8.9312942999999994 32.0667005600000010 -0.2562019700000000 Au
atom 11.6654753099999997 32.0871665199999967 -0.0714590400000000 Au
atom 14.5042657300000002 32.1204052200000021 -0.1610681600000000 Au
atom 17.3542885499999997 32.1848213999999970 -0.2163108400000000 Au
atom 20.1270505300000018 32.1054812300000023 -0.0483323800000000 Au
atom 22.9881452999999993 32.1947431899999970 0.0585522900000000 Au
atom 25.7571139900000006 31.9642687199999997 0.0336338700000000 Au
atom 0.4392610800000000 32.0569153799999995 0.2406070100000000 Au
atom 3.2214653499999999 32.1455583500000017 -0.0285808500000000 Au
atom 6.1222333700000000 32.1161138300000033 0.0771259400000000 Au
atom 7.5188191399999997 34.5110522200000034 -0.4975599400000000 Au
atom 10.2171440600000007 34.5426172299999976 -0.0565796100000000 Au
atom 13.0291908599999999 34.6081377599999982 0.0037333300000000 Au
atom 15.8983479699999997 34.6121048400000006 -0.2548760800000000 Au
atom 18.7795417700000016 34.5869987900000027 -0.1517348800000000 Au
atom 21.6132649299999997 34.6101712500000005 -0.0899221200000000 Au
atom 24.4617018699999988 34.4943071100000012 0.0048663600000000 Au
atom 27.2331862499999993 34.3801389699999973 0.1872766000000000 Au
atom 1.9054441700000000 34.4981617199999988 -0.1502228100000000 Au
atom 4.7954053099999996 34.5960171700000032 -0.4322217600000000 Au
atom 8.9514903599999993 37.0259543800000017 -0.1993136500000000 Au
atom 11.6624963400000006 37.1577130599999990 -0.1268657600000000 Au
atom 14.4715117600000003 37.0243145900000030 -0.0225162900000000 Au
atom 17.4056724100000011 37.0409042900000003 -0.1074190300000000 Au
atom 20.2284141200000001 37.0009445099999965 0.0153924000000000 Au
atom 22.9985160600000000 37.0522567399999971 -0.1734376900000000 Au
atom 25.8071823500000015 36.8609594699999974 0.2958890600000000 Au
atom 0.4148032600000000 36.9191605999999979 -0.0038276100000000 Au
atom 3.2328926400000002 37.0549717900000033 -0.0792798300000000 Au
atom 6.0432660399999998 37.1414627300000006 -0.4633928800000000 Au
atom 7.5462939400000000 0.1624496300000000 -0.1859672400000000 Au
atom 10.3654641200000004 0.1056867600000000 -0.0057075500000000 Au
atom 13.1797837399999995 0.0389606800000000 -0.0211431000000000 Au
atom 15.8219172500000003 -0.0249596800000000 -0.1617633300000000 Au
atom 18.8747071899999987 -0.0405362600000000 0.0168875400000000 Au
atom 21.5894824599999993 -0.0428067000000000 -0.0247713200000000 Au
atom 24.4161691300000001 -0.0425266100000000 0.2030551400000000 Au
atom 27.2151558199999997 -0.2229218000000000 0.3932118000000000 Au
atom 1.8422031299999999 0.0020697600000000 -0.0790720100000000 Au
atom 4.7116590000000000 0.0423930900000000 0.1528785500000000 Au
atom 9.0502835400000006 2.5743371499999999 -0.1219858900000000 Au
atom 11.8221744100000006 2.6229842200000002 -0.2831539300000000 Au
atom 14.6216776199999998 2.5667171000000000 0.1170351600000000 Au
atom 17.4130965599999996 2.3556257999999999 0.1578387800000000 Au
atom 20.1702835399999998 2.4852208600000001 -0.0999567400000000 Au
atom 23.0108063799999982 2.4335310799999998 0.2927091200000000 Au
atom 25.8740494699999992 2.4012033900000000 0.0716058700000000 Au
atom 0.4714657300000000 2.4114904899999998 -0.0575288800000000 Au
atom 3.2684093200000000 2.5177306700000002 0.0621925000000000 Au
atom 6.0966650099999997 2.5296515799999999 -0.1264915300000000 Au
atom 7.4847885999999999 5.0130127800000004 0.0031813200000000 Au
atom 10.3252403400000006 4.9890540799999998 0.0982428900000000 Au
atom 13.2732561300000000 4.9796669800000002 -0.0023618400000000 Au
atom 16.0796518900000009 4.9053784399999998 0.2172206700000000 Au
atom 18.8482676200000014 5.0219433599999999 0.1445805800000000 Au
atom 21.6578799000000011 4.9624678199999996 0.1297073900000000 Au
atom 24.5043817799999992 4.9749293300000001 0.1124813900000000 Au
atom 27.2771144600000000 4.9844475299999997 0.1811503100000000 Au
atom 1.8500239400000000 4.9125549099999999 0.1877571500000000 Au
atom 4.6873963999999999 5.0009977399999999 0.1311666400000000 Au
atom 8.9668668300000007 7.4668741900000004 0.1978244200000000 Au
atom 11.8669924499999997 7.4572518600000004 0.1231731800000000 Au
atom 14.6490239599999992 7.4282098300000001 0.0760546400000000 Au
atom 17.3879547099999989 7.4577418599999996 -0.0970891600000000 Au
atom 20.2059515699999999 7.4532715800000000 0.1707351000000000 Au
atom 23.0613318400000011 7.5216925500000000 0.1188073400000000 Au
atom 25.7889021300000003 7.4201348200000004 -0.0355381000000000 Au
atom 0.4189513700000000 7.4097071000000003 0.1429759000000000 Au
atom 3.2399353500000001 7.4189982900000002 0.3784182600000000 Au
atom 6.2308862800000000 7.3337089799999999 0.2590240400000000 Au
atom 7.4949787700000003 9.9199112599999992 -0.0363716300000000 Au
atom 10.3096143300000005 9.8003115300000001 -0.0764679400000000 Au
atom 13.1166175000000003 9.8918072600000002 -0.1740972600000000 Au
atom 15.9927318300000003 9.8888950399999995 0.1869598200000000 Au
atom 18.8711985599999998 9.8304567699999996 0.2577968300000000 Au
atom 21.5459176499999998 9.9185773699999995 0.1270884600000000 Au
atom 24.4128198000000012 9.9556246799999997 0.0255241000000000 Au
atom 27.2067327200000015 9.8776344999999992 0.0551841900000000 Au
atom 1.8600031800000001 9.7675734799999994 0.0167547600000000 Au
atom 4.7135639100000004 9.7433581399999998 -0.1849301000000000 Au
atom 8.9826194899999994 12.3532864799999995 -0.0887811300000000 Au
atom 11.6962398899999993 12.3440855900000006 0.0799210100000000 Au
atom 14.5603715099999995 12.2684743300000001 0.1757624500000000 Au
atom 17.3765158600000014 12.3694974700000007 0.1189894800000000 Au
atom 20.1833171200000017 12.2895854500000006 0.0951462300000000 Au
atom 23.0063436099999983 12.4095680999999995 0.1111807300000000 Au
atom 25.8225025200000005 12.2985779900000001 -0.0756986800000000 Au
atom 0.4513626800000000 12.1374386399999992 -0.0255948700000000 Au
atom 3.2998241899999998 12.2792656099999995 -0.0811220400000000 Au
atom 6.1803908900000000 12.3870849100000004 0.1050823000000000 Au
atom 7.6061699400000000 13.1649656700000008 2.7191378099999999 Au
atom 10.3383607400000006 13.2587273900000007 2.7026461500000001 Au
atom 13.1611588699999995 13.1870053699999996 2.7927495000000002 Au
atom 15.9273051700000003 13.1021736099999995 2.7290134600000000 Au
atom 18.8185881799999990 13.1944838299999994 2.7262040700000001 Au
atom 21.5693145199999989 13.1486391900000008 2.7468371299999998 Au
atom 24.4676291100000007 13.2647245100000006 2.5371534400000000 Au
atom 27.3077529400000003 13.1719192599999992 2.5973005699999998 Au
atom 1.9417511800000000 13.2129656799999999 2.6992784699999999 Au
atom 4.7081885400000001 13.1633493599999998 2.4919992199999998 Au
atom 9.0025340200000006 15.7426370999999996 2.6192875999999998 Au
atom 11.8085246399999999 15.6559868800000004 2.5461147300000002 Au
atom 14.5110033999999999 15.6237862100000005 2.8270691499999998 Au
atom 17.3614053900000016 15.6448558400000000 2.8175353099999998 Au
atom 20.1681300700000001 15.5983131299999993 2.6725146400000002 Au
atom 22.9504250200000008 15.6374411000000002 2.3604822200000002 Au
atom 25.8711324900000008 15.5612626100000000 2.6814450000000001 Au
atom 0.4423221900000000 15.5680708100000000 2.8367719000000000 Au
atom 3.2473873300000000 15.6114289100000008 2.5187051399999998 Au
atom 6.1557899699999998 15.5830259200000008 2.6533145400000002 Au
atom 7.4831637700000000 18.1754164799999991 2.7536286600000000 Au
atom 10.3386599799999992 18.1714293399999995 2.5190833399999999 Au
atom 13.2033819399999999 18.1096758700000002 2.8503899800000001 Au
atom 15.9261369899999998 18.2447559199999993 2.8215088499999998 Au
atom 18.6668064200000003 18.0983085199999998 2.5427306000000001 Au
atom 21.4855172000000003 18.0822340100000005 2.6069222399999998 Au
atom 24.2919806499999993 18.0924176099999983 2.7142977400000001 Au
atom 27.1629372199999999 18.0686448700000000 2.8896108699999998 Au
atom 1.8663801700000000 18.0524024899999986 2.7695829500000002 Au
atom 4.6944481199999997 18.0837786899999990 2.4606659299999998 Au
atom 8.9404777899999992 20.6631328299999986 2.6155583000000000 Au
atom 11.6782992799999992 20.7031144400000002 2.7096497899999998 Au
atom 14.5756999999999994 20.6815035899999984 2.7140712200000001 Au
atom 17.3806877600000007 20.6779993500000003 2.6697882800000001 Au
atom 20.1648515900000014 20.5945143000000002 2.7632312600000000 Au
atom 22.9235705699999990 20.6037792400000015 3.0490840399999999 Au
atom 25.7282828799999983 20.6023278199999993 2.8980829300000002 Au
atom 0.4689124600000000 20.5467836300000002 2.8533963999999998 Au
atom 3.4108851200000001 20.5371964799999986 2.6620765300000002 Au
atom 6.1272547199999998 20.6743504700000003 2.7689625200000001 Au
atom 7.5480825200000004 23.1276621300000009 2.3664635199999999 Au
atom 10.3381611699999993 23.1199756600000015 2.5434832799999998 Au
atom 13.1783645000000007 23.1266007900000012 2.5642881000000002 Au
atom 15.9993124299999998 23.1836123299999990 2.2939265299999998 Au
atom 18.7449991900000015 23.0078914400000016 2.8706502100000000 Au
atom 21.6446666999999984 23.0903573500000014 2.8587637300000002 Au
atom 24.3461816099999986 23.0202726499999990 2.9928505699999999 Au
atom 27.2230591199999985 22.8713340800000005 2.9536608100000001 Au
atom 2.0420100200000002 22.9195860499999995 2.8808507099999998 Au
atom 4.7925214599999997 23.1123847100000006 2.6448311699999998 Au
atom 8.9681736500000007 25.4996836400000007 2.3795698100000000 Au
atom 11.7168985400000008 25.5407977099999997 2.3835265099999998 Au
atom 14.4674996500000006 25.6233831199999997 2.4793217300000001 Au
atom 17.2683648199999986 25.6717992300000013 2.9262368699999999 Au
atom 20.1056562300000010 25.5074282299999986 2.8211439700000001 Au
atom 23.0277117900000015 25.5912860000000002 2.8757683100000002 Au
atom 25.8505468500000006 25.3787783699999991 2.9436065199999999 Au
atom 0.4631392100000000 25.3331734699999984 2.7119096300000001 Au
atom 3.3750043600000001 25.5284291799999998 2.7078985900000001 Au
atom 6.2484278599999996 25.5550784899999996 2.6276583499999999 Au
atom 7.5590532000000001 28.0147848900000014 2.6176943200000000 Au
atom 10.4789671999999996 28.1837713399999998 2.5209050199999998 Au
atom 13.2321648100000004 28.0078123900000016 2.1527113700000000 Au
atom 15.9760730800000008 28.0038271099999996 2.1370365900000001 Au
atom 18.7318252799999989 28.0324197700000006 2.5857896700000000 Au
atom 21.4740383399999999 27.9439838899999984 2.5455807199999998 Au
atom 24.4150540199999995 27.9379195299999985 2.7248288100000000 Au
atom 27.2322743400000000 27.8415740700000001 2.9770211199999999 Au
atom 1.8426560299999999 27.9050531200000016 2.6991475000000000 Au
atom 4.6703105000000003 27.9077732999999988 2.7751079100000000 Au
atom 9.0437735499999992 30.5869797199999987 2.4309854000000000 Au
atom 11.8587072599999992 30.5226766699999992 2.4137435400000000 Au
atom 14.6518871599999994 30.4296596800000003 2.4145511000000002 Au
atom 17.3262803000000005 30.5073771799999989 2.5017047699999999 Au
atom 20.1459489800000000 30.4749408799999983 2.5243886199999999 Au
atom 22.9833709900000009 30.4166576199999987 2.5457531300000000 Au
atom 25.7852777599999996 30.3390082399999983 2.5604383600000000 Au
atom 0.4269068400000000 30.2616473399999997 2.5743130100000000 Au
atom 3.3343459000000002 30.3501814400000001 2.6469008299999999 Au
atom 6.1510323800000002 30.5447388300000000 2.7794046400000001 Au
atom 7.5897362299999998 33.0217224900000019 2.2878224800000000 Au
atom 10.3253875599999994 33.0487555599999965 2.6783743699999998 Au
atom 13.1463137999999997 32.9888852699999973 2.5163232500000001 Au
atom 15.9757775599999992 32.9433593500000015 2.4860534900000002 Au
atom 18.7474992500000006 32.9277002800000034 2.4673429100000002 Au
atom 21.4969644399999993 32.9730456099999998 2.5288882099999999 Au
atom 24.3665609900000000 32.8932539899999981 2.6470582600000001 Au
atom 27.1794809499999985 32.7187047099999972 2.7843467500000001 Au
atom 1.8822251000000001 32.7924158200000022 2.6988193100000002 Au
atom 4.7432492899999996 32.9284802000000028 2.5563923000000002 Au
atom 8.8801869100000008 35.4925547899999998 2.2739049800000002 Au
atom 11.7378149100000009 35.5387121500000021 2.5572871600000000 Au
atom 14.5296288499999999 35.4015956900000006 2.4945301600000001 Au
atom 17.2879397799999985 35.3600039000000024 2.3678436399999998 Au
atom 20.1977851500000014 35.3915443799999991 2.5137160000000001 Au
atom 23.0721870699999982 35.3756483200000034 2.6032625199999999 Au
atom 25.9106527100000008 35.1866187899999971 2.8664557600000000 Au
atom 0.5138388900000000 35.3450678600000003 2.5971258700000002 Au
atom 3.3284272300000000 35.2554555099999973 2.3671166900000000 Au
atom 6.0799512699999996 35.3723277100000004 2.1096314199999999 Au
atom 7.5435890099999998 37.9086708700000017 2.1466647000000001 Au
atom 10.2855466900000003 37.8315929500000010 2.5075581900000001 Au
atom 13.0834476300000002 37.9625849299999985 2.5664049699999998 Au
atom 16.0007666700000009 37.7870622599999990 2.5569787700000002 Au
atom 18.8041270699999998 37.9155768999999978 2.5747160299999998 Au
atom 21.6420245199999997 37.8282314200000016 2.6622399400000001 Au
atom 24.4669062400000001 37.7839180300000024 2.7565694199999999 Au
atom 27.3365542899999987 37.7204931599999966 2.8760737900000000 Au
atom 1.8871865100000000 37.8292025800000005 2.4956938300000000 Au
atom 4.7418855899999999 37.9204284200000004 2.5474575700000002 Au
atom 8.8934862999999993 0.8962614900000000 2.5735922200000001 Au
atom 11.7223118500000005 0.9467199200000000 2.4609076100000000 Au
atom 14.5662664900000003 0.8472866400000000 2.5406615900000000 Au
atom 17.3360235299999985 0.7336615500000000 2.6066299100000001 Au
atom 20.1977347499999986 0.9224549100000000 2.4720566499999999 Au
atom 23.0396259699999995 0.7737271400000000 2.7398207100000000 Au
atom 25.8309426100000010 0.7414627200000000 2.8133506399999999 Au
atom 0.4383423200000000 0.7972728800000000 2.6251934100000001 Au
atom 3.2755236900000000 0.8086309100000000 2.4812916600000001 Au
atom 6.1678041700000001 0.9381322200000000 2.7089761100000000 Au
atom 7.4734785199999996 3.3453813399999999 2.4321194300000002 Au
atom 10.2032966599999995 3.3885580599999998 2.6248589999999998 Au
atom 13.0426964200000004 3.2464368399999999 2.7411902700000002 Au
atom 15.9951612799999996 3.3361882999999999 2.6752440800000001 Au
atom 18.8768328300000015 3.3644182699999998 2.6021341200000001 Au
atom 21.6906396999999984 3.3544690300000002 2.6667738100000000 Au
atom 24.4635618900000011 3.3486738300000001 2.7847983200000002 Au
atom 27.2923229499999991 3.2660349599999998 2.6236526599999999 Au
atom 1.8902883900000000 3.3154338000000001 2.6324186300000001 Au
atom 4.6996986800000000 3.3441271499999998 2.6517385099999999 Au
atom 8.9269364899999992 5.8400184099999999 2.6461086800000002 Au
atom 11.7393365799999998 5.7165752400000001 2.7230129900000000 Au
atom 14.6137448699999997 5.7518839799999997 2.7112713300000002 Au
atom 17.3865109599999990 5.7571253799999997 2.8035692600000002 Au
atom 20.2456190999999990 5.8747680799999999 2.6918197600000000 Au
atom 23.0255549899999998 5.8346050900000002 2.6383522699999999 Au
atom 25.9232247200000003 5.7892343999999998 2.6916268699999999 Au
atom 0.4615924300000000 5.7565697199999999 2.9029433999999998 Au
atom 3.2125172599999998 5.8328665900000001 2.9483144499999998 Au
atom 6.0707740599999997 5.7771203499999997 2.8858735400000000 Au
atom 7.5765392100000000 8.2750462200000001 2.8229167199999998 Au
atom 10.3436275400000000 8.2672974200000002 2.6473800000000001 Au
atom 13.1275586299999993 8.2050758500000001 2.8706020400000001 Au
atom 15.9632742499999996 8.2062683199999995 2.7475297799999998 Au
atom 18.8051615500000011 8.2824759300000004 2.7847520100000001 Au
atom 21.6680793600000001 8.4120209700000004 2.6933872999999999 Au
atom 24.5275112600000007 8.2205694099999995 2.6336058400000000 Au
atom 27.2808698300000003 8.3330831700000001 2.7927954499999998 Au
atom 1.8457444300000001 8.2146286300000000 2.8281600600000001 Au
atom 4.8084002899999998 8.2658798400000002 2.6772882800000000 Au
atom 9.0032448299999999 10.6811030900000006 2.4901202300000000 Au
atom 11.6877915199999993 10.7863726900000003 2.5822492100000001 Au
atom 14.4858919000000004 10.5921865799999999 2.7323488199999999 Au
atom 17.3575863400000010 10.6826857799999999 2.6391710800000001 Au
atom 20.1601194799999988 10.7461760999999996 2.7450127300000000 Au
atom 23.0606021699999992 10.8341732600000000 2.5963440800000002 Au
atom 25.8976796699999987 10.7562049000000002 2.5795538499999999 Au
atom 0.5852058100000000 10.7489998599999996 2.7357264300000002 Au
atom 3.3415998000000000 10.7877447699999998 2.4318433000000002 Au
atom 6.1552192200000002 10.7184925000000000 2.5794079600000002 Au
atom 7.0423229899999997 13.0184327999999994 5.8072824299999999 Cl
atom 7.3427474600000000 15.8378439600000007 8.5960275100000008 Cl
atom 7.3477103699999997 13.1382795600000009 8.4725900099999993 Na
atom 7.3653757000000004 15.8043503800000007 5.8145042299999998 Na
atom 7.2540113300000000 18.5612479700000002 5.5739695800000000 Cl
atom 7.4714615100000001 21.5322495099999998 8.5792242699999992 Cl
atom 7.5205592699999997 18.6664397800000010 8.4588740700000002 Na
atom 7.3502908900000001 21.7902607900000014 5.7630921800000001 Na
atom 7.2202671299999999 24.5945867699999994 5.7477263000000001 Cl
atom 7.4499542099999996 27.4864361499999994 8.6380209800000003 Cl
atom 7.4575555600000003 24.4782322199999989 8.4613531799999997 Na
atom 7.3152831500000000 27.2617798299999983 5.9751462999999996 Na
atom 7.4121358099999997 30.0488840199999991 5.5132506699999997 Cl
atom 7.3298473399999997 33.0709337899999980 8.4030752500000006 Cl
atom 7.4153798999999996 30.1548595900000009 8.0039322899999998 Na
atom 7.4172563299999998 32.8247423700000027 5.4123851700000003 Na
atom 7.2385849300000000 35.7074876799999998 5.4125653600000003 Cl
atom 7.2943929299999999 38.4713715700000023 8.4492174200000001 Cl
atom 7.2371456199999997 35.7488468100000034 8.0318360099999992 Na
atom 7.3318164399999999 38.7313756300000023 5.6494671299999997 Na
atom 7.3023828799999997 1.9702826400000000 5.7298687599999996 Cl
atom 7.4762728100000002 4.6672688899999999 8.6752961699999993 Cl
atom 7.2964064400000002 1.7824865500000000 8.4680938900000005 Na
atom 7.2010057300000003 4.6248560799999998 5.9563931999999999 Na
atom 7.4627099699999997 7.4155734400000002 5.7510503200000000 Cl
atom 7.3220785199999998 10.2045971400000006 8.5767773700000003 Cl
atom 7.4010548600000003 7.4940256600000001 8.4813443599999996 Na
atom 7.3433804499999997 10.2834265299999998 5.9392711399999998 Na
atom 10.2679715199999997 13.1639400299999991 6.0809179999999996 Na
atom 12.9349656000000000 12.9817225700000005 5.8468406200000000 Cl
atom 10.2250209000000005 15.8705887600000004 8.4560806500000005 Na
atom 13.2263913700000000 15.8533363000000005 8.3623476399999994 Cl
atom 13.1875871599999996 13.1120514999999997 8.4887504699999994 Na
atom 9.9967346999999993 12.8880012300000004 8.7053747000000001 Cl
atom 12.9236940600000008 15.8406611700000006 5.6470244400000000 Na
atom 10.1591309299999999 15.8673940699999996 5.7071241099999996 Cl
atom 10.0855754100000006 18.9555117399999986 5.7469734299999997 Na
atom 13.0122841800000000 18.9456127400000014 5.8115083099999998 Cl
atom 10.1945184399999995 21.6285643199999988 8.3601778600000003 Na
atom 13.0384161299999999 21.7131404799999999 8.5020810699999991 Cl
atom 13.1023697800000001 19.0086040700000005 8.3464160700000001 Na
atom 10.3476280000000003 18.6022762999999998 8.5896007300000008 Cl
atom 12.9872234199999994 21.7191220300000012 5.7654471999999997 Na
atom 10.1693201400000000 21.7452069799999990 5.7790234099999997 Cl
atom 10.0899673500000002 24.6836593499999992 5.9788937600000001 Na
atom 12.8784017599999991 24.6241621500000001 5.6613030599999998 Cl
atom 10.1485916399999994 27.4090116299999984 8.2646633099999995 Na
atom 12.8394709700000007 27.3065362299999990 8.4075592399999994 Cl
atom 12.9758316100000002 24.5611771499999989 8.3189124299999992 Na
atom 10.1325393800000008 24.4819637499999985 8.6694609499999995 Cl
atom 12.8640387000000000 27.3103883600000010 5.5310024599999998 Na
atom 10.0241486200000001 27.2866892099999987 5.6173999600000002 Cl
atom 10.1647059700000000 30.1001067700000000 5.4914699100000002 Na
atom 12.9407949799999997 30.2358790000000006 5.3988440899999999 Cl
atom 9.9992411299999997 32.7881244599999988 8.2145875299999993 Na
atom 13.0290790199999993 32.8617082299999979 8.3202299800000006 Cl
atom 13.0936188199999997 30.2786675500000015 8.1986961300000001 Na
atom 10.3084951300000007 30.1644695799999987 8.3147990499999995 Cl
atom 13.0038032999999995 32.9690771400000031 5.6974627800000004 Na
atom 10.1664347300000006 32.7193236099999964 5.4477849699999998 Cl
atom 10.1018420899999999 35.9256891699999983 5.5313638100000002 Na
atom 13.0436303500000008 35.7246593500000031 5.4282455399999998 Cl
atom 10.0576331099999994 38.4707202900000027 8.2613285699999999 Na
atom 12.8128101900000004 38.6201444300000034 8.5038177400000006 Cl
atom 13.0378294100000005 35.6743622199999990 8.0812979899999995 Na
atom 10.1684635100000005 35.6203165700000000 8.3527846500000003 Cl
atom 12.7814587500000005 38.6095606900000021 5.8404013600000004 Na
atom 10.1043079700000007 38.6754780600000032 5.4676355799999996 Cl
atom 9.9376334600000007 1.9207156299999999 5.7867609499999997 Na
atom 12.9256122599999994 1.9140334699999999 5.8729582899999997 Cl
atom 10.0372979000000004 4.6005705700000004 8.6508420400000006 Na
atom 12.9388366999999995 4.6182868900000003 8.6348889399999997 Cl
atom 12.6258779099999998 1.9187683900000001 8.5859196400000002 Na
atom 9.9653289899999997 1.7123773700000000 8.5941225299999999 Cl
atom 12.9038790599999995 4.6560850599999997 5.8359553200000001 Na
atom 10.1455510899999997 4.5809999399999999 5.9888220099999998 Cl
atom 10.0950637499999996 7.2145536200000002 5.8857264200000001 Na
atom 12.8991036799999996 7.3356858400000000 5.8773509900000001 Cl
atom 10.2151287199999992 10.2193060599999992 8.3189853599999992 Na
atom 12.9734848500000002 10.2105649500000002 8.5360622500000005 Cl
atom 12.9167177399999993 7.4858056499999996 8.5884274499999993 Na
atom 10.1252265399999999 7.5529215699999996 8.9371237299999997 Cl
atom 13.0266591999999992 10.2374227300000005 5.8404684800000002 Na
atom 10.1887460000000001 10.0073067099999999 5.7141148399999997 Cl
atom 15.8865310999999991 13.2050563200000006 5.9173878100000001 Na
atom 18.9439352300000010 12.9782686300000005 5.7638514299999999 Cl
atom 15.7321543800000008 16.0387784599999996 8.4854491500000009 Na
atom 18.7020298499999988 15.9270312700000005 8.6653120599999998 Cl
atom 18.5391414599999997 13.1976791099999993 8.4441409299999997 Na
atom 15.9722916700000006 13.2624233100000009 8.6237867900000005 Cl
atom 18.7298417099999988 15.9005194299999992 5.9774267999999999 Na
atom 16.1306223899999992 16.0618210499999989 5.7026504700000000 Cl
atom 16.0459135300000000 18.9011695899999985 5.9009592700000004 Na
atom 18.7970348700000010 18.7572872500000010 5.8748424600000000 Cl
atom 15.7711947499999994 21.8847355499999985 8.4274580700000001 Na
atom 18.6556160200000001 21.6161028500000008 8.6938891100000006 Cl
atom 18.6388727299999992 18.8667515899999998 8.4758395800000006 Na
atom 15.8992827699999992 18.8731049199999994 8.5845908899999994 Cl
atom 18.8909818499999993 21.6052995099999983 6.0188615399999996 Na
atom 15.8617415699999995 21.7051281899999999 5.7985239399999999 Cl
atom 15.9460553500000000 24.6306805699999991 5.6701873899999997 Na
atom 18.7662103400000007 24.5835781100000013 5.8832464000000000 Cl
atom 15.8834856599999998 27.4235171800000010 8.3398019399999992 Na
atom 18.7154362200000008 27.3122040800000008 8.4685728600000001 Cl
atom 18.8393163600000015 24.5808117800000012 8.3991222299999997 Na
atom 15.6530381900000002 24.5702035599999995 8.4532015499999993 Cl
atom 18.7181944700000003 27.1892125000000000 5.9178406199999998 Na
atom 15.7349548499999994 27.4203971700000011 5.8653694099999996 Cl
atom 15.9180514700000000 30.2101595200000013 5.6360528700000003 Na
atom 18.5840637000000015 30.1268394800000010 5.7252965700000003 Cl
atom 15.7943215499999994 33.0922443199999989 8.2437114000000005 Na
atom 18.7023137400000010 32.9218252499999977 8.6472216300000007 Cl
atom 18.5134254200000008 30.3270938100000009 8.4755497599999998 Na
atom 15.8316786700000005 30.1629258799999995 8.6762496799999997 Cl
atom 18.5125662400000017 33.1644950299999977 5.6950310499999999 Na
atom 15.8982426799999992 32.9922015000000002 5.6067124899999996 Cl
atom 15.8662608299999999 36.0243333600000000 5.6248116899999996 Na
atom 18.5835780200000009 35.9275691100000003 5.6998729900000003 Cl
atom 15.7158503799999991 38.7283313900000010 8.3565958400000007 Na
atom 18.6232876500000017 38.5678205099999971 8.4912404299999995 Cl
atom 18.7180186000000006 35.8417423699999986 8.2798576100000005 Na
atom 15.8172077000000009 35.8775907200000006 8.3975586100000008 Cl
atom 18.6731857099999985 38.6826194699999988 5.7758670199999997 Na