#===============================================================================
# Created using the Atomic Simulation Environment (ASE)

# Tue Dec 23 21:42:13 2025

#=======================================================
lattice_vector 28.1999999999999993 0.0000000000000000 0.0000000000000000 
lattice_vector 0.0000000000000000 39.4799999999999969 0.0000000000000000 
lattice_vector 0.0000000000000000 0.0000000000000000 62.3296083400000001 
atom 7.5580731300000004 14.7226631399999999 -0.0465101200000000 Au
atom 10.3313292499999996 14.7881616900000008 -0.0840084000000000 Au
atom 13.1339330200000006 14.8321782100000004 0.1433913800000000 Au
atom 15.9963501499999996 14.9214589499999999 -0.0386380200000000 Au
atom 18.7353115599999995 14.8887950199999999 -0.1032322300000000 Au
atom 21.6453840500000005 14.7691468900000000 -0.1987213200000000 Au
atom 24.4934501800000000 14.7598468799999996 0.0478980000000000 Au
atom 27.3287211899999996 14.8350609400000000 -0.0123717900000000 Au
atom 1.8929657900000001 14.9402521900000007 0.0092082500000000 Au
atom 4.5986468499999997 14.8177929699999993 0.0024288800000000 Au
atom 8.8590356299999993 17.2402545300000014 0.0624971700000000 Au
atom 11.6636617000000005 17.2697112200000014 -0.1309645400000000 Au
atom 14.5695361000000005 17.2846695200000013 -0.2570525500000000 Au
atom 17.4620928100000015 17.3461508100000010 -0.1839492200000000 Au
atom 20.2282322199999989 17.2697757799999998 -0.2280818900000000 Au
atom 23.0030226900000017 17.1691494300000009 0.0833808300000000 Au
atom 25.9078909700000004 17.2588871399999988 0.0503180000000000 Au
atom 0.4420904300000000 17.3919073799999993 0.3322905700000000 Au
atom 3.3469807700000000 17.2952680200000017 0.2010261800000000 Au
atom 6.0810336800000000 17.2744897699999989 -0.0332369400000000 Au
atom 7.5290244199999998 19.7988390599999988 -0.1676341300000000 Au
atom 10.3055228000000003 19.7163973400000003 -0.1260008000000000 Au
atom 13.0616247399999992 19.7210963300000017 -0.2652243800000000 Au
atom 15.9785568399999995 19.7911377399999999 -0.1795849900000000 Au
atom 18.7737591399999992 19.7241664700000001 -0.0195657100000000 Au
atom 21.6053968000000012 19.7615120100000006 0.1076026900000000 Au
atom 24.4196010900000005 19.6540756300000012 0.3898747900000000 Au
atom 27.1407513099999989 19.8121530099999994 0.5472179400000000 Au
atom 1.7965462299999999 19.8080092000000008 0.4505693700000000 Au
atom 4.6687512499999997 19.8238358499999983 0.0185070200000000 Au
atom 8.9502342899999991 22.2980182400000011 -0.2357478300000000 Au
atom 11.7136637100000005 22.2444826800000008 -0.1579454300000000 Au
atom 14.4876064899999992 22.1810396899999986 0.0684773600000000 Au
atom 17.4170930400000010 22.2102765200000007 0.0772167200000000 Au
atom 20.1924189699999985 22.3592699300000000 0.2828691200000000 Au
atom 22.9446314300000012 22.1683637500000010 0.2314291200000000 Au
atom 25.7232408399999990 22.1815445199999992 0.2831686500000000 Au
atom 0.3809284600000000 22.2403934800000016 0.1242167400000000 Au
atom 3.2172914100000001 22.1400657000000010 0.0319492700000000 Au
atom 6.0978629099999999 22.1754973399999997 -0.2996591000000000 Au
atom 7.4959683799999999 24.7334404399999990 -0.1256659700000000 Au
atom 10.3365530700000008 24.7482955500000017 -0.0488283900000000 Au
atom 13.1437609700000007 24.7269418300000012 -0.0645894700000000 Au
atom 15.8822956099999999 24.6608373900000011 -0.0703706500000000 Au
atom 18.6767097000000000 24.6915381600000003 0.0074218200000000 Au
atom 21.6137304099999987 24.7344685200000001 0.2683671800000000 Au
atom 24.4717678200000002 24.6189718800000001 0.4148960700000000 Au
atom 27.2596809100000002 24.6549491200000013 0.2516142800000000 Au
atom 1.8579339500000001 24.6520960500000008 0.1420518500000000 Au
atom 4.7004933400000004 24.5940561200000012 -0.0099794900000000 Au
atom 8.8988150200000007 27.1600951500000001 -0.1371450300000000 Au
atom 11.7154973899999995 27.2107022699999987 -0.3423198900000000 Au
atom 14.5718066700000008 27.1688061599999990 -0.3622776800000000 Au
atom 17.3404771000000011 27.1034598200000012 -0.2166408900000000 Au
atom 20.1522363400000017 27.1157963600000009 -0.0460100600000000 Au
atom 23.0478779200000012 27.0936757499999992 0.2159348500000000 Au
atom 25.8301344600000000 27.0922083100000002 0.1481504800000000 Au
atom 0.4253113000000000 27.0523041400000004 -0.0219313600000000 Au
atom 3.3641555900000002 27.0644928699999987 0.1279251200000000 Au
atom 6.1072822899999997 27.1773593499999997 -0.0510280800000000 Au
atom 7.5914575500000003 29.6575793499999989 -0.0961933200000000 Au
atom 10.3402122500000004 29.6451916299999993 0.0425746200000000 Au
atom 13.1204970000000003 29.6465937299999993 -0.4885754400000000 Au
atom 15.9664702100000007 29.6209904799999997 -0.2424969000000000 Au
atom 18.7649379299999985 29.5032999400000016 -0.4777115300000000 Au
atom 21.6494002799999983 29.5333745599999986 -0.0423547300000000 Au
atom 24.4385538400000009 29.4986093300000007 0.3198790700000000 Au
atom 27.2848167900000007 29.5380993200000006 0.0316012800000000 Au
atom 1.9549315500000000 29.5451390899999993 0.0168810800000000 Au
atom 4.6950424499999999 29.6363346000000014 -0.0054605100000000 Au
atom 8.9570135200000003 32.1802722400000007 -0.0628308900000000 Au
atom 11.8649131000000008 32.0397641200000010 -0.0834337600000000 Au
atom 14.6094913700000006 32.1622021299999972 -0.3068392400000000 Au
atom 17.4138500600000015 32.0659770199999983 -0.2119924400000000 Au
atom 20.1904768499999996 32.0339146499999998 -0.1519014500000000 Au
atom 22.9858467399999995 32.0384334600000003 0.1908915900000000 Au
atom 25.8261650200000012 31.9674228800000009 0.1440577200000000 Au
atom 0.5314486899999999 32.0277994899999996 -0.2054464000000000 Au
atom 3.3214857000000002 32.0671893299999979 -0.0725481900000000 Au
atom 6.1160743499999999 32.1740026800000010 -0.0467420500000000 Au
atom 7.5818644500000003 34.6555627199999989 -0.2908017200000000 Au
atom 10.3832080700000002 34.5543448299999980 -0.1939894000000000 Au
atom 13.1545114299999995 34.6346071500000008 -0.0495505900000000 Au
atom 16.0584400199999990 34.5855899299999976 0.0269327200000000 Au
atom 18.7872775400000016 34.4771855700000032 0.0313939300000000 Au
atom 21.6347893999999989 34.4339303900000004 0.2070093500000000 Au
atom 24.5008311499999998 34.5231687899999997 0.0966759400000000 Au
atom 27.3212691899999989 34.4881029000000012 -0.0238577800000000 Au
atom 1.9031825099999999 34.4936621900000020 -0.0760370100000000 Au
atom 4.6813428600000000 34.5343587400000018 -0.3111942700000000 Au
atom 8.8827676300000000 37.0698278300000013 -0.3256908800000000 Au
atom 11.7419816800000003 37.0749116000000001 0.0372324900000000 Au
atom 14.6098002499999993 37.0142954299999971 -0.1595983700000000 Au
atom 17.5031247800000003 37.1234466299999966 -0.0001488900000000 Au
atom 20.2413609900000004 36.8864125300000012 0.0930069500000000 Au
atom 23.0098013899999998 36.8752210199999979 -0.0316524200000000 Au
atom 25.8083303999999991 36.9896632100000033 0.0588981900000000 Au
atom 0.4567459100000000 36.9344243500000005 0.1402840300000000 Au
atom 3.3085996099999999 36.9604738999999967 0.0139507700000000 Au
atom 6.0659829600000004 37.1039709300000027 -0.3347740000000000 Au
atom 7.5926764200000001 0.0584558800000000 -0.1271910300000000 Au
atom 10.2964055600000002 0.0394834900000000 -0.0226291700000000 Au
atom 13.1277020300000000 0.0896505200000000 -0.0525857100000000 Au
atom 15.8975833400000006 0.0153021200000000 0.0259149200000000 Au
atom 18.7893829299999986 0.0235038900000000 -0.2026181200000000 Au
atom 21.5785919300000018 -0.0677791800000000 0.0055479300000000 Au
atom 24.4494057200000015 -0.0586502600000000 0.0670000800000000 Au
atom 27.3056215500000015 -0.1405358700000000 0.1344139700000000 Au
atom 1.9001618700000000 0.0355047000000000 0.1594518300000000 Au
atom 4.7694274999999999 -0.0583373000000000 -0.1208257100000000 Au
atom 8.9528258899999997 2.5357050900000000 0.0425571700000000 Au
atom 11.7298628399999991 2.5218900500000001 0.1364207200000000 Au
atom 14.6027671699999999 2.5524353899999999 0.0056667400000000 Au
atom 17.3957398000000012 2.5356528100000002 -0.1007381200000000 Au
atom 20.1986750499999985 2.5071245800000002 0.0454108100000000 Au
atom 22.9553173599999987 2.4166633399999999 -0.0413574100000000 Au
atom 25.8226496999999995 2.4650230199999998 0.0365651900000000 Au
atom 0.3928827300000000 2.4713948100000001 0.0253571500000000 Au
atom 3.3798889399999998 2.4196490599999998 0.0079850600000000 Au
atom 6.1306709599999998 2.4590074899999999 0.1565508100000000 Au
atom 7.5028149900000001 4.9421997400000004 0.1097058100000000 Au
atom 10.3113078700000003 5.0381663699999999 0.2130360600000000 Au
atom 13.0995007000000001 4.9795312100000002 0.0742294100000000 Au
atom 15.9472203199999996 5.0219078200000000 0.2524554200000000 Au
atom 18.7838856000000014 4.9714295100000001 0.1015347000000000 Au
atom 21.6849751700000013 5.0349917399999997 0.2537072100000000 Au
atom 24.4895020300000006 4.9322537500000001 -0.0238563900000000 Au
atom 27.2835862400000018 4.9357172599999997 -0.0125537100000000 Au
atom 1.8892011600000000 4.8815129099999996 0.0473218300000000 Au
atom 4.6442659199999996 4.9109310199999996 0.2424910100000000 Au
atom 9.0025247600000000 7.5052911199999999 0.1066027700000000 Au
atom 11.7983389100000000 7.4444976499999997 0.0645327100000000 Au
atom 14.5669499200000008 7.4627443600000003 0.0959856700000000 Au
atom 17.3394830199999994 7.4493093100000003 0.1932405400000000 Au
atom 20.1778520599999993 7.3725516899999999 -0.0164054200000000 Au
atom 23.0185916299999995 7.4117620799999999 0.0709219900000000 Au
atom 25.8386093099999989 7.3901263999999998 -0.0073789500000000 Au
atom 0.4251670900000000 7.3682933400000001 -0.0035510900000000 Au
atom 3.2594809699999998 7.3583228600000004 0.0870914900000000 Au
atom 6.1532790300000002 7.4577561100000000 0.2427028500000000 Au
atom 7.4339117799999999 9.8546121699999993 0.0571275900000000 Au
atom 10.4041881400000005 9.8831090199999991 0.0270750600000000 Au
atom 13.2228686599999996 9.8927313500000000 0.0738780100000000 Au
atom 15.9504312699999993 9.9468839599999992 -0.0880867800000000 Au
atom 18.7787853399999989 9.8330629500000004 0.0910023600000000 Au
atom 21.5795686300000007 9.8429843100000003 0.1304009900000000 Au
atom 24.4097718400000012 9.8089616399999997 0.0894788500000000 Au
atom 27.2313822200000004 9.8239800200000005 -0.0272106500000000 Au
atom 1.8775610199999999 9.8400861000000006 0.0254078400000000 Au
atom 4.6115951099999997 9.9189650300000007 0.2490082800000000 Au
atom 8.9234940900000002 12.3468407800000008 -0.1408781900000000 Au
atom 11.8298418000000005 12.2968439099999998 0.0127109700000000 Au
atom 14.6122475499999993 12.4189531300000002 -0.0195827100000000 Au
atom 17.4589607200000003 12.4415802299999996 0.1970654100000000 Au
atom 20.1901150499999993 12.3400562100000002 0.0744798700000000 Au
atom 22.9978477099999985 12.2989897799999994 -0.1028902800000000 Au
atom 25.8269372900000000 12.3427518400000000 0.0350290600000000 Au
atom 0.5072008900000000 12.2955840900000002 -0.1228407900000000 Au
atom 3.3028523200000000 12.3330413599999993 -0.1653112700000000 Au
atom 6.0758069800000003 12.3607385200000000 -0.1427079900000000 Au
atom 7.5273190699999999 13.1020840199999995 2.5341275900000002 Au
atom 10.2968893999999995 13.1844717199999995 2.5299197000000002 Au
atom 13.2483094500000007 13.1797495900000001 2.6314669400000001 Au
atom 16.0165853799999987 13.2984332999999992 2.6471121200000001 Au
atom 18.8519452500000000 13.3660672700000003 2.7172055700000000 Au
atom 21.7198749299999996 13.1691474599999996 2.4777393700000001 Au
atom 24.4706327399999992 13.2069673099999996 2.6549807599999999 Au
atom 27.2678450300000002 13.1450405400000001 2.5195617399999999 Au
atom 1.8736405500000000 13.1534112099999998 2.4084520899999999 Au
atom 4.6306859500000002 13.0716850099999995 2.5075284299999998 Au
atom 8.8012409500000004 15.6352978700000005 2.7045459400000000 Au
atom 11.6973048500000001 15.6253282799999997 2.6109879399999998 Au
atom 14.5131497300000003 15.7102965700000006 2.5275980599999999 Au
atom 17.4143331299999993 15.7247745400000003 2.5822125200000001 Au
atom 20.4006683299999985 15.7092550299999996 2.2885529700000000 Au
atom 23.1419972099999995 15.6279296100000007 2.4603846900000002 Au
atom 25.9151084599999990 15.6340794100000000 2.5977050799999999 Au
atom 0.5240486400000000 15.5973446199999994 2.7959200499999999 Au
atom 3.3796974700000000 15.6316196499999993 2.6613885000000002 Au
atom 6.1960006600000002 15.5631060300000001 2.6526402299999998 Au
atom 7.5559751999999998 18.1797342800000017 2.5679998899999998 Au
atom 10.2726591599999999 18.2099991099999983 2.4989911100000000 Au
atom 13.1089430399999998 18.0972333399999989 2.3566882300000001 Au
atom 15.9910348599999992 18.0124240600000007 2.4117895900000001 Au
atom 18.9442166999999984 18.0562058199999989 2.5023880100000002 Au
atom 21.7544473799999984 18.1175449700000009 2.6369711800000002 Au
atom 24.5805839100000014 18.0614031299999986 2.7587737099999998 Au
atom 27.3652289800000013 18.0635006099999984 2.8864332099999999 Au
atom 1.9098305799999999 18.1225878599999994 2.9740276300000001 Au
atom 4.7569392099999996 18.1685851599999992 2.6009478300000000 Au
atom 8.9279389899999995 20.6381297799999999 2.4286736300000000 Au
atom 11.7538956999999993 20.6258819500000001 2.4167600899999999 Au
atom 14.4870306699999993 20.4656148999999985 2.4712433300000001 Au
atom 17.3865576100000006 20.4573083099999984 2.5255060399999998 Au
atom 20.2896167100000007 20.5491493100000007 2.7595634499999999 Au
atom 23.1187459799999999 20.5487033500000003 2.8449577800000001 Au
atom 25.8880665900000011 20.6029428500000016 3.0653452500000000 Au
atom 0.4888199200000000 20.6667264499999987 2.9773360300000000 Au
atom 3.4000578300000002 20.5745431299999986 2.8505631600000001 Au
atom 6.1165439599999996 20.6477386000000003 2.5961424599999998 Au
atom 7.4689150199999998 23.1232709000000014 2.2495443000000002 Au
atom 10.3652985999999991 23.0842192299999986 2.5652717699999998 Au
atom 13.1424717599999994 23.0001463599999987 2.5003798900000000 Au
atom 15.9589153199999991 23.0405005400000000 2.4975296100000000 Au
atom 18.7077036700000008 22.9904964499999984 2.6871944700000001 Au
atom 21.6372093200000002 23.0916865700000002 3.0243038400000000 Au
atom 24.3954019200000012 23.0729401299999992 2.9999731000000001 Au
atom 27.2542838500000002 23.0941840499999991 2.7505773800000002 Au
atom 1.8682192900000001 23.0973419600000014 2.6740417700000001 Au
atom 4.6880528999999997 23.0774523500000015 2.6368197800000002 Au
atom 8.8457974000000004 25.5495134800000017 2.5837978300000000 Au
atom 11.6942468999999996 25.5972006500000013 2.4172923700000002 Au
atom 14.4407094300000001 25.5621147499999992 2.3982346099999998 Au
atom 17.3513859799999999 25.5714976299999996 2.4909796499999999 Au
atom 20.1346959500000011 25.4447514699999999 2.7192742700000001 Au
atom 22.9888146800000008 25.5872522199999999 2.8500134300000002 Au
atom 25.9116253999999984 25.5829532800000017 2.8565125700000000 Au
atom 0.5320425400000000 25.6275808599999984 2.9318115300000001 Au
atom 3.3099208000000000 25.5132082699999998 2.7386757899999998 Au
atom 6.0864092799999998 25.5340945999999995 2.4552709899999998 Au
atom 7.5441398099999999 28.0430767100000011 2.6719101300000001 Au
atom 10.2901048199999998 28.0628894299999985 2.4837415699999998 Au
atom 13.0765924600000005 28.0680535599999992 2.1376868400000002 Au
atom 15.8748151100000001 27.9985103200000012 2.4227670600000000 Au
atom 18.7507127599999990 28.0297589400000007 2.3064366500000002 Au
atom 21.5508773900000001 27.9351642399999989 2.6903054200000001 Au
atom 24.4690474500000015 27.9779535499999987 2.7569943499999998 Au
atom 27.3339318099999993 27.9977066299999997 2.6781255000000002 Au
atom 1.8583550799999999 28.0682902699999985 2.7339682800000000 Au
atom 4.6746689600000000 28.0132744199999983 2.6827124699999998 Au
atom 8.8746355599999998 30.5639102499999993 2.4897468300000001 Au
atom 11.6506457399999999 30.5276097200000009 2.5905428800000001 Au
atom 14.5308304300000000 30.4822218599999992 2.2133502400000000 Au
atom 17.3369194499999999 30.4324024999999985 2.3133656199999999 Au
atom 20.2125719900000007 30.3738786999999988 2.2787202999999998 Au
atom 22.9492139199999983 30.3233954300000015 2.6767709000000002 Au
atom 25.8288282400000000 30.4506582399999992 2.8204201900000001 Au
atom 0.4557394700000000 30.5032013500000012 2.4756178000000002 Au
atom 3.2931660900000002 30.4951165000000017 2.5686386899999998 Au
atom 6.0817072999999997 30.4993456999999992 2.5302778099999998 Au
atom 7.5192425700000003 33.0556341500000030 2.5319726800000000 Au
atom 10.3698062300000000 32.9645180199999999 2.4261353500000000 Au
atom 13.1496421899999998 32.9577140900000032 2.4197714200000000 Au
atom 15.9708339299999995 32.8905959000000010 2.4509795400000001 Au
atom 18.7480189800000012 32.8531294200000019 2.4275114699999998 Au
atom 21.5541427600000013 32.8709648999999970 2.6842538199999999 Au
atom 24.3658796200000012 32.8857624199999989 2.7584414000000002 Au
atom 27.2066774100000011 32.9564262900000031 2.6370404900000000 Au
atom 1.8589077500000000 32.8836730900000020 2.4774408800000001 Au
atom 4.6574103600000001 32.9919573900000032 2.6828924700000001 Au
atom 8.9634412200000000 35.4004299400000022 2.2202393800000002 Au
atom 11.7852320000000006 35.4603747299999981 2.7052705499999998 Au
atom 14.4961065999999992 35.3552968500000020 2.5283344500000000 Au
atom 17.3219395399999989 35.4362303300000008 2.5944002700000000 Au
atom 20.1784883000000015 35.3450613099999984 2.7387070800000002 Au
atom 22.9751030900000011 35.3598254300000008 2.7044364200000000 Au
atom 25.9442632899999985 35.3683732900000010 2.6476149800000002 Au
atom 0.4421225800000000 35.3157319299999983 2.7101617099999999 Au
atom 3.2374184200000000 35.3542486400000016 2.5577835699999998 Au
atom 6.0244974999999998 35.4821380799999986 2.1298009200000001 Au
atom 7.4884085699999998 37.8339309099999994 2.3036463000000000 Au
atom 10.3304487799999993 37.7505844399999972 2.5457071400000002 Au
atom 13.1948340200000001 37.8890554199999983 2.5573163700000001 Au
atom 15.9365483999999995 37.7983299599999967 2.6139378600000001 Au
atom 18.7971778200000017 37.8804289400000016 2.6161411299999999 Au
atom 21.5936866499999987 37.7792288500000026 2.7113797000000002 Au
atom 24.3251798500000014 37.7350436899999977 2.8235955300000000 Au
atom 27.1538139700000016 37.8841387900000015 2.8298808499999999 Au
atom 1.9163452400000001 37.7749391299999999 2.7385022900000000 Au
atom 4.7662671200000002 37.8143160500000022 2.4985659500000001 Au
atom 8.9620546500000007 0.7813831200000000 2.5917694299999998 Au
atom 11.7813767200000008 0.8313817800000000 2.7130968400000000 Au
atom 14.5497743300000000 0.8740951300000001 2.7235429199999999 Au
atom 17.4615740700000011 0.9087801700000000 2.3954606699999998 Au
atom 20.2351461300000004 0.7818849600000000 2.6192763000000001 Au
atom 23.0015358600000006 0.7042201700000000 2.6903002800000002 Au
atom 25.6916993299999987 0.8577675400000000 2.5611740500000000 Au
atom 0.3898980600000000 0.7417671600000000 2.6864792099999999 Au
atom 3.2446159500000000 0.7581025000000000 2.7564701800000000 Au
atom 6.1198740300000001 0.7945001600000000 2.5341621399999998 Au
atom 7.5251622500000002 3.2334898399999998 2.7887753100000001 Au
atom 10.3598025600000003 3.3523130100000000 2.6845777100000001 Au
atom 13.1810842499999996 3.3793446299999998 2.7611620399999999 Au
atom 16.0160085800000012 3.3971692199999999 2.8008428500000000 Au
atom 18.7748763200000006 3.2986793200000002 2.7085910000000002 Au
atom 21.6532721200000005 3.1958106200000000 2.5616056500000002 Au
atom 24.3997275000000009 3.3306910699999999 2.6641030500000000 Au
atom 27.1360450499999999 3.2286155700000001 2.6798210400000002 Au
atom 1.8272956800000000 3.2493425600000001 2.6858912899999998 Au
atom 4.6673863100000004 3.1942890700000000 2.7524582199999998 Au
atom 8.9458229500000002 5.8281051000000001 2.7340447399999999 Au
atom 11.8046819599999999 5.8352936199999998 2.7734071600000001 Au
atom 14.5409280699999997 5.9083427600000000 2.8827178099999999 Au
atom 17.4208889099999986 5.8451333800000000 2.7869117999999999 Au
atom 20.1710783099999986 5.7169811199999998 2.7482637300000001 Au
atom 22.9151654600000008 5.7551479900000002 2.7362388800000002 Au
atom 25.7791108800000011 5.7826997699999998 2.6706097400000002 Au
atom 0.3634726700000000 5.5938610700000000 2.6783534699999998 Au
atom 3.2055201400000000 5.7792275300000000 2.7036306600000000 Au
atom 6.0104667999999997 5.6960102399999997 2.8103095900000001 Au
atom 7.4986110200000002 8.1438930999999997 2.7621645699999999 Au
atom 10.4635569200000003 8.2513500200000003 2.6069362800000002 Au
atom 13.1756977000000006 8.3553239500000007 2.7429676100000000 Au
atom 16.0036982700000010 8.4247523100000006 2.7375685299999999 Au
atom 18.8355047700000000 8.2977029800000004 2.8050254600000000 Au
atom 21.6183427299999984 8.1814160099999995 2.7310789199999999 Au
atom 24.4874488799999988 8.2074417700000009 2.6193019899999999 Au
atom 27.2192558700000014 8.3260730899999995 2.5583345600000000 Au
atom 1.7691046600000000 8.2209745999999999 2.8278483900000002 Au
atom 4.5878567600000002 8.1681484799999993 2.8386609400000000 Au
atom 8.9388419100000007 10.5759054399999997 2.5872825900000000 Au
atom 11.7520641099999992 10.8288674100000009 2.7866062999999999 Au
atom 14.6903704200000007 10.8104200800000001 2.6222969900000002 Au
atom 17.4292650900000012 10.8718100300000007 2.6834923499999999 Au
atom 20.2380775399999990 10.7292276399999995 2.7635102300000001 Au
atom 23.0455910599999996 10.7392123799999997 2.5880149200000000 Au
atom 25.8324299300000000 10.6955190200000008 2.6755497500000001 Au
atom 0.4339087200000000 10.7162561800000002 2.6675781000000001 Au
atom 3.2327157700000000 10.6770542299999995 2.7833633899999999 Au
atom 6.1315259299999996 10.6473305499999995 2.5945033999999998 Au
atom 7.2551374600000003 13.3067511900000000 5.6893878600000001 Cl
atom 7.3630144700000004 16.0969533799999986 8.5207771900000004 Cl
atom 7.5739916000000003 13.2772442500000007 8.4157963799999997 Na
atom 7.4065465599999998 15.9660617200000008 5.8481285099999996 Na
atom 7.4961518800000002 18.7512013499999988 5.6267303499999999 Cl
atom 7.2864548200000003 21.8283270800000011 8.2504976800000005 Cl
atom 7.4719559899999997 18.9666212099999996 8.2779380400000004 Na
atom 7.1998572799999998 21.7277383800000017 5.5532906999999998 Na
atom 7.2763188999999997 24.4114718300000000 5.7663051599999999 Cl
atom 7.2697890200000002 27.2988957499999998 8.5240107500000004 Cl
atom 7.3199856099999998 24.7352588000000004 8.3551514299999994 Na
atom 7.4863958799999999 27.2549056400000005 5.7895209599999999 Na
atom 7.4513394999999996 30.1298640800000008 5.6898836599999996 Cl
atom 7.5463740899999996 32.7598161499999989 8.7280388799999997 Cl
atom 7.3351416800000004 30.0573602899999983 8.1978278600000003 Na
atom 7.4374143200000002 32.8907845700000010 5.7870252700000000 Na
atom 7.4653765600000002 35.6089491999999979 5.6656355100000004 Cl
atom 7.4385545400000002 38.6079222400000006 8.6594074299999999 Cl
atom 7.4348341700000002 35.6017932800000025 8.4290990000000008 Na
atom 7.3976506100000003 38.5208730399999979 5.8163612000000002 Na
atom 7.4961476300000003 1.8304105500000001 5.7484295200000002 Cl
atom 7.4475204300000000 4.6562884400000000 8.5090782500000000 Cl
atom 7.4412500200000000 1.9279638100000001 8.4031611300000009 Na
atom 7.4449632899999996 4.7102762800000004 5.7574900400000004 Na
atom 7.5790139400000003 7.6605532299999997 5.7217293199999997 Cl
atom 7.3306865600000002 10.4752284600000003 8.6313718599999998 Cl
atom 7.4286172199999996 7.4619414099999997 8.3753392899999994 Na
atom 7.4562322400000003 10.4138154499999995 5.7260216499999999 Na
atom 10.2807067399999994 13.3385819600000008 6.0516098400000002 Na
atom 13.1314929700000000 13.3051020900000001 5.9708994200000003 Cl
atom 10.2490269900000008 16.0622371999999984 8.8871919300000002 Na
atom 13.0046958099999994 16.2598967700000010 8.5249648400000009 Cl
atom 13.0167932200000003 13.3498935000000003 8.6911249500000007 Na
atom 10.1175547100000003 13.2390996100000002 8.9215208399999995 Cl
atom 13.0078795800000009 16.3077874099999995 5.7138810700000002 Na
atom 10.2463734899999999 16.0431146499999997 5.8188667000000001 Cl
atom 10.2406784399999999 18.8930922099999989 5.6354383900000000 Na
atom 13.0898283600000003 18.9469756899999986 5.6223161499999996 Cl
atom 10.1039608199999993 21.8332414200000002 8.0810583699999992 Na
atom 13.0503237599999995 21.7701764799999999 8.4585624300000006 Cl
atom 12.9050630900000005 19.2663322299999997 8.2597782599999992 Na
atom 10.2772105899999993 18.9594895699999988 8.4979524000000008 Cl
atom 13.0496585199999995 21.7658827499999994 5.5461033700000000 Na
atom 10.3379915600000007 21.6736287400000016 5.4868015500000000 Cl
atom 10.2312064800000009 24.5635565299999996 5.7879216299999996 Na
atom 12.9722337400000001 24.5682180499999987 5.4709157900000003 Cl
atom 10.1238086200000001 27.4276054599999988 8.2286251400000001 Na
atom 12.9309366099999998 27.3991210999999986 8.3692989099999995 Cl
atom 12.7875187500000003 24.6082347500000012 8.1756147699999993 Na
atom 10.1993166800000008 24.6941528000000012 8.3835635199999992 Cl
atom 13.1710038100000002 27.3815680400000012 5.5432714399999998 Na
atom 10.2233627699999996 27.3530587300000008 5.6415257499999996 Cl
atom 10.2691143999999994 29.9796752300000016 5.7292679700000004 Na
atom 13.0222119000000003 30.0784947900000006 5.7139428900000002 Cl
atom 10.3321751200000005 32.8698514800000012 8.3874430800000006 Na
atom 12.9895195599999997 33.0792721500000013 8.5709628000000002 Cl
atom 13.0724886599999994 30.2202798399999999 8.2954715599999993 Na
atom 10.2614688800000007 30.2246865100000015 8.4554599400000008 Cl
atom 13.1437206399999997 32.8999908999999988 5.7170715699999999 Na
atom 10.2492438000000003 32.9357813100000030 5.6072516400000003 Cl
atom 10.3184404000000001 35.6924343199999967 5.8085971399999998 Na
atom 13.2027216299999992 35.7188598199999987 5.4915797099999999 Cl
atom 10.1528288000000000 38.5384300999999994 8.3156491999999993 Na
atom 13.1366538899999998 38.4677080499999988 8.3585229999999999 Cl
atom 13.0603089699999995 35.7638331899999997 8.2625576699999996 Na
atom 10.1825463400000000 35.6784333399999980 8.6780282700000004 Cl
atom 13.0819382700000002 38.7096705100000023 5.6050310899999998 Na
atom 10.1745541900000003 38.4939526200000017 5.6409080300000003 Cl
atom 10.3579130399999997 1.9584809700000001 5.8607979700000001 Na
atom 12.9811907899999994 1.9186566100000000 5.7010791699999999 Cl
atom 10.2818463799999993 4.7233894500000000 8.5472340800000008 Na
atom 13.1595623899999996 4.8744707099999998 8.5972773799999995 Cl
atom 13.1060569099999995 1.8517035700000000 8.4718825700000000 Na
atom 10.3724586500000004 1.8468909800000000 8.4710652300000007 Cl
atom 13.0033669900000000 4.9159078100000002 5.7781946299999998 Na
atom 10.1907297200000002 4.9466312500000003 5.9222061300000002 Cl
atom 10.2640816699999995 7.6512118700000000 6.0391215200000001 Na
atom 12.9766452900000004 7.8925604099999997 5.8641879399999999 Cl
atom 10.2516370800000001 10.4356287099999996 8.7377647199999995 Na
atom 12.9613370200000002 10.4909133400000005 8.8640104300000004 Cl
atom 13.1316746999999996 7.7084002500000004 8.5424482600000005 Na
atom 10.2946996700000000 7.5577536099999998 8.8916092100000004 Cl
atom 12.9804084000000000 10.5319720300000004 6.2234161900000000 Na
atom 10.3033287799999993 10.6366688899999993 6.0006646400000001 Cl
atom 15.7902125200000008 13.2541718799999995 6.0879969400000000 Na
atom 18.5552563900000003 13.2486860199999992 6.0135383999999998 Cl
atom 15.6988784199999998 16.1280487000000008 8.4574569299999993 Na
atom 18.6835162299999986 16.0056131499999985 8.7023875299999993 Cl
atom 18.5892893999999984 13.1414726900000005 8.6225916799999993 Na
atom 15.8765239800000000 13.2211723299999999 8.9200865700000005 Cl
atom 18.4483383699999983 16.1188336899999989 5.8012952200000001 Na
atom 15.7987569099999998 15.9893418000000000 5.6740474399999998 Cl
atom 15.8641650399999996 18.9915470400000004 5.6828822800000003 Na
atom 18.5045066100000000 18.9733847599999983 5.9305092100000003 Cl
atom 15.8359850600000005 21.6753497499999987 8.4341920800000008 Na
atom 18.6484372399999998 21.7088853600000000 8.7589307299999994 Cl
atom 18.6677550200000013 18.8041270900000015 8.4978043000000003 Na
atom 15.7735563499999998 18.8003127700000014 8.5810869600000004 Cl
atom 18.6665152799999987 21.6596516000000001 6.0324343200000001 Na
atom 15.8344738799999991 21.6646531600000003 5.7140531100000000 Cl
atom 15.8708131800000007 24.5560153499999991 5.7545459799999996 Na
atom 18.6316787200000000 24.5207891199999999 5.9602004199999996 Cl
atom 15.7393100700000002 27.3216674600000005 8.2033254000000007 Na
atom 18.6834589999999992 27.2273165699999993 8.5813346399999997 Cl
atom 18.5929779900000014 24.5190622699999992 8.7979108099999994 Na
atom 15.6806315099999996 24.6552605400000004 8.4530928500000009 Cl
atom 18.6799430300000004 27.2013584399999999 5.8235331600000002 Na
atom 15.9717846699999999 27.1256101899999997 5.5046156399999999 Cl
atom 15.9578072100000004 30.0573170999999988 5.6130903999999999 Na
atom 18.6562587600000001 29.9259744300000001 5.6840007799999999 Cl
atom 15.7849542399999994 33.0025209799999999 8.3647258999999998 Na
atom 18.6323231100000015 32.9024745899999971 8.6223523199999992 Cl
atom 18.5631172500000012 30.0983359099999994 8.3869092199999997 Na
atom 15.7216334599999996 30.2085970099999983 8.5094446599999998 Cl
atom 18.6816889500000016 33.0372449400000008 5.7661818199999999 Na
atom 15.9562676799999998 32.8001338700000034 5.7490969900000000 Cl
atom 15.9395157899999997 35.8400664999999989 5.8918434299999998 Na
atom 18.6710856000000014 35.6811074599999998 5.8400829999999999 Cl
atom 15.9178407300000000 38.6668870900000030 8.3244390100000007 Na
atom 18.7644307999999995 38.5285917200000014 8.5078018100000001 Cl
atom 18.6158941200000001 35.5573010399999987 8.5491382199999997 Na
atom 15.9315157299999992 35.8456359899999981 8.6590413099999992 Cl
atom 18.6872038799999984 38.5953817400000005 5.8507690099999996 Na