#===============================================================================
# Created using the Atomic Simulation Environment (ASE)

# Tue Dec 23 21:42:01 2025

#=======================================================
lattice_vector 28.1999999999999993 0.0000000000000000 0.0000000000000000 
lattice_vector 0.0000000000000000 39.4799999999999969 0.0000000000000000 
lattice_vector 0.0000000000000000 0.0000000000000000 62.3296083400000001 
atom 7.4616516300000004 14.8249854800000005 -0.0599672200000000 Au
atom 10.2854465699999995 14.8755785100000004 0.0537266800000000 Au
atom 13.2414369700000005 14.7753792300000004 0.1605008200000000 Au
atom 15.8933661700000002 14.9240166399999996 -0.4591571900000000 Au
atom 18.7094237700000008 14.7726140200000007 -0.2642860700000000 Au
atom 21.5874165699999985 14.6663812999999994 0.0858471000000000 Au
atom 24.3756067300000012 14.6823827100000006 -0.6458402700000000 Au
atom 27.1759756599999989 14.7050215699999995 -0.5447743200000000 Au
atom 1.8447157700000001 14.7846456300000000 -0.6758036100000000 Au
atom 4.6738300600000002 14.7964930799999994 -0.1035388300000000 Au
atom 8.9150708200000004 17.2456532200000012 0.2593003300000000 Au
atom 11.7603928700000004 17.2466805799999996 0.0845113700000000 Au
atom 14.4820109800000001 17.3490740999999993 -0.3038070900000000 Au
atom 17.4372137299999999 17.2834863299999988 -0.4628826600000000 Au
atom 20.1926478799999991 17.1343648699999989 0.1763675100000000 Au
atom 23.2954769800000001 17.1876598399999985 0.0349803200000000 Au
atom 25.9144402900000017 17.2553513299999999 -1.0291671200000001 Au
atom 0.4626107700000000 17.2305093499999984 -0.5057892000000000 Au
atom 3.2504569299999999 17.2113459999999989 -0.2306877200000000 Au
atom 6.0700710700000000 17.2171821700000010 -0.1109666800000000 Au
atom 7.5099652399999997 19.7390178300000017 0.1502338700000000 Au
atom 10.3278643399999996 19.7086769400000001 0.0932734000000000 Au
atom 13.1655425600000004 19.7764687700000010 -0.0852130900000000 Au
atom 15.9694275000000001 19.7846040400000014 -0.4738832000000000 Au
atom 18.8023452599999992 19.7318418700000002 -0.0064505300000000 Au
atom 21.7110870200000008 19.5274253999999985 -0.0153296600000000 Au
atom 24.5513541800000006 19.6693502299999992 0.2152784200000000 Au
atom 27.3028639800000015 19.8208776899999997 -0.6862209700000000 Au
atom 1.9095780499999999 19.7486272999999990 -0.1591311100000000 Au
atom 4.6452589599999996 19.6761542300000016 0.0241840100000000 Au
atom 8.9020968099999997 22.1933853899999995 -0.0356980100000000 Au
atom 11.7585205399999992 22.2576886599999995 0.1904335200000000 Au
atom 14.5958360599999999 22.2716416499999994 -0.1560780100000000 Au
atom 17.2706100400000011 22.3304867599999994 -0.0114951700000000 Au
atom 20.1861892500000017 22.1675449399999991 -0.0443851100000000 Au
atom 23.0046964000000003 22.0618506500000002 0.3080174100000000 Au
atom 25.9063141200000011 22.0731606400000011 0.2673839400000000 Au
atom 0.3856666200000000 22.2514789200000003 -0.2339827200000000 Au
atom 3.3022305099999998 22.2479149700000001 -0.0147950500000000 Au
atom 6.0296506299999999 22.1793572999999995 0.1539648300000000 Au
atom 7.5037781700000004 24.7366987800000011 0.1864813700000000 Au
atom 10.3423500500000003 24.7091508600000012 0.3221200000000000 Au
atom 13.1139521699999992 24.6695606400000003 0.2879911800000000 Au
atom 15.9704820900000009 24.7106853999999991 0.1374897500000000 Au
atom 18.7652939200000013 24.7217843799999990 0.3360288000000000 Au
atom 21.6394529400000017 24.6051006100000009 0.3096122300000000 Au
atom 24.4189109900000005 24.5200080100000015 0.2881023700000000 Au
atom 27.2398470400000008 24.7063479999999984 0.1784529700000000 Au
atom 1.9446416399999999 24.7370655299999989 -0.0477655400000000 Au
atom 4.8009453000000004 24.7335111199999993 0.0206044200000000 Au
atom 8.9093000100000008 27.1564002900000006 0.3391151900000000 Au
atom 11.7078588799999999 27.1671871699999983 0.2411923300000000 Au
atom 14.5268576300000003 27.1073037300000017 -0.0513147100000000 Au
atom 17.4181115300000009 27.1678628000000018 -0.0261419400000000 Au
atom 20.3469774000000001 27.0142306599999991 0.1733623200000000 Au
atom 23.1548933400000010 27.1293162899999984 0.0855627300000000 Au
atom 25.8832628900000010 27.1805226299999987 0.1173615300000000 Au
atom 0.4552535600000000 27.0610318300000010 0.0449387900000000 Au
atom 3.2475575999999999 27.1464218899999992 -0.0414921000000000 Au
atom 6.1328913800000002 27.2704261899999985 0.2190377100000000 Au
atom 7.5683890099999998 29.6663930100000002 -0.3606850400000000 Au
atom 10.3148679300000001 29.6171788999999990 -0.1946948200000000 Au
atom 13.1648885700000005 29.5849420499999987 -0.0773778200000000 Au
atom 15.9526866100000007 29.6000109199999990 -0.0629382700000000 Au
atom 18.8415907900000015 29.6359170799999987 -0.0896532300000000 Au
atom 21.6821545100000002 29.6071414500000003 0.2997164000000000 Au
atom 24.5004987700000001 29.6418954100000001 0.2070963800000000 Au
atom 27.2946871100000017 29.5516551400000012 0.1587873700000000 Au
atom 1.8536946400000001 29.5626810000000013 -0.0266333300000000 Au
atom 4.6894200799999997 29.5913446700000016 -0.2719522400000000 Au
atom 8.9207351100000007 32.0758391600000010 -0.3009724400000000 Au
atom 11.6861748399999996 32.1394623500000023 -0.1259283900000000 Au
atom 14.5383808200000004 32.0572075700000028 0.1201796300000000 Au
atom 17.3510687099999998 32.1647825900000015 0.0281925300000000 Au
atom 20.2590043500000014 32.0980029500000015 0.0869270500000000 Au
atom 23.0689371399999992 32.1309687400000001 -0.0939986200000000 Au
atom 25.9210645100000008 32.1002453999999986 0.0330237100000000 Au
atom 0.4641321000000000 32.1007338599999983 -0.1650937000000000 Au
atom 3.3279605499999998 32.0941452300000023 -0.1349042500000000 Au
atom 6.0790638200000000 32.0799476299999995 -0.4233982400000000 Au
atom 7.5569711300000000 34.5285923499999967 -0.3123064200000000 Au
atom 10.3747142900000000 34.6225499700000015 -0.1191480000000000 Au
atom 13.2008115999999998 34.5662186599999970 -0.0014120100000000 Au
atom 15.9693613899999995 34.5331027699999993 0.2035242600000000 Au
atom 18.8511022600000011 34.5529291100000009 -0.0889955800000000 Au
atom 21.7269982800000001 34.5819387100000029 0.1294893800000000 Au
atom 24.4118108300000003 34.6793712899999989 -0.0302854900000000 Au
atom 27.2615858200000005 34.5712694500000026 -0.1201193500000000 Au
atom 1.8927318500000001 34.5958162100000024 -0.2570479200000000 Au
atom 4.6788676000000002 34.5668413100000009 -0.1700200300000000 Au
atom 8.9817356400000001 37.0720159199999983 -0.1214336100000000 Au
atom 11.7443752700000008 37.0895929599999974 -0.0482897200000000 Au
atom 14.5667062299999994 36.9805381299999993 0.0489929600000000 Au
atom 17.3642508999999983 36.9755610599999969 0.0004373100000000 Au
atom 20.1757470099999985 37.0011328200000023 -0.1088316100000000 Au
atom 23.0597365299999986 37.0216714199999970 0.1208388200000000 Au
atom 25.8819759000000005 36.9777484399999992 0.0253003300000000 Au
atom 0.3926617800000000 37.0283704799999995 -0.0397566200000000 Au
atom 3.2185541199999999 36.9950711099999978 0.2041249500000000 Au
atom 6.0551929099999997 37.0714864700000035 -0.0454227000000000 Au
atom 7.5150303200000002 0.0568955400000000 -0.1494687200000000 Au
atom 10.4338225399999995 0.0565068900000000 -0.1791808200000000 Au
atom 13.2687218799999993 0.0775142600000000 -0.0261627900000000 Au
atom 16.0305881300000017 0.0539523800000000 0.1901981500000000 Au
atom 18.8830477300000013 0.0027459200000000 0.0882769100000000 Au
atom 21.6758572600000008 -0.0621650600000000 0.0696644800000000 Au
atom 24.4380226799999996 -0.0578680800000000 0.3099847600000000 Au
atom 27.2413374399999988 0.0168778300000000 0.3765230400000000 Au
atom 1.8604623000000000 0.0283088000000000 0.0531521800000000 Au
atom 4.7520557400000003 0.0339680900000000 0.2271196500000000 Au
atom 8.9245315699999992 2.4555401799999999 0.0201537900000000 Au
atom 11.8283690200000002 2.4896449600000001 -0.0357666600000000 Au
atom 14.6288365999999996 2.5352633999999998 -0.0492134500000000 Au
atom 17.4500291700000005 2.5022341799999999 -0.0232976200000000 Au
atom 20.2119656100000000 2.4904836399999999 0.0912261000000000 Au
atom 23.0238570100000004 2.4322306000000000 0.3305536100000000 Au
atom 25.7980890599999988 2.5232065100000001 0.4974617200000000 Au
atom 0.3881091600000000 2.4401903400000000 0.3291935800000000 Au
atom 3.2293365900000000 2.4682936600000001 0.2776252000000000 Au
atom 6.0699240799999998 2.4990692499999998 0.1511486000000000 Au
atom 7.4817452199999996 4.9633171200000001 0.2704306700000000 Au
atom 10.3658265600000004 4.8669143300000002 -0.0039485600000000 Au
atom 13.1852735800000005 4.9982990799999998 0.0335776800000000 Au
atom 16.0030194500000000 4.9123477299999996 0.2117347200000000 Au
atom 18.8667771299999991 4.9580826800000004 0.2175156600000000 Au
atom 21.5944731400000016 4.9915229800000001 0.3094970100000000 Au
atom 24.4501217199999985 4.9243897800000003 0.3177463400000000 Au
atom 27.3224084000000005 4.9099536700000002 0.3554293900000000 Au
atom 1.9432104600000000 4.8578317599999998 0.1800354000000000 Au
atom 4.6865261000000000 4.9406796300000000 0.1169990700000000 Au
atom 8.9255770099999996 7.4184005199999996 -0.0451984300000000 Au
atom 11.6585873800000002 7.4134096400000002 -0.1125127300000000 Au
atom 14.6284370799999994 7.4945296499999996 -0.0816190700000000 Au
atom 17.4559892099999985 7.3916133400000001 0.1101670300000000 Au
atom 20.1941384399999997 7.4258792600000003 0.3809823100000000 Au
atom 23.0470600200000000 7.3422279799999997 0.4189005200000000 Au
atom 25.8640768899999998 7.3460006199999999 0.3026088700000000 Au
atom 0.5609084800000000 7.3253737100000000 0.1693373100000000 Au
atom 3.3209771099999998 7.4484470399999996 0.1469724900000000 Au
atom 6.1315424700000003 7.4426020199999998 -0.0407436000000000 Au
atom 7.5795882399999996 9.8507179600000008 0.0045761000000000 Au
atom 10.4062129799999994 9.8520017000000006 -0.0664712000000000 Au
atom 13.1513814700000005 9.9153854100000007 -0.1983475000000000 Au
atom 15.9174665700000002 9.9005302200000003 -0.1021298400000000 Au
atom 18.7489063599999994 9.9752222699999997 0.2116150100000000 Au
atom 21.5816123200000014 9.8224128200000003 0.1769822600000000 Au
atom 24.4591312800000011 9.9711429099999993 0.2254834100000000 Au
atom 27.2501537300000010 9.8892317300000006 0.0156344500000000 Au
atom 1.9280691299999999 9.8704271499999994 -0.0071566200000000 Au
atom 4.7988469699999996 9.8993976400000001 -0.1024491100000000 Au
atom 8.9614982699999999 12.3735255899999999 0.0920934800000000 Au
atom 11.7315634299999996 12.4253191100000002 0.0135747500000000 Au
atom 14.4869542500000001 12.3322403200000004 -0.3017617400000000 Au
atom 17.2686308199999985 12.3451999000000008 -0.3984505100000000 Au
atom 20.1134516999999988 12.2681900200000005 -0.3607365900000000 Au
atom 22.9217163699999986 12.1634697099999993 -0.8865968100000000 Au
atom 25.8979265199999986 12.1249196700000006 -0.8951260599999999 Au
atom 0.5570164600000000 12.3490170199999998 -0.3951288100000000 Au
atom 3.4452334699999998 12.3171341200000004 -0.2681085000000000 Au
atom 6.1960089800000002 12.3592266700000000 0.1465691900000000 Au
atom 7.4236474200000000 13.1536150599999999 2.6598932500000001 Au
atom 10.3971346100000002 13.2766033199999995 2.6866758900000001 Au
atom 13.1686832200000001 13.2417214699999999 2.7136278100000002 Au
atom 16.0322866300000015 13.2475900000000006 2.2363960399999998 Au
atom 18.8381106199999984 13.1982467799999998 2.2018906800000000 Au
atom 21.7171700100000002 13.0461974299999994 2.5269135399999998 Au
atom 24.3688241900000016 13.1055121799999998 1.6588937100000001 Au
atom 27.3488195999999988 13.1172831399999996 1.9935286200000000 Au
atom 2.0598538999999998 13.1579870700000008 2.1304587200000000 Au
atom 4.6763893000000003 13.1480670100000001 2.5602482400000000 Au
atom 8.8653697600000001 15.5852094200000000 2.6667130700000001 Au
atom 11.7883041700000000 15.6826975199999996 2.6143228000000001 Au
atom 14.6740547600000006 15.7512169300000000 2.3507886600000001 Au
atom 17.4860692899999997 15.7014715200000001 2.3815206799999999 Au
atom 20.2268462599999985 15.4781759399999999 2.5677525000000001 Au
atom 23.1880014199999991 15.5139758299999997 2.5804164300000001 Au
atom 25.8167133399999997 15.6020352700000000 1.8807871000000000 Au
atom 0.4627417100000000 15.5856200000000005 2.0712018699999999 Au
atom 3.1804716200000001 15.7176116199999996 2.2705822699999998 Au
atom 6.0487947999999996 15.6030374700000003 2.5026775799999998 Au
atom 7.4426837600000004 18.0199930200000011 2.7606415700000002 Au
atom 10.3782137599999995 18.0577650399999996 2.6318086699999999 Au
atom 13.2106880400000009 18.1728091099999993 2.7288406200000002 Au
atom 16.1001296899999993 18.1718835600000013 2.1144762099999999 Au
atom 18.7895111399999983 18.0317799799999996 2.6792323400000000 Au
atom 21.5995273599999997 17.9911311699999992 2.8271917499999999 Au
atom 24.5062112899999995 17.9368579100000005 2.9562201300000002 Au
atom 27.0852307400000001 18.1033265900000018 1.7959533900000000 Au
atom 1.7992831100000000 18.1011285499999985 2.3363251900000002 Au
atom 4.6919201499999996 18.0638500899999990 2.4135836199999998 Au
atom 8.9679535200000000 20.4286067500000001 2.5847186600000001 Au
atom 11.7754031300000008 20.5199608900000001 2.7162224400000001 Au
atom 14.5763976199999998 20.5921863300000005 2.2534621399999999 Au
atom 17.4470907599999983 20.5889556099999993 2.3702939299999999 Au
atom 20.1634335100000008 20.4684384299999991 2.5999329699999998 Au
atom 23.0245507200000006 20.4713787200000006 2.8665683099999999 Au
atom 25.8849212000000009 20.3912167000000011 2.9170543100000002 Au
atom 0.3550159200000000 20.4599851699999995 2.2384576300000001 Au
atom 3.2285479300000000 20.5762320000000010 2.5848639100000002 Au
atom 6.1646973300000001 20.5307796200000006 2.7296956699999999 Au
atom 7.4503815199999996 22.9958303099999988 2.6412070600000002 Au
atom 10.2618992299999992 22.9845768700000015 2.6736577200000000 Au
atom 13.1553240500000008 22.9852162900000003 2.6357833600000000 Au
atom 15.9500972799999996 23.1139178100000002 2.7092140400000000 Au
atom 18.7694953200000008 23.0085907700000014 2.6181944200000000 Au
atom 21.5714559000000001 22.9603215499999997 2.7932211499999999 Au
atom 24.4799604899999999 22.9275385000000007 2.8031730800000001 Au
atom 27.3137713700000013 22.8889410700000013 2.8099862199999999 Au
atom 1.8370580299999999 22.9696626799999990 2.4212538100000001 Au
atom 4.7024077999999996 23.0507839300000015 2.6831853799999998 Au
atom 8.8605449400000005 25.4918584000000017 2.9727611100000000 Au
atom 11.6857643000000007 25.4439213600000009 2.9854851999999998 Au
atom 14.4882664699999992 25.6291142600000015 2.8179718399999998 Au
atom 17.3678495499999990 25.5706353799999988 2.7037705299999999 Au
atom 20.1495221800000017 25.5079786300000002 2.8886229900000000 Au
atom 22.9836131700000017 25.4922947999999998 2.8669769500000002 Au
atom 25.7920422599999988 25.4027392700000014 2.9315425400000001 Au
atom 0.3783904700000000 25.4507198499999987 2.6639457300000000 Au
atom 3.2204863399999999 25.4737242500000001 2.6641346600000002 Au
atom 6.0696698199999997 25.5059911100000001 2.7767921000000002 Au
atom 7.4604779099999998 27.9298293599999994 2.8241772300000001 Au
atom 10.1763559099999998 27.9754414000000011 2.8132801199999999 Au
atom 13.0981362099999998 27.9784140299999997 2.5960811700000002 Au
atom 15.9384002700000007 28.0066315999999986 2.6255351999999998 Au
atom 18.7859195899999989 27.9946799900000016 2.5195519300000000 Au
atom 21.6225985200000004 28.0451868299999987 2.8296358000000001 Au
atom 24.4702489599999993 27.9578197599999996 2.6601128699999999 Au
atom 27.2396883000000010 27.9066133699999988 2.7483306399999998 Au
atom 1.8383541999999999 27.9016850500000011 2.5729867999999998 Au
atom 4.5967120899999996 27.9457203599999993 2.6538609100000001 Au
atom 8.8564459200000005 30.3849881099999983 2.2569120400000000 Au
atom 11.6264471399999998 30.4160652599999999 2.4168111600000000 Au
atom 14.4979047800000007 30.4247011100000009 2.6520574099999998 Au
atom 17.3510663399999991 30.3703852199999993 2.4696635300000001 Au
atom 20.1074739600000001 30.4669607000000013 2.7304414700000001 Au
atom 23.0072222599999989 30.4698814899999988 2.7405874200000002 Au
atom 25.8720870500000011 30.4499461999999994 2.6038301599999998 Au
atom 0.5344505899999999 30.3358852299999988 2.7139455099999998 Au
atom 3.2990368299999999 30.4572276600000009 2.4176400000000000 Au
atom 6.1418424500000004 30.4169508600000000 2.4032268700000001 Au
atom 7.4487662200000004 32.9120938200000026 2.2305092700000002 Au
atom 10.1804306899999997 32.9308074599999969 2.4177250500000000 Au
atom 13.0066159799999994 32.8906954200000001 2.4249931600000001 Au
atom 15.8408428499999996 32.8096363100000019 2.7655879600000000 Au
atom 18.7534882500000002 32.9145947299999975 2.5323041800000001 Au
atom 21.5150022499999984 32.9030783099999979 2.6492818800000002 Au
atom 24.3589048900000016 32.9038456999999980 2.3958892199999999 Au
atom 27.3134942400000007 32.8627878799999991 2.6205050299999999 Au
atom 1.8039134999999999 32.8770590700000014 2.3042297600000001 Au
atom 4.6122404200000000 32.8705107500000011 2.4716532999999998 Au
atom 8.8494348499999997 35.4404959900000023 2.4257200700000001 Au
atom 11.6756147099999996 35.4667575100000008 2.6118146200000001 Au
atom 14.5121935000000004 35.3027237900000017 2.8963915600000001 Au
atom 17.4221749400000014 35.4043763100000035 2.5541507200000000 Au
atom 20.1974146499999989 35.4625647299999969 2.3799231299999999 Au
atom 22.9795945599999989 35.3918690499999968 2.6922184800000002 Au
atom 25.8320727199999993 35.3047660800000003 2.5546123999999999 Au
atom 0.4283732900000000 35.3924815499999994 2.3693504800000000 Au
atom 3.1343474699999998 35.3609949399999977 2.7707449799999999 Au
atom 5.9533201199999999 35.4376390899999976 2.2745785600000001 Au
atom 7.3839629899999997 37.8299059799999995 2.4431384100000000 Au
atom 10.2767351199999997 37.9187549800000028 2.4677062500000000 Au
atom 13.1551685900000006 37.9519713700000025 2.5330709200000001 Au
atom 15.9405108400000000 37.8998996400000010 2.7138521000000000 Au
atom 18.7971729399999994 37.9208485600000031 2.5240273900000001 Au
atom 21.6702879000000017 37.9338967999999994 2.6677182300000002 Au
atom 24.4486907900000006 37.8142192299999991 2.8264832700000002 Au
atom 27.1900492000000007 37.7517453800000027 2.7589907899999999 Au
atom 1.8216023800000001 37.9384870700000008 2.6244190299999999 Au
atom 4.5793917600000000 37.8691469500000011 2.8013122400000001 Au
atom 8.8978092199999992 0.8909872800000000 2.5133621300000000 Au
atom 11.6712647500000006 0.9103364500000000 2.5712513499999998 Au
atom 14.5999269700000003 0.8850175600000000 2.8347474899999998 Au
atom 17.4166564100000016 0.8773658900000000 2.6958800400000000 Au
atom 20.2468752400000014 0.8923061700000000 2.6844872600000000 Au
atom 23.0597036600000003 0.8004116000000000 2.9497739699999999 Au
atom 25.8575099299999991 0.7200966800000000 3.0191834399999999 Au
atom 0.4750989900000000 0.7919963300000000 2.8327794800000001 Au
atom 3.2747186099999999 0.8392842300000000 2.8745617399999999 Au
atom 6.1007131499999998 0.7946147600000000 2.8872170300000000 Au
atom 7.5905856099999998 3.2905013400000001 2.6446274500000002 Au
atom 10.3911600899999996 3.3946243500000000 2.5911448199999998 Au
atom 13.1886662500000007 3.3050960500000000 2.5569165699999998 Au
atom 16.0091430400000014 3.3022168100000000 2.8427024200000002 Au
atom 18.8450739799999987 3.3548075800000001 2.6500385099999999 Au
atom 21.6479526799999995 3.3737433100000001 2.8094763600000001 Au
atom 24.4540410500000007 3.1968704200000002 2.9143331099999998 Au
atom 27.2992270599999998 3.3098711999999999 2.9893573000000000 Au
atom 1.8575062300000000 3.3052185600000001 2.9190616899999999 Au
atom 4.6797754600000001 3.3735887099999999 2.7755290100000001 Au
atom 8.9429841299999993 5.7835496700000002 2.7314208899999999 Au
atom 11.7174654199999999 5.8348152500000001 2.6610457200000002 Au
atom 14.5443775599999991 5.8885884400000004 2.6025961000000000 Au
atom 17.4501552599999989 5.8336928800000001 2.8796637500000002 Au
atom 20.2310737399999994 5.7662066799999998 2.9512007900000001 Au
atom 23.0708548799999988 5.7840061800000004 3.0262564200000002 Au
atom 25.8049666000000002 5.6709782200000003 2.8166899600000002 Au
atom 0.4837456100000000 5.8212795100000001 2.9142834500000001 Au
atom 3.2406419999999998 5.7753397199999998 2.7627364299999999 Au
atom 6.1203168699999999 5.7914100199999998 2.7395187700000001 Au
atom 7.5166180000000002 8.2441346400000004 2.6417793999999999 Au
atom 10.3261126200000000 8.2827278100000008 2.5573719200000000 Au
atom 13.0926841899999999 8.3382892000000002 2.4463281200000000 Au
atom 15.9258261099999991 8.3718328100000008 2.5962935699999998 Au
atom 18.7379550500000001 8.3565143699999993 2.8270514200000001 Au
atom 21.6161560500000007 8.3058980299999998 2.9286346299999999 Au
atom 24.4170890699999994 8.3637816600000008 2.8015108099999999 Au
atom 27.1472673100000002 8.2199821699999998 2.6331029300000002 Au
atom 1.8686214200000000 8.2803906699999992 2.8593089200000001 Au
atom 4.7550976000000000 8.2841906200000004 2.5481522800000000 Au
atom 8.9168108799999999 10.7753213700000003 2.5791338399999999 Au
atom 11.7215039399999998 10.7844481099999996 2.7011269800000002 Au
atom 14.4454468200000008 10.8630004000000007 2.5311534999999998 Au
atom 17.2784089600000001 10.7127395100000005 2.6005258300000000 Au
atom 20.0872429799999992 10.7172574800000007 2.7088019499999998 Au
atom 23.0410452100000001 10.7496993300000003 2.8371068300000002 Au
atom 25.8692359699999983 10.8434640400000006 2.7004450400000000 Au
atom 0.4341586200000000 10.6600313399999997 2.5060518699999998 Au
atom 3.2582082799999998 10.7267828099999996 2.6063301499999998 Au
atom 6.0904742299999999 10.6224744199999996 2.6216059500000002 Au
atom 7.7481519900000002 12.8399619000000005 5.7285166199999997 Cl
atom 7.6240983000000000 15.6339987399999991 8.5710145000000004 Cl
atom 7.6531024399999996 12.8243856800000007 8.2736505200000003 Na
atom 7.8396088800000001 15.6843795999999998 5.9485956299999998 Na
atom 7.9808677100000001 18.5625213500000008 5.5339947000000000 Cl
atom 7.6764804900000003 21.1983297300000011 8.7129153699999993 Cl
atom 7.9582548500000003 18.4881052399999994 8.3221357200000003 Na
atom 7.8648584300000000 21.2670883400000008 5.8269183399999998 Na
atom 7.7877645400000004 24.2903450800000016 5.9711116999999998 Cl
atom 7.4281149900000001 27.0097407300000008 8.6796896900000000 Cl
atom 7.5274718900000002 24.1044035100000009 8.6779533700000009 Na
atom 7.6324699300000001 26.8749883499999989 6.0052415000000003 Na
atom 7.6751344699999997 30.0391973099999987 5.6313824400000003 Cl
atom 7.6777571599999996 32.8049097500000002 8.4808601800000005 Cl
atom 7.6087011400000000 29.9233224200000016 8.1997869399999992 Na
atom 7.5625738000000000 32.7893572700000036 5.6224693099999996 Na
atom 7.7089008600000000 35.6426965100000004 5.7478771399999999 Cl
atom 7.4794927199999997 38.3719267099999968 8.6196216900000007 Cl
atom 7.5552559300000004 35.6323741100000007 8.4004969700000007 Na
atom 7.6628836900000001 38.5477076600000004 5.9757262300000002 Na
atom 7.6851191700000001 1.7405988100000001 5.7343089500000000 Cl
atom 7.7714084200000002 4.3088476199999999 8.7971012399999999 Cl
atom 7.5898425100000004 1.6133906800000000 8.5189958600000004 Na
atom 7.5541171800000004 4.4596356300000002 6.1178113300000003 Na
atom 7.6389869199999998 7.1281841500000001 5.9775880900000002 Cl
atom 7.8195189699999998 10.1949764900000002 8.6314752099999996 Cl
atom 7.7533708700000004 7.0444627200000003 8.7333374900000003 Na
atom 7.7972309700000002 10.0257926899999994 6.0326014399999996 Na
atom 10.4034921100000002 12.8859727900000003 5.8226561600000002 Na
atom 13.2509598900000007 12.6641139099999993 5.7921951299999996 Cl
atom 10.3812765000000002 15.7063429299999999 8.3143106099999997 Na
atom 12.9088746000000008 15.9791388300000001 8.7483429299999997 Cl
atom 13.3340405499999992 12.9090877899999992 8.4341121200000000 Na
atom 10.5618450100000008 12.7196351900000000 8.7686050299999998 Cl
atom 13.0344585800000008 15.6594916899999994 5.9197841100000002 Na
atom 10.5360986600000004 15.8135475499999991 5.8009670000000000 Cl
atom 10.8831059499999991 18.6125198000000012 5.6528232799999998 Na
atom 13.7611554300000005 18.7771190899999993 6.0760710400000004 Cl
atom 10.5260208300000002 21.5493605499999994 8.5433591599999996 Na
atom 13.1323131800000006 21.5555278100000010 8.7158683600000000 Cl
atom 13.1735786099999999 18.7237729699999988 8.7210053300000006 Na
atom 10.5144063699999997 18.6478091100000007 8.7768945800000004 Cl
atom 13.2801205299999996 21.8141087099999993 5.9264775800000002 Na
atom 10.7181396000000007 21.3411001899999988 6.0335437699999996 Cl
atom 10.4202952000000000 24.3396165099999990 6.0609677800000004 Na
atom 13.3372473899999999 24.3472177899999984 5.7958410599999999 Cl
atom 10.4823949100000000 27.3783523299999985 8.2999789899999996 Na
atom 13.2864358199999995 27.4869471899999986 8.3987961000000002 Cl
atom 13.2826820199999993 24.6085143399999993 8.4242318699999998 Na
atom 10.5445543500000003 24.5800828699999983 8.6712977000000002 Cl
atom 13.4903534799999996 27.1722658999999993 5.5840800699999997 Na
atom 10.4817145099999998 27.0663311299999982 5.7876789000000004 Cl
atom 10.5054991300000005 30.2496234800000003 5.4095850600000004 Na
atom 13.5155356100000006 30.0151591300000007 5.4304641699999996 Cl
atom 10.5708821200000003 32.9518230299999999 8.2075467599999996 Na
atom 13.2312215700000007 32.8526612699999987 8.3009158900000006 Cl
atom 13.1911938800000001 30.1568480000000001 8.3240709899999992 Na
atom 10.3017058699999993 30.0978547100000000 8.2863711000000002 Cl
atom 13.4840694699999997 32.8317490299999974 5.5055624800000000 Na
atom 10.5395789000000004 33.1026605599999968 5.5695111199999996 Cl
atom 10.5324219899999996 35.7745242399999981 5.7743791599999996 Na
atom 13.5286345299999997 35.6974707800000033 5.5599027500000000 Cl
atom 10.3774847399999999 38.3963782300000034 8.3590993600000001 Na
atom 13.4529747600000000 38.5032045499999995 8.4847746399999995 Cl
atom 13.4009436999999991 35.7101564199999970 8.2797659299999999 Na
atom 10.3557527199999999 35.6754988400000030 8.5289386799999996 Cl
atom 13.6189205599999994 38.4668333700000034 5.6461783700000003 Na
atom 10.5764512800000006 38.4899470100000016 5.6568717399999997 Cl
atom 10.6158743799999993 1.7339008000000000 5.8369482499999998 Na
atom 13.5023877900000002 1.8183947700000000 5.7350893599999999 Cl
atom 10.5763160599999999 4.1953436200000001 8.3872137000000002 Na
atom 13.2873376299999997 4.2484268600000004 8.6103008100000000 Cl
atom 13.4782174200000000 1.5829839500000000 8.4317699899999994 Na
atom 10.5352384099999998 1.4633158100000001 8.5784398599999996 Cl
atom 13.5461235099999993 4.4254637499999996 5.8095772800000001 Na
atom 10.4441729399999996 4.3764156200000004 5.8393439100000002 Cl
atom 10.4447621399999999 7.0692351799999997 5.9965256000000000 Na
atom 13.3487119100000005 7.1665965600000003 5.8119176699999997 Cl
atom 10.5660087300000001 9.8840376699999997 8.5226629400000000 Na
atom 13.1844400499999992 9.7680207600000006 8.5198611399999997 Cl
atom 13.2668100599999992 6.9481925100000002 8.5055184500000003 Na
atom 10.5507892800000000 6.8849759900000000 8.8074915899999997 Cl
atom 13.2320629200000006 10.0066432899999995 5.6770178800000002 Na
atom 10.4898938800000003 9.8176795499999994 5.8578617700000004 Cl
atom 15.8782332600000000 12.8463307199999992 5.8999945699999996 Na
atom 18.5320462399999997 13.0546778400000001 6.1016993099999999 Cl
atom 16.1659757900000010 17.7252661600000003 6.9909813500000002 Na
atom 18.2654798700000001 16.1358792199999996 8.5684892799999997 Cl
atom 18.7760846299999997 12.9840190599999996 8.5758772800000003 Na
atom 15.8305300700000000 12.8995859100000008 8.7480676299999995 Cl
atom 18.6661425200000011 15.6392647700000005 5.6211038200000001 Na
atom 15.6127736099999996 15.4486583399999997 5.7664749899999999 Cl
atom 15.9365460199999998 19.4496588099999990 4.7740330499999999 Na
atom 18.5547277299999998 18.6997548199999990 5.8010813600000004 Cl
atom 15.7708747799999998 21.6195493899999995 8.2562873099999994 Na
atom 18.6629732100000005 21.6284563399999996 9.0168344400000002 Cl
atom 18.3202031199999986 18.7926974700000002 8.4920996300000002 Na
atom 15.8316392300000004 18.9374983499999985 9.2511807499999996 Cl
atom 18.7965814599999987 21.6927845200000000 5.8812080199999999 Na
atom 16.0807971999999992 21.7756656600000014 5.7590990099999999 Cl
atom 16.1667295899999992 24.4909763100000006 5.8257338799999996 Na
atom 19.0219461299999999 24.4228027200000000 5.8959169600000001 Cl
atom 16.1225804400000001 27.3065723100000000 8.2887139899999998 Na
atom 18.9822782299999986 27.1888207800000004 8.6178571300000009 Cl
atom 18.8434573800000003 24.5568787800000017 8.7309163299999994 Na
atom 16.1837066699999994 24.5857666100000003 8.5652570200000007 Cl
atom 19.2028815500000007 27.3033539699999999 5.8694218800000000 Na
atom 16.3977369300000007 27.1638197099999985 5.7332171299999999 Cl
atom 16.2183235600000017 29.9716677099999984 5.6330925399999998 Na
atom 18.8805444400000013 29.9724380000000004 5.5943684100000004 Cl
atom 16.1637758500000004 32.9640051800000009 8.2640379700000004 Na
atom 18.9187710200000012 32.7954784699999990 8.4816293100000006 Cl
atom 18.9127924299999997 30.0772484599999999 8.2704044700000008 Na
atom 16.1000665699999992 30.0267519900000011 8.4422613799999997 Cl
atom 18.9147210500000007 32.7582623899999987 5.8095542499999997 Na
atom 16.1969152299999983 32.7853793199999970 5.6988431799999999 Cl
atom 16.3231396099999984 35.6636483699999971 5.7203767299999999 Na
atom 18.9201937499999993 35.6245619899999966 5.6904627500000000 Cl
atom 16.2244445699999993 38.4396708100000026 8.5156151900000001 Na
atom 19.1046158400000010 38.2665613799999988 8.7837166599999996 Cl
atom 19.0281299200000014 35.6009993899999984 8.4414616400000000 Na
atom 16.2951944500000003 35.7430209500000018 8.5290023799999997 Cl
atom 18.9850753599999997 38.3039212799999973 5.9864940600000001 Na