#===============================================================================
# Created using the Atomic Simulation Environment (ASE)

# Tue Dec 23 22:26:44 2025

#=======================================================
lattice_vector 28.1999999999999993 0.0000000000000000 0.0000000000000000 
lattice_vector 0.0000000000000000 39.4799999999999969 0.0000000000000000 
lattice_vector 0.0000000000000000 0.0000000000000000 62.3296083400000001 
atom 7.4381135100000000 14.7152817700000007 -0.2195679300000000 Au
atom 10.3303151700000004 14.7787690299999994 -0.3341418200000000 Au
atom 13.0926779199999999 14.7143994100000004 -0.1482586400000000 Au
atom 16.0051987400000009 14.8993661900000003 -0.0505700000000000 Au
atom 18.8427346900000003 14.9805490999999993 -0.0230888900000000 Au
atom 21.6497492800000018 14.8885603199999998 0.0027056400000000 Au
atom 24.4142950100000000 14.8601776799999996 0.2573677300000000 Au
atom 27.4828024800000001 14.7129044600000007 0.0454259100000000 Au
atom 1.8926888500000001 14.6779679400000003 0.2612773700000000 Au
atom 4.6758393199999997 14.8869507100000007 0.0004960000000000 Au
atom 8.7363452099999996 17.1736723799999993 -0.6346275600000000 Au
atom 11.7043268600000001 17.1803494299999997 -0.2754455700000000 Au
atom 14.5360713500000003 17.1208941999999986 -0.2741001200000000 Au
atom 17.4690502199999997 17.1058824700000009 -0.1667488300000000 Au
atom 20.1155249000000005 17.2653461300000011 -0.1199261400000000 Au
atom 23.0929389600000015 17.3181569400000015 -0.1565557800000000 Au
atom 25.9601577299999988 17.3153398000000003 -0.1836583500000000 Au
atom 0.4314989700000000 17.3844627400000000 0.1886235800000000 Au
atom 3.1558482300000001 17.4047662800000005 0.1336179300000000 Au
atom 6.2852402300000003 17.1541750899999990 -0.0499924400000000 Au
atom 7.3653819199999999 19.7218006700000004 -0.3187286500000000 Au
atom 10.2125485099999995 19.8947389200000018 -0.5167922800000000 Au
atom 12.9989920500000000 19.7146748500000015 -0.4647569200000000 Au
atom 16.0585089600000011 19.7590339899999989 -0.2860299000000000 Au
atom 19.0261893099999995 19.7793059900000010 0.0361701100000000 Au
atom 21.4533568999999993 19.7512787299999992 -0.0218414200000000 Au
atom 24.4349782500000003 19.9087273899999992 0.0970193600000000 Au
atom 27.3932018399999997 19.7386043999999998 0.0425637000000000 Au
atom 1.7649807300000000 19.6346415599999986 0.0566282700000000 Au
atom 4.5326847800000003 19.8532538000000010 -0.0332580900000000 Au
atom 8.7888179799999993 22.1365669499999989 -0.2768094100000000 Au
atom 11.4751004400000003 22.3834271600000001 -0.2058081000000000 Au
atom 14.5442314100000001 22.3259910099999992 -0.1074092600000000 Au
atom 17.3691871099999986 22.0781133300000008 0.0490586700000000 Au
atom 19.9911353600000012 22.0771867800000017 -0.0288781800000000 Au
atom 22.9158887699999987 22.1954990800000012 -0.0016691000000000 Au
atom 25.7650291899999999 21.9233094599999987 0.0887375900000000 Au
atom 0.4473680000000000 22.1843656600000010 0.1027321800000000 Au
atom 3.0825754200000000 22.3716874200000007 0.0440749300000000 Au
atom 5.8645885900000003 22.3228719200000008 -0.0463715300000000 Au
atom 7.4412571200000004 24.8715395699999995 -0.1443922300000000 Au
atom 10.1734780199999992 24.7622478100000016 -0.3162978100000000 Au
atom 13.0754700499999998 24.8675688900000011 -0.0112536800000000 Au
atom 15.8476051099999999 24.7214933200000004 0.1306288200000000 Au
atom 18.7710932200000009 24.7576104500000014 0.1144847000000000 Au
atom 21.3992481000000012 24.6928645799999984 -0.0753576600000000 Au
atom 24.2339833700000007 24.5882047800000016 0.1752190200000000 Au
atom 27.1578252400000011 24.5319384199999995 0.4044381800000000 Au
atom 1.6797170800000001 24.7333707700000005 -0.0594926200000000 Au
atom 4.4696434800000002 24.5950576800000000 0.2374044800000000 Au
atom 9.1100082800000006 27.0727718199999998 -0.1315769700000000 Au
atom 11.6461659399999995 27.2513249900000005 -0.3767669300000000 Au
atom 14.2877065999999999 27.1676722899999987 -0.0948663600000000 Au
atom 17.3547524799999984 26.9357997699999991 0.0127671400000000 Au
atom 20.2413331899999989 27.1155010999999995 -0.0483279200000000 Au
atom 23.0206818999999996 27.0221674000000007 0.1878089100000000 Au
atom 25.9123194400000010 27.0111836099999998 0.1695077500000000 Au
atom 0.4991853900000000 27.0998398999999992 0.1776964400000000 Au
atom 3.2012188899999998 27.0596206499999994 0.2287829500000000 Au
atom 5.8109285899999996 27.2471283399999997 -0.0032179800000000 Au
atom 7.3522587799999997 29.5424860400000000 -0.0696276700000000 Au
atom 10.3204896000000002 29.7114657700000002 -0.1248879100000000 Au
atom 12.8943593700000001 29.6196286200000003 0.0493072500000000 Au
atom 15.7612621500000003 29.6876295299999988 -0.0577723400000000 Au
atom 18.5754649200000017 29.5699246299999992 -0.2358667000000000 Au
atom 21.8402034000000000 29.6002499700000001 0.0578761100000000 Au
atom 24.3660547100000002 29.5937148699999995 0.1242317400000000 Au
atom 27.1817799600000001 29.5193807100000001 0.0147220900000000 Au
atom 1.9510616800000000 29.4582709600000001 -0.0474999800000000 Au
atom 4.6561965699999996 29.7137912600000007 0.2467064200000000 Au
atom 8.9370725300000000 32.0757899899999970 0.1530827700000000 Au
atom 11.5516628400000005 32.2860633700000008 0.1650834500000000 Au
atom 14.5617946699999994 32.0097653699999967 0.0412383500000000 Au
atom 17.5488167399999995 31.9783778400000003 0.1208056900000000 Au
atom 20.1975158000000015 32.0414808900000025 -0.0055421200000000 Au
atom 22.8589290399999996 31.8903471500000002 0.0335792400000000 Au
atom 25.8129730500000001 31.9991968299999989 -0.1741182600000000 Au
atom 0.5116303500000000 32.0363048899999967 -0.2015650900000000 Au
atom 3.3291719000000000 32.2159769499999982 -0.2395600100000000 Au
atom 5.9528923400000000 32.1228210499999989 0.0237116300000000 Au
atom 7.3867427899999996 34.4877151000000026 -0.1258231000000000 Au
atom 10.2531128400000000 34.3328359799999987 0.4471539200000000 Au
atom 12.9692305799999996 34.5210230499999966 0.1786624600000000 Au
atom 16.1166856299999992 34.5977351599999992 0.2398285300000000 Au
atom 18.9703206500000015 34.4781770900000026 -0.0985756500000000 Au
atom 21.6434040199999984 34.4826578400000017 0.0345466700000000 Au
atom 24.5174105699999991 34.5041656399999965 0.1668099400000000 Au
atom 27.2634647100000009 34.4974717899999987 0.0507014800000000 Au
atom 2.0015226600000000 34.6814206600000006 -0.0849954100000000 Au
atom 4.5703756100000001 34.4947536399999990 0.1158548800000000 Au
atom 8.7110463100000004 36.9538437499999972 0.1163931300000000 Au
atom 11.8789189099999994 37.0052868900000007 0.1058108400000000 Au
atom 14.7163764700000002 36.9368956300000022 0.0854316400000000 Au
atom 17.3673214999999992 37.0007471300000006 0.2219983900000000 Au
atom 20.1747914199999983 37.1445369400000018 0.0592645100000000 Au
atom 23.1292763999999984 36.9971722299999968 0.1456099700000000 Au
atom 25.7163844499999996 37.1913045699999998 -0.1498142600000000 Au
atom 0.4720461700000000 37.1743486100000027 -0.0140493000000000 Au
atom 3.1039068400000001 36.9504731500000005 -0.1755402000000000 Au
atom 6.0833282400000002 37.0839298599999978 0.1496419700000000 Au
atom 7.5572247399999997 0.0161841300000000 -0.0157386200000000 Au
atom 10.4378994299999999 -0.0881725100000000 0.1064593000000000 Au
atom 13.1348441600000001 0.0935673900000000 0.0553098500000000 Au
atom 15.9557282899999997 -0.2978200400000000 0.1413038400000000 Au
atom 18.6434130399999987 -0.1148494500000000 0.1517617100000000 Au
atom 21.5478500400000001 -0.1239544900000000 0.1469094000000000 Au
atom 24.4985583899999995 -0.1218200200000000 0.1434107000000000 Au
atom 27.2808122200000014 0.0109686800000000 0.2985372400000000 Au
atom 1.9447915899999999 0.1229566100000000 0.2009949800000000 Au
atom 4.8739597600000000 -0.0886864400000000 0.2461651100000000 Au
atom 9.0687747699999992 2.5492250500000000 -0.0789936800000000 Au
atom 11.7351550099999997 2.5017608199999999 -0.0874446300000000 Au
atom 14.6969513500000009 2.4726761499999999 0.0076428900000000 Au
atom 17.5903414799999993 2.4741873700000001 0.0466866100000000 Au
atom 20.3084897200000007 2.5235428299999998 0.3147181800000000 Au
atom 23.0661336900000009 2.3445651000000001 0.2756786900000000 Au
atom 25.9334876799999989 2.6592524800000001 0.1848548600000000 Au
atom 0.5289580699999999 2.6529255699999998 0.0809770600000000 Au
atom 3.2359250600000000 2.4958868399999998 0.0567167800000000 Au
atom 6.1159440299999996 2.5782277900000001 0.0238268800000000 Au
atom 7.4506916600000004 4.9372160200000001 0.0033083300000000 Au
atom 10.2920519699999993 4.8664402200000003 -0.2403627800000000 Au
atom 13.1885240600000007 4.7234571200000000 -0.2419639100000000 Au
atom 15.8581483900000002 5.0772936499999997 0.0099481400000000 Au
atom 18.7620098199999994 4.8439099299999997 0.3638062100000000 Au
atom 21.6788063899999983 5.0327774999999999 0.1353355400000000 Au
atom 24.3800900100000000 4.9815054200000004 0.2324302500000000 Au
atom 27.2764387100000008 5.0185304300000002 0.0639910500000000 Au
atom 1.9574428600000000 5.1174955400000002 0.0459010000000000 Au
atom 4.8235215599999997 5.0590728800000004 0.1014107900000000 Au
atom 9.1610669100000006 7.4345571499999998 -0.1109070200000000 Au
atom 11.6903004799999994 7.5458914899999998 -0.0775126700000000 Au
atom 14.4804384299999995 7.3500796399999997 0.0797370000000000 Au
atom 17.6286636600000008 7.3442629899999998 0.0902417600000000 Au
atom 20.1434847400000017 7.2664460599999998 0.0619249200000000 Au
atom 23.0133611999999985 7.6060874900000002 0.1158768700000000 Au
atom 25.7119457099999984 7.4815678200000004 -0.0510965800000000 Au
atom 0.3676912800000000 7.4617694700000001 0.0366281400000000 Au
atom 3.1141541899999998 7.5918896299999998 0.1588986000000000 Au
atom 5.9418380600000003 7.2074318499999999 -0.2292662800000000 Au
atom 7.5377806999999999 9.9604301599999996 -0.0252398500000000 Au
atom 10.3457051000000000 9.8128151900000002 0.0546948900000000 Au
atom 13.2732232900000007 9.8755086599999995 0.1201810200000000 Au
atom 15.9067187099999998 9.7262438200000005 0.0904405500000000 Au
atom 18.7461318100000014 9.7813077600000007 0.0880583500000000 Au
atom 21.6548499999999997 9.6994635200000001 0.0357587100000000 Au
atom 24.3264907000000008 9.9759678699999998 -0.1725804500000000 Au
atom 26.9568554700000007 9.7961720299999993 0.0312954700000000 Au
atom 1.8203185600000000 9.7042392500000005 0.0229800400000000 Au
atom 4.7982059200000000 9.9530030000000007 0.1701749000000000 Au
atom 8.9400786399999994 12.4005889000000007 -0.1305708600000000 Au
atom 11.9093866899999998 12.4862997500000006 0.0320450400000000 Au
atom 14.5659287499999994 12.4510490899999997 -0.0129521800000000 Au
atom 17.3260903699999993 12.2769185600000004 -0.0220685200000000 Au
atom 20.2155437099999986 12.2123307699999994 -0.1997896200000000 Au
atom 22.9336013600000008 12.2806719199999996 -0.0468363300000000 Au
atom 25.8012152300000004 12.4217227599999998 0.0051628100000000 Au
atom 0.3123674300000000 12.3338151600000003 -0.0176618700000000 Au
atom 3.3287063500000000 12.3361085900000003 0.1591049000000000 Au
atom 6.0362491100000000 12.0779334499999997 0.0350516700000000 Au
atom 7.5482155100000004 13.3487436400000004 2.3899199100000001 Au
atom 10.4043590699999999 13.2621058299999994 2.6712991100000001 Au
atom 13.2727050500000008 13.1950921999999995 2.8185952900000002 Au
atom 16.0420756199999985 13.2693706400000000 2.6292900200000000 Au
atom 18.7931116399999993 13.1898343800000006 2.4673704299999999 Au
atom 21.6109814799999995 13.0640341099999997 2.3323984100000001 Au
atom 24.3921954899999989 13.1985966900000005 2.7501574799999999 Au
atom 27.2089429900000006 13.3127077899999993 2.6083661999999999 Au
atom 1.8743090200000001 13.2663245300000003 2.7506434999999998 Au
atom 4.5347436500000002 13.1458986099999997 2.6989346300000001 Au
atom 9.0286906899999995 15.5341469799999992 2.4996517400000000 Au
atom 11.6589291399999997 15.6386232300000003 2.4182905200000002 Au
atom 14.5508196099999996 15.7455064500000006 2.3579908999999999 Au
atom 17.2310163600000017 15.8293563600000002 2.5229181700000001 Au
atom 20.2343941700000016 15.7121781600000006 2.3458697399999999 Au
atom 23.2365030399999988 15.6857583900000002 2.6714476299999999 Au
atom 25.8434968100000013 15.6453717700000006 2.5411406400000001 Au
atom 0.5172978200000000 15.6602576300000003 2.7451992000000001 Au
atom 3.1793494199999999 15.5353587799999993 2.7164583699999998 Au
atom 6.0957635100000003 15.6994441100000000 2.6604806900000000 Au
atom 7.3826319700000003 18.1759926699999994 2.4201307399999998 Au
atom 10.4028804299999997 18.0904038199999988 1.9049265099999999 Au
atom 13.1540547700000001 18.0473169599999999 2.0543776199999999 Au
atom 15.9021471800000000 18.1114202700000000 2.4982792599999999 Au
atom 18.7994769599999998 17.9788969499999993 2.3968023700000001 Au
atom 21.4859380900000012 18.0249222499999995 2.6469338699999998 Au
atom 24.4808415500000010 17.9296293599999998 2.7063683400000000 Au
atom 27.1932303799999993 18.2357019200000003 2.6106971799999998 Au
atom 2.0156009199999998 17.9452704800000014 2.7832954499999998 Au
atom 4.7876374500000001 18.0536334700000012 2.4057479900000001 Au
atom 8.8854227500000000 20.6827500800000017 2.2171648300000002 Au
atom 11.5438733300000003 20.5682030900000008 2.3191073800000002 Au
atom 14.7576582199999997 20.4303403999999986 2.4167085899999998 Au
atom 17.4489968900000001 20.4193664000000012 2.5763693000000001 Au
atom 20.1290396399999985 20.5073984799999991 2.6119148900000000 Au
atom 22.9986203200000006 20.4099378000000016 2.6804845300000002 Au
atom 25.9115792200000001 20.4833116400000002 2.6003985200000002 Au
atom 0.3627495600000000 20.4280249400000002 2.5198071099999999 Au
atom 3.4911544000000001 20.6127028199999991 2.4200984100000000 Au
atom 6.1276330200000002 20.5215979100000006 2.5730922000000001 Au
atom 7.5127628700000004 22.9875736000000011 2.4836005000000001 Au
atom 10.3851565000000008 23.1669034600000003 2.1524329799999999 Au
atom 13.2849173199999999 22.8695505399999988 2.2159751499999998 Au
atom 16.0478108800000001 22.9728126000000010 2.4708623900000002 Au
atom 18.5601545899999998 23.0596714200000008 2.6132708600000001 Au
atom 21.6390049799999993 23.0990242399999985 2.5797566399999998 Au
atom 24.4917300100000013 23.0963900600000009 2.6541085199999999 Au
atom 27.2464314899999991 22.9231437299999996 2.9309641000000002 Au
atom 1.9974201400000000 23.0059168599999992 2.3331401299999999 Au
atom 4.7565257799999996 22.6329664199999989 2.7262435400000000 Au
atom 8.9901037699999993 25.7918471199999999 2.6489529500000000 Au
atom 11.6724613000000002 25.6513507700000005 2.4021547000000001 Au
atom 14.4802220100000003 25.4752931099999991 2.9069278199999999 Au
atom 17.2507271300000014 25.4942332399999998 2.6995297400000000 Au
atom 20.1625255500000016 25.4183178199999986 2.6417672300000001 Au
atom 22.7360833199999988 25.6029343800000007 2.6796931800000001 Au
atom 25.7523280399999983 25.7025743400000017 2.7790324300000000 Au
atom 0.4738256500000000 25.5211491600000002 2.8776827200000001 Au
atom 3.3795421700000001 25.4404325900000003 2.8051449399999999 Au
atom 6.2309428100000002 25.6826525299999986 2.6157064900000000 Au
atom 7.2567261600000004 28.0484755899999989 2.6469049400000002 Au
atom 10.1401246799999996 27.9608465799999983 2.4208048899999999 Au
atom 13.0560223200000003 28.0130033199999993 2.6742197100000000 Au
atom 15.8763876899999996 27.8056282199999991 2.6363522100000001 Au
atom 18.7017920300000000 27.7361580500000002 2.4449887100000001 Au
atom 21.5944106299999987 28.0775448200000000 2.9094544099999999 Au
atom 24.2970050899999990 27.7873104399999988 2.6887402599999999 Au
atom 27.3556510999999993 27.9422401700000016 2.7808362199999999 Au
atom 1.8899722999999999 28.0178891999999991 2.6299089100000002 Au
atom 4.6704683500000002 28.0618973199999999 3.0951027899999999 Au
atom 8.8059989900000009 30.5496102799999996 2.5286186100000001 Au
atom 11.7251764800000000 30.5506376999999993 2.6349738999999999 Au
atom 14.6981771400000003 30.3383830600000017 2.5896368299999999 Au
atom 17.3381014600000007 30.0893628600000014 2.5759120100000001 Au
atom 20.1665480200000005 30.3797777000000018 2.6415296000000001 Au
atom 23.0961733199999983 30.4265911799999991 2.5754245000000000 Au
atom 25.8281867600000012 30.6824248900000001 2.5652296200000002 Au
atom 0.4537109900000000 30.3507292100000008 2.7504322100000000 Au
atom 3.2022919700000001 30.6669587800000016 2.6306336099999998 Au
atom 6.0457744699999996 30.4655558100000015 2.8405117299999998 Au
atom 7.5555509399999998 32.8710760199999967 2.7078814400000000 Au
atom 10.3025898799999993 33.1170379400000030 2.5946282500000000 Au
atom 13.2381044600000006 32.8020530100000016 2.8034272800000002 Au
atom 15.9390857900000000 32.8114147699999990 2.7585983900000000 Au
atom 18.7587344499999986 32.9776917100000020 2.5576912900000002 Au
atom 21.4148450600000011 33.0311605999999998 2.6699034099999999 Au
atom 24.3718805200000013 33.0613863399999985 2.7048887599999998 Au
atom 27.2326630799999982 32.9072040799999996 2.4220965500000000 Au
atom 1.7296751200000000 32.8036757899999998 2.3856932300000002 Au
atom 4.5617350500000002 33.0592861700000000 2.7944539000000002 Au
atom 8.7523461299999994 35.4738495699999987 2.4839730400000000 Au
atom 11.6936403200000001 35.5075730300000032 2.7965551799999999 Au
atom 14.7046844599999993 35.4471514900000031 2.6820927999999999 Au
atom 17.3023023500000015 35.2885263900000012 2.7048942800000000 Au
atom 20.3069252999999996 35.4733793700000035 2.4221838999999998 Au
atom 22.8408870999999998 35.3405288499999983 2.8314242900000002 Au
atom 25.8173843100000013 35.3855243200000018 2.8443638600000001 Au
atom 0.4207276800000000 35.5263271299999985 2.5608957700000001 Au
atom 3.0880036300000002 35.3672826199999975 2.5244149299999998 Au
atom 6.0878007900000002 35.3476585100000023 2.4344383700000001 Au
atom 7.4569656300000000 37.9893810700000003 2.5430788999999998 Au
atom 10.2978418400000002 38.0032686300000009 2.7903308099999999 Au
atom 13.0578546499999995 37.9496937099999982 2.5558315299999999 Au
atom 16.0018234399999990 37.6304114300000023 2.6919731499999999 Au
atom 18.6882786299999992 38.0828926200000026 2.7395710499999999 Au
atom 21.5842266800000004 37.7805886700000002 2.8294639300000002 Au
atom 24.4498585499999983 37.8943973700000001 2.9317479400000002 Au
atom 27.0323662700000007 37.8304938899999996 2.9233116400000001 Au
atom 1.7019761900000001 38.0645579199999986 2.6338148600000002 Au
atom 4.6512325099999998 37.7917285199999995 2.7173776400000000 Au
atom 8.9510641999999994 0.8894638200000000 2.7360277800000001 Au
atom 11.8960094999999999 0.8422055899999999 2.4511202200000000 Au
atom 14.4368563600000002 0.9113148200000000 2.7668621299999998 Au
atom 17.3905054099999994 1.0400378299999999 2.7021725600000002 Au
atom 20.1762598699999991 0.9311260600000000 2.9906392300000002 Au
atom 23.0559593800000009 0.7580285300000000 2.7280151899999998 Au
atom 25.9649023899999989 0.9996148500000001 2.7081145499999999 Au
atom 0.2305622400000000 0.8766670900000000 2.5101147099999999 Au
atom 3.3055667500000001 0.7939418700000000 2.8843003500000002 Au
atom 6.0497994500000001 0.7828998800000000 2.6361167200000000 Au
atom 7.5175889199999997 3.3256436800000002 2.6457343700000000 Au
atom 10.4094021500000000 3.1850405300000002 2.5503675200000000 Au
atom 13.2178815400000005 3.3947275000000001 2.7063739299999998 Au
atom 16.0240709199999998 3.3044473800000000 2.8100595600000000 Au
atom 18.8116694600000010 3.2612155700000001 2.5580483799999998 Au
atom 21.7277764699999985 3.4242860799999999 2.8871950300000000 Au
atom 24.3268690999999997 3.2868954200000000 2.9620208600000000 Au
atom 27.2760342999999992 3.3865954000000000 2.7183502100000001 Au
atom 1.8562098199999999 3.2274406500000001 2.3472032500000002 Au
atom 4.6196989899999998 3.3493289800000001 2.6958487500000001 Au
atom 8.9304525500000000 5.6296468900000001 2.4353565100000001 Au
atom 11.6996697600000008 5.6600450799999997 2.6912785600000002 Au
atom 14.4115308899999999 5.8162440399999999 2.6665562700000001 Au
atom 17.3750965199999996 5.7979177100000001 2.9406438499999998 Au
atom 20.3034412999999994 5.9759190699999998 2.8150681600000000 Au
atom 23.3452942899999982 5.6546987199999998 3.0361429000000002 Au
atom 25.8892942700000006 5.8473587000000000 2.7423360300000001 Au
atom 0.4274503400000000 5.7788582699999997 2.6480629800000002 Au
atom 3.3427595299999999 5.7935295299999998 2.7706660300000001 Au
atom 6.1602841899999996 5.7898040699999997 2.7257543200000001 Au
atom 7.4274814600000001 8.3000131899999996 2.6351789399999999 Au
atom 10.5278084799999991 8.3817969500000000 2.5058426900000002 Au
atom 13.2418775899999996 8.2661185100000001 2.5905343099999998 Au
atom 15.9492764200000003 8.2521167599999998 2.6978824299999999 Au
atom 18.7096057000000009 8.2591383100000009 2.6071573899999998 Au
atom 21.6362221499999983 8.2373946799999995 2.5752476400000002 Au
atom 24.3775642300000008 8.2941156199999995 2.5121455500000001 Au
atom 27.2568812499999993 8.1875683699999993 2.6830421100000001 Au
atom 1.8612831000000001 8.1989744899999994 2.6039774800000002 Au
atom 4.7433254800000002 8.2175023399999994 2.9160401000000000 Au
atom 8.6661088999999993 10.7425647400000006 2.6390414700000000 Au
atom 11.8082552799999991 10.8890472999999997 2.7950029800000000 Au
atom 14.6514964200000009 10.6625126399999992 2.6407587399999999 Au
atom 17.2549893899999987 10.8181681500000000 2.5632607699999999 Au
atom 20.3301080899999995 10.8617750999999991 2.4164982099999999 Au
atom 22.8510510999999994 10.8128000100000001 2.6978624099999999 Au
atom 25.7892216199999993 10.7374947499999998 2.7979434900000002 Au
atom 0.6339701700000000 10.7488884200000001 2.7870401100000000 Au
atom 3.3845671899999998 10.6219288100000000 2.5098848500000002 Au
atom 6.0626762999999997 10.7456256999999997 2.7463583499999999 Au
atom 7.4712310200000003 13.0828778799999998 5.6095950200000004 Cl
atom 7.4406205700000001 16.1196798600000015 8.3289849700000005 Cl
atom 7.5644299100000003 13.4007839099999995 8.5091821900000006 Na
atom 7.2679859100000002 16.1055117099999983 5.2807814400000002 Na
atom 7.6512141299999996 18.7904021800000010 5.3989678799999998 Cl
atom 7.3657535300000001 21.5867636599999990 8.6459411999999993 Cl
atom 7.6838220599999998 18.5923996199999984 8.2649796799999997 Na
atom 7.6301681200000004 21.8583734700000001 5.5942677200000004 Na
atom 7.4094493100000003 24.4982413000000001 5.6107362500000004 Cl
atom 7.5808081999999999 27.3380036699999991 8.6224488600000004 Cl
atom 7.4772717899999996 24.1726571300000010 8.2255599200000002 Na
atom 7.5012318799999997 27.3767587100000007 5.8444754000000003 Na
atom 7.7293360099999999 30.1779202099999999 5.8801600299999999 Cl
atom 7.5490616700000004 33.0440750899999998 8.8046398600000000 Cl
atom 7.3157003800000000 30.1760876499999995 8.3874041600000009 Na
atom 7.6794493299999997 33.1691562199999979 5.9610113000000000 Na
atom 7.4959070499999996 35.6124550500000012 5.8499997199999996 Cl
atom 7.7731227599999997 38.6225940100000003 8.5068073799999997 Cl
atom 7.6710709399999999 35.6669773599999971 8.3291295000000005 Na
atom 7.5821953200000003 38.5941621500000025 5.8040738599999999 Na
atom 7.6309177100000003 1.9635468000000000 5.7505749300000000 Cl
atom 7.8284561200000002 4.8620040900000001 8.6963906099999999 Cl
atom 7.6822026599999997 2.0636314599999999 8.3638978900000005 Na
atom 7.6687305700000001 4.8353852699999997 5.6718197100000003 Na
atom 7.3590291499999996 7.5365428500000000 5.6949001299999997 Cl
atom 7.5690232899999996 10.5702159600000005 8.4709400699999993 Cl
atom 7.6469696899999997 7.6400522500000001 8.3290410900000005 Na
atom 7.6925803999999998 10.5128732199999995 5.6578087000000004 Na
atom 10.3992641100000007 13.1256540000000008 5.9114364899999998 Na
atom 13.4475727700000007 13.2707255100000001 5.8849324400000000 Cl
atom 10.5367679800000005 16.0043896900000000 8.6343889500000000 Na
atom 13.2770006100000000 16.2369083900000000 8.2529749700000004 Cl
atom 13.2727204699999994 13.2850792599999998 8.5887349000000004 Na
atom 10.2909586100000006 13.1427329799999999 8.6793316899999997 Cl
atom 13.2607535700000003 16.0920831699999987 5.7378767799999997 Na
atom 10.5013299300000007 16.2717944800000005 5.5442146100000000 Cl
atom 10.1458923199999997 18.9041263599999994 5.5430651900000001 Na
atom 13.1876840200000007 18.8307063399999990 5.4254140800000004 Cl
atom 10.3301119000000003 21.8386446499999991 8.3616230799999993 Na
atom 13.2083281400000008 21.6830721400000002 8.0130457199999992 Cl
atom 13.1015139999999999 18.6537959600000001 8.1890091100000006 Na
atom 10.4926949599999997 19.0614509599999984 8.2913376700000008 Cl
atom 13.1243638399999991 21.6792270800000004 5.4090171600000003 Na
atom 10.3021742599999993 21.7948619299999997 5.7062678299999998 Cl
atom 10.3819374900000003 24.5496983700000015 5.8153773199999996 Na
atom 13.2836627099999998 24.5127734799999999 5.7436415600000004 Cl
atom 10.2575624699999999 27.0071278899999996 8.2447970399999999 Na
atom 13.4283809099999996 27.2529919499999984 8.3453606499999999 Cl
atom 13.3885532999999999 24.2914832999999994 8.2219724700000008 Na
atom 10.2628272900000006 24.5048541499999999 8.5579778799999993 Cl
atom 13.3343305700000005 27.3581475699999999 5.8502557099999999 Na
atom 10.4249655200000007 27.3207126600000016 5.8086315900000001 Cl
atom 10.3012199199999994 30.2480239900000001 5.7344141000000004 Na
atom 13.3168302300000008 30.3653475300000011 5.8380296400000002 Cl
atom 10.4381096299999996 32.7941753500000033 8.5330175500000003 Na
atom 13.0342696199999999 33.0853341600000022 8.8275062299999991 Cl
atom 13.2129447599999992 30.1112580500000000 8.3445605599999997 Na
atom 10.3918919600000006 29.9160344299999998 8.5050412699999995 Cl
atom 13.1034222800000002 33.0121327499999992 6.0631778799999996 Na
atom 10.5849390700000008 32.7941860099999971 5.8533513800000003 Cl
atom 10.3854246200000002 35.7008573000000027 5.7045378299999996 Na
atom 13.2409312400000001 35.9823581300000015 5.8142182399999998 Cl
atom 10.3289662999999994 38.3860059800000002 8.4314774200000002 Na
atom 13.1753940299999996 38.5021746399999998 8.6139065000000006 Cl
atom 13.1341122099999996 35.7794660899999997 8.5122314299999999 Na
atom 10.3578322400000005 35.7402326799999983 8.6327574200000008 Cl
atom 13.0772811000000004 38.6517077499999999 5.8366460900000003 Na
atom 10.6002890799999996 38.7412824900000032 5.7621853600000001 Cl
atom 10.4705207599999994 1.9425376299999999 5.7608285400000003 Na
atom 13.2897086200000007 1.9316373099999999 5.7775573099999997 Cl
atom 10.4515965099999999 4.7281673299999998 8.2913540399999999 Na
atom 13.2820576799999994 4.9489530400000001 8.5928410799999995 Cl
atom 13.2196582700000000 1.8388130499999999 8.2997010800000002 Na
atom 10.5775212799999991 1.9985114700000000 8.5483073300000001 Cl
atom 13.3092765699999998 4.7601819100000000 5.7061999999999999 Na
atom 10.3987040299999993 4.7518490800000004 5.7549919000000003 Cl
atom 10.3464706700000004 7.4799983299999999 5.9319121900000003 Na
atom 13.1671567399999994 7.4706951899999998 5.8050886500000001 Cl
atom 10.3153123000000004 10.4754852799999991 8.1613134800000005 Na
atom 13.1626180700000006 10.3346289999999996 8.4697549399999996 Cl
atom 13.2498811500000002 7.6137347300000000 8.2587272800000004 Na
atom 10.6979223700000006 7.5760539099999997 8.6745624600000006 Cl
atom 13.0930083300000000 10.4298074100000004 6.0214214500000001 Na
atom 10.5764885199999998 10.2833548199999996 5.9271113800000004 Cl
atom 16.1273509500000003 13.5908923700000006 5.9149065500000004 Na
atom 18.7664683799999992 13.4078500199999997 5.8239698700000000 Cl
atom 16.0237882599999999 15.9161882499999994 8.3437596500000009 Na
atom 18.6748294900000005 16.1218870800000005 8.5754400499999992 Cl
atom 19.0283597600000007 13.3548976499999998 8.5298799800000005 Na
atom 16.0888861600000013 13.2044292799999994 8.5425798499999992 Cl
atom 18.9291937200000007 16.0935292399999987 5.6926559100000000 Na
atom 16.0845860899999984 16.0927772199999986 5.3577911299999998 Cl
atom 16.0030615800000007 19.0460769499999998 5.9610438200000004 Na
atom 18.8878460600000011 18.8683468599999991 5.4557977299999996 Cl
atom 16.0772522500000008 21.6568207000000008 8.4710476099999994 Na
atom 18.6692086599999989 21.9632751800000001 8.6058523299999994 Cl
atom 18.8102526099999992 18.9541288100000003 8.3039873199999992 Na
atom 16.0250809700000012 18.9278037300000008 8.5912434599999994 Cl
atom 19.0198735100000000 21.4810277399999983 5.9602883699999998 Na
atom 16.0288324899999992 21.7973561899999986 5.5683433300000003 Cl
atom 16.1820352099999987 24.6939408100000009 5.8430841600000001 Na
atom 18.8359939499999989 24.5287764899999985 5.6999282500000001 Cl
atom 15.9853455699999998 27.5048550499999997 8.2606957300000001 Na
atom 18.7046473400000011 27.2682575000000007 8.4388991799999999 Cl
atom 18.9260500200000017 24.5889086500000005 8.3593472200000001 Na
atom 16.2018441200000005 24.7065082400000016 8.6621871899999991 Cl
atom 19.0405020600000014 27.1342477600000009 5.9937870699999998 Na
atom 15.9707458199999994 27.2945899800000014 5.7753964499999997 Cl
atom 16.1381734399999992 30.2212014800000013 5.7912926899999997 Na
atom 18.8806678999999988 29.9743160400000015 5.9033977300000000 Cl
atom 16.0357298200000002 32.8878552299999996 8.3457132000000005 Na
atom 18.9513189500000010 33.0313010599999970 8.5907054499999997 Cl
atom 18.9824525800000004 30.0875747400000009 8.4808342799999998 Na
atom 16.0734068699999995 30.1711428200000000 8.5389957699999997 Cl
atom 18.8581637700000009 32.9279743000000025 5.9139075400000003 Na
atom 15.9483456199999996 33.1041039200000000 5.6529811900000002 Cl
atom 16.2107511200000012 35.7810610100000019 5.9007981699999998 Na
atom 18.5648678999999994 35.9302326500000007 5.9640759399999999 Cl
atom 15.9578409899999993 38.6929422099999982 8.3712627600000005 Na
atom 19.1503826900000007 38.7432215299999996 8.4946492800000009 Cl
atom 18.9212576100000014 35.7479661500000034 8.4589926700000007 Na
atom 15.9034109099999998 35.9803683000000021 8.5753755900000002 Cl
atom 18.6648709199999985 38.7575405099999983 6.1468701599999997 Na