#===============================================================================
# Created using the Atomic Simulation Environment (ASE)

# Tue Dec 23 22:26:34 2025

#=======================================================
lattice_vector 28.1999999999999993 0.0000000000000000 0.0000000000000000 
lattice_vector 0.0000000000000000 39.4799999999999969 0.0000000000000000 
lattice_vector 0.0000000000000000 0.0000000000000000 62.3296083400000001 
atom 7.1920678999999996 14.8407733999999998 -0.0205255300000000 Au
atom 10.1883030699999999 14.7338136500000001 -0.2259267100000000 Au
atom 13.0708686099999998 14.6192198199999996 -0.4905934700000000 Au
atom 15.8546774599999996 14.6081705700000004 -0.1405184400000000 Au
atom 18.9622333900000015 14.8309949499999991 -0.3537162200000000 Au
atom 21.5749021399999990 14.8262066800000003 -0.4272145800000000 Au
atom 24.5501830800000000 14.8825990099999999 -0.0769669000000000 Au
atom 27.1814429699999991 14.6392695199999991 -0.1800392400000000 Au
atom 2.0224915900000000 14.7762207399999994 -0.1511223000000000 Au
atom 4.5219028600000000 14.7914211600000005 -0.1528267300000000 Au
atom 8.9059322099999996 17.4718197800000006 -0.2024863500000000 Au
atom 11.6647244699999995 17.3451802099999988 -0.5322551599999999 Au
atom 14.4732470499999994 17.1184380000000012 -0.5235795800000000 Au
atom 17.2608258399999990 17.1576337199999998 -0.2109744000000000 Au
atom 20.1324718599999990 17.2290052100000004 -0.2567001900000000 Au
atom 22.9775019299999990 17.2941508400000004 0.0040575900000000 Au
atom 25.7626147000000003 17.3193331599999993 -0.1329609900000000 Au
atom 0.3492856800000000 17.2607795099999990 -0.2670764000000000 Au
atom 3.1844750400000001 17.3498884400000009 -0.1873850500000000 Au
atom 6.1746079199999997 17.3644627299999996 0.1370122600000000 Au
atom 7.3466334199999999 19.6970036499999992 0.2943670700000000 Au
atom 10.2903537899999993 19.8515893000000005 -0.1696425500000000 Au
atom 13.1913601400000005 19.8315478600000006 -0.4876255400000000 Au
atom 15.8875881099999994 19.7540470500000005 -0.3055351900000000 Au
atom 18.8337591599999996 19.8918083400000008 -0.2382366500000000 Au
atom 21.5522963800000014 19.5928255399999998 -0.1821904100000000 Au
atom 24.2133450699999990 19.6821656000000011 -0.1658604000000000 Au
atom 27.4113243599999983 19.7411551799999998 0.0361461100000000 Au
atom 1.7509575900000001 19.7241779100000016 -0.1605094800000000 Au
atom 4.5207097599999999 19.9596910799999989 0.1027582300000000 Au
atom 8.8302623800000006 21.9853632400000016 0.0536010000000000 Au
atom 11.6779446399999998 22.3774603200000008 -0.0535967400000000 Au
atom 14.6755505100000008 22.1868882300000010 -0.1091479000000000 Au
atom 17.3457568400000000 22.2168322099999997 -0.1077189400000000 Au
atom 20.0530173900000008 22.0799989799999992 -0.1461175300000000 Au
atom 22.8381934099999988 22.4069262000000009 -0.0994803200000000 Au
atom 25.7397899999999993 22.1151229899999997 0.2631272200000000 Au
atom 0.2509793900000000 22.4584602500000017 0.3156509600000000 Au
atom 3.2522157699999998 22.3864296399999994 0.2942068800000000 Au
atom 5.9287852799999996 22.1290831099999998 0.3518395700000000 Au
atom 7.4580199499999997 24.7426107799999997 0.3039953100000000 Au
atom 10.2967882799999995 24.6297623700000017 0.0265262900000000 Au
atom 13.2176434000000000 24.7779780999999986 0.0855803700000000 Au
atom 16.1737036299999986 24.7300020399999987 0.1260436800000000 Au
atom 18.8712730399999984 24.8232514500000008 -0.1818241600000000 Au
atom 21.5866103000000003 24.8031651300000000 -0.0638321800000000 Au
atom 24.3821528900000004 24.5688277799999994 -0.0286088400000000 Au
atom 27.0100783399999997 24.6468169599999989 0.3403342200000000 Au
atom 1.6605144999999999 24.9687284100000007 -0.0160768000000000 Au
atom 4.7405485399999998 24.8054713299999996 0.3192588800000000 Au
atom 9.0139385799999996 27.0734246499999998 0.2084446300000000 Au
atom 11.7251470700000002 27.1485252800000012 0.1978827400000000 Au
atom 14.5450191800000006 27.3115036300000007 -0.0479989000000000 Au
atom 17.4042963800000017 27.3124286000000005 0.0029712400000000 Au
atom 20.1812137100000015 27.1623333400000000 -0.0202544500000000 Au
atom 23.1855206299999992 27.1559906399999988 -0.0380211200000000 Au
atom 25.9044882799999989 27.2344946999999991 0.2043359700000000 Au
atom 0.1035889900000000 27.2156247299999983 0.2257521600000000 Au
atom 3.3533014799999998 27.2817939199999984 -0.0765002500000000 Au
atom 6.0948402399999999 27.1154608699999997 -0.0537336600000000 Au
atom 7.4277160300000000 29.4668250900000004 0.0505421200000000 Au
atom 10.3064714800000008 29.3860814800000014 0.1632157100000000 Au
atom 13.2189487299999993 29.5683111600000004 -0.0351390300000000 Au
atom 16.0780470800000010 29.7269753200000011 0.0996151300000000 Au
atom 18.9739737200000000 30.0489936600000007 -0.2036543900000000 Au
atom 21.4359563199999990 29.6835483000000018 0.0381465900000000 Au
atom 24.4055260199999999 29.7765664799999996 0.3160493700000000 Au
atom 27.3155923300000012 29.8532894499999983 0.1875790500000000 Au
atom 1.7928987400000000 29.6422668899999984 -0.0628923200000000 Au
atom 4.6058721100000000 29.7101379700000017 -0.0397957200000000 Au
atom 8.9946476499999992 32.0927207100000018 -0.0228717400000000 Au
atom 11.7536722000000005 31.9180102999999988 0.0819478300000000 Au
atom 14.6197807799999993 32.0311874699999990 -0.0584266500000000 Au
atom 17.3770366699999990 32.2717833099999964 -0.0791034600000000 Au
atom 20.0839621199999989 32.2466392299999995 -0.1814734500000000 Au
atom 22.9602258600000013 32.1992211999999967 0.1054110000000000 Au
atom 25.6908751600000009 31.9991688500000002 0.0956027100000000 Au
atom 0.1781537600000000 32.0367231700000019 -0.0862341000000000 Au
atom 3.3999932799999999 32.0673774600000030 -0.0301948400000000 Au
atom 6.2849601300000000 31.8892277600000007 0.1959940300000000 Au
atom 7.7262580700000001 34.7109212700000000 -0.1872769400000000 Au
atom 10.3310090500000005 34.3796937299999996 -0.0948549100000000 Au
atom 13.2042755300000003 34.5852506199999965 0.0893978700000000 Au
atom 15.9123006799999995 34.6695425699999973 0.0152363200000000 Au
atom 18.7063290100000010 34.6746726300000034 -0.0225534000000000 Au
atom 21.7559451199999998 34.5826244699999990 0.2393131800000000 Au
atom 24.4102070799999993 34.5504806100000010 0.0985201200000000 Au
atom 27.2447162600000006 34.2260237300000014 -0.0733081600000000 Au
atom 1.9559514800000000 34.4698504699999972 -0.1380657900000000 Au
atom 4.8185558700000000 34.3958655300000018 -0.0920523000000000 Au
atom 9.0182903700000008 37.0640036100000003 0.0389200700000000 Au
atom 11.7845779400000001 37.0683488299999979 0.0641910900000000 Au
atom 14.5421346400000004 37.0645503100000013 -0.1273442800000000 Au
atom 17.3531108299999985 37.0355280300000018 0.0028709900000000 Au
atom 20.1106798299999987 37.2313348300000015 -0.1083205700000000 Au
atom 23.0260909600000012 36.9119212200000035 0.0579279600000000 Au
atom 25.6969451699999993 36.9461210999999992 -0.2510939600000000 Au
atom 0.6236018100000000 37.0240183800000011 -0.1037748500000000 Au
atom 3.3879025199999999 36.9014949500000000 -0.0612821700000000 Au
atom 6.2217641400000003 36.7856724700000015 -0.0068290200000000 Au
atom 7.4461757200000003 0.1369468200000000 -0.1154571400000000 Au
atom 10.4504921999999993 0.1417740100000000 0.0337581200000000 Au
atom 13.1230981000000000 0.1528311400000000 0.0201588100000000 Au
atom 16.1266100600000009 0.0907884800000000 -0.1711829200000000 Au
atom 18.7820863799999991 0.0668672000000000 -0.2115139800000000 Au
atom 21.5678629899999983 0.1716840300000000 0.2098403000000000 Au
atom 24.3894646900000005 0.1100921700000000 -0.2031765800000000 Au
atom 27.1639449900000010 -0.1997541100000000 0.2382753300000000 Au
atom 1.9853704299999999 -0.0576129800000000 -0.0743172500000000 Au
atom 4.8954024900000004 0.0703727600000000 0.1037181300000000 Au
atom 8.8060597600000001 2.4458085399999998 0.0767389400000000 Au
atom 11.5372459599999999 2.7744657899999998 -0.0207542800000000 Au
atom 14.4997703300000005 2.4515044300000000 0.2283669000000000 Au
atom 17.3662439900000010 2.4991503900000001 -0.1059341400000000 Au
atom 20.3331000599999996 2.5452997900000001 0.1670905500000000 Au
atom 23.1405487000000001 2.4431919199999999 0.1532894700000000 Au
atom 25.8639933599999985 2.4313271900000002 0.4024354100000000 Au
atom 0.6786054300000000 2.3264832800000002 0.1458735500000000 Au
atom 3.5411052800000000 2.4545593100000000 0.0130601600000000 Au
atom 5.8876700800000004 2.6014416599999999 0.0522765100000000 Au
atom 7.4013764300000000 5.1583697199999996 0.1898435900000000 Au
atom 10.1493847800000001 5.0012838100000003 0.1160452700000000 Au
atom 13.0407101700000005 4.9905552300000000 0.1316634300000000 Au
atom 16.0932394099999989 4.8403772399999996 0.1244039600000000 Au
atom 18.8035019599999984 4.9576019100000002 0.0743839700000000 Au
atom 21.6869742199999997 4.8607378900000002 0.1145295600000000 Au
atom 24.3095562600000008 4.9819972899999998 0.1742299700000000 Au
atom 27.1612897599999989 4.7834135000000000 0.5352121900000000 Au
atom 1.8392818600000000 5.0899904300000003 0.2035050600000000 Au
atom 4.7642997700000000 5.0791018399999999 -0.0862693100000000 Au
atom 8.8536885699999992 7.4186696000000003 0.0480470600000000 Au
atom 11.5875771200000006 7.2773868100000003 0.0598721200000000 Au
atom 14.4095867099999992 7.1950997699999997 0.0566830800000000 Au
atom 17.3249071500000014 7.4603567300000000 0.0816514100000000 Au
atom 20.1119524399999996 7.6493420600000004 -0.0990209000000000 Au
atom 23.2202027599999994 7.5301711100000004 0.1677490000000000 Au
atom 25.8967297000000016 7.6799100500000002 0.4349037400000000 Au
atom 0.6648059300000000 7.2614470999999998 0.1455982700000000 Au
atom 3.2925989100000002 7.5531683799999998 0.1646141100000000 Au
atom 6.1410854500000003 7.6731428199999998 0.2448018200000000 Au
atom 7.4567777299999998 9.8346219399999999 0.1203101700000000 Au
atom 10.3980149399999995 9.8161092799999992 -0.0863617700000000 Au
atom 13.0994912299999999 9.8181983000000006 -0.1746440900000000 Au
atom 16.0930094200000013 10.0912320100000006 -0.1331263300000000 Au
atom 18.6374040699999988 9.8906787800000000 -0.0476592700000000 Au
atom 21.5530825800000017 9.9628185100000000 -0.1301103800000000 Au
atom 24.4424303199999997 9.8920870399999998 -0.0886488000000000 Au
atom 27.2067775599999990 9.8934558700000004 0.0131405300000000 Au
atom 1.7863537000000000 10.0490894599999994 0.0930002800000000 Au
atom 4.6876398699999999 10.0284933699999996 -0.0051244000000000 Au
atom 8.7188988900000002 12.2849992500000003 0.0680550900000000 Au
atom 11.6658292299999999 12.2670256700000007 -0.2109728200000000 Au
atom 14.1729049499999995 12.4662670000000002 -0.6181192400000000 Au
atom 17.3481540000000010 12.3643179700000001 -0.4872469900000000 Au
atom 20.1465600400000007 12.4209836399999993 -0.3526254700000000 Au
atom 22.9269808099999999 12.2764625100000000 -0.3923686000000000 Au
atom 25.9306475899999995 12.4209193700000000 -0.3825080200000000 Au
atom 0.4123512900000000 12.4707109599999999 -0.1251719200000000 Au
atom 3.2668178299999999 12.2942038500000006 -0.2416091800000000 Au
atom 6.1857570199999996 12.3862533500000005 -0.2087234100000000 Au
atom 7.4010706400000004 13.3364508599999994 2.6056163899999998 Au
atom 10.1639147699999999 13.3583973399999998 2.3874598599999999 Au
atom 13.1989824900000006 13.4820623699999995 2.2015755299999999 Au
atom 16.0946509199999994 13.3853128500000000 2.0449998200000001 Au
atom 18.7138789699999997 13.3755721100000002 2.2541728100000000 Au
atom 21.6215762299999987 13.2252275299999997 2.1665361299999999 Au
atom 24.2711949199999992 13.1587355899999991 2.2967023499999999 Au
atom 27.3297187999999984 13.2693966000000003 2.5099030500000001 Au
atom 1.8420873000000000 13.2068170600000006 2.1465075699999998 Au
atom 4.6304468600000002 13.2378376099999997 2.3786659299999999 Au
atom 8.9227035400000005 15.6873359800000003 2.2237681100000000 Au
atom 11.6310373100000000 15.7668013699999996 2.1790283100000001 Au
atom 14.6528855599999996 15.9011287299999999 2.3384204799999999 Au
atom 17.4709518899999985 15.8983323599999995 2.5064261999999999 Au
atom 20.2015371500000001 15.7475695600000005 2.2439040200000000 Au
atom 23.1294917399999989 15.5735625199999994 2.6304847800000002 Au
atom 25.7935639999999999 15.6877046100000008 2.3020089000000001 Au
atom 0.3675436400000000 15.7176951700000007 2.3744401000000002 Au
atom 3.2651552700000002 15.7647204300000006 2.4888581699999999 Au
atom 6.1750567099999998 15.6924449399999997 2.3346049899999999 Au
atom 7.5966400199999997 18.2470028000000006 2.6316000700000002 Au
atom 10.1897037600000004 18.2022714299999997 2.5321266100000002 Au
atom 13.1013385800000002 18.0628628499999984 2.0162793400000001 Au
atom 15.9593974700000008 18.3524614499999998 2.5353550800000000 Au
atom 18.6003336899999994 18.0124650099999997 2.4985937100000002 Au
atom 21.4972697900000007 18.1699951700000000 2.4879260400000001 Au
atom 24.4717842300000008 18.0072194799999998 2.6848802100000002 Au
atom 27.1943259600000005 18.0546589399999995 2.5853571299999998 Au
atom 1.7772948300000000 18.1389967699999985 2.2863768499999999 Au
atom 4.7878582999999999 18.2297789899999998 2.6040188000000000 Au
atom 8.8528116200000007 20.6546702099999990 2.8996897000000001 Au
atom 11.6975739500000007 20.7895135599999996 2.4434647200000001 Au
atom 14.4889746000000006 20.5970619299999989 2.3751080999999998 Au
atom 17.3956506399999995 20.5410064000000006 2.6024397900000000 Au
atom 20.1542471799999987 20.4562198899999999 2.5639377500000000 Au
atom 23.0341729700000002 20.5209533999999998 2.4729747000000000 Au
atom 25.7655078400000015 20.2740362199999993 2.7315915999999998 Au
atom 0.4617648500000000 20.4819000500000001 2.6546612700000001 Au
atom 3.1504528100000000 20.5576858000000016 2.7796409899999999 Au
atom 5.9160868300000002 20.5754566799999985 2.8876394900000002 Au
atom 7.2811820100000002 22.9974391099999984 2.8909995300000002 Au
atom 10.3215436999999994 23.1190532600000012 2.8986580499999999 Au
atom 13.1588699800000004 22.9679150900000018 2.5426603600000002 Au
atom 15.9448765800000007 22.9569447599999990 2.5300847800000001 Au
atom 18.6549694099999996 23.2250092200000005 2.5834204700000001 Au
atom 21.4992220100000004 22.9803400400000015 2.5776938600000001 Au
atom 24.4009190599999997 23.1250060399999988 2.8559868599999998 Au
atom 27.1517473000000003 22.9865581799999994 2.9884853900000001 Au
atom 1.7843642900000001 22.7702040399999994 2.8097388400000001 Au
atom 4.5526708899999999 23.0358994099999990 2.7849486799999998 Au
atom 8.8591277599999998 25.6529963199999997 2.7427505200000000 Au
atom 11.5383144000000009 25.6188331399999996 2.7116984899999999 Au
atom 14.5834570800000005 25.6192327300000002 2.5580527300000000 Au
atom 17.3275826799999990 25.6976154600000015 2.6042289799999998 Au
atom 20.0395969799999989 25.5655530000000013 2.6086142300000001 Au
atom 22.8234643699999999 25.5596610499999990 2.6368653800000001 Au
atom 25.8080356299999991 25.5564067000000001 2.8016396100000001 Au
atom 0.2442743200000000 25.6399533300000009 2.9544367299999998 Au
atom 3.2979289299999999 25.6093613100000006 2.8184198299999998 Au
atom 5.9223555899999996 25.3491270600000007 2.7058459799999999 Au
atom 7.5580392099999996 28.0390733300000008 2.6157341600000001 Au
atom 10.2051998499999996 28.1080440799999991 2.9317162500000000 Au
atom 13.0999822800000008 27.9677742900000013 2.7463254300000002 Au
atom 15.8271175900000003 28.0335081799999983 2.7346433700000001 Au
atom 18.7901335399999994 27.9437762399999983 2.4783246900000000 Au
atom 21.4188088000000008 27.9663919099999987 2.4487426600000002 Au
atom 24.1671308600000003 27.8111171699999993 2.6673167000000002 Au
atom 27.1634779199999983 28.1673614400000005 2.8274931699999999 Au
atom 1.9070514900000000 27.8766408800000001 2.5215121400000000 Au
atom 4.6896109800000003 27.8650670299999987 2.4538747600000002 Au
atom 8.7694755499999992 30.4103664500000015 2.4270494199999999 Au
atom 11.4164272100000002 30.4999538000000001 2.5432081200000001 Au
atom 14.3885788899999998 30.4684039499999990 2.6204527600000000 Au
atom 17.2748429500000000 30.5176338399999985 2.5368929699999998 Au
atom 20.0612957899999991 30.4942099199999994 2.7126632000000002 Au
atom 22.8958912900000016 30.3470748300000004 2.7926337200000000 Au
atom 25.5765082100000001 30.3238272600000016 3.1701420400000000 Au
atom 0.7269643200000000 30.5571648899999992 2.7728078200000001 Au
atom 3.1314456200000000 30.4117645000000003 2.7621480500000000 Au
atom 6.0269584500000004 30.3642477200000016 2.6482951799999999 Au
atom 7.6752099400000002 32.8674097399999994 2.3577355199999999 Au
atom 10.4253354700000003 32.9542722200000000 2.7626205499999998 Au
atom 13.0878292799999993 32.9117145900000025 2.5658013700000000 Au
atom 15.9076294300000001 33.0059567599999966 2.5988733000000002 Au
atom 18.6635471600000002 32.8552346099999966 2.6265217999999999 Au
atom 21.3750707499999990 32.9596030599999992 2.5320984599999998 Au
atom 24.5659455700000002 32.9447189400000013 2.7381964399999998 Au
atom 27.1245388799999994 32.9966614699999994 2.5894536900000000 Au
atom 1.8406830199999999 32.8358294499999985 2.5211890499999998 Au
atom 4.8256994999999998 32.7315801499999992 2.8455401500000002 Au
atom 8.8591118800000004 35.4302209299999973 2.5890122199999999 Au
atom 11.7058952800000000 35.3243667699999975 2.6553094399999999 Au
atom 14.4828177700000005 35.3636970199999965 2.4954489199999998 Au
atom 17.5517576700000006 35.5124707399999977 2.5497794800000002 Au
atom 20.1830508500000008 35.4539673700000009 2.5523381600000001 Au
atom 22.9136343899999986 35.3641991300000029 2.9214049700000002 Au
atom 25.9869738099999985 35.2669758799999968 2.6690808300000000 Au
atom 0.5449748700000000 35.5496897399999980 2.5722978599999999 Au
atom 3.3361906100000001 35.1662033699999981 2.4716802400000000 Au
atom 6.0431041199999997 35.3664514999999966 2.3762529300000002 Au
atom 7.5089817500000002 37.9210307299999982 2.3652500299999999 Au
atom 10.3115313700000009 37.9907571899999965 2.2998997100000000 Au
atom 13.0758707300000001 37.9131244499999980 2.5710706999999999 Au
atom 16.0770875900000014 37.9240995999999981 2.5447641000000001 Au
atom 18.6527275400000008 38.0141589400000015 2.5119391499999999 Au
atom 21.3991579399999985 37.9066463500000026 2.9401646600000002 Au
atom 24.3311759999999992 37.7876032100000003 2.3473562000000001 Au
atom 27.1467770699999988 37.9458319100000026 2.6783210600000000 Au
atom 1.8892770400000001 37.6235977899999980 2.6454120200000002 Au
atom 4.8078096300000004 37.7282317299999974 2.6304331500000000 Au
atom 9.0261619799999995 0.8000385600000000 2.4470269299999998 Au
atom 11.6093014399999994 0.9878488100000000 2.6113953599999999 Au
atom 14.6123022999999996 0.7159586800000000 2.6365541800000001 Au
atom 17.5349911899999995 0.8177464900000000 2.7981547099999999 Au
atom 20.1725408299999991 0.8537792000000000 2.7495830600000000 Au
atom 23.0063478500000009 0.9134684400000000 2.7315837599999999 Au
atom 25.7062598499999986 0.8002413100000000 2.7817976299999998 Au
atom 0.4105681500000000 0.6762270800000000 2.8386157200000000 Au
atom 3.1256270700000002 0.9380692100000000 3.0785776800000000 Au
atom 6.0717571200000000 0.9382564700000000 2.7248060000000001 Au
atom 7.4367681200000000 3.3701163400000000 2.6904305499999999 Au
atom 10.4183306600000005 3.4427866400000000 2.5943503200000002 Au
atom 13.2992458100000004 3.5245956600000001 2.5431883399999999 Au
atom 15.9745980500000009 3.2343169500000002 2.6106233300000001 Au
atom 18.8913833900000014 3.4743461800000000 2.6608059499999999 Au
atom 21.8451577599999993 3.3977995900000000 2.4133180699999999 Au
atom 24.4349894300000017 3.2399365100000002 2.7918007100000000 Au
atom 27.2469375499999984 3.2128713100000001 2.7813660300000000 Au
atom 1.8099819200000000 3.4890572999999998 2.6761608200000002 Au
atom 4.6098393700000004 3.3392398600000002 2.7558770699999999 Au
atom 8.9889903199999992 5.8742074799999999 2.6351237099999998 Au
atom 11.6640036100000000 5.9741502000000004 2.9339297599999998 Au
atom 14.5420023100000009 5.9727369100000001 2.7952995800000000 Au
atom 17.0469190099999999 5.8614979800000002 2.5985160399999998 Au
atom 20.1172023600000003 5.9019345500000000 2.6509615800000002 Au
atom 22.9949646100000002 5.6172023400000004 2.7813027300000002 Au
atom 25.8092102399999987 5.8838427400000004 2.8361196700000000 Au
atom 0.4436671000000000 5.9266439599999998 2.8048919899999998 Au
atom 3.3295660499999999 5.7509546900000004 2.6960393200000001 Au
atom 6.0961034099999996 5.8872447599999997 2.8581551599999999 Au
atom 7.4440388000000004 8.3906562299999994 2.7469840400000001 Au
atom 10.3814165500000009 8.4084486700000003 2.5462748999999998 Au
atom 13.2086633199999994 8.5030626399999996 2.7830198199999998 Au
atom 15.7826057500000001 8.5208935300000004 2.7130477900000001 Au
atom 18.6101510200000000 8.4285949599999999 2.6649461600000000 Au
atom 21.5638150700000004 8.3203814000000005 2.6886196299999998 Au
atom 24.1530208000000002 8.4036831299999992 2.7120230799999998 Au
atom 26.9985909799999995 8.2502375600000004 2.6956673400000000 Au
atom 1.6159844500000000 8.3369954600000007 2.7862843499999999 Au
atom 4.6139161499999997 8.4199601699999995 2.6633372500000001 Au
atom 8.8371898400000006 10.8000269299999996 2.6556487400000002 Au
atom 11.7801899799999994 10.9581994700000003 2.5755133500000000 Au
atom 14.5115739900000005 10.9766309500000006 2.2789762300000000 Au
atom 17.4598399499999992 10.9364472399999997 2.5544230099999998 Au
atom 20.1688949099999988 11.0829880200000002 2.4173033799999999 Au
atom 22.8846852200000015 10.7851678900000003 2.3848277100000002 Au
atom 25.7834258900000002 10.6528594000000005 2.6934289800000002 Au
atom 0.3593313200000000 10.8511411199999994 2.5134696900000000 Au
atom 3.3964733900000001 10.9208090599999998 2.6052003699999999 Au
atom 6.0523425900000003 10.7431215299999998 2.5840517099999998 Au
atom 7.5938399399999996 12.8149443299999994 5.2158067600000004 Cl
atom 7.8075754799999997 15.9392646399999993 8.3971055900000007 Cl
atom 7.8035818399999997 12.9129364399999993 8.4583335700000006 Na
atom 7.7985468999999998 15.6118510799999992 5.4180038000000001 Na
atom 7.7777769899999996 18.6399272799999984 5.6568206700000001 Cl
atom 7.7464129300000000 21.6149231399999984 8.7748055899999997 Cl
atom 7.7544717900000002 18.6213141399999991 8.3181434299999992 Na
atom 7.6923273999999999 21.2796784899999984 5.8227859600000000 Na
atom 7.7626453800000004 24.2363572699999992 5.8897435299999996 Cl
atom 7.6798275800000004 27.4217683100000009 8.6764863200000004 Cl
atom 7.4660437799999997 24.4585495699999989 8.5450683999999999 Na
atom 7.7223745299999997 27.4053111099999995 5.8661874400000000 Na
atom 7.6764628999999998 30.0607128999999986 5.9924022099999998 Cl
atom 7.8587206900000002 32.8198325999999980 8.6249588100000008 Cl
atom 7.6275406700000001 30.1103085899999989 8.5890754699999992 Na
atom 7.5831942500000000 32.7553664400000031 5.7241257499999998 Na
atom 7.6397838900000004 35.8918685300000035 5.4561321400000002 Cl
atom 7.9711930899999999 38.5694942800000007 8.5417318899999994 Cl
atom 7.8149547600000000 35.8054640300000031 8.2573022700000003 Na
atom 7.9516116200000004 38.6644317700000002 5.6651272199999996 Na
atom 7.8741058199999996 1.8270054200000001 5.7166239000000001 Cl
atom 7.6951981099999998 4.6747295500000003 8.7002682799999995 Cl
atom 7.7278770799999998 1.8422415400000001 8.3153865899999992 Na
atom 7.7665958899999996 4.6522998299999996 5.8420395999999997 Na
atom 7.6805656000000004 7.6967073900000003 5.6228793100000001 Cl
atom 7.6202131099999999 9.9708919999999992 8.7300848000000002 Cl
atom 7.8233386600000001 7.3219294599999998 8.4849204500000006 Na
atom 7.4897651600000001 10.1805792200000003 5.9778850099999996 Na
atom 10.6115209400000001 13.2225779699999997 5.2064425700000001 Na
atom 13.7700788900000006 13.0181964000000008 5.2705836300000000 Cl
atom 10.6925560300000004 15.8305167600000001 8.1544793700000007 Na
atom 13.4226393999999996 15.8241145599999999 8.0259151600000003 Cl
atom 13.4235773100000007 12.9545388799999994 7.9523438500000001 Na
atom 10.5660585999999999 13.0912243499999992 7.8068200000000001 Cl
atom 13.5469798000000008 15.7094435200000007 5.3943091900000004 Na
atom 10.3799732000000002 15.7032900800000004 5.3912352300000004 Cl
atom 10.5147074299999996 18.9470364199999999 5.3089543700000004 Na
atom 13.2890892500000000 18.7083063699999990 5.4089684599999996 Cl
atom 10.6306688900000008 21.5708046899999992 8.3723510399999999 Na
atom 13.4232786599999994 21.6145659499999994 8.1326217500000002 Cl
atom 13.4951409000000009 18.5912651599999990 7.9411926299999998 Na
atom 10.6340116299999998 18.8169272599999999 8.0923092099999998 Cl
atom 13.2883733300000006 21.4960007699999984 5.3789466199999998 Na
atom 10.3345048700000000 21.6543924899999993 5.6549679099999999 Cl
atom 10.4426885499999997 24.5020163400000008 5.9611267799999998 Na
atom 13.2935836599999995 24.2805901800000008 5.5767510600000003 Cl
atom 10.6572402200000003 27.2706769099999988 8.3142291299999993 Na
atom 13.3806887600000000 27.2009145299999986 8.5095742500000000 Cl
atom 13.3173984200000000 24.3907607199999994 8.0377504000000002 Na
atom 10.3076412099999999 24.4783955400000011 8.5313596799999996 Cl
atom 13.4601585700000008 27.0608395900000005 5.5319628099999996 Na
atom 10.4383675100000008 27.4191957799999990 5.6893321099999996 Cl
atom 10.2823361700000007 30.0131383199999995 5.5965837699999996 Na
atom 13.0490633299999992 30.2188068200000011 5.6975413200000000 Cl
atom 10.6248083500000003 32.9917605400000014 8.5950686300000001 Na
atom 13.5672273400000005 32.9119180100000008 8.4629351199999991 Cl
atom 13.3581930100000008 30.1960209299999995 8.3493370500000008 Na
atom 10.4992247600000006 29.9224121200000006 8.4828222300000000 Cl
atom 13.2561752599999991 32.9327260199999969 5.6658031800000002 Na
atom 10.5960391000000005 33.0259383799999995 5.7073877099999999 Cl
atom 10.3368157299999996 35.8219922299999993 5.5810475700000000 Na
atom 13.2953021899999992 35.6057489100000026 5.8235438400000001 Cl
atom 10.6243831600000007 38.7424827600000015 8.2492611799999995 Na
atom 13.2496929600000009 38.6470898399999996 8.4367307500000006 Cl
atom 13.1943513699999997 35.5943486500000006 8.4838715800000006 Na
atom 10.4705057799999999 35.9115815400000002 8.3516329700000007 Cl
atom 13.3426765599999992 38.6133830099999997 5.7190218799999997 Na
atom 10.6837350699999991 38.4206239600000004 5.5927913000000000 Cl
atom 10.7056415200000004 1.9434053400000000 5.7453555100000004 Na
atom 13.6434225500000004 1.8152857000000000 5.7755435000000004 Cl
atom 10.6185948299999993 4.6237797699999996 8.4931734100000007 Na
atom 13.3972162099999998 4.3112011399999997 8.9730127399999997 Cl
atom 13.3672528800000006 1.6594135299999999 8.5904095100000006 Na
atom 10.5294493300000003 1.7033215300000000 8.6878383299999999 Cl
atom 13.2143050300000002 4.6990814199999997 5.8701465800000001 Na
atom 10.7061108300000001 4.5548330899999998 5.7871022999999999 Cl
atom 10.6839074099999998 7.4122331800000003 5.9524429599999999 Na
atom 13.6341530700000000 7.1334333900000004 5.6235734900000001 Cl
atom 10.6755568499999995 10.1700492499999999 8.4084416900000001 Na
atom 13.5006082299999992 10.3361815400000001 8.3106906299999999 Cl
atom 13.6289115299999999 7.4464288200000004 8.4878257399999999 Na
atom 10.2824107900000001 7.3950448900000003 8.8915863099999992 Cl
atom 13.2769586299999993 10.0866208400000001 5.5067704199999996 Na
atom 10.3195949099999993 10.1752368499999992 5.6193928299999998 Cl
atom 16.6336681900000016 13.1880818499999997 5.0644382999999999 Na
atom 19.2796578099999998 13.0981780600000004 5.6921806899999998 Cl
atom 16.3052346099999994 15.7903797699999995 7.7813570199999997 Na
atom 18.8465295700000013 15.7640197799999999 8.0909633400000001 Cl
atom 19.0220402399999990 12.7829970799999995 8.2756351000000006 Na
atom 16.1417939299999986 12.8909433000000000 8.1117044800000002 Cl
atom 18.9803789300000005 15.6895748000000008 5.5591154200000004 Na
atom 16.2551055300000016 15.6706068900000002 5.3645226399999997 Cl
atom 16.4841924900000016 18.6344307899999997 5.5606731600000003 Na
atom 19.0698060699999985 18.6166570000000000 5.7519705300000004 Cl
atom 16.2749109999999995 21.3604345799999997 7.9310355799999996 Na
atom 18.9920878000000002 21.4841049899999987 8.6113419499999999 Cl
atom 19.0498919499999992 18.5609481599999988 8.1971515000000004 Na
atom 16.3585849500000009 18.8114004600000015 8.2276792299999997 Cl
atom 19.2453422200000013 21.6603517799999992 5.7643177899999998 Na
atom 16.3687009299999993 21.4191844700000011 5.3781374800000004 Cl
atom 15.8168675200000006 24.4587011300000015 5.5005309999999996 Na
atom 19.1048827900000013 24.2229805300000010 5.4640976800000001 Cl
atom 16.2855156299999990 27.0541428900000014 8.0226050699999991 Na
atom 18.8911910100000000 27.0161417800000017 8.4431846400000001 Cl
atom 18.8021746299999997 24.3464680899999983 8.4434848799999997 Na
atom 16.0154233700000006 24.2009608900000011 8.1918722600000002 Cl
atom 19.0278132999999983 26.9406491700000004 5.5780706100000002 Na
atom 16.1747123200000011 27.2125826099999983 5.7198361899999997 Cl
atom 15.9208801300000005 30.0800611000000018 5.6751238500000003 Na
atom 18.7919073700000006 29.8587132000000004 5.6295114300000000 Cl
atom 16.3551339300000009 32.7827460199999976 8.1981232700000000 Na
atom 18.9596241799999987 32.9560232199999987 8.5883638900000001 Cl
atom 19.0064157000000016 29.8053357500000011 7.9521509100000003 Na
atom 16.1148123900000009 30.1822404900000016 8.2559493400000008 Cl
atom 19.0378089499999987 32.9129059099999992 5.8313674999999998 Na
atom 16.3378844000000001 32.6952995500000014 5.5298565399999999 Cl
atom 16.0568062699999992 35.6783727799999966 5.7415907900000001 Na
atom 18.9816841600000004 35.7751383299999972 5.5724313900000002 Cl
atom 16.1027947400000002 38.6867648899999992 8.2654030299999999 Na
atom 18.8020506800000007 38.5809581099999974 8.5801489800000006 Cl
atom 18.9753536300000007 35.6620245299999965 8.3995263599999994 Na
atom 16.1386909100000011 35.8441053600000004 8.4748053399999996 Cl
atom 19.0776718400000007 38.3236208000000005 5.8703838399999997 Na