#===============================================================================
# Created using the Atomic Simulation Environment (ASE)

# Tue Dec 23 21:42:55 2025

#=======================================================
lattice_vector 28.1999999999999993 0.0000000000000000 0.0000000000000000 
lattice_vector 0.0000000000000000 39.4799999999999969 0.0000000000000000 
lattice_vector 0.0000000000000000 0.0000000000000000 62.3296083400000001 
atom 7.5011672200000001 14.8240612600000006 -0.0141702600000000 Au
atom 10.2938543199999994 14.8464772800000002 -0.0191308200000000 Au
atom 13.1639147600000008 14.8239464400000003 0.0861803000000000 Au
atom 15.9821437399999997 14.8646227199999998 -0.0384346000000000 Au
atom 18.7693380699999999 14.8079829299999997 0.0501983100000000 Au
atom 21.5911977200000003 14.7946991400000005 0.0363094600000000 Au
atom 24.4289811800000010 14.8194474399999994 -0.0242076600000000 Au
atom 27.2404277400000012 14.8242395499999997 0.0176211100000000 Au
atom 1.8618148500000000 14.8055517099999996 0.0187710900000000 Au
atom 4.6722646900000004 14.8076981399999994 -0.0545999000000000 Au
atom 8.8771191100000006 17.2951094199999993 0.0454186700000000 Au
atom 11.6725206299999993 17.2864128699999995 -0.0052306500000000 Au
atom 14.5167594100000006 17.2829102799999994 0.0437846300000000 Au
atom 17.3753650700000009 17.3166212000000002 0.0748574000000000 Au
atom 20.1803560799999993 17.2670172999999991 -0.0139158000000000 Au
atom 23.0060219199999985 17.2374016999999995 0.0510877000000000 Au
atom 25.8154927399999998 17.2793553399999986 0.0921891100000000 Au
atom 0.4704265100000000 17.3037554000000000 0.0239760000000000 Au
atom 3.2501932999999998 17.3219599299999985 0.0080609200000000 Au
atom 6.0498595899999996 17.2858559099999987 0.0405165900000000 Au
atom 7.4811537000000001 19.7628988800000016 0.0478993600000000 Au
atom 10.2935611199999997 19.7500158299999988 0.0297454600000000 Au
atom 13.1260931799999998 19.7049340300000004 0.1371310700000000 Au
atom 15.9710952200000005 19.7376424600000000 0.0762729900000000 Au
atom 18.8138090799999986 19.7407730999999984 0.1043096400000000 Au
atom 21.6172942500000005 19.7209905600000006 0.0426601900000000 Au
atom 24.4112403100000002 19.7335764400000002 0.1751978800000000 Au
atom 27.2193480200000018 19.7418323899999990 0.0182857600000000 Au
atom 1.8495851000000001 19.7887115300000005 0.1460990200000000 Au
atom 4.6868871800000003 19.7799081600000015 0.0575765800000000 Au
atom 8.9332460200000003 22.2313814600000015 0.0569158000000000 Au
atom 11.7375301099999998 22.2041597400000015 0.0295946300000000 Au
atom 14.5625748300000009 22.1867723300000002 0.1230163500000000 Au
atom 17.3575254500000007 22.2176332300000006 0.0625121700000000 Au
atom 20.1993771700000018 22.2274425099999995 0.0583360000000000 Au
atom 23.0146193399999994 22.2121978200000001 0.0832883300000000 Au
atom 25.8448893499999990 22.2137315700000002 0.1262799600000000 Au
atom 0.4561238400000000 22.2215286600000006 0.1124566500000000 Au
atom 3.3129893400000001 22.2409169099999993 0.1099308400000000 Au
atom 6.1225133400000002 22.2244755000000005 0.0815749600000000 Au
atom 7.4784813699999999 24.7272719599999995 0.1522824800000000 Au
atom 10.3190496899999999 24.6955805800000014 0.0869881400000000 Au
atom 13.1627746400000003 24.6910075000000013 0.0857986600000000 Au
atom 15.9605933600000007 24.6765737999999999 0.0868222300000000 Au
atom 18.7733920300000001 24.6876243799999990 0.0957784900000000 Au
atom 21.5981705499999990 24.7003692999999984 0.1082996400000000 Au
atom 24.4176852699999998 24.6709238199999987 0.1274964600000000 Au
atom 27.2439015200000014 24.6966780499999992 0.0853802500000000 Au
atom 1.8730050899999999 24.6755094499999998 0.0892188600000000 Au
atom 4.6669686199999996 24.6961985999999989 0.0859638800000000 Au
atom 8.9309386899999996 27.1683158599999999 0.0731396200000000 Au
atom 11.7218769100000006 27.1516506399999997 0.0335376900000000 Au
atom 14.5434340899999999 27.1726471700000012 0.0689430700000000 Au
atom 17.3836627600000000 27.1546695100000015 0.0672843200000000 Au
atom 20.2012565700000017 27.1342833900000002 0.0849378400000000 Au
atom 23.0168711500000001 27.1374037199999982 0.0906280100000000 Au
atom 25.8342582699999994 27.1510054799999985 0.0922012900000000 Au
atom 0.4525993800000000 27.1542652999999987 -0.0066068300000000 Au
atom 3.2735282500000000 27.1332922100000005 0.1127817400000000 Au
atom 6.1090935699999998 27.1577753400000006 0.1699623300000000 Au
atom 7.4824450400000000 29.6563481600000003 0.0150563900000000 Au
atom 10.3030624100000008 29.5837475699999999 0.0131553200000000 Au
atom 13.1590615900000003 29.6320194299999997 0.0248358700000000 Au
atom 15.9766362500000003 29.6286910500000005 0.0144695000000000 Au
atom 18.7934823000000009 29.6008249399999990 0.0217581300000000 Au
atom 21.5757599800000008 29.6158855999999986 0.0033157200000000 Au
atom 24.4220396199999996 29.6105535899999985 -0.0374646500000000 Au
atom 27.2579260000000012 29.5963181800000008 0.0599127200000000 Au
atom 1.8676594399999999 29.6400630199999995 -0.0356933400000000 Au
atom 4.6540216399999998 29.6141094199999984 0.0791716300000000 Au
atom 8.9200616799999999 32.0402747700000035 -0.0560919600000000 Au
atom 11.7144907000000007 32.0486294199999975 0.0092934800000000 Au
atom 14.5511834499999999 32.1165504599999991 -0.0618811000000000 Au
atom 17.3597007999999988 32.0818096599999976 -0.0088816600000000 Au
atom 20.2019698699999992 32.0580022400000004 -0.0580984200000000 Au
atom 23.0163071700000010 32.0698262599999993 0.0115484700000000 Au
atom 25.8161419300000006 32.0879492799999966 0.0089047700000000 Au
atom 0.4482728600000000 32.0865160500000002 0.0541076400000000 Au
atom 3.2961138600000002 32.0979537099999988 -0.0388015200000000 Au
atom 6.0993489900000002 32.0902033599999967 -0.0154385600000000 Au
atom 7.5009848400000001 34.5456142800000023 0.0017180500000000 Au
atom 10.2665894899999994 34.5285589900000005 -0.0077062300000000 Au
atom 13.1181404900000000 34.5752086700000021 0.0158190300000000 Au
atom 15.9526679900000001 34.5320278100000024 0.0319792700000000 Au
atom 18.7859856799999996 34.5376657699999967 0.0413245300000000 Au
atom 21.5967895799999994 34.5198076900000004 0.0361868100000000 Au
atom 24.4245197500000017 34.5631082700000007 -0.0274240400000000 Au
atom 27.2611805499999988 34.5476652600000023 0.0442312400000000 Au
atom 1.8786429600000001 34.5647325899999984 -0.0172830400000000 Au
atom 4.7123781999999999 34.5679650599999988 0.0183911700000000 Au
atom 8.9044796999999996 37.0101434899999973 0.0449221200000000 Au
atom 11.7199275699999994 37.0241098799999975 0.0482990000000000 Au
atom 14.5183603199999993 36.9983795899999990 0.0651610100000000 Au
atom 17.3142091700000016 37.0003936100000033 -0.0104282600000000 Au
atom 20.1613317099999989 37.0087606800000017 0.0164698100000000 Au
atom 22.9894609099999983 37.0026758599999965 0.0004204800000000 Au
atom 25.8575694300000016 37.0118713000000028 0.0115099500000000 Au
atom 0.4780833700000000 37.0249431900000019 0.0456467500000000 Au
atom 3.3034907800000002 36.9915938999999980 -0.0225503600000000 Au
atom 6.0929992500000001 37.0376530400000021 0.0294540200000000 Au
atom 7.5268190700000002 0.0140291500000000 -0.0000163200000000 Au
atom 10.3154817600000008 -0.0126962600000000 0.1389513700000000 Au
atom 13.1587130800000001 0.0070189600000000 0.0492204600000000 Au
atom 15.9597401699999999 0.0090837000000000 0.1073614100000000 Au
atom 18.7545223199999995 0.0152655100000000 0.1227662000000000 Au
atom 21.6033894500000017 -0.0168715400000000 0.1398825900000000 Au
atom 24.4278605900000017 0.0143207800000000 0.0822667200000000 Au
atom 27.2798864499999993 -0.0051523200000000 0.0815183700000000 Au
atom 1.8824000800000000 0.0108889700000000 0.0805273100000000 Au
atom 4.6767308800000000 -0.0035902700000000 0.1121558700000000 Au
atom 8.9086387499999997 2.4945493900000000 0.1288868100000000 Au
atom 11.7402106899999996 2.4402788900000001 0.0943171100000000 Au
atom 14.5740842799999992 2.4824018900000002 0.1246784400000000 Au
atom 17.3891969599999996 2.4633039200000000 0.0419531400000000 Au
atom 20.2111515200000014 2.4594358000000001 0.0345632000000000 Au
atom 23.0227865099999995 2.4592211900000001 0.0340903500000000 Au
atom 25.8281390299999991 2.4820299100000001 0.0630350100000000 Au
atom 0.4306988300000000 2.4556169500000000 0.0949767400000000 Au
atom 3.2671071299999999 2.4943792199999999 0.0649050500000000 Au
atom 6.1092709500000000 2.4636194599999999 0.0631041600000000 Au
atom 7.5075563000000001 4.9707925199999998 0.0588599800000000 Au
atom 10.3377648099999995 4.9022950800000000 0.0783830800000000 Au
atom 13.1377886099999994 4.9313375300000004 0.1664592600000000 Au
atom 15.9738285999999992 4.9403735800000002 0.1053385100000000 Au
atom 18.7912788599999985 4.9511395399999998 0.0893543400000000 Au
atom 21.5911209399999997 4.9539099699999998 0.1097579500000000 Au
atom 24.3930830100000016 4.9551635999999997 0.0874239000000000 Au
atom 27.2320624100000011 4.9443010400000000 0.1343903500000000 Au
atom 1.8368324300000001 4.9238182300000002 0.1226693200000000 Au
atom 4.6791196900000003 4.9330505899999997 0.0691585900000000 Au
atom 8.9721568999999999 7.3873763600000002 0.0511896900000000 Au
atom 11.7533327799999991 7.3930023699999996 0.0455443800000000 Au
atom 14.5559900599999992 7.3975860000000004 0.0321750800000000 Au
atom 17.3924092600000009 7.4299580499999998 0.1176830400000000 Au
atom 20.2200479500000014 7.4344301899999996 0.0832841200000000 Au
atom 23.0541413999999989 7.4171502699999996 0.1019548500000000 Au
atom 25.8683851800000006 7.4113765200000001 0.0667011500000000 Au
atom 0.4736211000000000 7.4252815099999996 0.0457927800000000 Au
atom 3.2959022999999998 7.4016471900000003 0.0497176100000000 Au
atom 6.1181790999999999 7.4283409300000001 0.0274124400000000 Au
atom 7.5513309599999996 9.8570793600000002 0.0578401100000000 Au
atom 10.3147245600000002 9.8885640400000003 0.0085904300000000 Au
atom 13.1584587899999992 9.8366862600000005 0.0432198600000000 Au
atom 15.9291698499999992 9.9122296199999997 0.0494852800000000 Au
atom 18.7687473500000017 9.8800723999999995 0.0653611000000000 Au
atom 21.6073510300000002 9.8716012899999992 0.0490318900000000 Au
atom 24.4304199000000004 9.8792646800000004 0.0736754400000000 Au
atom 27.2541086700000008 9.8976528899999998 -0.0374283900000000 Au
atom 1.8682437199999999 9.8563194299999992 -0.0123480000000000 Au
atom 4.7117760200000003 9.8924222400000001 0.0065481600000000 Au
atom 8.9108122299999994 12.3780835200000006 -0.0562672800000000 Au
atom 11.7608231300000003 12.3683489899999994 -0.0421304900000000 Au
atom 14.5669985799999999 12.3565780899999993 -0.0155966700000000 Au
atom 17.4163946699999990 12.3587641500000007 0.0489035700000000 Au
atom 20.2071974999999995 12.3486986999999999 0.0114265800000000 Au
atom 23.0557174099999997 12.3136727100000005 0.0310083600000000 Au
atom 25.8400443899999992 12.3345157600000004 -0.0124978600000000 Au
atom 0.4422734800000000 12.3723280199999994 -0.0611738800000000 Au
atom 3.2369178199999999 12.3049043900000008 -0.0154726300000000 Au
atom 6.1104840600000001 12.3333722100000003 0.0202302200000000 Au
atom 7.5220029200000003 13.2129980499999995 2.6355080700000002 Au
atom 10.3705648400000001 13.2067296699999996 2.4633328900000002 Au
atom 13.1519466299999994 13.1793304300000003 2.6572074400000001 Au
atom 15.9581306999999999 13.1642084100000005 2.5151205600000002 Au
atom 18.7899669699999983 13.2096555000000002 2.6686253700000000 Au
atom 21.5951345799999999 13.2144634799999992 2.5502695700000002 Au
atom 24.4672214900000000 13.1683792700000009 2.6425671300000002 Au
atom 27.2518793600000002 13.2125787999999993 2.6121516300000001 Au
atom 1.8710239000000000 13.2383349999999993 2.7080703800000001 Au
atom 4.6824524900000002 13.2306926699999998 2.5547569000000001 Au
atom 8.8585107599999997 15.6348641900000001 2.5279806100000002 Au
atom 11.8116610800000004 15.6361962000000005 2.5059257499999998 Au
atom 14.5622897499999997 15.6296823200000006 2.6005215800000001 Au
atom 17.4003288500000011 15.6226942799999993 2.6977852499999999 Au
atom 20.2046569299999987 15.6738713900000004 2.6183192900000001 Au
atom 23.0174097599999996 15.6171041000000006 2.6402963000000002 Au
atom 25.8351181700000012 15.6426026199999999 2.6516922300000001 Au
atom 0.4751300400000000 15.6968224500000009 2.6027420399999999 Au
atom 3.3054655799999999 15.6708840899999995 2.6002355900000000 Au
atom 6.0890056799999996 15.6768904300000003 2.5920940799999999 Au
atom 7.5027436900000000 18.1259941699999985 2.7054586100000000 Au
atom 10.3313533000000000 18.1486332799999985 2.5545212500000001 Au
atom 13.1281178000000001 18.0792015500000005 2.6223820299999998 Au
atom 15.9523918099999999 18.0911402700000004 2.6398572599999999 Au
atom 18.7975489600000003 18.0678649500000006 2.6455116500000000 Au
atom 21.6122984500000008 18.0807941599999999 2.5891377800000002 Au
atom 24.3870011200000008 18.1035272800000016 2.7150692300000001 Au
atom 27.2093377399999987 18.1494282399999989 2.6306440499999999 Au
atom 1.8539539899999999 18.0870756200000002 2.7153807500000000 Au
atom 4.6687730099999998 18.1113287099999987 2.6309465799999998 Au
atom 8.9164036699999993 20.5847975299999995 2.6661636899999999 Au
atom 11.7077617800000002 20.5917518800000003 2.6455931200000000 Au
atom 14.5489021500000000 20.5703280200000016 2.7282672799999999 Au
atom 17.4183904500000004 20.5817225800000010 2.6396803499999999 Au
atom 20.2147727699999997 20.5467816799999987 2.6939956600000001 Au
atom 22.9993654499999991 20.5749575299999989 2.6580798500000000 Au
atom 25.8063854600000013 20.5807085100000009 2.7077311300000000 Au
atom 0.4518241600000000 20.5468909300000000 2.7512457200000000 Au
atom 3.2781965899999999 20.5820454099999992 2.7017288800000001 Au
atom 6.0883852100000002 20.5605435800000009 2.7823320100000002 Au
atom 7.4978272300000004 22.9978072500000010 2.6665893999999999 Au
atom 10.3250095300000009 23.0719605600000008 2.6939761500000001 Au
atom 13.1290017100000007 23.0707519599999991 2.6451729799999999 Au
atom 15.9425105499999997 23.0720740699999993 2.6761108700000000 Au
atom 18.7971357400000016 23.0717218200000005 2.6244464299999999 Au
atom 21.6268346499999993 23.0557589299999997 2.6762970099999999 Au
atom 24.4409467700000000 23.0256910099999992 2.7578096799999998 Au
atom 27.2185729300000006 23.0738804699999989 2.7386388799999999 Au
atom 1.8432498200000000 23.0293060300000008 2.7049303299999998 Au
atom 4.7101885499999998 23.0401769200000004 2.7056418099999999 Au
atom 8.8859607599999997 25.5285793400000003 2.7140134400000000 Au
atom 11.7325034899999991 25.5713799199999983 2.7240000599999998 Au
atom 14.5456247199999993 25.5652261500000009 2.6622530400000000 Au
atom 17.3717303100000002 25.5397976699999987 2.7289761399999999 Au
atom 20.2189060699999992 25.5187732800000013 2.7663026799999999 Au
atom 23.0276152200000013 25.5470743800000015 2.7279886000000002 Au
atom 25.8383850700000011 25.5377884399999999 2.7469135200000001 Au
atom 0.4418474200000000 25.5172339500000014 2.6790927999999998 Au
atom 3.2328137600000000 25.5025621999999998 2.7804859000000000 Au
atom 6.0556647100000003 25.5219552299999997 2.7838536299999999 Au
atom 7.5069369500000001 27.9940917700000007 2.6820077900000001 Au
atom 10.3508619100000008 28.0278151199999996 2.7539939100000002 Au
atom 13.1463831100000004 28.0099133199999990 2.5993168400000002 Au
atom 15.9961885499999994 28.0102587599999993 2.6996279599999999 Au
atom 18.8064904199999994 28.0030206100000001 2.6583624600000002 Au
atom 21.6009804500000016 28.0051667500000008 2.6738820300000001 Au
atom 24.4679535299999991 28.0316617299999997 2.6257716900000001 Au
atom 27.2333832499999993 27.9981963000000000 2.6439915100000002 Au
atom 1.8400373699999999 27.9971147500000015 2.6038004500000000 Au
atom 4.6746463599999997 27.9875433300000012 2.7549569400000000 Au
atom 8.9146683099999997 30.4812158099999984 2.6228012500000002 Au
atom 11.7467130399999995 30.4661984399999994 2.6357595699999998 Au
atom 14.5924624699999992 30.4700583099999989 2.6240358000000001 Au
atom 17.3946358399999994 30.4676601399999996 2.5591543699999999 Au
atom 20.2129567399999992 30.4700404099999993 2.6437441300000000 Au
atom 23.0444271900000004 30.4504173599999994 2.6273684099999999 Au
atom 25.8626495900000002 30.4788251599999995 2.6030995099999998 Au
atom 0.4749286700000000 30.4745575399999993 2.6910177900000001 Au
atom 3.2962198900000002 30.4421946800000001 2.6424830300000002 Au
atom 6.0820045699999996 30.4600758999999996 2.6895816099999998 Au
atom 7.5064418699999997 32.9299954700000015 2.5722570000000000 Au
atom 10.3267272999999999 32.9422378800000004 2.6225716299999999 Au
atom 13.1751941200000005 32.9002576099999970 2.5923588000000000 Au
atom 15.9687417800000002 32.9109066600000020 2.6736701699999998 Au
atom 18.7608974000000011 32.9313596599999983 2.5779334199999999 Au
atom 21.5777573400000016 32.9264359900000017 2.6344768099999998 Au
atom 24.4143979199999990 32.9550315199999986 2.5772815599999999 Au
atom 27.2357557700000008 32.9167565600000032 2.6734534999999999 Au
atom 1.8619847400000000 32.9078438299999974 2.5491216600000000 Au
atom 4.6774002799999996 32.9300198199999983 2.6151491700000000 Au
atom 8.8934983200000008 35.3962377399999966 2.5830615400000001 Au
atom 11.7280418999999991 35.3839792699999975 2.6238235500000000 Au
atom 14.5539637600000002 35.3996515899999977 2.6859934700000001 Au
atom 17.3578714299999994 35.4218412099999966 2.6785812500000001 Au
atom 20.2066261199999992 35.3771215599999991 2.6734104099999998 Au
atom 22.9892537099999998 35.3762810099999996 2.5997332300000000 Au
atom 25.8211453999999989 35.3689598500000031 2.6739889699999999 Au
atom 0.4531361400000000 35.3686431300000024 2.6382283100000001 Au
atom 3.2807510700000000 35.3944229800000016 2.6549647599999999 Au
atom 6.0657921200000002 35.3522069300000013 2.6485059099999999 Au
atom 7.5185091000000002 37.8767734799999971 2.5894636700000002 Au
atom 10.3319201700000001 37.8422135599999976 2.7319182400000002 Au
atom 13.1823306999999996 37.8515658299999984 2.6556948299999998 Au
atom 15.9955072400000002 37.8399708199999978 2.6943672400000001 Au
atom 18.7955648099999983 37.8534571599999978 2.6377352799999998 Au
atom 21.6072709799999991 37.8550418600000000 2.7067083400000000 Au
atom 24.4130840499999984 37.8362402500000030 2.5744695200000001 Au
atom 27.2351239400000011 37.7905572800000016 2.7232171699999999 Au
atom 1.8913076799999999 37.8291637399999985 2.6188084800000002 Au
atom 4.7211093399999999 37.8728915000000015 2.6519978499999999 Au
atom 8.9369180000000004 0.8295260600000000 2.7385639899999998 Au
atom 11.7715251100000007 0.8040148300000000 2.7017516300000000 Au
atom 14.5611405200000004 0.8348998500000000 2.7070273399999998 Au
atom 17.3501235099999995 0.8446341300000000 2.7206661900000002 Au
atom 20.2152333800000008 0.8226663200000000 2.7082870600000000 Au
atom 23.0073468699999992 0.8479955300000001 2.7845049099999999 Au
atom 25.8187667000000012 0.8273718300000000 2.6677440799999999 Au
atom 0.4621963100000000 0.7947885400000000 2.6967702299999998 Au
atom 3.2891959900000001 0.8483898200000000 2.7505617600000001 Au
atom 6.1243433600000001 0.8495544800000000 2.6496324499999999 Au
atom 7.5247905399999997 3.3592971800000000 2.7060528800000001 Au
atom 10.3569655399999991 3.3181314600000000 2.6787069400000001 Au
atom 13.1568648699999997 3.3363175200000001 2.6626223000000002 Au
atom 15.9864690199999995 3.3110016799999999 2.6636714600000002 Au
atom 18.8090024199999988 3.2627072300000002 2.6443690499999999 Au
atom 21.6553234199999984 3.2898637100000001 2.6262720700000002 Au
atom 24.4610875199999995 3.3240192199999998 2.6645042200000000 Au
atom 27.2426409300000003 3.2790514700000002 2.6945545800000001 Au
atom 1.8707172000000001 3.2898566599999999 2.7012252999999999 Au
atom 4.6776490900000001 3.3154731399999999 2.6402069199999998 Au
atom 8.9044825799999998 5.7993366799999997 2.7171953000000002 Au
atom 11.7214199600000004 5.7960377599999999 2.7310660900000001 Au
atom 14.5866042799999995 5.8029424799999996 2.6773540699999998 Au
atom 17.4103676900000011 5.8060658500000004 2.7567411300000000 Au
atom 20.2144412600000010 5.7362916500000001 2.7063241400000000 Au
atom 23.0335942600000010 5.7809942999999997 2.7315057800000000 Au
atom 25.8375424500000008 5.8034117600000004 2.6727821999999999 Au
atom 0.4374962300000000 5.7870306200000003 2.7116875199999999 Au
atom 3.2857443200000001 5.8036237000000002 2.7208710900000002 Au
atom 6.0765458499999996 5.7994526500000001 2.7175663999999999 Au
atom 7.5072435500000001 8.2650531199999993 2.7178715300000000 Au
atom 10.3220763899999994 8.2740367399999997 2.6207834700000001 Au
atom 13.1700848700000002 8.2565388800000008 2.7289952400000002 Au
atom 15.9789919699999992 8.2621664599999995 2.6219956899999999 Au
atom 18.8295358300000011 8.2396583999999997 2.7678469400000001 Au
atom 21.6344463000000005 8.2755908900000001 2.6484742600000000 Au
atom 24.4190621199999995 8.2475970499999995 2.6827626400000000 Au
atom 27.2526142399999998 8.2974768900000004 2.6062769200000000 Au
atom 1.8668561699999999 8.3014123400000006 2.7197758900000002 Au
atom 4.6932521300000003 8.2860214299999999 2.5963074800000001 Au
atom 8.9169584999999998 10.7911008800000001 2.6080896899999999 Au
atom 11.7353087899999995 10.7307195600000007 2.6657076900000001 Au
atom 14.5576379399999993 10.7093371600000005 2.6953421999999998 Au
atom 17.4186438199999998 10.6976621200000004 2.6486667700000002 Au
atom 20.1927132200000017 10.7425895199999992 2.6807967300000000 Au
atom 23.0221488900000004 10.7536678000000006 2.6561138500000001 Au
atom 25.8475459399999998 10.7536123600000000 2.5898310800000002 Au
atom 0.4794186400000000 10.7499853299999995 2.5763599199999998 Au
atom 3.2794100300000002 10.7708418899999998 2.5961656199999998 Au
atom 6.1073703100000003 10.7480953699999997 2.6022615199999999 Au
atom 7.2349705899999996 13.1176043900000003 5.4150208299999996 Cl
atom 7.3344830900000000 15.9506227200000001 8.1878656799999998 Cl
atom 7.4661649099999998 13.2345746900000005 8.0850212900000002 Na
atom 7.3715833999999996 16.0341371600000002 5.5309769500000003 Na
atom 7.5305671199999997 18.8323587699999990 5.7364563500000001 Cl
atom 7.4091975600000000 21.8109736800000000 8.6837927700000002 Cl
atom 7.5199746200000002 18.8765439000000015 8.3367146800000000 Na
atom 7.4438072899999996 21.6473112599999986 5.8734854299999997 Na
atom 7.3968021700000000 24.4713917300000006 5.7895150800000001 Cl
atom 7.5038963100000000 27.2733711700000008 8.6112022100000001 Cl
atom 7.4574411700000001 24.5042456999999985 8.4393646199999992 Na
atom 7.4503916500000003 27.2843954800000006 5.8635035300000000 Na
atom 7.5397640800000003 30.1114001500000015 5.8065381100000000 Cl
atom 7.4108173400000004 32.9102602000000033 8.6391297799999993 Cl
atom 7.5290265600000001 30.1236969300000013 8.4643558500000005 Na
atom 7.4425882300000001 32.9007797900000014 5.8688772000000000 Na
atom 7.4751734399999998 35.7239207100000016 5.7442330000000004 Cl
atom 7.4564963500000001 38.5891648200000006 8.6373707199999998 Cl
atom 7.4630675699999998 35.7756071800000015 8.3965992400000005 Na
atom 7.4630936500000002 38.5520691099999979 5.8842251399999999 Na
atom 7.5313252000000004 1.9003765900000000 5.8067171899999996 Cl
atom 7.4488006000000002 4.7324390400000000 8.6257456300000008 Cl
atom 7.4357648200000002 1.9010890800000000 8.5021761900000001 Na
atom 7.5036025799999999 4.6472946200000003 5.8378243799999998 Na
atom 7.4627709500000003 7.4757956099999996 5.7097670400000000 Cl
atom 7.4137193200000002 10.3178652700000004 8.5477861900000001 Cl
atom 7.4643848600000000 7.4819393600000001 8.3775285600000000 Na
atom 7.5205898400000004 10.2609902900000005 5.7794332099999997 Na
atom 10.1813554199999992 13.0999012799999992 5.6298169199999997 Na
atom 13.2820955499999993 13.0130190199999998 5.4627931099999998 Cl
atom 10.3957555399999997 15.7907004400000002 7.8439592600000001 Na
atom 12.9134319699999995 15.9577768399999993 8.1096675200000004 Cl
atom 13.0659261600000001 13.2206820300000008 8.0378893500000004 Na
atom 10.2680312699999998 13.2211389900000000 8.2584589099999999 Cl
atom 13.1568201699999996 15.9343436399999998 5.4008148299999998 Na
atom 10.2590863100000007 16.1707312899999991 5.6522235800000002 Cl
atom 10.3265925500000009 19.0200686899999987 5.5976129600000002 Na
atom 13.2403300000000002 18.8797989999999984 5.2733163400000000 Cl
atom 10.2894530100000008 21.7419746899999993 8.2248301900000005 Na
atom 13.1807326800000002 21.4775373499999986 8.0829292099999996 Cl
atom 13.0783639800000007 18.7033127999999991 7.7680762799999998 Na
atom 10.3002409600000000 18.9267523500000010 8.2867612200000007 Cl
atom 13.1213542600000004 21.7472413600000003 5.4926411899999996 Na
atom 10.0885237100000005 21.9363731500000014 5.5443500300000004 Cl
atom 10.1707416700000000 24.5787827700000001 5.8390164200000001 Na
atom 12.8851089800000000 24.5157055499999998 5.5860359600000002 Cl
atom 10.2862388500000002 27.3266039999999997 8.3721110099999994 Na
atom 13.0312038799999996 27.3151944899999997 8.4791156399999998 Cl
atom 13.1426947700000003 24.4241311199999984 8.2128471800000007 Na
atom 10.1973921500000007 24.5473870199999986 8.5001989400000006 Cl
atom 13.0115221200000004 27.2774220499999984 5.7665814099999997 Na
atom 10.2228100899999994 27.3889873900000005 5.7067109199999999 Cl
atom 10.3284353499999995 30.1427048900000010 5.8271149400000004 Na
atom 13.0767631800000004 30.1702809300000006 5.7088520400000000 Cl
atom 10.2871459200000004 32.9128847599999972 8.4257272600000004 Na
atom 13.1238423700000002 32.9364287599999983 8.5865949300000004 Cl
atom 13.1130127600000002 30.1277515999999999 8.3416413200000008 Na
atom 10.2970749900000005 30.1381825799999987 8.6121864800000001 Cl
atom 13.1006938799999997 32.9592525400000014 5.8037691400000000 Na
atom 10.2875673299999999 32.8877736399999989 5.7704264500000004 Cl
atom 10.3615883600000007 35.7223971199999966 5.8729186300000000 Na
atom 13.1234844000000006 35.7648077999999998 5.7372192100000001 Cl
atom 10.2797251999999997 38.5629702000000023 8.4703173700000001 Na
atom 13.1142132100000008 38.5766224500000021 8.5319956500000007 Cl
atom 13.1160829299999993 35.7217899700000032 8.4121409099999997 Na
atom 10.3167454900000006 35.7334894099999971 8.5733972800000000 Cl
atom 13.0452516299999992 38.6097632800000028 5.8281043099999996 Na
atom 10.2353406099999997 38.5690977200000020 5.8036936399999997 Cl
atom 10.3079130899999996 1.8516264099999999 5.8681295599999999 Na
atom 13.1250882699999991 1.9179173400000000 5.7907561100000002 Cl
atom 10.3123324499999995 4.6673092900000004 8.4590956399999992 Na
atom 13.2025212300000003 4.6816090900000003 8.6023312000000001 Cl
atom 13.1708585399999993 1.9039784200000001 8.4345278599999993 Na
atom 10.2982018100000001 1.9138330900000000 8.6854209999999998 Cl
atom 13.1343210500000005 4.6985218499999997 5.8714229600000003 Na
atom 10.3066648300000008 4.6917696199999996 5.7907453799999997 Cl
atom 10.2993181699999994 7.3415932100000001 5.8547744799999997 Na
atom 13.1542025999999996 7.4582718300000002 5.7074845600000002 Cl
atom 10.3161721899999996 10.2878048900000003 8.5065257400000007 Na
atom 13.1580211600000005 10.2890592299999994 8.5403447299999993 Cl
atom 13.1747874500000002 7.4853355300000004 8.4137656599999993 Na
atom 10.3705670300000001 7.4556984399999999 8.6710743899999994 Cl
atom 13.0616946499999997 10.2728994199999999 5.8431603799999996 Na
atom 10.2781928300000001 10.0942915499999994 5.7064329400000000 Cl
atom 16.0982916100000004 13.0519669900000004 5.7741846199999998 Na
atom 18.8417240700000015 13.0889868200000006 5.7259602100000002 Cl
atom 15.9325921499999996 15.9306205399999996 8.1426861800000001 Na
atom 18.9257708600000001 15.8454008999999996 8.6301311399999996 Cl
atom 18.8139575699999995 13.0869960800000005 8.4406780000000001 Na
atom 15.9712256600000000 13.0513353100000007 8.5014406699999991 Cl
atom 18.9379935800000005 15.7808072199999998 5.7797537500000002 Na
atom 16.2259967600000010 15.8158649600000007 5.5502522699999997 Cl
atom 16.0160823999999984 18.7092588999999982 5.5115269500000004 Na
atom 18.9993133100000016 18.5443488800000011 5.4554115500000000 Cl
atom 16.0961358399999988 21.5967621799999989 7.8488072200000003 Na
atom 18.7585277599999998 21.7473896999999994 8.3072008200000003 Cl
atom 18.8588502099999999 18.7702784200000004 8.0992701900000004 Na
atom 16.0596601600000000 18.7443099500000017 8.2288917300000008 Cl
atom 18.8402025100000010 21.5715442499999988 5.5749390099999996 Na
atom 15.9682787299999998 21.5899221399999988 5.2631907399999998 Cl
atom 15.9177997799999993 24.4876352799999992 5.6656497400000001 Na
atom 18.7969677200000014 24.4841318100000009 5.6394726200000003 Cl
atom 15.9243358500000003 27.2872290000000000 8.1614782399999992 Na
atom 18.7137224400000015 27.2591832399999987 8.3773172700000007 Cl
atom 18.6292183599999994 24.3499692100000011 8.1914192700000008 Na
atom 16.0552570999999986 24.3335917600000009 8.3957134700000005 Cl
atom 18.7115430200000006 27.2459667799999998 5.7402503600000001 Na
atom 15.8308038700000004 27.4126029200000012 5.5292458199999999 Cl
atom 15.9411219499999994 30.2323292899999991 5.7993388100000001 Na
atom 18.7769754900000017 30.1328722499999984 5.7830033800000002 Cl
atom 15.8986275100000007 32.9501396000000000 8.4411915999999998 Na
atom 18.7662012999999988 32.9800962699999971 8.6154172899999999 Cl
atom 18.6977283700000001 30.0639239300000014 8.5768371000000005 Na
atom 15.9009202799999994 30.2119472199999990 8.6211338499999997 Cl
atom 18.7406948900000003 32.9631882999999988 5.8541040200000003 Na
atom 15.9376432700000006 32.9371117600000005 5.6875536999999996 Cl
atom 15.8693893300000006 35.8031960699999985 5.8337753100000000 Na
atom 18.7276171200000014 35.7731834399999968 5.7927344800000000 Cl
atom 15.9392306300000008 38.5378443000000033 8.3940757900000005 Na
atom 18.7347816300000005 38.5308419799999982 8.6533967700000005 Cl
atom 18.7537711800000011 35.7181533899999977 8.4358178299999995 Na
atom 15.8479046799999992 35.7629172400000002 8.5696283799999993 Cl
atom 18.7853697900000007 38.5447145899999981 5.8841168399999999 Na
atom 15.8808966700000003 38.6332261700000004 5.6920774900000000 Cl