#===============================================================================
# Created using the Atomic Simulation Environment (ASE)

# Tue Dec 23 21:42:25 2025

#=======================================================
lattice_vector 28.1999999999999993 0.0000000000000000 0.0000000000000000 
lattice_vector 0.0000000000000000 39.4799999999999969 0.0000000000000000 
lattice_vector 0.0000000000000000 0.0000000000000000 62.3296083400000001 
atom 7.4797525499999997 14.9643759099999993 -0.5701947000000001 Au
atom 10.2069770599999998 14.7600572099999994 -0.2149303100000000 Au
atom 13.0654812000000007 14.8370125700000006 -0.2046151600000000 Au
atom 16.0304293800000011 14.8544907599999991 -0.3584895400000000 Au
atom 18.8065745200000016 14.7522173300000006 -0.2710697800000000 Au
atom 21.6486703399999989 14.7324327900000007 -0.1076893200000000 Au
atom 24.4359994699999987 14.8420416700000004 -0.1100923800000000 Au
atom 27.3549938300000015 14.7688316999999998 -0.0084754700000000 Au
atom 1.9329044200000001 14.7981599100000007 -0.1962166200000000 Au
atom 4.7521589500000001 14.7893083599999997 -0.1405977700000000 Au
atom 8.9124545600000005 17.3626000400000002 -0.3790776500000000 Au
atom 11.7447288299999997 17.3927127800000001 -0.1177197900000000 Au
atom 14.5652390700000005 17.3710627600000009 -0.2303841700000000 Au
atom 17.4861060399999992 17.2743663500000011 -0.0186027900000000 Au
atom 20.2756536999999994 17.2128908900000006 -0.2287463400000000 Au
atom 23.0184978200000003 17.2449524700000012 -0.0433759100000000 Au
atom 25.8207432499999996 17.2423974400000013 0.0727205600000000 Au
atom 0.4335852400000000 17.1574446999999992 0.0725404000000000 Au
atom 3.1726404600000002 17.2586409699999983 -0.2933585300000000 Au
atom 5.9896967099999996 17.3679400500000014 -0.2691382900000000 Au
atom 7.3284492500000002 19.7784618899999991 -0.1495295100000000 Au
atom 10.2829657000000001 19.8970909800000015 -0.2211520800000000 Au
atom 13.0687868799999993 19.8497605200000002 -0.2761854500000000 Au
atom 16.0555000499999991 19.6672885499999985 -0.1211141900000000 Au
atom 18.7252890799999996 19.7562503099999986 0.1805464300000000 Au
atom 21.4993471000000014 19.7174288699999991 0.0471273700000000 Au
atom 24.3672620799999997 19.7076065000000007 0.2160975400000000 Au
atom 27.1544532899999993 19.6474649799999987 -0.0419859600000000 Au
atom 1.7717809499999999 19.6537969299999986 0.0583878900000000 Au
atom 4.5114958900000000 19.7996128999999996 -0.2816270900000000 Au
atom 8.7703306800000007 22.3221375399999999 -0.1213944000000000 Au
atom 11.6547406700000007 22.3183226599999998 -0.0410973400000000 Au
atom 14.4797965600000005 22.2667511400000002 -0.0288767500000000 Au
atom 17.2567775300000008 22.2695492000000002 0.1719977000000000 Au
atom 20.1979070800000002 22.1964845299999993 0.1978839400000000 Au
atom 22.9246705000000013 22.2932046899999996 0.2800051600000000 Au
atom 25.7290851499999995 22.0922976999999996 0.0574596300000000 Au
atom 0.2994714500000000 22.1071866200000002 0.0732850400000000 Au
atom 3.1953731599999999 22.2262237300000010 0.1890369600000000 Au
atom 5.9452633800000001 22.2533396299999993 -0.1810733100000000 Au
atom 7.5183436400000003 24.7970326499999985 0.0992749000000000 Au
atom 10.2896647300000001 24.8428635900000003 0.1093196500000000 Au
atom 13.0635741599999999 24.8102876600000002 0.0341050300000000 Au
atom 15.8405603500000005 24.6959685100000002 -0.0084909300000000 Au
atom 18.7115542599999998 24.6861267200000007 0.0273906700000000 Au
atom 21.5084626300000004 24.6990228599999995 0.3153866800000000 Au
atom 24.3404504800000012 24.7019830300000010 -0.2135363000000000 Au
atom 27.1709994899999998 24.5731203899999997 -0.1979966400000000 Au
atom 1.8085023000000000 24.6258967899999988 -0.1419417100000000 Au
atom 4.6124102400000000 24.6508203100000003 -0.0276237200000000 Au
atom 8.8830012400000005 27.2419981100000008 0.2893247600000000 Au
atom 11.7959599900000001 27.2766638400000012 -0.1143593100000000 Au
atom 14.5409299200000000 27.2336789099999983 -0.0336884600000000 Au
atom 17.2953492000000004 27.1238556099999997 -0.1371214900000000 Au
atom 20.2139484899999999 27.1145211699999997 0.0165158500000000 Au
atom 22.9953576899999987 27.1111417999999986 0.0667524300000000 Au
atom 25.7754173000000009 27.1481452099999991 -0.1845683000000000 Au
atom 0.2711385500000000 27.1533339600000012 -0.0892467900000000 Au
atom 3.1068518300000001 27.1247448300000009 -0.0325055000000000 Au
atom 5.9960141900000004 27.1489146199999993 -0.0283238100000000 Au
atom 7.4347082499999999 29.6306108799999990 -0.1278176800000000 Au
atom 10.2128014500000006 29.7593269700000000 0.0750460200000000 Au
atom 13.0779615400000004 29.8323551100000017 0.0572969200000000 Au
atom 15.8534867800000008 29.6591985300000012 0.0514104800000000 Au
atom 18.7272385099999994 29.5962164100000003 0.0619407400000000 Au
atom 21.5691473800000004 29.6072023500000014 -0.1213410400000000 Au
atom 24.3514987699999992 29.6372698700000008 -0.0933444300000000 Au
atom 27.0404493399999986 29.5569390399999996 0.4180291200000000 Au
atom 1.7270175200000000 29.6358187199999996 -0.1281644900000000 Au
atom 4.5134530599999998 29.5386658799999999 -0.1939909300000000 Au
atom 8.7969177100000007 32.0907662299999998 -0.0920369000000000 Au
atom 11.6376887000000000 32.1764193200000008 -0.0957738700000000 Au
atom 14.5339099899999997 32.1800806299999991 0.1958183400000000 Au
atom 17.3092156700000004 32.1174957899999995 -0.0640145900000000 Au
atom 20.0649217399999991 32.0783143800000019 0.2571307300000000 Au
atom 22.9146885299999994 32.2905571499999979 -0.0107955500000000 Au
atom 25.7066294000000006 32.0882578100000018 0.2705235100000000 Au
atom 0.2868876800000000 31.9950229499999992 0.2921761100000000 Au
atom 3.0968531800000001 32.0305190199999998 -0.0134216300000000 Au
atom 5.8721869299999998 31.9766866199999988 -0.1388422200000000 Au
atom 7.3661577300000003 34.4459506899999965 -0.0260243400000000 Au
atom 10.1913949600000002 34.6040437099999991 -0.1987120000000000 Au
atom 13.0605094299999998 34.4977391500000010 -0.0472169900000000 Au
atom 15.7940716900000009 34.6166795500000006 -0.0160751700000000 Au
atom 18.6541751299999987 34.5553894600000007 0.0491981000000000 Au
atom 21.5119981399999993 34.6879140500000034 -0.0322268100000000 Au
atom 24.4939047400000014 34.6175502399999999 0.1930988900000000 Au
atom 27.1855879199999997 34.4900857499999987 0.7816728400000000 Au
atom 1.7236135200000000 34.4935333199999974 0.1887814500000000 Au
atom 4.6326750399999996 34.3851353700000004 -0.2345768500000000 Au
atom 8.7460134499999995 37.0144600499999967 0.1131716800000000 Au
atom 11.5739386399999997 37.0328832599999984 0.1268452600000000 Au
atom 14.4157136900000005 37.0361257100000003 0.0958579600000000 Au
atom 17.3169703999999989 37.0832220699999979 0.1610240800000000 Au
atom 20.0850197299999991 37.1716586300000031 0.2004073200000000 Au
atom 23.0079801199999991 37.0812412399999971 0.1613810400000000 Au
atom 25.8049993999999998 36.9764967300000009 0.2338683100000000 Au
atom 0.3750482600000000 36.9284226700000033 0.2409733500000000 Au
atom 3.1958371699999999 36.9580642800000021 0.1462055600000000 Au
atom 5.9664411299999998 37.0269157700000022 -0.1292799200000000 Au
atom 7.4558305699999998 0.0209231900000000 0.0808459100000000 Au
atom 10.1715043400000003 -0.0210541400000000 -0.0335318200000000 Au
atom 13.0805385899999997 0.0016039100000000 0.1654677500000000 Au
atom 15.9412768200000006 -0.0096657600000000 0.2460271800000000 Au
atom 18.7071321200000007 0.0520187000000000 0.2271169800000000 Au
atom 21.6042654399999989 0.0241608400000000 0.4604239100000000 Au
atom 24.3709040200000011 0.0734179200000000 0.2818620600000000 Au
atom 27.2825973099999999 -0.0989471400000000 0.4052001200000000 Au
atom 1.8420997699999999 -0.0352591800000000 0.0896892500000000 Au
atom 4.6623050399999997 -0.0144948800000000 0.1720407600000000 Au
atom 8.9524322099999996 2.4891501400000000 0.0797851100000000 Au
atom 11.6917852300000007 2.4010803200000002 0.2860058100000000 Au
atom 14.6198301599999994 2.3730471299999998 0.3322652000000000 Au
atom 17.3435619500000016 2.4689437999999999 0.1259103300000000 Au
atom 20.2063472299999987 2.4160294100000002 0.1697224500000000 Au
atom 23.1007059400000010 2.5711121399999999 0.4189836900000000 Au
atom 25.9224573000000014 2.3390573200000002 0.5378898100000000 Au
atom 0.4937493100000000 2.4624683400000000 0.4109087900000000 Au
atom 3.2111820600000001 2.4341854700000001 0.0673780000000000 Au
atom 6.0060943800000004 2.5041854200000002 0.2788202900000000 Au
atom 7.5929447999999997 4.9089494000000000 0.0383386900000000 Au
atom 10.4419820699999999 4.8241547400000000 0.2789537200000000 Au
atom 13.1290830399999994 4.8712131999999997 0.0342914300000000 Au
atom 16.0167194200000012 4.9171176000000001 0.3996544800000000 Au
atom 18.8152398100000013 4.8620817699999996 0.1373745400000000 Au
atom 21.6512366199999988 4.8356619099999998 -0.1345950300000000 Au
atom 24.4878172200000002 4.9413457999999997 0.2739116500000000 Au
atom 27.2586947899999998 4.7800096400000003 0.1275035800000000 Au
atom 1.8904125199999999 4.9437733200000000 0.2823563600000000 Au
atom 4.6482049300000003 4.9192758300000001 0.4001628600000000 Au
atom 8.8879303200000006 7.3382838699999997 0.0995479700000000 Au
atom 11.6928643900000004 7.3234845799999997 -0.0930317800000000 Au
atom 14.5181182500000006 7.4012324999999999 0.2065245400000000 Au
atom 17.3080789499999987 7.2458125799999999 -0.0061961400000000 Au
atom 20.2187867200000007 7.2500315500000001 0.0206661000000000 Au
atom 22.9966599800000004 7.3813977000000000 0.2019871300000000 Au
atom 25.7999945799999999 7.3398098300000001 0.1798282700000000 Au
atom 0.4024448400000000 7.4161584300000003 0.0458228700000000 Au
atom 3.2239604599999998 7.2738810400000000 0.1482502100000000 Au
atom 6.0676443500000001 7.3159585500000004 0.0035549400000000 Au
atom 7.3914141300000002 9.7779758599999997 -0.2322944900000000 Au
atom 10.2063947400000004 9.8214856600000005 -0.1305782300000000 Au
atom 13.1001503300000000 9.7872193500000009 -0.2453829900000000 Au
atom 16.0468553000000007 9.8611491200000003 -0.3444206800000000 Au
atom 18.6893743000000008 9.7487844700000004 -0.0703178100000000 Au
atom 21.5156848899999993 9.7853721599999997 0.0737162400000000 Au
atom 24.3575574400000008 9.9004397999999991 0.0723682600000000 Au
atom 27.2013350299999992 9.8775516799999998 0.1449621700000000 Au
atom 1.8123568600000000 9.7432997100000005 -0.0976159400000000 Au
atom 4.6160100699999997 9.7408868300000009 -0.1785444500000000 Au
atom 8.8290150000000001 12.3316933300000002 -0.4881457900000000 Au
atom 11.6308051700000004 12.3089718399999999 -0.2203178500000000 Au
atom 14.5059053799999997 12.3885441400000005 -0.4293666200000000 Au
atom 17.3990034199999997 12.2551002400000009 -0.1556065700000000 Au
atom 20.1848715299999988 12.3021138000000008 -0.2987678100000000 Au
atom 22.9472585900000006 12.3236078700000000 -0.0713568600000000 Au
atom 25.7795249999999996 12.3452648499999995 -0.2702452700000000 Au
atom 0.5539738600000000 12.3057521399999992 -0.1524551800000000 Au
atom 3.3237108599999998 12.3004757700000003 -0.4229824500000000 Au
atom 6.0773606700000000 12.3392772799999992 -0.7050626400000000 Au
atom 7.4821249999999999 13.3107232700000004 1.7804603800000001 Au
atom 10.1735127199999997 13.1117430000000006 2.5323433700000000 Au
atom 13.1993026100000002 13.1471695000000004 2.4086042100000000 Au
atom 16.0331526300000000 13.1386752399999995 2.2046655700000000 Au
atom 18.8013450900000016 13.1657195700000003 2.3731562500000001 Au
atom 21.5864948599999984 13.1810527200000003 2.4685798000000001 Au
atom 24.3622501400000004 13.1758634600000004 2.3278083000000001 Au
atom 27.2066856699999988 13.2587891199999994 2.3720190099999998 Au
atom 1.7649609900000001 13.2208174300000003 2.3378314699999998 Au
atom 4.6279717500000004 13.3102219099999992 2.2516018400000002 Au
atom 8.9110682600000004 15.7346347099999999 2.2825658500000001 Au
atom 11.6717580800000000 15.6138105500000002 2.3433280500000002 Au
atom 14.5347343400000000 15.6168191499999995 2.2759067700000002 Au
atom 17.3624187100000000 15.6593573399999997 2.4260948000000000 Au
atom 20.1091675199999997 15.5601952600000004 2.2549367800000000 Au
atom 22.9741204199999984 15.5650307399999992 2.5764530500000000 Au
atom 25.7835803199999987 15.5768216299999995 2.4159009999999999 Au
atom 0.4715557900000000 15.6245143700000000 2.6782216399999998 Au
atom 3.2803157299999999 15.7580948799999998 2.3952292000000002 Au
atom 6.1711297199999997 15.8117835699999993 2.3935695899999998 Au
atom 7.5306107999999998 18.1874935300000011 2.4541083700000001 Au
atom 10.3353015700000004 18.1271671400000010 2.2575182200000001 Au
atom 13.0707114600000001 18.1240470400000007 2.5413047500000001 Au
atom 16.0081725299999995 18.0900074900000014 2.5540436999999998 Au
atom 18.8025524200000014 18.0726569700000006 2.5709605999999998 Au
atom 21.5488758999999988 18.0391689100000008 2.6050279600000001 Au
atom 24.3006184699999999 18.0292808600000001 2.8470295200000000 Au
atom 27.1090200800000005 18.0332125599999991 2.6319318400000000 Au
atom 1.7922607300000000 18.0678446999999984 2.6828366400000001 Au
atom 4.5887577899999998 18.2335845899999995 2.2604108799999998 Au
atom 8.8465738700000003 20.6125020399999990 2.3248590000000000 Au
atom 11.6547686099999996 20.7006959100000003 2.6435258600000000 Au
atom 14.4765484200000003 20.5969959399999993 2.4241365699999999 Au
atom 17.3401768899999986 20.6318920100000014 2.7922642000000000 Au
atom 20.2677314399999986 20.5640545400000008 2.7890101899999999 Au
atom 23.0696227100000009 20.5125771899999982 2.7664887000000000 Au
atom 25.8277206499999998 20.6086291999999993 2.8219040500000001 Au
atom 0.3551795700000000 20.5743726799999997 2.7072945499999999 Au
atom 3.0990100300000001 20.5607824400000005 2.6859130900000001 Au
atom 6.0733313100000004 20.6726635499999993 2.4549611800000002 Au
atom 7.4062084600000002 23.1168742499999986 2.4970459699999998 Au
atom 10.1554857500000004 23.1154859600000009 2.5483157900000002 Au
atom 13.0117010000000004 23.1270630100000005 2.6002350200000000 Au
atom 15.8832682100000007 23.1153962899999996 2.7378111100000000 Au
atom 18.7093672099999999 23.1051101500000016 2.7413827500000001 Au
atom 21.5058132600000000 23.0221696099999988 2.7336286699999999 Au
atom 24.4248547000000009 23.1251539999999984 2.6236222200000001 Au
atom 27.1939966800000015 23.1520554199999999 2.6801625100000002 Au
atom 1.7678120700000000 23.0984126600000010 2.5798266900000000 Au
atom 4.6235908400000003 23.1232649300000013 2.5787734599999999 Au
atom 8.8902970600000000 25.5909748199999996 2.8253973999999999 Au
atom 11.6470980399999995 25.6666689300000002 2.6711016999999999 Au
atom 14.4945947099999994 25.5595307100000007 2.5795407799999999 Au
atom 17.3650941000000003 25.4629959600000007 2.4997325600000000 Au
atom 20.1793059600000007 25.5452255000000008 2.8556693599999998 Au
atom 23.0677224699999996 25.5755701699999989 2.7348122300000002 Au
atom 25.8323845600000013 25.6099430000000012 2.4880878300000000 Au
atom 0.4579753400000000 25.5848300000000002 2.4846655000000002 Au
atom 3.2446394500000002 25.5090642900000013 2.6203481100000001 Au
atom 6.1000160499999998 25.5551928900000007 2.5857002300000000 Au
atom 7.3455459999999997 28.1004047099999994 2.5910494100000001 Au
atom 10.3223199399999999 28.1097207199999986 2.7313712200000002 Au
atom 13.0609606500000002 28.0082555800000002 2.4451007300000001 Au
atom 15.9091337300000006 28.0177632900000013 2.5739580300000000 Au
atom 18.8054087400000007 27.9220096300000016 2.4793138300000002 Au
atom 21.6293652099999996 28.0749455800000014 2.6424026899999999 Au
atom 24.3886035999999997 28.1139245699999982 2.3413393400000002 Au
atom 27.1417010699999999 27.9711462299999987 2.9185300900000000 Au
atom 1.7429256500000001 28.0949921799999984 2.4932154099999999 Au
atom 4.5281725899999996 28.0024281899999998 2.5768487599999998 Au
atom 8.7349094199999993 30.4930871199999984 2.4858923000000002 Au
atom 11.6343859700000003 30.6212983600000008 2.6858175000000002 Au
atom 14.5586317800000007 30.4555962499999993 2.8676745299999999 Au
atom 17.2961510199999999 30.4583224500000007 2.5488252400000002 Au
atom 20.1796767800000012 30.4270216399999995 2.8676980099999998 Au
atom 22.9502225499999994 30.5741603399999988 2.2609792999999998 Au
atom 25.6740839200000011 30.4364038400000005 3.0353067700000000 Au
atom 0.3527756300000000 30.3847541499999991 2.9801770599999999 Au
atom 3.1607071800000002 30.4933662500000011 2.5523420099999998 Au
atom 5.9706938799999998 30.4663311999999991 2.5789188099999998 Au
atom 7.3435285199999996 32.9488704099999978 2.5163030200000001 Au
atom 10.1957966700000000 32.9997826900000035 2.5718149200000000 Au
atom 13.0372717599999994 32.8998059600000019 2.5829775200000000 Au
atom 15.8825536199999995 32.9729956899999976 2.6559400599999998 Au
atom 18.6827203799999992 32.9127548499999989 2.7786400100000002 Au
atom 21.4735076000000014 32.8709610599999991 2.7383500600000001 Au
atom 24.2823810400000006 32.9463647999999978 2.8257034600000002 Au
atom 27.0198983000000013 32.7597449299999965 3.1335442300000000 Au
atom 1.6554526400000000 32.9546544700000013 2.8153239000000001 Au
atom 4.5595763600000003 32.8877756400000010 2.4402440099999998 Au
atom 8.7711863799999996 35.4182307199999968 2.5300246700000000 Au
atom 11.5530754899999994 35.3507457299999999 2.4558487100000002 Au
atom 14.3106913200000001 35.4946228100000027 2.8122226399999999 Au
atom 17.1967148200000004 35.4017774900000006 2.7184589899999998 Au
atom 20.0777446899999994 35.4164220400000005 2.5911080399999999 Au
atom 22.8607766000000012 35.3020969000000022 2.6796876100000002 Au
atom 25.6898862600000015 35.3169068300000006 2.9810463999999999 Au
atom 0.3869022400000000 35.3281310899999994 3.2838297900000000 Au
atom 3.1875584600000000 35.4596172400000000 2.5572889499999998 Au
atom 5.9612729099999999 35.3315514100000030 2.5460342400000000 Au
atom 7.4497067100000001 37.9002885299999974 2.5899361999999999 Au
atom 10.2050524700000000 37.8624531199999979 2.8498894099999998 Au
atom 12.9838289899999992 37.9604848099999970 2.7246584199999999 Au
atom 15.8385864000000005 37.8583015900000035 2.7292370099999999 Au
atom 18.6252458800000014 37.8130038299999995 2.9022360800000002 Au
atom 21.5212908100000000 37.8236075499999984 3.0314364100000000 Au
atom 24.3350655600000003 37.7808795400000008 2.6808327699999999 Au
atom 27.0809148600000000 37.7969913499999990 2.9608919100000000 Au
atom 1.6702731099999999 37.9557714700000020 2.6840869199999999 Au
atom 4.5464939900000001 37.8733440199999976 2.7536190800000000 Au
atom 8.8619783800000000 0.8730824900000000 2.5970681299999998 Au
atom 11.6202654899999995 0.9475470200000000 2.7794002299999998 Au
atom 14.4451745700000007 0.8901608000000000 2.8647766400000001 Au
atom 17.2429310499999993 0.8123463300000000 2.8553625600000001 Au
atom 20.0825636000000003 0.8541393400000000 2.7903265500000001 Au
atom 23.0474195100000010 0.7941908700000000 2.9863298299999999 Au
atom 25.8407468999999992 0.6855869900000000 3.1050788100000002 Au
atom 0.3451182100000000 0.9470827100000000 2.9307847499999999 Au
atom 3.1741204700000001 0.9921591700000000 2.8870686700000001 Au
atom 5.9979975500000000 0.7940959300000000 2.8299075500000002 Au
atom 7.4103492400000004 3.2751557899999999 2.7606602400000000 Au
atom 10.2312490599999997 3.3465126700000001 2.8977502099999999 Au
atom 12.9818960800000003 3.4797482899999999 2.7245973999999999 Au
atom 15.8966995499999992 3.2549768700000001 2.9009527099999999 Au
atom 18.6590509199999985 3.3548569700000002 2.6301786400000000 Au
atom 21.5609610200000006 3.3996326400000001 2.6927443499999999 Au
atom 24.3398710700000009 3.3091269099999998 3.1293267000000000 Au
atom 27.1971398899999990 3.3139890500000000 3.1077315200000002 Au
atom 1.7926311200000000 3.5232565800000000 2.9751092600000000 Au
atom 4.6016394399999996 3.3841537000000002 2.9526887600000000 Au
atom 8.9209464399999998 5.7915631300000001 2.8832591700000001 Au
atom 11.7214180100000007 5.9281657499999998 2.6555889900000000 Au
atom 14.6090733200000003 5.8995506700000000 2.8764724199999998 Au
atom 17.3648934299999986 5.8532043900000001 2.9425157000000000 Au
atom 20.0935046700000015 5.8153547699999999 2.6815569699999999 Au
atom 22.9859470700000017 5.8484527499999999 2.7696076500000002 Au
atom 25.7930221000000017 5.8257301999999997 2.8486933600000000 Au
atom 0.3764770200000000 5.9052497600000002 2.7142728699999998 Au
atom 3.1607569500000001 5.8919513600000002 2.9487681100000001 Au
atom 6.0772900900000000 5.8473332999999998 2.6545718100000002 Au
atom 7.4574592400000004 8.3274610300000003 2.6394084900000001 Au
atom 10.2833009600000000 8.3193843500000000 2.5229722699999999 Au
atom 13.0756963099999997 8.3501947899999998 2.5678845199999998 Au
atom 15.9004170299999998 8.2861966200000001 2.4663146100000000 Au
atom 18.7076600400000004 8.2896273600000008 2.4673175999999999 Au
atom 21.5579899899999994 8.2608803799999997 2.7380801500000000 Au
atom 24.4101116800000000 8.3094153100000003 2.5650483899999998 Au
atom 27.2843729900000014 8.2973374599999996 2.6258819999999998 Au
atom 1.8843344500000001 8.3751936100000002 2.6735532300000000 Au
atom 4.6798846699999999 8.3829772899999995 2.5792149200000001 Au
atom 8.8057977100000002 10.6638059599999995 2.2418172099999998 Au
atom 11.7131795600000004 10.7454728599999996 2.4233292899999999 Au
atom 14.5640954100000002 10.6790788699999997 2.0280700500000002 Au
atom 17.4011470899999985 10.7087407199999998 2.5800326199999999 Au
atom 20.2168984999999992 10.7101033099999992 2.5924422599999999 Au
atom 22.9974721600000009 10.7489926899999997 2.6724552500000001 Au
atom 25.8100179700000005 10.7241835400000003 2.6535868100000002 Au
atom 0.4657234300000000 10.8596194599999993 2.6652708600000001 Au
atom 3.2881697399999998 10.8021315199999997 2.3272229599999998 Au
atom 6.0796206599999998 10.8963963100000001 2.4571439499999999 Au
atom 7.8219316399999999 13.2894619100000000 5.5032395300000001 Cl
atom 7.9131853999999997 15.9350409899999992 8.2990995999999999 Cl
atom 7.8423096200000000 13.0736649800000002 8.3162519499999998 Na
atom 7.7403856099999997 16.0053911100000015 5.6994638399999999 Na
atom 7.6910505799999997 18.7277138299999990 5.5489127900000002 Cl
atom 8.0967088999999994 21.6442766000000013 8.3563169100000003 Cl
atom 8.0733967799999995 18.7633457200000002 8.2022000599999991 Na
atom 7.9092913400000002 21.7119013500000015 5.5961396099999998 Na
atom 8.0766599899999996 24.5538612699999987 5.5157241099999998 Cl
atom 8.0387363599999997 27.4221876299999998 8.4234577200000000 Cl
atom 8.0983481899999994 24.6018830400000006 8.0923299699999998 Na
atom 7.9500970600000000 27.3470276000000005 5.6961812800000002 Na
atom 7.7050152000000001 30.0956702000000007 5.5237614900000001 Cl
atom 7.8747093000000001 32.9843850999999972 8.3802288699999998 Cl
atom 8.0038297800000002 30.1799385099999995 8.1876640300000005 Na
atom 7.8388235399999999 33.1961102699999984 5.7217621799999998 Na
atom 7.7814017099999999 35.9037231300000030 5.6568352300000004 Cl
atom 7.8119056200000001 38.5223975500000009 8.6691299900000001 Cl
atom 7.8690761199999999 35.7202525000000009 8.4747815499999994 Na
atom 7.7599145299999996 38.4569384400000018 5.8151122400000004 Na
atom 7.6830012200000004 1.8903634499999999 5.8475611699999996 Cl
atom 7.8837137000000004 4.8528809099999997 8.5043771899999996 Cl
atom 7.7876733600000003 1.8213465200000001 8.4937928399999993 Na
atom 7.6885931400000000 4.6639842399999996 5.8327419699999998 Na
atom 7.5552402599999997 7.5255584200000003 5.5757165300000002 Cl
atom 7.8301254800000004 10.1245149100000003 8.5297903900000005 Cl
atom 7.8056345599999997 7.5300192900000003 8.4244571900000000 Na
atom 7.9416990900000002 10.3641348400000002 5.6999404499999997 Na
atom 10.7214181300000000 12.9752880200000007 5.6862795000000004 Na
atom 13.5882059900000005 13.3834342700000004 5.4603871799999997 Cl
atom 10.7533828200000006 15.8926301599999995 8.3799747700000005 Na
atom 13.4072458399999999 15.8290943599999991 8.2546874500000005 Cl
atom 13.6137320600000002 13.1674985800000002 7.9832772900000002 Na
atom 10.8029776399999999 12.9611529300000008 8.4612630099999997 Cl
atom 13.3221521900000006 15.9538315799999992 5.3738811300000000 Na
atom 10.6047071299999995 15.8689236099999995 5.4652591700000004 Cl
atom 10.8666824900000005 18.6978193399999988 5.6848791199999997 Na
atom 13.4969559100000005 18.7453705900000003 5.5733609700000004 Cl
atom 10.6904333400000002 21.6504242299999987 8.2469420200000005 Na
atom 13.4582484099999995 21.6869281399999991 8.5121488500000009 Cl
atom 13.4428871500000007 18.7720429300000013 8.2860455599999998 Na
atom 10.7236259100000009 18.8462162900000010 8.6362526200000005 Cl
atom 13.5181491699999992 21.6350697399999987 5.7320047599999997 Na
atom 10.6758413700000006 21.4075820199999995 5.5166318399999996 Cl
atom 10.7507682800000008 24.4365812200000008 5.7219278500000001 Na
atom 13.4362360600000006 24.4195298299999983 5.6772750700000003 Cl
atom 10.7157718800000001 27.4867710299999999 8.2973104099999997 Na
atom 13.3993720599999993 27.4385066000000002 8.5600973099999997 Cl
atom 13.4544613999999996 24.5773083499999991 8.4775737200000005 Na
atom 10.6753314899999996 24.5322906100000004 8.6421947899999996 Cl
atom 13.6330313899999993 27.1208880299999997 5.7845493299999999 Na
atom 10.7493732200000007 27.2346980700000003 5.6217582600000000 Cl
atom 10.5829147500000005 30.0736265600000010 5.5932297699999998 Na
atom 13.4671450700000008 30.2874550499999984 5.6390470800000001 Cl
atom 10.7337335199999995 33.0382614299999986 8.2049865099999995 Na
atom 13.5470375199999999 33.0436825199999973 8.6107082399999992 Cl
atom 13.4565403999999997 30.1236851299999984 8.2564322200000007 Na
atom 10.7165679699999998 30.2330041499999993 8.2983712000000001 Cl
atom 13.5711950300000002 33.0672540400000017 5.8381199099999996 Na
atom 10.5755737100000005 32.9820691999999980 5.4558522399999996 Cl
atom 10.5266016199999992 35.7578464799999978 5.6743681700000002 Na
atom 13.2872147300000005 35.8371454700000029 5.7033538999999998 Cl
atom 10.6837717899999998 38.5853803600000020 8.3480593400000007 Na
atom 13.5907589499999997 38.7419814799999997 8.6723108999999994 Cl
atom 13.3663913500000007 35.8252247499999967 8.4209476300000006 Na
atom 10.5903444800000006 35.8142874400000011 8.4740795799999997 Cl
atom 13.4288502300000001 38.5717655899999983 5.9745049699999999 Na
atom 10.5881675499999997 38.5786748599999996 5.8208710899999998 Cl
atom 10.4456164900000008 1.8622879100000000 5.8375726500000003 Na
atom 13.3737726499999994 1.8413282799999999 5.6745224800000003 Cl
atom 10.6415238700000003 4.9410217100000002 8.3883660300000003 Na
atom 13.4448579299999995 4.8542049000000000 8.4507610599999996 Cl
atom 13.3979883799999993 1.9616467399999999 8.2289558500000002 Na
atom 10.5205150399999994 2.0973856500000001 8.5377363000000006 Cl
atom 13.4540392999999998 4.8366664000000004 5.6520759099999998 Na
atom 10.5872893200000000 4.7028959300000004 5.5611892100000002 Cl
atom 10.4006039000000001 7.5232981499999996 5.6199765299999997 Na
atom 13.6992082199999992 7.9072940799999998 5.6042088500000000 Cl
atom 10.6040074700000009 10.2385035599999998 8.2721973700000007 Na
atom 13.5236418999999994 10.4048212200000005 8.2763667600000002 Cl
atom 13.6049673200000001 7.7967283099999998 8.1192819400000005 Na
atom 10.6373422899999994 7.6580572499999997 8.2677174999999998 Cl
atom 13.5484938899999996 10.5441839700000006 5.5192125900000004 Na
atom 10.7082108399999996 10.3532662599999998 5.4901457899999997 Cl
atom 16.4867161600000003 13.4945260900000008 5.6047894999999999 Na
atom 19.3367026700000011 13.2289161300000000 5.4228879399999999 Cl
atom 16.1001791800000014 16.0165509300000011 8.0797354499999994 Na
atom 19.2440800100000011 16.0613141900000009 8.5334593000000005 Cl
atom 19.3395188000000005 13.3625130599999995 8.2107896500000006 Na
atom 16.4883688900000003 13.4165620400000005 8.3493642200000000 Cl
atom 19.1986367400000013 16.1137238600000003 5.7488492300000003 Na
atom 16.1933849099999989 16.1107109000000008 5.4492161100000001 Cl
atom 16.0325418299999995 18.8385151700000009 5.4611459099999999 Na
atom 19.2530900100000011 18.8919285300000013 5.6840250599999997 Cl
atom 16.2993715600000009 21.5713389599999985 8.5755303400000003 Na
atom 19.0250929299999996 21.6592040600000004 8.4553590100000005 Cl
atom 19.1083981200000004 18.9144454599999996 8.2833317199999996 Na
atom 16.2641819299999995 18.7479969699999991 8.5285066599999997 Cl
atom 19.0639319299999990 21.6067002300000013 5.6576569799999996 Na
atom 16.2317976799999997 21.7513185200000017 5.8553867799999999 Cl
atom 16.3283371200000005 24.4526970599999984 5.8717363499999999 Na
atom 19.2129284100000000 24.5135367200000012 5.8058510099999996 Cl
atom 16.2264365999999995 27.2516670199999993 8.3763053599999999 Na
atom 19.0999283899999988 27.4812208700000014 8.5415145700000004 Cl
atom 19.0190241799999988 24.5340914499999982 8.4719504699999995 Na
atom 16.2700466400000003 24.5173571599999995 8.5157229099999991 Cl
atom 19.1287518200000015 27.2115506300000014 5.8944573000000000 Na
atom 16.2002673199999983 27.3371622000000016 5.7656027800000000 Cl
atom 16.4542965400000014 30.2457563299999990 5.7639617999999997 Na
atom 19.2439596600000016 30.0766375299999993 5.8080702400000002 Cl
atom 16.1600585999999993 33.1231763799999968 8.4372167000000005 Na
atom 18.9233811900000006 33.1762401800000006 8.8441051900000005 Cl
atom 19.2156151199999989 30.2538854599999993 8.4910480499999998 Na
atom 16.1519508700000003 30.0986879999999992 8.6185615299999991 Cl
atom 19.2204474699999999 33.1848978599999995 6.0407416700000001 Na
atom 16.3578682099999995 33.1316086599999977 5.7512482100000000 Cl
atom 16.2309442399999995 35.9145360899999986 5.7885703299999998 Na
atom 19.2091883999999986 35.9567380800000009 5.8075017100000004 Cl
atom 16.3863945800000010 38.6339405200000030 8.3788610499999994 Na
atom 19.1192235900000007 38.7295309900000007 8.6446132599999999 Cl
atom 19.1631825400000011 35.9680960700000014 8.5071374899999999 Na
atom 16.2960590200000013 35.8007587000000029 8.4360044399999996 Cl
atom 19.2120758500000015 38.6985100200000005 5.9313782799999997 Na