#===============================================================================
# Created using the Atomic Simulation Environment (ASE)

# Tue Dec 23 22:27:05 2025

#=======================================================
lattice_vector 28.1999999999999993 0.0000000000000000 0.0000000000000000 
lattice_vector 0.0000000000000000 39.4799999999999969 0.0000000000000000 
lattice_vector 0.0000000000000000 0.0000000000000000 62.3296083400000001 
atom 7.6044071899999999 14.7958847900000006 0.0022610800000000 Au
atom 10.3334787499999994 14.8407022899999994 -0.3230802300000000 Au
atom 13.1501726199999993 14.8552138300000003 -0.3537274600000000 Au
atom 15.8494932199999994 14.7602958500000003 -0.2269780900000000 Au
atom 18.7374469700000006 14.8096910200000007 -0.1713551700000000 Au
atom 21.5394110300000001 14.8866748100000006 -0.1028809600000000 Au
atom 24.3968647499999989 14.8669604399999997 -0.0061730300000000 Au
atom 27.2782382199999986 14.9205026800000002 0.0464281600000000 Au
atom 1.8666848199999999 14.7550167800000001 0.0460553500000000 Au
atom 4.8009407700000004 14.7850792099999993 0.0343168900000000 Au
atom 8.9386165399999999 17.2393561899999987 0.2105414100000000 Au
atom 11.7509650600000004 17.2326578899999987 -0.2947298200000000 Au
atom 14.5026085899999995 17.3345782700000015 -0.3683830400000000 Au
atom 17.3979363099999986 17.2681652099999994 -0.2424112000000000 Au
atom 20.2727639500000016 17.2930787399999986 0.0815850400000000 Au
atom 23.0707976300000013 17.3179135100000003 -0.0381703500000000 Au
atom 25.8353441699999991 17.3648470099999983 -0.0821069800000000 Au
atom 0.4773315100000000 17.3548049900000017 0.2394508300000000 Au
atom 3.3248182300000000 17.3080504600000005 -0.0040837400000000 Au
atom 6.1187303200000001 17.2983990200000015 0.2269613700000000 Au
atom 7.5170338000000001 19.7600599000000017 0.1120165900000000 Au
atom 10.3338670100000005 19.7139606100000009 0.2139394300000000 Au
atom 13.1241386299999991 19.6868299499999999 -0.1843541300000000 Au
atom 15.9559019299999996 19.7460917800000004 -0.1581936400000000 Au
atom 18.8106331900000008 19.6795636499999986 -0.1657390100000000 Au
atom 21.6161366299999997 19.7715966200000004 0.2344658400000000 Au
atom 24.4124641199999992 19.7653729700000014 0.3379164100000000 Au
atom 27.2602136500000007 19.9111209799999997 0.2134367100000000 Au
atom 1.9685106400000001 19.7469079699999988 0.2816404700000000 Au
atom 4.6856108599999997 19.7491328999999993 0.0371769400000000 Au
atom 8.9342085499999992 22.2220571000000007 0.0480672600000000 Au
atom 11.7404729700000008 22.1205833500000004 0.0876267900000000 Au
atom 14.5255485600000007 22.1918935099999999 0.0091132100000000 Au
atom 17.3790307900000016 22.2510981799999996 0.0168521100000000 Au
atom 20.1254502899999999 22.1481724200000016 0.2249596100000000 Au
atom 22.9497022699999995 22.1789867299999983 0.1000488600000000 Au
atom 25.7816729100000011 22.2442902800000013 0.2630884400000000 Au
atom 0.4316064300000000 22.1328504700000011 0.0919364600000000 Au
atom 3.2295643100000002 22.2263634900000007 -0.1447139500000000 Au
atom 6.1049908899999998 22.2992264800000015 -0.0982807100000000 Au
atom 7.5261107699999998 24.6510894200000017 0.0467108300000000 Au
atom 10.2853847500000004 24.7036398099999985 0.0033251000000000 Au
atom 13.1153459199999993 24.6093873300000006 0.1114021600000000 Au
atom 15.9680295200000000 24.6591620800000015 -0.0270596300000000 Au
atom 18.7445092699999982 24.7010815299999997 0.3767408900000000 Au
atom 21.5835816200000004 24.7040178099999999 0.1637540000000000 Au
atom 24.4116261799999990 24.5954765399999999 0.2016738700000000 Au
atom 27.2303527299999999 24.5891383599999998 0.0874254000000000 Au
atom 1.8298114999999999 24.5624164699999987 -0.0350622300000000 Au
atom 4.6655704599999996 24.6100617100000001 -0.1952860400000000 Au
atom 8.9219843300000008 27.1134028600000008 -0.0069461800000000 Au
atom 11.6585062900000000 27.1319777100000010 0.0409396300000000 Au
atom 14.4691181400000008 27.1670929000000001 -0.0157214100000000 Au
atom 17.2594408299999991 27.1893024300000015 0.2511784100000000 Au
atom 20.1910131100000001 27.1373247199999987 0.2530647800000000 Au
atom 23.0160016399999989 27.0777090600000001 0.1374633300000000 Au
atom 25.9772401399999993 27.1140024599999983 0.2503138500000000 Au
atom 0.4795764300000000 27.1289593300000007 0.1070335700000000 Au
atom 3.2554873099999999 27.1605806200000011 -0.4314907800000000 Au
atom 6.0887550800000003 27.1359181599999992 0.0034802100000000 Au
atom 7.5115731500000003 29.6215678300000000 -0.1413245300000000 Au
atom 10.3287786199999996 29.5952521500000003 -0.1810922200000000 Au
atom 13.1613477900000007 29.6436243600000005 0.0037043100000000 Au
atom 15.9322404599999992 29.6272456700000006 0.0587176300000000 Au
atom 18.7644189700000013 29.5494148599999988 0.1654472700000000 Au
atom 21.5216814499999991 29.6214709200000001 -0.1062565200000000 Au
atom 24.4490496899999989 29.5716721500000013 0.0491168500000000 Au
atom 27.2412249399999986 29.5896435699999998 0.2008546100000000 Au
atom 1.9300633000000000 29.7302757500000006 -0.0097393500000000 Au
atom 4.7319427699999999 29.5783602399999985 -0.0932196800000000 Au
atom 8.9593217799999998 32.0144774400000003 -0.2102056500000000 Au
atom 11.8287413299999997 32.0736384300000026 -0.1535525500000000 Au
atom 14.5816984699999992 32.0922226200000011 0.0046270600000000 Au
atom 17.3650785300000017 32.0721467799999971 -0.0144482700000000 Au
atom 20.1483174500000004 32.0324967900000033 0.1267538900000000 Au
atom 22.9978699199999994 32.0360928500000028 -0.0297488100000000 Au
atom 25.8209312500000010 32.1001207999999991 -0.1028622100000000 Au
atom 0.4015616700000000 31.9959236900000015 -0.0013095400000000 Au
atom 3.3708626399999999 32.1075859899999969 -0.0604095600000000 Au
atom 6.1313613199999999 32.1355084699999978 -0.2960431700000000 Au
atom 7.5439123099999996 34.6021175099999994 -0.1565523800000000 Au
atom 10.3459808599999992 34.5562168599999993 -0.1762257000000000 Au
atom 13.1700301900000003 34.5768206500000019 0.0893176100000000 Au
atom 15.9757412999999993 34.5372633899999997 0.0379100300000000 Au
atom 18.7965248600000017 34.6038105599999994 0.0544437600000000 Au
atom 21.5148408700000005 34.5303288200000011 0.0558247900000000 Au
atom 24.3975506600000003 34.5494660600000003 -0.1193028800000000 Au
atom 27.2126950500000007 34.4019011099999972 0.2986901900000000 Au
atom 1.8382878800000000 34.4454312700000003 -0.0608772800000000 Au
atom 4.7436963600000004 34.5453282900000005 0.0489348400000000 Au
atom 8.8971320200000008 37.0316171699999970 -0.0922321700000000 Au
atom 11.5661724699999997 37.0662212399999973 -0.2351002900000000 Au
atom 14.7182336800000009 37.0462716999999984 0.1559623800000000 Au
atom 17.3997785699999987 37.0456797499999979 0.1155879700000000 Au
atom 20.1478946000000008 37.0334805299999985 0.1359170900000000 Au
atom 22.9349907900000005 36.9674021699999997 0.1338967400000000 Au
atom 25.8646861299999991 37.0849750799999995 0.0915451600000000 Au
atom 0.3240226800000000 36.8771921499999991 -0.0238350200000000 Au
atom 3.2312457999999999 36.9344059599999994 0.1174077500000000 Au
atom 6.2024498299999999 37.0611941000000016 0.1645617000000000 Au
atom 7.4203897999999997 0.0464387300000000 -0.0873172700000000 Au
atom 10.0601831700000002 0.0294048400000000 0.3425275300000000 Au
atom 13.0346609699999991 0.0659086700000000 -0.2223427500000000 Au
atom 15.8978707000000004 0.0534440100000000 0.2063021100000000 Au
atom 18.8696734600000013 -0.0049054300000000 0.1179976400000000 Au
atom 21.7985329800000009 -0.0088876700000000 0.2972515700000000 Au
atom 24.6376128799999989 -0.0065395900000000 0.0471718900000000 Au
atom 27.3455032899999999 -0.0109968700000000 0.1228601000000000 Au
atom 1.8800195600000000 -0.0614538000000000 0.1419757100000000 Au
atom 4.6812821400000004 0.0729063000000000 0.0833510500000000 Au
atom 8.8569259200000001 2.5220597200000001 -0.0113961600000000 Au
atom 11.7045274500000005 2.4259418899999998 0.0257763200000000 Au
atom 14.6160470300000007 2.5175107500000000 -0.0726276100000000 Au
atom 17.4422293599999989 2.5102554100000001 -0.0980240600000000 Au
atom 20.2457127899999989 2.4666592700000001 0.0740369500000000 Au
atom 23.0744046400000009 2.4298041800000001 0.1547707200000000 Au
atom 25.8195243699999999 2.4796763700000000 0.2025595200000000 Au
atom 0.4989158500000000 2.6185110100000002 0.0858431900000000 Au
atom 3.2867754400000000 2.5466722200000000 0.3095915700000000 Au
atom 6.1277479000000001 2.4620384300000002 0.2171980700000000 Au
atom 7.5303960900000000 4.9301582000000002 0.2961872500000000 Au
atom 10.3553929000000000 4.7773472100000003 0.1961741600000000 Au
atom 13.1874489900000000 4.8891074899999998 0.1130817600000000 Au
atom 15.9915958699999994 4.9252894800000000 -0.0459722200000000 Au
atom 18.8822952099999988 4.9503161000000002 0.0305141600000000 Au
atom 21.7205896000000003 4.9262575899999996 0.0559596800000000 Au
atom 24.4481797900000011 4.9508198400000003 0.0483156400000000 Au
atom 27.2682348999999995 4.9872878600000004 0.0751305000000000 Au
atom 1.9231074600000000 4.8830313900000002 0.0796339100000000 Au
atom 4.7219829600000001 4.9834331799999996 0.3306226500000000 Au
atom 8.8587961699999997 7.3968046500000000 0.1921038400000000 Au
atom 11.7207879500000001 7.3469059999999997 0.0411118100000000 Au
atom 14.5493083300000006 7.4383479100000001 0.0801334200000000 Au
atom 17.4218920299999986 7.4164029700000000 -0.1425643100000000 Au
atom 20.2630735199999990 7.4443091800000003 -0.1451886200000000 Au
atom 23.0667021400000003 7.3608963799999998 0.2210752800000000 Au
atom 25.8657837800000010 7.4816178700000000 0.0988397000000000 Au
atom 0.5005070700000001 7.4527845599999996 -0.1476966700000000 Au
atom 3.2392386399999999 7.4265617800000001 0.3629664000000000 Au
atom 6.1121786299999998 7.4270014199999999 0.2552929700000000 Au
atom 7.5165766800000000 9.8998207800000007 0.1917783200000000 Au
atom 10.3332943299999993 9.8383266200000001 -0.1213677500000000 Au
atom 13.1672565699999993 9.8578427899999994 -0.0560699200000000 Au
atom 15.8746942900000008 9.9711206200000007 -0.1813206400000000 Au
atom 18.7812358099999983 9.9212032699999995 -0.2912014900000000 Au
atom 21.6292303699999984 9.8950910499999996 -0.1386896200000000 Au
atom 24.3961056099999993 9.9115822300000005 0.1807933500000000 Au
atom 27.1886968200000005 9.9748800899999992 0.2063194600000000 Au
atom 1.8896020200000001 9.8418731000000008 0.4120638500000000 Au
atom 4.6602632499999999 9.8841176999999991 0.2385378700000000 Au
atom 8.9552591100000001 12.3416796299999998 -0.2459449700000000 Au
atom 11.7725425000000001 12.3456888100000004 -0.1850942600000000 Au
atom 14.5529717800000000 12.3706737499999999 -0.2974846900000000 Au
atom 17.4713722500000017 12.3731946300000004 -0.2088425100000000 Au
atom 20.2738423499999989 12.3776249800000002 -0.2933185700000000 Au
atom 23.0904264200000000 12.3658993400000004 0.0855917000000000 Au
atom 25.8595732600000012 12.3838101100000006 -0.1499045700000000 Au
atom 0.4621449300000000 12.1677995600000006 0.1345016700000000 Au
atom 3.3039248300000001 12.3140621199999991 0.0896046900000000 Au
atom 6.0616305600000002 12.2960752899999992 -0.0601669500000000 Au
atom 7.6148355800000003 13.1585949499999995 2.3093039000000002 Au
atom 10.4561399399999999 13.2005628500000007 2.2909248199999999 Au
atom 13.1341309699999993 13.2223879899999996 2.4131727399999998 Au
atom 15.9541601800000006 13.1314330800000008 2.3997736600000001 Au
atom 18.8496923800000005 13.1174998600000006 2.4019664399999998 Au
atom 21.6502601100000014 13.2092482499999999 2.3881156899999998 Au
atom 24.4418948200000017 13.2078439200000002 2.6957177799999998 Au
atom 27.2394658599999993 13.5197015199999999 2.6459363400000000 Au
atom 1.8565377599999999 13.1859290999999992 2.5997686700000000 Au
atom 4.7104872599999998 13.2529081299999998 2.6391876200000000 Au
atom 9.0059736899999994 15.6010319699999993 2.6142066700000002 Au
atom 11.7853057600000000 15.7046294199999998 2.2731899100000001 Au
atom 14.5218378099999992 15.6512734200000008 2.3781230700000000 Au
atom 17.3345230999999984 15.5884801300000007 2.4275896000000001 Au
atom 20.1347768100000017 15.5639521199999997 2.5818264599999998 Au
atom 22.9755868300000010 15.6871339100000000 2.5866154099999998 Au
atom 25.7627090699999997 15.5982945500000003 2.4374147200000000 Au
atom 0.4350739000000000 15.6220403399999999 2.5804328200000000 Au
atom 3.2761216499999999 15.6937648500000009 2.5995815400000000 Au
atom 6.2092830799999996 15.6048350700000000 2.6586790699999998 Au
atom 7.5987998599999997 18.1951015900000002 2.8493074100000002 Au
atom 10.4065594000000008 18.1114361099999996 2.6439078500000002 Au
atom 13.1611142000000001 18.1090769400000013 2.2209049200000002 Au
atom 15.9868928100000005 18.1452979300000017 2.3702048900000001 Au
atom 18.8145687099999996 18.0162087100000008 2.5051236299999999 Au
atom 21.6354543399999990 18.1202990200000009 2.7084972100000000 Au
atom 24.3737024099999999 18.1851649000000002 2.7842308600000001 Au
atom 27.2524075199999984 18.2887320500000001 2.7274948999999999 Au
atom 1.8862390499999999 18.2237087399999993 2.9148836800000000 Au
atom 4.7077622899999998 18.0909791200000001 2.6725009399999999 Au
atom 8.9799983000000001 20.6523596199999986 2.6812546700000000 Au
atom 11.8283210000000008 20.5566179700000013 2.6660659999999998 Au
atom 14.5428701300000007 20.6376363100000013 2.5593276199999999 Au
atom 17.3786515600000016 20.5513338499999989 2.5379510600000001 Au
atom 20.1794671299999990 20.5362365000000011 2.7723500799999998 Au
atom 22.9904022999999995 20.6621415000000006 2.8235811300000000 Au
atom 25.8105069100000009 20.5360957900000010 2.9768327800000001 Au
atom 0.5104592000000000 20.5898642400000007 2.7339970600000001 Au
atom 3.3065313000000001 20.6869514000000017 2.6900806899999998 Au
atom 6.0987758000000003 20.6256743500000006 2.6749470199999998 Au
atom 7.3973529700000000 23.0315739199999996 2.5757534299999998 Au
atom 10.3075815399999993 23.1394077299999985 2.5953115400000000 Au
atom 13.0651580299999992 23.0574488299999985 2.6368005700000001 Au
atom 15.8962288100000002 23.0997349099999987 2.6115229400000000 Au
atom 18.6663318899999986 22.9858604699999987 2.7444671399999998 Au
atom 21.5151865800000017 23.0669870900000014 2.7375722300000001 Au
atom 24.3642231100000011 23.1055315800000010 2.8135956700000002 Au
atom 27.1874301799999998 22.9629387899999990 3.0794545100000001 Au
atom 1.7892653900000000 22.9868211600000016 2.5174813800000000 Au
atom 4.6122814700000001 23.1441677199999987 2.6111603300000001 Au
atom 8.8359532400000003 25.5001894299999989 2.6595372799999999 Au
atom 11.6896316999999996 25.5634219099999989 2.6051208699999999 Au
atom 14.5643416899999991 25.5317844700000016 2.4914568699999999 Au
atom 17.2753242299999989 25.5389451799999989 2.8357974800000001 Au
atom 20.2212127399999986 25.5497347499999989 2.9532311400000002 Au
atom 23.0087387099999994 25.5543238799999983 2.7118824199999998 Au
atom 25.8243834099999994 25.6290380800000008 2.9085269500000002 Au
atom 0.3969014200000000 25.4537555100000006 2.6995423399999998 Au
atom 3.1824212200000002 25.5639697400000010 2.3125788200000001 Au
atom 6.0272333900000001 25.5223435099999989 2.5653978099999999 Au
atom 7.4056072100000003 27.9677710399999988 2.4377226500000000 Au
atom 10.2163042599999994 28.0254367699999989 2.5388390500000000 Au
atom 13.0763349000000009 28.0066456899999991 2.6219359299999998 Au
atom 15.9330851100000004 27.9767437200000018 2.8204663700000001 Au
atom 18.7355506600000012 27.9006317300000006 2.8139836599999999 Au
atom 21.6073860000000018 28.0713375300000010 2.6698385000000000 Au
atom 24.3579515600000001 28.0932934000000003 2.7541284500000001 Au
atom 27.3361628900000007 27.8975465299999996 2.7282914100000002 Au
atom 1.8807923400000000 27.9482866100000003 2.3436384299999999 Au
atom 4.6465365199999997 27.9533744099999986 2.5474520699999998 Au
atom 8.8669476700000001 30.4444509900000000 2.4357695300000000 Au
atom 11.7415780299999994 30.4849797799999997 2.4741015599999998 Au
atom 14.5056831400000004 30.4642384700000015 2.7306000099999999 Au
atom 17.3068076600000005 30.5147236100000008 2.7213835000000000 Au
atom 20.1788026000000009 30.4555391299999982 2.7281677100000001 Au
atom 22.9532937699999984 30.5362563000000016 2.4466657700000001 Au
atom 25.8283738199999995 30.4564613000000008 2.6383094100000002 Au
atom 0.4314683100000000 30.5749305500000013 2.6284802200000001 Au
atom 3.2368636099999999 30.4208642900000008 2.5612404799999999 Au
atom 6.0429492800000002 30.4244510699999999 2.5327722700000002 Au
atom 7.4737005900000000 32.9166233199999994 2.2547819300000000 Au
atom 10.3128167000000008 32.9167204600000005 2.4029079499999999 Au
atom 13.0692439399999998 32.9855381499999964 2.6903453700000002 Au
atom 15.9584946799999994 32.9630716200000009 2.7196286299999999 Au
atom 18.7473599499999999 32.9107644500000021 2.7055214200000002 Au
atom 21.5497760900000017 32.9861714399999997 2.6972797100000001 Au
atom 24.3291438699999993 33.0540080500000002 2.5178723999999999 Au
atom 27.1086094099999997 32.7929939899999994 2.8014309499999999 Au
atom 1.8429935700000000 32.8287814199999985 2.4777911900000000 Au
atom 4.6392499899999997 32.8627980899999983 2.5543462199999998 Au
atom 8.9439111100000002 35.3318808699999991 2.5035073200000002 Au
atom 11.7180341299999995 35.3680699900000022 2.4539220799999999 Au
atom 14.6061953399999993 35.4314052499999974 2.6999383099999998 Au
atom 17.4008163200000006 35.3547671800000032 2.6874476800000000 Au
atom 20.2095062100000007 35.3857098300000033 2.7386940700000002 Au
atom 22.9211374499999998 35.4268282499999998 2.6150508100000001 Au
atom 25.8067424599999988 35.4637379799999977 2.4926424900000002 Au
atom 0.4216175900000000 35.3419529800000021 2.3225187100000002 Au
atom 3.2456657099999999 35.3541952300000020 2.6200473000000000 Au
atom 6.1313922200000004 35.2850344800000002 2.7140645600000002 Au
atom 7.5798670100000001 37.7494109900000012 2.4047021499999999 Au
atom 10.4151504199999998 37.7979241299999984 2.5308665900000000 Au
atom 13.0905849100000005 37.8190807399999969 2.4456526200000002 Au
atom 15.8717995300000005 37.9069533600000028 2.7438770200000002 Au
atom 18.8643933600000011 37.8475877899999986 2.6635439500000002 Au
atom 21.8592565699999994 37.8503213600000024 2.7575329800000001 Au
atom 24.3476689700000009 37.8772234400000016 2.5696921200000000 Au
atom 27.1604336000000011 37.8920391500000022 2.7680898300000001 Au
atom 1.8464659699999999 37.9620081699999972 2.8196408200000000 Au
atom 4.7230892000000004 37.8104720500000013 2.7367576400000000 Au
atom 9.0354139900000003 0.8501952200000000 2.6983974599999998 Au
atom 11.8176092399999995 0.7990757100000000 2.4683773100000002 Au
atom 14.7119921999999992 0.8538334100000000 2.6173058000000000 Au
atom 17.2752374899999985 0.9087791500000000 2.5588807400000002 Au
atom 19.9994730800000013 0.8796132700000000 2.7180866799999999 Au
atom 23.0488524400000010 0.8914681700000000 2.8370202899999999 Au
atom 25.7181077900000012 0.8822074700000000 2.7029336900000001 Au
atom 0.3330103700000000 0.9361264300000000 2.5640637300000000 Au
atom 3.2399355900000000 0.8390099700000000 2.8751497900000000 Au
atom 5.9992903599999998 0.8002240300000000 2.8024355000000001 Au
atom 7.5287557100000004 3.2712662099999998 2.8869449299999999 Au
atom 10.3564711599999999 3.2552344999999998 2.7339926900000000 Au
atom 13.2621717199999996 3.3560744699999998 2.6244874399999998 Au
atom 15.9269287300000002 3.3948229900000002 2.4924525599999998 Au
atom 18.7723906300000003 3.3441878200000001 2.5895811000000002 Au
atom 21.6268181400000010 3.3493727000000000 2.7853100199999998 Au
atom 24.3972379799999999 3.3668471400000000 2.8272855200000002 Au
atom 27.1915918800000007 3.3290464399999999 2.8314687200000002 Au
atom 1.7824640100000000 3.3539785300000000 2.8539486699999999 Au
atom 4.6548178699999996 3.2993605600000002 2.9335732999999999 Au
atom 8.9060582499999992 5.7904953199999998 2.7759243200000001 Au
atom 11.7207995000000000 5.8011030799999999 2.7326531900000002 Au
atom 14.5202437599999996 5.7965775300000004 2.6087975100000000 Au
atom 17.3909725000000002 5.8623000500000000 2.4879843400000001 Au
atom 20.1846442500000016 5.8084389300000003 2.6566339499999998 Au
atom 23.0421414599999999 5.7211353599999999 2.6100296400000000 Au
atom 25.8947424499999990 5.7255753900000004 2.7192995899999999 Au
atom 0.5437345500000000 5.9378199800000004 2.4985263600000001 Au
atom 3.3405181200000000 5.8093695199999997 2.9470618900000001 Au
atom 6.1552360400000001 5.7351011200000004 2.9005894300000001 Au
atom 7.5637388899999998 8.3193173399999996 2.7862345600000000 Au
atom 10.3507932999999994 8.3498073700000006 2.5894681799999999 Au
atom 13.1861475200000005 8.2893914399999993 2.7260858899999998 Au
atom 16.0335386200000016 8.2780209700000000 2.4508756100000002 Au
atom 18.7476359899999991 8.2067136400000003 2.4645226199999999 Au
atom 21.5707631999999982 8.2910994299999992 2.5594746300000000 Au
atom 24.4325000699999997 8.2387219199999997 2.7799537299999999 Au
atom 27.3369984300000013 8.4861544900000005 2.6314455200000002 Au
atom 1.9258439000000001 8.2947724800000007 3.0278890199999999 Au
atom 4.7163796900000001 8.2900142799999994 2.9029979600000000 Au
atom 9.0013262399999991 10.8123839200000003 2.5632608100000001 Au
atom 11.7588105899999995 10.8102011900000008 2.4787380400000001 Au
atom 14.6677015700000002 10.7317779000000009 2.4777670700000001 Au
atom 17.4041968000000011 10.7233372399999993 2.3636759399999998 Au
atom 20.3200728800000014 10.6925883699999993 2.4334872399999998 Au
atom 23.0541179900000017 10.7169536999999995 2.6266747900000000 Au
atom 25.8884944799999985 10.7225737599999995 2.7496154900000001 Au
atom 0.5199656700000000 10.7722319300000002 2.9259365300000000 Au
atom 3.3135931099999998 10.7691636400000004 2.7452251500000000 Au
atom 6.1420741699999999 10.7324353899999991 2.7710665300000001 Au
atom 7.4020831700000000 13.1892018699999998 5.6980745300000004 Cl
atom 7.6182307600000003 16.0272046300000000 8.7097934299999995 Cl
atom 7.6083417500000001 13.0793878200000009 8.4699744799999994 Na
atom 7.4904219400000001 15.9138301799999997 5.6991765299999999 Na
atom 7.5735445300000004 18.6713704699999994 5.6143849899999996 Cl
atom 7.4860387700000004 21.5802319199999992 8.5154530400000006 Cl
atom 7.5748290200000001 18.8560972699999994 8.2947672699999995 Na
atom 7.3727622400000001 21.6033907200000002 5.7937162000000004 Na
atom 7.4773905100000002 24.4915760400000018 5.7254623499999999 Cl
atom 7.3798213400000003 27.3374908800000007 8.4677788899999999 Cl
atom 7.4885796300000003 24.5534352300000016 8.3816939000000001 Na
atom 7.4822534899999997 27.2759274500000011 5.7636951600000002 Na
atom 7.5527767499999996 30.0250014800000002 5.5255808999999996 Cl
atom 7.5992753000000004 32.7648599999999988 8.5545878299999991 Cl
atom 7.5354199499999996 30.0366643899999985 8.3051839699999999 Na
atom 7.5702895300000002 32.9337982300000007 5.5827241699999997 Na
atom 7.6484030299999999 35.7835570499999989 5.7395747400000001 Cl
atom 7.6304916000000000 38.5732108999999994 8.6192730700000002 Cl
atom 7.5735247899999996 35.6055812199999977 8.3380996199999995 Na
atom 7.5108157699999998 38.5802568000000008 5.9669414200000004 Na
atom 7.5271452999999999 1.9405404700000000 6.1219881200000001 Cl
atom 7.7335761600000001 4.7280262000000004 8.6864305700000006 Cl
atom 7.5680151699999998 1.9661573999999999 8.6088016399999994 Na
atom 7.6138199300000000 4.7714790100000002 5.9401022100000000 Na
atom 7.4853511700000004 7.4978907599999998 5.7880787400000004 Cl
atom 7.5049906499999999 10.3346048199999991 8.5489849200000005 Cl
atom 7.5767417400000001 7.4744790800000001 8.4707240499999994 Na
atom 7.4694224900000004 10.2671053000000008 5.7779682499999998 Na
atom 10.3550351799999998 13.1429029199999992 5.8148227400000003 Na
atom 13.0980483000000003 12.9938187999999997 5.5862176899999998 Cl
atom 10.2255878899999999 15.9720978400000000 8.1782607200000008 Na
atom 13.2660691800000006 16.0312556400000013 8.2540478700000008 Cl
atom 13.2335148700000005 13.2760179500000000 8.1062560999999995 Na
atom 10.2926887899999997 13.0134737000000005 8.5204654600000005 Cl
atom 13.0439209900000002 16.0172511299999982 5.4431492099999996 Na
atom 10.3404390300000006 15.8689286200000002 5.5858664700000000 Cl
atom 10.3428873400000008 18.8324928999999983 5.5919141400000001 Na
atom 13.0917065200000007 18.9230150700000017 5.4111091199999999 Cl
atom 10.3734041999999995 21.5885877599999993 8.2098456599999992 Na
atom 13.1350867299999994 21.4016743600000012 8.4768137200000009 Cl
atom 13.0117933600000004 18.7403286700000002 8.0017072900000006 Na
atom 10.3626857799999996 18.7148743300000007 8.3114651899999998 Cl
atom 13.1537292899999994 21.6582068800000016 5.7526182900000000 Na
atom 10.2141202900000003 21.6605032100000017 5.5737797200000001 Cl
atom 10.3392359400000000 24.3736793399999989 5.6937257499999996 Na
atom 13.1836455200000007 24.5655683099999997 5.8048301899999997 Cl
atom 10.2540619700000004 27.2313037599999994 8.3457554700000003 Na
atom 13.1160528799999998 27.2402299899999996 8.6800373099999995 Cl
atom 13.1240989700000004 24.5515270699999988 8.4388600199999999 Na
atom 10.2963970400000004 24.4233937700000006 8.5513127499999992 Cl
atom 13.1562954500000000 27.2181883999999989 5.7290403100000002 Na
atom 10.3453009300000005 27.2608507200000005 5.6531849599999999 Cl
atom 10.3841418000000001 30.0096580300000007 5.6512598900000004 Na
atom 13.2933246799999996 29.9558736600000017 5.7295240600000001 Cl
atom 10.4507262799999996 32.8514457400000026 8.2482432899999996 Na
atom 13.2075774799999994 32.8406963099999984 8.3165169999999993 Cl
atom 13.0630489500000007 29.9916471099999988 8.3899311399999998 Na
atom 10.3963422100000003 29.9885699400000014 8.4451996800000000 Cl
atom 13.2623561700000003 32.7947312399999973 5.6737603500000002 Na
atom 10.4220443700000001 32.8233749799999970 5.6138212500000000 Cl
atom 10.3765905800000002 35.7319743400000007 5.9237966100000001 Na
atom 13.3807816699999993 35.7032130099999989 5.6988892000000000 Cl
atom 10.4186308499999996 38.4996989400000018 8.4990485099999997 Na
atom 13.3140224099999998 38.3638264100000015 8.6905477900000001 Cl
atom 13.3732520400000006 35.5751263800000004 8.3937581399999992 Na
atom 10.4498784699999998 35.6495183899999972 8.5969380100000006 Cl
atom 13.3283706399999993 38.5008018899999982 5.8641070199999996 Na
atom 10.5003080900000008 38.5021748799999983 5.8452503099999999 Cl
atom 10.3639759999999992 1.8526514700000001 5.7933263899999998 Na
atom 13.3213178299999999 1.7767537700000000 5.8760615700000001 Cl
atom 10.4241113999999993 4.7649440700000003 8.4591789599999991 Na
atom 13.1717879300000007 4.7718897800000004 8.5010201700000003 Cl
atom 13.1647084200000002 1.7503567400000000 8.4289940800000007 Na
atom 10.3459116099999999 1.9201790299999999 8.5460924800000004 Cl
atom 13.2457142799999996 4.8209496800000000 5.7715250400000002 Na
atom 10.3567453000000000 4.7583759700000003 5.8407798599999996 Cl
atom 10.3623350100000007 7.4799287799999998 5.8119130800000001 Na
atom 13.1416325900000004 7.5298506500000002 5.7314235599999996 Cl
atom 10.3054462099999995 10.3095788800000001 8.3834448199999994 Na
atom 13.1378411199999992 10.3281460799999998 8.6312018100000003 Cl
atom 13.1556967799999995 7.7125992800000001 8.3541334799999998 Na
atom 10.4012638499999994 7.6465170499999999 8.7423269900000005 Cl
atom 13.0720635999999999 10.2453253600000007 5.8859002900000004 Na
atom 10.2439289000000002 10.1312067700000004 5.7007316399999999 Cl
atom 15.8616631899999998 13.1326406299999991 5.5885645300000002 Na
atom 18.8594683100000005 13.1863561800000006 5.4444323199999998 Cl
atom 15.9830656599999994 16.0182871400000018 8.0814434599999991 Na
atom 18.7311484200000002 16.0139167899999997 8.4842232499999994 Cl
atom 18.8351816300000010 13.1528945900000007 8.2487844999999993 Na
atom 15.8896419499999997 13.2135754799999994 8.3370110700000009 Cl
atom 18.8172703299999995 15.9937868299999995 5.6355734499999999 Na
atom 16.0124047999999988 15.9871095099999998 5.4739177300000001 Cl
atom 15.9823737700000006 18.7977248699999997 5.4955623899999999 Na
atom 18.9371910999999997 18.6963473600000007 5.4505848900000000 Cl
atom 15.9491147299999998 21.4302521699999993 8.1969528599999997 Na
atom 18.8095306399999984 21.4105699899999991 8.3842170399999993 Cl
atom 18.8494740000000007 18.7703753599999992 8.0938330999999994 Na
atom 15.9372569599999991 18.7630775900000017 8.1707833900000004 Cl
atom 18.8146418599999983 21.5142087999999987 5.7139193600000002 Na
atom 15.9927871899999996 21.5662544099999991 5.5168208300000003 Cl
atom 16.1414156300000009 24.3799056999999983 5.6197361800000003 Na
atom 18.8360932000000005 24.4483172199999998 5.7456049199999999 Cl
atom 15.9366794699999996 27.2291446199999996 8.6182330100000009 Na
atom 18.8841694699999998 27.0244565299999984 8.7414963100000005 Cl
atom 18.7656738700000005 24.3303615200000003 8.3946540800000005 Na
atom 16.0974108800000018 24.1456710799999996 8.4832928600000006 Cl
atom 18.7402008699999989 27.1616663900000006 5.9968492400000004 Na
atom 15.8985958299999997 27.1741817800000014 5.7430651800000003 Cl
atom 16.1146148599999997 29.9483516600000002 5.9214373100000000 Na
atom 18.9124763199999997 29.8384802600000008 5.9981580299999999 Cl
atom 16.0640704800000016 32.7282387099999994 8.3473746000000002 Na
atom 18.8995845600000010 32.8110910300000000 8.5773112400000002 Cl
atom 18.8768325600000004 29.9491745599999994 8.5090038299999993 Na
atom 15.9610952200000007 29.8828350399999998 8.6937108700000003 Cl
atom 18.8787389800000014 32.7461202100000008 5.7790181299999999 Na
atom 16.2185647300000007 32.7182803299999989 5.7058535099999999 Cl
atom 16.1623685399999992 35.6746420099999995 5.7794438799999996 Na
atom 19.0149188199999983 35.7253676400000018 5.7716188900000001 Cl
atom 16.0607901800000015 38.4100874000000019 8.4835336199999993 Na
atom 18.8281073200000009 38.3587816399999966 8.5886360100000001 Cl
atom 18.8940790099999987 35.6420353700000021 8.3652158100000005 Na
atom 16.1431486299999989 35.5813272400000002 8.5491683500000004 Cl
atom 18.9550990800000001 38.5580506599999993 5.6902122100000003 Na