#===============================================================================
# Created using the Atomic Simulation Environment (ASE)

# Sat Nov  1 21:48:30 2025

#=======================================================
lattice_vector 28.1999999999999993 0.0000000000000000 0.0000000000000000 
lattice_vector 0.0000000000000000 39.4799999999999969 0.0000000000000000 
lattice_vector 0.0000000000000000 0.0000000000000000 62.3296083400000001 
atom 7.5034915000000000 14.8364510999999997 0.0563105200000000 Au
atom 10.3241378200000007 14.7739498900000008 0.0156924400000000 Au
atom 13.1477206300000002 14.8244723999999994 0.0283985000000000 Au
atom 15.9718435299999992 14.8278811499999996 -0.0290475200000000 Au
atom 18.7550081800000008 14.8092010500000004 0.0367843400000000 Au
atom 21.6133643000000006 14.8153916500000005 0.0391352900000000 Au
atom 24.4241695099999987 14.8169123799999998 0.0408197600000000 Au
atom 27.2413640000000008 14.9217034200000001 0.1434174500000000 Au
atom 1.8934245400000000 14.7731333800000009 0.0841107700000000 Au
atom 4.6559133399999997 14.8166419099999995 -0.0318057600000000 Au
atom 8.9176811399999991 17.2867624900000010 0.0407148600000000 Au
atom 11.7342300999999996 17.2777576599999989 0.0626928000000000 Au
atom 14.5509993400000006 17.2887287299999990 0.0276590300000000 Au
atom 17.3864713299999991 17.2870554600000013 0.0281497500000000 Au
atom 20.1600588999999992 17.2942912900000003 0.0400158700000000 Au
atom 23.0116654499999989 17.3233630800000000 0.0740662700000000 Au
atom 25.8336114600000002 17.3452979599999999 0.0418012000000000 Au
atom 0.4404727800000000 17.2644255300000005 -0.0349314500000000 Au
atom 3.2862289499999999 17.2881064100000010 0.0384461800000000 Au
atom 6.1001886799999996 17.2816190100000000 0.0571257600000000 Au
atom 7.5329205000000004 19.7705416400000011 0.1373084400000000 Au
atom 10.3362348900000001 19.7783133999999983 0.0291612200000000 Au
atom 13.1388079199999996 19.7762559099999997 0.0762063500000000 Au
atom 15.9270043399999999 19.7836572400000001 0.0875902600000000 Au
atom 18.7643021599999997 19.7863703999999991 0.0784138100000000 Au
atom 21.5828054300000005 19.7483219299999995 0.0808682700000000 Au
atom 24.4157308700000009 19.7560199599999997 0.1291010700000000 Au
atom 27.2224192199999990 19.9405662399999990 0.0413892800000000 Au
atom 1.8624315700000000 19.7341269399999995 0.0879615000000000 Au
atom 4.6700285099999999 19.7563779900000007 0.0958090500000000 Au
atom 8.9336868500000008 22.2182035999999989 0.0861128200000000 Au
atom 11.7622962199999996 22.2344294500000004 0.1016754600000000 Au
atom 14.5588539200000007 22.2246737000000003 0.0835260000000000 Au
atom 17.4004941500000001 22.2125814199999994 0.0857444900000000 Au
atom 20.1834326699999984 22.2525158300000001 0.0738381600000000 Au
atom 23.0116735199999987 22.2469547299999988 0.0949415500000000 Au
atom 25.8562593199999995 22.2251225499999983 0.1211040900000000 Au
atom 0.4294168300000000 22.1258483300000002 -0.2302062500000000 Au
atom 3.2986807800000002 22.2099569400000014 0.0796758800000000 Au
atom 6.0883344599999996 22.2262938699999992 0.0880801700000000 Au
atom 7.4906902300000002 24.7005555500000007 0.1091921600000000 Au
atom 10.2938025700000004 24.7013387199999990 0.1079996600000000 Au
atom 13.1621458499999999 24.6918627899999983 0.0958843300000000 Au
atom 15.9648041000000003 24.6963245600000008 0.1014848800000000 Au
atom 18.7873336900000005 24.7110484799999988 0.1089638300000000 Au
atom 21.6028774800000001 24.6714832500000014 0.1253360000000000 Au
atom 24.4080696099999983 24.6934953200000002 0.1035588200000000 Au
atom 27.2610894899999998 24.7801175399999991 0.0195935200000000 Au
atom 1.8659119300000000 24.7471205000000012 0.1259898400000000 Au
atom 4.6708010900000003 24.6914543500000008 0.0943163200000000 Au
atom 8.9174950600000003 27.1544023500000016 0.0294178400000000 Au
atom 11.7475535699999991 27.1472287799999989 0.0418589500000000 Au
atom 14.5274540800000000 27.1771550799999986 0.0625800800000000 Au
atom 17.3487335400000013 27.1320966100000014 0.0825730700000000 Au
atom 20.1977069500000006 27.1598205099999994 0.0758252000000000 Au
atom 22.9906928099999988 27.1693665099999997 0.1054871600000000 Au
atom 25.8462949600000016 27.1840897999999989 0.0594058200000000 Au
atom 0.4361469400000000 27.1961564100000004 0.1051205400000000 Au
atom 3.2724067699999999 27.1463517799999998 0.0922204100000000 Au
atom 6.0922837300000001 27.1355443100000002 0.0930272600000000 Au
atom 7.5283475700000002 29.6096371000000005 0.0227009800000000 Au
atom 10.3371863299999998 29.6076460499999996 0.0787349300000000 Au
atom 13.1695418499999999 29.6489680100000008 -0.0159947600000000 Au
atom 15.9771611900000003 29.6221093599999996 0.0274531300000000 Au
atom 18.7935736700000007 29.6449892000000013 0.0274599500000000 Au
atom 21.6157458099999999 29.5821577200000014 0.0728153700000000 Au
atom 24.4111804300000017 29.6123453699999999 0.0331377000000000 Au
atom 27.2659808599999991 29.4266516399999993 0.0372148100000000 Au
atom 1.8855231900000000 29.6268270099999995 0.0943750700000000 Au
atom 4.6907292700000003 29.6379599800000015 0.0432652800000000 Au
atom 8.9352224400000004 32.0796133300000008 -0.0023214500000000 Au
atom 11.7454021500000003 32.0860884800000008 0.0158006500000000 Au
atom 14.5630652800000000 32.0820983500000025 0.0200557900000000 Au
atom 17.3850362199999999 32.1060351699999984 -0.0056549700000000 Au
atom 20.2248502899999991 32.0600006600000000 0.0223379500000000 Au
atom 22.9918133299999994 32.1053304699999984 0.0080786900000000 Au
atom 25.8608403500000001 32.0635750499999972 0.0075197000000000 Au
atom 0.4543089000000000 32.2143936800000006 0.0311682700000000 Au
atom 3.2701609700000001 32.1063237700000030 -0.0125367100000000 Au
atom 6.1009037499999996 32.0835958300000001 0.0058347800000000 Au
atom 7.4864538300000003 34.5813925200000014 -0.0189876300000000 Au
atom 10.2831141499999994 34.5486426900000012 0.0705342300000000 Au
atom 13.1510021300000002 34.5559165700000008 0.0003898900000000 Au
atom 15.9807649000000005 34.5527353000000019 0.0556807500000000 Au
atom 18.7869643699999997 34.5502037299999998 -0.0270526900000000 Au
atom 21.6063968899999992 34.5645032999999984 0.0563437500000000 Au
atom 24.4353759699999991 34.5778249999999971 0.0306096300000000 Au
atom 27.2337530699999988 34.5574176000000008 -0.1592546100000000 Au
atom 1.8659705099999999 34.5318475799999973 0.0872228000000000 Au
atom 4.7184065899999998 34.5765957599999965 0.0657039400000000 Au
atom 8.9981983900000007 37.0228887199999974 0.1410487000000000 Au
atom 11.8545548000000007 37.0115451100000001 -0.0772074000000000 Au
atom 14.5973737299999993 37.0066247099999970 -0.0430747000000000 Au
atom 17.4142393999999996 37.0328675200000035 -0.0075283600000000 Au
atom 20.2386347899999990 37.0462291699999966 -0.0600664400000000 Au
atom 23.0692787000000017 37.0225586099999973 0.1006037000000000 Au
atom 25.9160950899999989 37.0595636999999982 0.0380800600000000 Au
atom 0.5260238100000000 37.2014467199999999 0.0787711500000000 Au
atom 3.4212476900000000 37.0277597899999975 0.0807318900000000 Au
atom 6.1373151100000003 37.0427223800000007 0.0345491700000000 Au
atom 7.4114334800000004 0.0546034200000000 0.1142512100000000 Au
atom 10.4665359200000001 -0.0035648700000000 0.1109523200000000 Au
atom 13.0634434600000002 -0.0047952900000000 0.0064512300000000 Au
atom 15.9099716900000008 0.0397964900000000 0.1616035400000000 Au
atom 18.8402655900000013 0.0264441700000000 -0.1204118000000000 Au
atom 21.9084501500000002 0.0304313300000000 0.0607449200000000 Au
atom 24.2296782200000003 0.0203170200000000 0.1826977700000000 Au
atom 27.2369874500000009 0.1317347300000000 0.0592093100000000 Au
atom 1.7049216000000000 0.0113378900000000 0.1570663000000000 Au
atom 4.8191689999999996 0.0342627600000000 -0.1321893800000000 Au
atom 8.9292685600000006 2.4621216399999999 0.0564817200000000 Au
atom 11.7562094100000003 2.4461190099999999 0.0820176300000000 Au
atom 14.5577449800000007 2.4821061000000002 0.0692094400000000 Au
atom 17.4039812199999986 2.4727920700000001 0.0748142400000000 Au
atom 20.1739164700000018 2.4978565200000000 0.1085654800000000 Au
atom 23.0411384199999993 2.4762579900000001 0.0973875200000000 Au
atom 25.8438075199999986 2.5396750099999998 0.0743631400000000 Au
atom 0.4561789800000000 2.4759598100000000 0.0110051900000000 Au
atom 3.2970820100000000 2.4798857000000001 0.0482055300000000 Au
atom 6.0786628199999999 2.4847866399999998 0.0899458600000000 Au
atom 7.5122337400000001 4.9478137899999997 0.1145009100000000 Au
atom 10.3132175200000002 4.9016558799999999 0.0862026600000000 Au
atom 13.1481877500000000 4.9402950600000004 0.1243082600000000 Au
atom 15.9469802499999993 4.9638974700000000 0.0784467600000000 Au
atom 18.8002246500000005 4.9379480500000001 0.0943515800000000 Au
atom 21.6002975100000008 4.9704604400000001 0.1036382300000000 Au
atom 24.4353886399999993 4.9455233400000003 0.0985652100000000 Au
atom 27.2208453699999993 5.2119128899999998 0.0066221500000000 Au
atom 1.8592642699999999 5.0097150600000004 0.0367736700000000 Au
atom 4.6774335499999999 4.9280106300000002 0.0819257000000000 Au
atom 8.9356340599999999 7.4022903199999996 0.0655015200000000 Au
atom 11.7802445599999999 7.3953768000000002 0.0891638800000000 Au
atom 14.5546622299999999 7.4070584700000000 0.0794007200000000 Au
atom 17.4065384200000004 7.4154902500000004 0.0536727900000000 Au
atom 20.1986007200000017 7.4168242600000003 0.0949439800000000 Au
atom 23.0330368499999985 7.4074232899999997 0.0860733800000000 Au
atom 25.8636830300000007 7.3559289699999999 0.0768157800000000 Au
atom 0.4377437600000000 7.4083242900000004 -0.0748232500000000 Au
atom 3.2922002199999998 7.4300924699999999 0.0955122800000000 Au
atom 6.0899044199999999 7.4014715100000004 0.0649173800000000 Au
atom 7.5021523500000002 9.8630633900000007 0.0607522000000000 Au
atom 10.3511870500000001 9.8951500499999998 0.0130338100000000 Au
atom 13.1444238900000006 9.8550578800000004 0.0523336700000000 Au
atom 15.9670219699999993 9.8891502700000000 0.0316487700000000 Au
atom 18.7994583599999991 9.8654778299999997 0.0632687700000000 Au
atom 21.5971268099999989 9.8806151300000007 0.0028797200000000 Au
atom 24.4496580600000009 9.8930134400000007 0.0904929500000000 Au
atom 27.2688687399999985 10.0473804100000006 0.0212085600000000 Au
atom 1.8699436199999999 9.9237003999999995 0.0835659400000000 Au
atom 4.6676047399999998 9.8773984899999991 0.0175397800000000 Au
atom 8.9100559100000005 12.3713781899999997 0.0136566600000000 Au
atom 11.7466314199999999 12.3274936999999998 0.0188399600000000 Au
atom 14.5682130799999996 12.3277930799999993 0.0170512500000000 Au
atom 17.3961690400000002 12.3385934600000002 0.0414635300000000 Au
atom 20.1705224100000002 12.3424658199999993 0.0094500700000000 Au
atom 23.0111322099999995 12.3342641499999992 0.0166877600000000 Au
atom 25.8201257400000017 12.3361102700000007 0.0451081400000000 Au
atom 0.4668536400000000 12.3726417000000009 0.1384182700000000 Au
atom 3.2744735700000001 12.3333036200000006 0.0139888800000000 Au
atom 6.0873470799999998 12.3620507400000008 0.0057791700000000 Au
atom 7.4805602899999997 13.1745546000000004 2.6388528099999999 Au
atom 10.3220030400000002 13.2248922400000009 2.5377954900000002 Au
atom 13.1602838500000008 13.1907465399999992 2.6657380599999998 Au
atom 15.9641292700000008 13.1538167300000008 2.5320632100000000 Au
atom 18.7833307100000013 13.2078065500000008 2.6637862900000000 Au
atom 21.5715782900000015 13.1858899100000002 2.6090618200000000 Au
atom 24.4388153000000017 13.1850544999999997 2.6272942700000002 Au
atom 27.2373583199999985 13.2946344599999993 2.6333668900000000 Au
atom 1.8447038800000000 13.1065827499999994 2.6766399100000000 Au
atom 4.6855096200000004 13.1663865900000001 2.5608515700000001 Au
atom 8.9257643800000004 15.6666831299999991 2.6286415399999998 Au
atom 11.7290908799999993 15.6329159999999998 2.6290242400000001 Au
atom 14.5774821200000009 15.6365306400000001 2.6188678200000002 Au
atom 17.3639277999999990 15.6575727499999999 2.6398969800000001 Au
atom 20.1645592200000010 15.6530521399999998 2.6371502400000000 Au
atom 23.0373614999999994 15.6274875000000009 2.6479217400000001 Au
atom 25.8337011700000012 15.6409853900000009 2.5567528400000001 Au
atom 0.4682351100000000 15.6641985899999998 2.6187690699999999 Au
atom 3.2612716100000001 15.6395541900000001 2.6372052300000002 Au
atom 6.0548975900000004 15.6389112699999995 2.6359259399999999 Au
atom 7.4726338700000001 18.0707784899999986 2.7066720900000001 Au
atom 10.2953393799999997 18.0888306199999995 2.5566557900000002 Au
atom 13.1374122300000007 18.0756395000000012 2.6741601899999998 Au
atom 15.9730881399999998 18.0934291099999989 2.5894031200000001 Au
atom 18.7747867399999997 18.0562488099999996 2.6355302100000002 Au
atom 21.6458635999999984 18.1188724000000008 2.5751151999999999 Au
atom 24.4304938999999983 18.0908813200000012 2.6831438900000002 Au
atom 27.2210173799999993 18.0732351999999992 2.6199020499999999 Au
atom 1.8484662599999999 18.0951114299999993 2.7266930500000002 Au
atom 4.6531275299999999 18.1223731000000008 2.5942390899999999 Au
atom 8.9141139599999999 20.6096919999999990 2.7216449400000000 Au
atom 11.7185847400000007 20.5648070099999991 2.7144857299999998 Au
atom 14.5653467800000005 20.6035008700000013 2.7566963200000001 Au
atom 17.3641678599999985 20.5813485199999988 2.7085833199999998 Au
atom 20.1784481800000002 20.5490250400000001 2.7133478800000002 Au
atom 23.0215304500000002 20.5815469799999988 2.7074549600000002 Au
atom 25.8230360099999992 20.6232706700000001 2.7490167099999998 Au
atom 0.4506938300000000 20.5188780199999989 2.7506994400000000 Au
atom 3.2697071900000001 20.5805600599999998 2.7252811499999998 Au
atom 6.0672116599999999 20.5993842299999983 2.7132917299999999 Au
atom 7.4983218000000003 23.0288424599999999 2.6893863100000002 Au
atom 10.3419540199999993 23.0591122700000000 2.6584192600000001 Au
atom 13.1447933100000007 23.0757078799999995 2.6519739499999999 Au
atom 15.9479374200000006 23.0520278900000015 2.6498151499999998 Au
atom 18.7498736299999997 23.0123829899999990 2.6640120700000001 Au
atom 21.6054368299999986 23.0169269999999990 2.7075697999999999 Au
atom 24.4141067499999984 23.0617915099999991 2.6967235399999998 Au
atom 27.2430010699999983 23.0053265099999997 2.7678356100000001 Au
atom 1.8372046300000000 22.9887999699999988 2.6412134799999998 Au
atom 4.6902596200000000 23.0577890699999983 2.6779214900000001 Au
atom 8.9288132900000008 25.5581250299999994 2.7491635200000002 Au
atom 11.7392980199999997 25.5173785399999993 2.7187700600000002 Au
atom 14.5664150499999998 25.4924761900000014 2.6861389700000000 Au
atom 17.3701933299999993 25.5382238100000016 2.7136927700000002 Au
atom 20.2162035200000005 25.5078905999999996 2.7048867900000002 Au
atom 22.9894050999999990 25.5525016200000010 2.6942089700000000 Au
atom 25.8391783699999991 25.5054132799999991 2.7687571399999999 Au
atom 0.4698182400000000 25.6716780600000014 2.5541027000000001 Au
atom 3.2480963599999999 25.4806247200000016 2.7266183900000001 Au
atom 6.0818736500000004 25.5291875700000013 2.7372627600000001 Au
atom 7.5229845900000001 27.9854723000000014 2.6577999700000001 Au
atom 10.3259172199999991 28.0138157600000000 2.6982585200000000 Au
atom 13.1719313000000007 28.0146282599999985 2.6282659100000001 Au
atom 15.9514428499999994 28.0204796300000005 2.6957305400000000 Au
atom 18.8018056499999986 27.9954456799999996 2.6149135399999999 Au
atom 21.6103764699999985 28.0089827599999985 2.6531859700000000 Au
atom 24.4243594900000005 27.9841600100000001 2.6540275800000002 Au
atom 27.2344383500000013 28.0536069200000000 2.6818832700000002 Au
atom 1.8651241100000000 27.9677667200000002 2.6038550699999998 Au
atom 4.6679460199999996 28.0068253399999989 2.6759469899999999 Au
atom 8.9486992099999991 30.4505260299999989 2.6904772700000001 Au
atom 11.7482008300000000 30.4659240699999998 2.6430124899999998 Au
atom 14.5892346600000007 30.4695795999999994 2.6602433200000002 Au
atom 17.3705872300000017 30.4862115500000002 2.6550775799999999 Au
atom 20.1701270199999989 30.4815240699999990 2.6760137899999998 Au
atom 22.9940897900000003 30.4495304900000008 2.6308290200000002 Au
atom 25.8367313299999992 30.3621886200000013 2.6575767799999999 Au
atom 0.4432758200000000 30.6485312299999997 2.6247559400000000 Au
atom 3.2587600100000000 30.4765096900000003 2.6301472299999999 Au
atom 6.0822053000000000 30.5007158099999991 2.6837938800000001 Au
atom 7.4927667800000002 32.9274327299999996 2.5639751400000002 Au
atom 10.3474691900000000 32.9288064500000033 2.6705327300000001 Au
atom 13.1396308600000005 32.9255853399999978 2.5473706900000002 Au
atom 15.9610525600000006 32.9261858200000006 2.6807922099999999 Au
atom 18.7848320899999983 32.9197836600000002 2.5674151300000001 Au
atom 21.6218189099999982 32.9244758899999965 2.7034154500000001 Au
atom 24.3976186099999985 32.9372284000000022 2.5578681900000002 Au
atom 27.2300635900000003 32.6354419500000006 3.0174408100000001 Au
atom 1.8677483600000000 32.8461890499999996 2.5300775700000000 Au
atom 4.6951787500000002 32.9328123900000023 2.6688514300000001 Au
atom 8.9185059599999992 35.3982926799999973 2.6566427600000000 Au
atom 11.7566844699999997 35.4383742300000009 2.6396179300000000 Au
atom 14.5599545799999994 35.3787520799999982 2.6256499799999999 Au
atom 17.3860076700000015 35.3895813600000011 2.6359171600000000 Au
atom 20.2392236399999987 35.3830000199999972 2.6277364699999999 Au
atom 23.0300080999999999 35.3732338000000013 2.6339407900000000 Au
atom 25.8124089800000007 35.3413157600000005 2.6842108900000001 Au
atom 0.4647043500000000 35.5876397600000018 2.7637041700000000 Au
atom 3.2711639799999999 35.3971872600000026 2.6241559500000000 Au
atom 6.0911509500000003 35.3653696599999989 2.6390975000000001 Au
atom 7.7774761500000000 37.8691738599999965 2.7611089899999999 Au
atom 10.3141913899999995 37.8611903600000019 2.6922789300000001 Au
atom 13.1211620900000003 37.8662957299999974 2.5887943299999998 Au
atom 15.9380924400000001 37.8320404400000001 2.8669124500000001 Au
atom 18.3808575199999993 37.8392500100000007 2.5237197500000002 Au
atom 21.3316515699999982 37.8329096300000032 2.3559449400000001 Au
atom 24.5060247199999992 37.8668442299999981 2.7095922699999999 Au
atom 27.0368115499999995 37.8274935199999973 2.6348131800000001 Au
atom 1.6216283899999999 37.8414468799999995 2.6279873999999999 Au
atom 5.0169761499999996 37.8267151699999999 2.8153472100000001 Au
atom 8.8161597599999997 0.8915118100000000 2.7620343900000002 Au
atom 11.8177634900000008 0.8466147900000000 2.5795496400000002 Au
atom 14.4671438699999992 0.8370495700000000 2.7952483899999998 Au
atom 17.5499718300000005 0.8164722900000000 2.8451286900000001 Au
atom 20.3101666600000001 0.8160216100000000 2.6069201500000001 Au
atom 23.0252418399999996 0.8402597100000000 2.7615217099999998 Au
atom 25.9414631900000003 0.9418870400000000 2.5726123300000001 Au
atom 0.4971404800000000 0.9316118100000000 2.5634428300000001 Au
atom 3.2516791800000000 0.8412751700000000 2.6887840999999999 Au
atom 6.0875185800000002 0.8265972000000000 2.8639211200000001 Au
atom 7.5273526300000002 3.3175126900000000 2.6880852900000001 Au
atom 10.3282181899999994 3.3160326000000002 2.6833937200000002 Au
atom 13.1596429100000005 3.3049486500000000 2.7177407300000000 Au
atom 15.9749355200000007 3.3197839000000000 2.7043197000000001 Au
atom 18.8056445600000011 3.3009241299999998 2.7052719000000001 Au
atom 21.5967133599999990 3.2826969500000001 2.6823975999999998 Au
atom 24.4257954599999998 3.3220686700000002 2.6796960500000000 Au
atom 27.2603980899999989 3.1321047300000000 2.6907530400000002 Au
atom 1.8652594300000001 3.3262602499999998 2.6718787300000000 Au
atom 4.6776435200000002 3.2819065900000002 2.6667112500000001 Au
atom 8.9105515299999993 5.8131526100000004 2.7298313099999998 Au
atom 11.7480814900000006 5.8370681700000002 2.7155279700000001 Au
atom 14.5609593200000003 5.8143282200000002 2.7592455400000002 Au
atom 17.3673550600000013 5.7923973200000001 2.6864533399999999 Au
atom 20.1903973000000008 5.7970094699999999 2.7447315600000000 Au
atom 23.0028507100000006 5.7625945600000001 2.6956742100000000 Au
atom 25.8532397500000002 5.8617029199999999 2.6899225000000002 Au
atom 0.4354752900000000 5.9993789599999996 2.5285065100000002 Au
atom 3.2676491400000001 5.7726613000000002 2.7433185700000000 Au
atom 6.1080973399999996 5.7975686099999999 2.7097069100000000 Au
atom 7.4934462000000002 8.2511363400000004 2.7113086499999999 Au
atom 10.3193456200000000 8.2646171099999997 2.6322404700000002 Au
atom 13.1557114199999994 8.2524818100000008 2.6783262699999999 Au
atom 15.9260246799999994 8.2288243899999998 2.6012378900000002 Au
atom 18.7640452999999994 8.2539904699999997 2.6970211399999999 Au
atom 21.6110648000000012 8.2492302500000001 2.6391002499999998 Au
atom 24.4116337500000000 8.2901825200000001 2.6931159899999999 Au
atom 27.2703726400000015 8.3941768799999998 2.8344418000000000 Au
atom 1.8720837200000000 8.2997145600000000 2.6826814899999998 Au
atom 4.6968906500000003 8.2746036600000004 2.6086351600000000 Au
atom 8.9086963600000004 10.7327695999999992 2.6282587999999998 Au
atom 11.7376294500000000 10.7205738999999998 2.6094454100000002 Au
atom 14.5311445300000006 10.7343467900000000 2.6473369099999999 Au
atom 17.3822294100000008 10.7225055400000002 2.6518999100000000 Au
atom 20.1776717099999985 10.7010440700000000 2.6445108400000001 Au
atom 23.0476474600000003 10.7129755800000002 2.6421977200000000 Au
atom 25.8541992000000000 10.7262884799999991 2.6950271600000000 Au
atom 0.4815271700000000 10.7639740400000008 2.6735849599999999 Au
atom 3.2795984800000002 10.7487752099999998 2.6545983899999999 Au
atom 6.0982482800000000 10.7324670599999994 2.6356858200000000 Au
atom 7.5048016200000003 13.1680575199999996 5.7263015299999998 Cl
atom 7.4895982099999996 16.0006167700000006 8.5860445999999992 Cl
atom 7.5196908100000002 13.1361557100000006 8.3186028600000004 Na
atom 7.5319412400000001 16.0111358599999996 5.7886981400000002 Na
atom 7.4950309600000002 18.8193347700000011 5.7194755600000002 Cl
atom 7.4987962599999998 21.6379469600000007 8.5619424899999999 Cl
atom 7.4610146600000000 18.7940958800000004 8.3856250299999999 Na
atom 7.4971705799999997 21.6175884600000003 5.8233976800000002 Na
atom 7.5019185100000003 24.4362007699999992 5.7574407000000001 Cl
atom 7.5007919899999997 27.2617188100000014 8.5913828900000002 Cl
atom 7.4966375300000001 24.4429289999999995 8.4084523200000003 Na
atom 7.5006632700000004 27.2152115200000004 5.8238067200000003 Na
atom 7.4857647600000004 30.0704230899999985 5.7254140600000003 Cl
atom 7.5012254900000004 32.9058921000000026 8.5641219700000004 Cl
atom 7.5021282999999999 30.0622203500000005 8.3691036899999993 Na
atom 7.4960175199999997 32.9025955600000017 5.8332842999999999 Na
atom 7.4868222900000001 35.7340169699999990 5.7146579600000003 Cl
atom 7.3489333099999996 38.5414927899999995 8.5922323699999996 Cl
atom 7.4849705899999996 35.7410428000000024 8.3648087100000001 Na
atom 7.2780911599999998 38.5764928400000002 5.9185458899999999 Na
atom 7.5369687399999998 1.8922125100000000 5.6340912200000002 Cl
atom 7.5118254400000000 4.7274159800000000 8.5709947500000006 Cl
atom 7.4618294399999998 1.9278014699999999 8.3763317900000001 Na
atom 7.4922727800000004 4.7096541099999998 5.8638591499999997 Na
atom 7.5037865000000004 7.5162033199999998 5.7287394799999998 Cl
atom 7.4797343500000002 10.3784334800000000 8.5433133600000009 Cl
atom 7.4824352500000000 7.5631330099999996 8.3833367100000000 Na
atom 7.4948802499999996 10.3307499099999998 5.8078732999999998 Na
atom 10.3581238700000000 13.1490395099999997 5.8431615900000002 Na
atom 13.1447925899999998 13.1679646600000009 5.6983432699999996 Cl
atom 10.3312427299999996 16.0179275300000015 8.3385019800000002 Na
atom 13.1607079299999992 15.9999746799999993 8.5731946600000004 Cl
atom 13.1206121600000003 13.1940442000000004 8.3321520200000005 Na
atom 10.3266661600000003 13.1640463800000003 8.5624707799999999 Cl
atom 13.1540000300000006 16.0254814900000007 5.7943819200000002 Na
atom 10.3221567200000006 15.9869945500000004 5.7066352299999998 Cl
atom 10.3104696100000002 18.8612350400000004 5.8051250000000003 Na
atom 13.1470101800000005 18.8171372400000010 5.7369057999999997 Cl
atom 10.2909638900000004 21.6233666299999996 8.3556476199999992 Na
atom 13.1459802200000002 21.5964910500000009 8.5722277299999998 Cl
atom 13.1444540500000002 18.7937132499999997 8.3781586000000008 Na
atom 10.3325782799999999 18.8146633299999984 8.5621478700000004 Cl
atom 13.1527134100000005 21.6031656900000009 5.8277859899999997 Na
atom 10.3068051300000008 21.6312076399999995 5.7404369800000001 Cl
atom 10.3076092900000003 24.4366105599999983 5.8331233999999998 Na
atom 13.1403251000000001 24.4426512500000008 5.7535803100000003 Cl
atom 10.3477040799999997 27.2607573400000014 8.4260380300000008 Na
atom 13.1037461200000003 27.2637402599999987 8.5518417299999996 Cl
atom 13.1642055700000000 24.4053875100000006 8.3917434800000006 Na
atom 10.3208293599999994 24.4476630700000008 8.5660749599999999 Cl
atom 13.1508225599999999 27.1973353799999984 5.8069762999999996 Na
atom 10.2939208200000003 27.2558654199999992 5.7566406099999998 Cl
atom 10.3099327200000008 30.0841213900000000 5.8372292899999998 Na
atom 13.1437619800000007 30.0749406300000004 5.7504124200000000 Cl
atom 10.3228237699999994 32.9088497600000025 8.3949741099999997 Na
atom 13.1180325300000007 32.8982064899999997 8.5657132899999997 Cl
atom 13.0862743500000001 30.0708413700000001 8.3338512700000003 Na
atom 10.3088538700000001 30.0908401999999988 8.5530578899999998 Cl
atom 13.1336682600000003 32.8893737300000026 5.8455048700000001 Na
atom 10.3119519900000007 32.8943533099999996 5.7057536899999999 Cl
atom 10.2924650900000003 35.7564083999999980 5.8071359700000000 Na
atom 13.1662415100000008 35.7358682500000029 5.7331950200000001 Cl
atom 10.2900900199999992 38.5129009600000032 8.4161932200000003 Na
atom 13.0294992799999996 38.5491255399999986 8.5908763100000005 Cl
atom 13.1360540399999994 35.7434412499999965 8.4065542000000004 Na
atom 10.3148087700000008 35.7261839100000032 8.5457675000000002 Cl
atom 13.2597230600000007 38.5643987600000031 5.8192214399999997 Na
atom 10.3621676399999991 38.5595530399999973 5.5549531999999999 Cl
atom 10.2954261900000006 1.8833008700000000 5.8731518899999999 Na
atom 12.9746265100000002 1.8872156499999999 5.7140483599999996 Cl
atom 10.3041584900000007 4.7063445399999999 8.4085661199999997 Na
atom 13.1202189699999998 4.7143798400000003 8.5912385699999998 Cl
atom 13.1045812000000002 1.8550435599999999 8.3057895199999994 Na
atom 10.3345354799999996 1.8821164500000001 8.4372472500000004 Cl
atom 13.1378569600000006 4.7149558200000001 5.8261647200000004 Na
atom 10.3172550500000000 4.7057566700000004 5.7547266300000004 Cl
atom 10.3416672399999996 7.4939683400000003 5.8113638400000003 Na
atom 13.1286049899999995 7.5097879599999997 5.7412330499999999 Cl
atom 10.3228332599999995 10.3446670800000007 8.3780599099999993 Na
atom 13.1547789900000005 10.3559394200000003 8.5716867200000006 Cl
atom 13.1419593100000007 7.5471742900000001 8.4017071300000001 Na
atom 10.3073704700000004 7.5261454600000004 8.5633763900000002 Cl
atom 13.1792528299999994 10.3204279700000008 5.7858686900000000 Na
atom 10.3332454600000005 10.3366152099999997 5.7004807000000000 Cl
atom 15.9972275899999996 13.1672089000000003 5.8478172900000001 Na
atom 18.7675068200000013 13.1542675399999993 5.6926321099999999 Cl
atom 15.9577175300000000 16.0070608599999993 8.3859896799999998 Na
atom 18.7868563299999991 15.9615533200000002 8.5473009799999993 Cl
atom 18.7735560200000009 13.1804139800000009 8.3863961699999994 Na
atom 15.9596346400000009 13.1704825799999998 8.5663739900000007 Cl
atom 18.7747824600000008 15.9700554199999996 5.7485863100000003 Na
atom 15.9754357500000008 16.0001026499999988 5.7221460400000002 Cl
atom 15.9486691999999994 18.8068369599999983 5.8660846199999996 Na
atom 18.7993210200000007 18.8114924399999985 5.7200107800000000 Cl
atom 15.9669656799999995 21.6313508100000007 8.4094383199999996 Na
atom 18.8108457199999997 21.5932288899999989 8.5833159899999991 Cl
atom 18.7834906699999991 18.8070768199999989 8.3879470900000008 Na
atom 15.9516558199999992 18.8132132600000013 8.5733626800000007 Cl
atom 18.7799760300000003 21.6312240899999999 5.7816025599999996 Na
atom 15.9415315700000004 21.6180492300000004 5.7408952400000004 Cl
atom 15.9269674699999992 24.4435510899999997 5.8074671100000002 Na
atom 18.7690005199999987 24.4353263200000015 5.7275628799999998 Cl
atom 15.9400788099999993 27.2705487799999986 8.3799087700000001 Na
atom 18.7737401999999989 27.2507810200000016 8.5534160799999999 Cl
atom 18.7730258200000009 24.4057089699999992 8.3674500599999995 Na
atom 15.9521093000000000 24.4402792499999997 8.5584050600000001 Cl
atom 18.7534142499999987 27.2661509600000009 5.8440637400000002 Na
atom 15.9488342099999993 27.2682494300000009 5.7124696899999998 Cl
atom 15.9582748500000005 30.0841731299999999 5.8126162600000004 Na
atom 18.7588118299999991 30.0588422900000012 5.7061342000000002 Cl
atom 15.9123781199999996 32.8868488199999973 8.3595140699999995 Na
atom 18.7826743699999987 32.9060203900000019 8.5896064699999997 Cl
atom 18.7730783300000006 30.1258263799999995 8.4099140999999999 Na
atom 15.9366416300000004 30.0894714800000003 8.5518970099999994 Cl
atom 18.7872523099999995 32.9258083300000024 5.8374483699999997 Na
atom 15.9552183900000006 32.8970181800000034 5.7200008899999997 Cl
atom 15.9748273800000007 35.7177026800000021 5.8376708300000004 Na
atom 18.7713243500000004 35.7329884700000022 5.7177225299999996 Cl
atom 16.0663989399999991 38.5420391099999975 8.3938735399999995 Na
atom 18.8457334699999990 38.5653940799999972 8.5482284199999992 Cl
atom 18.7676307000000016 35.7397627599999979 8.3596246200000000 Na
atom 15.9356379700000002 35.7199070400000025 8.5518847900000008 Cl
atom 18.8222992900000001 38.5770133299999998 5.7556435800000001 Na
atom 15.8889756999999996 38.5558047800000026 5.8389350200000001 Cl