#===============================================================================
# Created using the Atomic Simulation Environment (ASE)

# Sat Nov  1 21:48:34 2025

#=======================================================
lattice_vector 28.1999999999999993 0.0000000000000000 0.0000000000000000 
lattice_vector 0.0000000000000000 39.4799999999999969 0.0000000000000000 
lattice_vector 0.0000000000000000 0.0000000000000000 62.3296083400000001 
atom 7.5924125099999999 14.7929640199999994 -0.0187852300000000 Au
atom 10.4061885400000005 14.9959714099999992 -0.0893678500000000 Au
atom 13.2299483700000007 14.7952752600000004 0.0751989400000000 Au
atom 16.1886292999999988 14.7604649699999992 0.2662922300000000 Au
atom 18.7584130699999996 14.8458711099999991 0.0334665100000000 Au
atom 21.6269720099999994 14.7683405699999994 0.0047345400000000 Au
atom 24.4287587100000003 14.8605812900000007 0.1016898200000000 Au
atom 27.3251598899999983 14.9656785499999998 0.0162662500000000 Au
atom 1.8071675500000000 14.7888714900000000 0.0880529100000000 Au
atom 4.5101925100000004 14.8603109399999997 0.0517239300000000 Au
atom 8.8868725200000007 17.1794806999999992 -0.0423932500000000 Au
atom 11.8063875599999992 17.2549923099999987 0.1471980400000000 Au
atom 14.5149998799999995 17.2576312999999999 0.0237594600000000 Au
atom 17.4752730800000009 17.2843053399999995 0.0924894100000000 Au
atom 20.1063659100000010 17.3289671399999996 0.0498966500000000 Au
atom 22.9671808599999991 17.1275144300000015 0.0176985800000000 Au
atom 25.8743129699999983 17.4039718500000014 -0.0302325000000000 Au
atom 0.2842951300000000 17.2687438499999999 0.1452984100000000 Au
atom 3.2158658500000001 17.3259438199999991 0.0795867900000000 Au
atom 6.1527794599999996 17.2892172700000017 0.1719714200000000 Au
atom 7.4859359200000002 19.7607743599999992 0.1651348700000000 Au
atom 10.3817283099999997 19.8493085600000008 0.0053128000000000 Au
atom 13.1521417599999992 19.6642139799999995 0.2243351100000000 Au
atom 15.8305043500000000 19.8233370200000003 -0.0703951500000000 Au
atom 18.7348895999999989 19.8006351699999996 0.1907349600000000 Au
atom 21.8234694299999994 19.7061612900000007 0.0915993200000000 Au
atom 24.2010355200000014 19.8269681300000009 0.1538807000000000 Au
atom 27.1452271200000013 19.7206857999999983 0.1380653900000000 Au
atom 1.7057053900000001 19.6431594099999991 0.1607592300000000 Au
atom 4.6908993399999996 19.7131601200000013 0.1597439700000000 Au
atom 8.9572884599999991 22.1816598099999993 0.0177794200000000 Au
atom 11.8051729200000004 22.2268244700000004 -0.0700776800000000 Au
atom 14.5860666899999991 22.2298082400000006 0.1367408600000000 Au
atom 17.3499984299999994 22.1499602099999997 0.1086464900000000 Au
atom 20.3126120199999995 22.2000622999999990 -0.1063606500000000 Au
atom 23.0128097499999988 22.2313769900000011 0.2484857500000000 Au
atom 25.8783638099999997 22.2715618800000001 -0.0086819400000000 Au
atom 0.5667345100000000 22.1885199200000010 0.1210939700000000 Au
atom 3.2805094299999999 22.3622007700000012 -0.1413523000000000 Au
atom 5.9952864500000000 22.2756603099999992 0.1542731500000000 Au
atom 7.5070752000000001 24.8324589499999995 0.1438749000000000 Au
atom 10.2501137199999999 24.7986511199999988 0.3436253800000000 Au
atom 13.2485448300000002 24.6578572399999985 0.0774300100000000 Au
atom 16.1665970399999992 24.4647009699999991 0.1458410100000000 Au
atom 18.7118227200000007 24.5141940299999987 0.0344747800000000 Au
atom 21.7070855899999984 24.7671849399999999 0.0983288900000000 Au
atom 24.6045055599999998 24.8203720899999993 0.2053798800000000 Au
atom 27.3358208400000002 24.6354158599999984 0.1662920100000000 Au
atom 1.9704967000000000 24.7468675000000005 0.0827503200000000 Au
atom 4.8763066200000003 24.5377787000000005 0.3265997000000000 Au
atom 9.3453908600000002 27.4609780599999986 0.0755795800000000 Au
atom 11.4303049500000000 27.1886653400000000 0.1167284200000000 Au
atom 14.3997073300000000 27.2644675899999989 0.0516228400000000 Au
atom 17.2205221900000005 27.1252294700000007 0.1074879700000000 Au
atom 20.0079947800000006 27.3116193900000006 0.0166579300000000 Au
atom 23.0754691100000002 27.1433785500000013 0.1079651200000000 Au
atom 25.8808485899999994 27.2774981899999993 0.0802451300000000 Au
atom 0.3937354000000000 26.9857212599999983 0.1239241700000000 Au
atom 3.3232523899999999 27.3255112000000011 0.1147024500000000 Au
atom 6.0685228799999997 27.0044751100000013 -0.1292374000000000 Au
atom 7.4639364300000004 29.6001834099999996 -0.0241345800000000 Au
atom 10.3914308900000005 29.7026028000000011 0.1161293900000000 Au
atom 13.2226123199999996 29.8334656400000000 -0.1666999600000000 Au
atom 15.9300771900000004 29.7179622899999991 0.2080219400000000 Au
atom 18.7509986099999999 29.4734854000000013 0.0952638700000000 Au
atom 21.5668728899999991 29.4574641499999998 0.0170704300000000 Au
atom 24.2265913899999994 29.7883871099999986 0.1786891200000000 Au
atom 27.0437142000000001 29.7203991800000011 -0.0129274800000000 Au
atom 1.8791346000000000 29.5346352000000003 -0.0280758100000000 Au
atom 4.6591316400000000 29.4795885300000009 0.0794774700000000 Au
atom 9.0817312500000007 32.2929084299999971 0.0030729200000000 Au
atom 11.5696619199999997 32.0740288399999969 -0.1308971500000000 Au
atom 14.6378802900000000 32.1572385899999986 -0.0014767900000000 Au
atom 17.4392438799999994 32.2079628700000029 -0.0656995000000000 Au
atom 20.0811668800000014 32.1716386000000014 -0.1449030000000000 Au
atom 23.0115869099999983 32.0171924400000023 -0.0982618700000000 Au
atom 26.0410222299999994 31.9082038399999988 0.0672123300000000 Au
atom 0.5427109900000000 32.3440383100000020 0.1321794100000000 Au
atom 3.3209019299999998 31.8798580099999995 0.0339114600000000 Au
atom 6.1622892699999996 32.0205269499999972 -0.1482818300000000 Au
atom 7.5076492899999998 34.5665852799999982 0.0526571100000000 Au
atom 10.3450261099999992 34.6557865199999995 0.0588051400000000 Au
atom 13.1473146900000000 34.5383079200000012 0.1223304700000000 Au
atom 15.9814425999999994 34.3169258499999970 -0.1187875000000000 Au
atom 18.7168678100000001 34.4699353600000009 -0.1252284400000000 Au
atom 21.5592488700000011 34.5129849799999988 0.1268645200000000 Au
atom 24.4572056400000015 34.4617582200000001 -0.2112088800000000 Au
atom 27.2109865000000006 34.5357215399999973 0.1569436000000000 Au
atom 1.7141192500000000 34.7390200299999989 -0.0716675500000000 Au
atom 4.6358694500000004 34.7290098000000000 -0.1657646000000000 Au
atom 8.9242267399999999 37.1220040500000010 0.2455152600000000 Au
atom 11.6606031100000003 37.1026029499999979 0.0224551100000000 Au
atom 14.5954127899999992 37.0001783499999988 -0.0005660700000000 Au
atom 17.5259656100000001 37.1919390600000028 -0.1581539600000000 Au
atom 20.2882615199999989 37.0919130799999976 0.1445963300000000 Au
atom 23.0905825200000017 37.1281883999999991 0.1242231500000000 Au
atom 25.7039280199999993 37.0741429300000007 -0.0901495800000000 Au
atom 0.5180473200000000 37.0141131000000030 0.2390075400000000 Au
atom 3.2297681100000002 37.2684248699999969 -0.0031903900000000 Au
atom 6.2377084099999998 36.9707191800000032 0.1445467700000000 Au
atom 7.5112864899999998 0.1544929900000000 -0.0483026300000000 Au
atom 10.1839817999999998 -0.0260140200000000 0.0705740900000000 Au
atom 13.1846468100000003 0.1794137500000000 0.2644716300000000 Au
atom 15.9711332200000005 0.1104304000000000 0.0611102900000000 Au
atom 18.9561395099999999 -0.0315775400000000 0.0600790000000000 Au
atom 21.6238735400000017 -0.0881309000000000 0.2999787900000000 Au
atom 24.5334661599999997 -0.1457496100000000 -0.0051774900000000 Au
atom 27.0454670899999989 0.0181454000000000 0.0749720800000000 Au
atom 1.8215428800000000 0.0397537200000000 -0.0956098500000000 Au
atom 4.7732749200000004 -0.0056965400000000 0.0145138500000000 Au
atom 8.8613745500000007 2.4506259899999998 -0.0188763100000000 Au
atom 11.6632357800000008 2.4071297600000001 -0.0290734700000000 Au
atom 14.4952774299999998 2.4566852899999998 0.2973916500000000 Au
atom 17.6480991899999999 2.5121858399999999 0.0457250200000000 Au
atom 20.2027300499999996 2.6614424900000002 -0.0737406400000000 Au
atom 22.9390454099999985 2.6309687600000000 0.0897138800000000 Au
atom 25.7937836699999998 2.6557705700000001 -0.0081052400000000 Au
atom 0.4149782500000000 2.4487762499999999 0.0772803600000000 Au
atom 3.4268232799999998 2.5431434799999999 0.0739445700000000 Au
atom 6.0698474800000000 2.4012226800000001 0.1919928000000000 Au
atom 7.4602687100000002 4.9493384699999998 0.1595419300000000 Au
atom 10.3513066299999998 4.9827696899999996 0.1357827600000000 Au
atom 13.1005666999999999 5.0597116000000000 0.1610196500000000 Au
atom 16.0142302699999988 4.9256287800000003 0.1904193000000000 Au
atom 18.8046162700000004 5.0269590400000004 0.1049631800000000 Au
atom 21.5303263999999999 4.9117343800000004 -0.0170687300000000 Au
atom 24.3950958600000014 4.9510113300000000 0.1450792900000000 Au
atom 27.1521643200000007 4.7407169500000004 0.1061995100000000 Au
atom 1.7473525400000001 5.0567667800000002 0.1452776300000000 Au
atom 4.6531933499999996 5.0955967900000001 0.0794742600000000 Au
atom 8.8844983400000004 7.5151363800000004 0.1196326900000000 Au
atom 11.5572146300000007 7.5146406099999998 -0.0219371500000000 Au
atom 14.5717786500000006 7.4679318800000001 -0.0520302200000000 Au
atom 17.3247691199999991 7.4748985799999996 0.0667951800000000 Au
atom 20.2617313999999986 7.4422531000000003 0.0663534900000000 Au
atom 22.9260403799999999 7.4731246999999996 0.1473170300000000 Au
atom 25.7487889800000005 7.4534110499999997 0.1252206400000000 Au
atom 0.5131548600000000 7.4211204300000002 -0.0829427900000000 Au
atom 3.3045865900000000 7.4015291899999998 -0.2457201700000000 Au
atom 6.2599559400000002 7.4195458600000004 0.0786112400000000 Au
atom 7.4453689399999998 9.9976648600000004 -0.0096209100000000 Au
atom 10.5274080500000000 9.9600678400000007 0.0266596300000000 Au
atom 13.1048608499999997 10.0397474899999999 0.1066101200000000 Au
atom 15.9578979400000005 9.9920615799999997 -0.0152917400000000 Au
atom 18.5809648900000006 9.9407155500000002 0.2371538200000000 Au
atom 21.8401236300000008 10.0392131399999993 0.0747125300000000 Au
atom 24.5852484500000017 9.7711623700000008 0.0969843500000000 Au
atom 27.1037643599999996 9.7251618099999995 -0.0612386700000000 Au
atom 1.8515119600000001 9.9592774399999993 0.1693906200000000 Au
atom 4.6438908000000003 9.8270714500000000 -0.1700933700000000 Au
atom 8.8796581200000002 12.3189898600000003 -0.0191647400000000 Au
atom 11.6211048899999998 12.2441492299999997 0.0111706300000000 Au
atom 14.5403016500000000 12.3390202900000006 -0.0652088200000000 Au
atom 17.4222621999999987 12.2859064799999995 0.1210573300000000 Au
atom 20.2355143599999998 12.2919830900000004 -0.0147202500000000 Au
atom 23.1259030599999988 12.1897654200000005 -0.0077848600000000 Au
atom 25.8690883400000011 12.2770880200000008 0.0454736300000000 Au
atom 0.3880081600000000 12.3814413900000009 -0.1301896300000000 Au
atom 3.1214576300000001 12.3710548300000003 0.1681435600000000 Au
atom 6.0165657899999996 12.4000933100000008 0.0875127700000000 Au
atom 7.3895960799999996 13.1832672500000001 2.7271686100000001 Au
atom 10.4250948999999995 13.3517714800000000 2.5101897100000001 Au
atom 13.2127515300000002 13.0132050300000000 2.6436966000000002 Au
atom 16.0386355499999986 13.1505751100000001 2.5579149200000000 Au
atom 18.9164234200000010 13.3837560999999994 2.6490699100000001 Au
atom 21.5435129900000000 13.1311046499999993 2.5267516099999998 Au
atom 24.4680989599999990 13.1033398999999999 2.8206354000000000 Au
atom 27.2789588999999992 13.1115132400000007 2.5632437800000001 Au
atom 1.7381550600000000 13.0755741099999998 2.6614242199999998 Au
atom 4.7953049300000004 13.1882046200000005 2.6569041599999998 Au
atom 8.8123164700000007 15.6806647600000009 2.6067716800000000 Au
atom 11.6025444400000008 15.6590172800000005 2.7291731200000000 Au
atom 14.4573357599999994 15.7192866099999993 2.5783198999999999 Au
atom 17.4279981799999995 15.6316752000000001 2.6349763500000001 Au
atom 20.0171239300000003 15.4925405200000004 2.6554933799999998 Au
atom 22.8706920599999997 15.5313028299999996 2.7156114200000001 Au
atom 25.8400856800000014 15.5150378500000006 2.4886978599999998 Au
atom 0.3907931000000000 15.5417800199999991 2.7476863100000002 Au
atom 3.3606550999999998 15.7082782200000004 2.7349344400000000 Au
atom 6.1046727199999999 15.7689749700000004 2.6949552300000001 Au
atom 7.4498417200000002 18.1908470300000005 2.6066302499999998 Au
atom 10.3213307400000005 18.2015352099999994 2.7015052300000000 Au
atom 13.0886719800000009 18.1616476200000001 2.7013864900000000 Au
atom 16.0035054499999987 18.1440954800000007 2.6310068900000001 Au
atom 18.8203913100000015 18.1433182299999984 2.6815660600000002 Au
atom 21.6474237199999990 18.0485983899999987 2.5067892600000001 Au
atom 24.4244308500000002 18.0963235699999991 2.7799503300000001 Au
atom 27.2387426099999992 18.0320506700000003 2.7444834800000000 Au
atom 1.8800758099999999 18.0841957800000017 2.6745973400000000 Au
atom 4.7342659100000004 18.1660490999999986 2.3577039100000001 Au
atom 8.9073233399999996 20.7625139899999986 2.7448456200000000 Au
atom 11.9624453499999994 20.5451907300000016 2.7406158700000001 Au
atom 14.7129010200000003 20.4184028600000005 2.8941894600000002 Au
atom 17.1759670100000008 20.5467847200000016 2.7306854000000000 Au
atom 20.2365714700000012 20.6793449400000000 2.6351985099999999 Au
atom 23.2000291199999999 20.6515851700000006 2.5889083700000000 Au
atom 25.7454414000000007 20.5336113400000002 2.5091536400000001 Au
atom 0.3767541600000000 20.5327818600000001 2.6977328100000002 Au
atom 3.0934165299999998 20.5242297700000016 2.6037447800000000 Au
atom 5.9192677900000001 20.7396664800000003 2.6415718400000001 Au
atom 7.5772606099999997 23.1195142599999990 2.5088652400000000 Au
atom 10.3190581399999992 23.1049986099999991 2.7531051799999999 Au
atom 13.1855006600000007 22.9908925900000014 2.8738347599999998 Au
atom 15.9217943200000001 23.1486249599999994 2.6650834400000001 Au
atom 18.7406109100000009 23.0113142999999987 2.5920723300000001 Au
atom 21.4889529400000008 23.0699810599999999 2.3352965999999999 Au
atom 24.4415799699999994 23.0452658399999990 2.6197569199999999 Au
atom 27.4704482799999994 23.0947053699999998 2.9068972099999999 Au
atom 1.7835286800000001 22.9816758000000014 2.6807090800000002 Au
atom 4.7819897500000002 23.1337404199999987 2.5671556000000000 Au
atom 8.7972553700000002 25.4159614699999992 2.6808964600000000 Au
atom 11.5635620699999997 25.5214508100000010 2.7093196000000002 Au
atom 14.5065906099999999 25.3674345599999995 2.8736307800000001 Au
atom 17.3577802000000005 25.5867354999999996 2.6798595600000001 Au
atom 20.3359678200000005 25.5720017800000008 2.7739064000000000 Au
atom 22.8546860800000005 25.6049442800000016 2.9168280800000002 Au
atom 25.9491981699999990 25.2764783199999989 2.7055792300000001 Au
atom 0.3544806600000000 25.4066444699999998 2.7843917399999998 Au
atom 3.2733445600000000 25.5721135799999999 2.6600494200000000 Au
atom 6.0828917699999998 25.6304746100000003 2.6900869500000000 Au
atom 7.3600564100000003 28.0100832699999991 2.6265423900000000 Au
atom 10.3964827599999996 27.9225534599999996 2.7935593900000000 Au
atom 13.2558012400000003 27.8709681799999984 2.7669813200000002 Au
atom 15.9551787500000000 28.0260815399999998 2.5328324200000001 Au
atom 18.6652290699999988 27.9531130200000000 2.5730349900000000 Au
atom 21.6173143400000001 27.8114970799999988 2.6322574900000002 Au
atom 24.4061550400000016 27.9696472299999996 2.6966403500000000 Au
atom 27.1005468500000006 28.0652941499999997 2.7480029199999998 Au
atom 1.8401985300000001 28.0033573699999998 2.6897158900000000 Au
atom 4.5449757200000001 28.0380690900000005 2.5480066799999999 Au
atom 8.8972755800000005 30.5727068399999986 2.5833978399999999 Au
atom 11.6838226400000007 30.5690799099999992 2.7312669199999999 Au
atom 14.4806971900000008 30.4160196700000007 2.6459769899999999 Au
atom 17.3452502499999994 30.7177676300000009 2.8157905400000001 Au
atom 20.2587280999999990 30.4490942099999984 2.7448261999999999 Au
atom 22.9301177699999990 30.3859402600000017 2.8258452599999999 Au
atom 25.8532287399999987 30.4598968300000017 2.7414748499999999 Au
atom 0.5439893300000000 30.3868883899999993 2.5392682199999999 Au
atom 3.1644875600000000 30.3023059400000001 2.7152927600000001 Au
atom 6.2763083000000002 30.3708123800000003 2.6228000400000000 Au
atom 7.4401908800000003 32.9272045199999965 2.4392219399999999 Au
atom 10.2123706700000003 32.8296036999999998 2.6246016900000000 Au
atom 13.0966420699999997 32.9720973499999985 2.4283919200000001 Au
atom 15.9504104800000004 32.9147460200000026 2.7793299800000000 Au
atom 18.7742009699999990 33.0165600899999987 2.5403163900000001 Au
atom 21.6418879000000004 32.8030592100000007 2.6954138599999999 Au
atom 24.3933977099999986 33.0725014300000026 2.4781526299999999 Au
atom 27.1016900599999992 33.0677973000000023 2.8672219900000000 Au
atom 1.9061097899999999 32.9346635500000033 2.4331136199999999 Au
atom 4.6685264499999999 32.9314618200000027 2.7055907000000001 Au
atom 8.8394300099999992 35.5941642900000019 2.6427888799999999 Au
atom 11.8454036400000007 35.3147571299999967 2.7516677800000000 Au
atom 14.5885064700000004 35.3767372599999987 2.5447805699999999 Au
atom 17.3821573899999997 35.6291819300000014 2.6148753700000000 Au
atom 20.3432399599999982 35.4730317799999995 2.6781212600000002 Au
atom 23.1681618699999987 35.4934257999999971 2.6590256399999999 Au
atom 25.8096518800000005 35.2331980200000032 2.5843640699999999 Au
atom 0.5564056300000000 35.4175915900000007 2.4932151700000000 Au
atom 3.3103197400000002 35.3066557300000028 2.7130581500000002 Au
atom 6.1464003900000002 35.3422731599999977 2.6981165300000001 Au
atom 7.3833461700000003 38.1026939699999971 2.6829053699999998 Au
atom 10.3033151400000005 37.9211666599999973 2.3655348500000000 Au
atom 13.1201889299999994 37.9666580800000020 2.6323400900000000 Au
atom 15.9221413999999992 37.8552628500000026 2.7637628200000002 Au
atom 18.8546875100000015 37.8980023100000025 2.6816365200000001 Au
atom 21.5344528100000012 37.8274509800000018 2.5855790900000000 Au
atom 24.5110594699999993 37.8132369400000030 2.6903191600000000 Au
atom 27.4244026400000003 37.7853305200000023 2.6925618000000000 Au
atom 1.8857307400000001 37.8938083299999988 2.5664832000000000 Au
atom 4.6880342300000004 37.8819772200000031 2.7161398399999999 Au
atom 8.9066170200000006 0.9312496099999999 2.6669334500000001 Au
atom 11.7102214199999999 0.9673038400000000 2.7821223499999999 Au
atom 14.6279068199999998 0.7684877800000000 2.7287823300000000 Au
atom 17.4205895800000015 0.9994205700000000 2.7691561899999999 Au
atom 20.3914679999999997 0.8120525500000000 2.6622365100000001 Au
atom 23.0570533200000014 0.7461890000000000 2.7328589900000000 Au
atom 25.7626487699999984 0.9056762300000000 2.7873964700000000 Au
atom 0.4537638900000000 0.8795890400000000 2.6711418199999999 Au
atom 3.1171416399999998 0.9052730400000000 2.6277224200000000 Au
atom 6.1370998200000004 1.0193408300000000 2.5784812499999998 Au
atom 7.3547358500000000 3.4036480400000002 2.6323959900000000 Au
atom 10.5398767099999997 3.2972464399999999 2.7030760800000002 Au
atom 13.3318089900000007 3.3897304500000001 2.7332234799999999 Au
atom 16.0410286000000006 3.1564340099999999 2.7765013399999998 Au
atom 18.5705662499999988 3.4404519100000002 2.7638498399999998 Au
atom 21.6737873500000013 3.3753298100000002 2.7025890499999998 Au
atom 24.3368020999999999 3.3952413400000001 2.7593197300000001 Au
atom 27.2224442199999999 3.4348088600000000 2.6566098700000000 Au
atom 1.9693392199999999 3.3623324200000000 2.6880570200000000 Au
atom 4.6678061299999998 3.2415122400000000 2.5696645899999999 Au
atom 9.0131972900000008 5.7833495700000004 2.8973091200000001 Au
atom 11.7023112099999995 5.8470877799999998 2.7822009500000000 Au
atom 14.5036926000000008 5.8575931299999997 2.7229946400000000 Au
atom 17.2744348499999987 5.8007092000000000 2.6801195000000000 Au
atom 20.1828576400000017 5.7667442500000003 2.5900925600000000 Au
atom 22.9222107199999989 5.8509197799999999 2.7815418300000001 Au
atom 25.7611574999999995 5.8001115299999997 2.7298607700000002 Au
atom 0.3332682100000000 5.8683607000000002 2.7807031900000001 Au
atom 3.1893010899999998 5.7496943399999996 2.7194615400000002 Au
atom 6.1205360300000002 5.7978659500000003 2.9180817700000001 Au
atom 7.5636585099999998 8.2823361999999996 2.5906213899999999 Au
atom 10.2841466900000000 8.0490682499999995 2.4492652399999999 Au
atom 13.1261724500000003 8.4283493699999994 2.6730341100000001 Au
atom 16.0558444800000011 8.2440175399999998 2.5384435000000001 Au
atom 18.7770371999999988 8.5840606200000007 2.7382936600000001 Au
atom 21.5466860000000011 8.4332161600000006 2.5986628399999998 Au
atom 24.4448122900000016 8.1951649100000008 2.6531235500000001 Au
atom 27.2781750800000005 8.1738859500000007 2.7545270799999999 Au
atom 1.8514323800000001 8.2071496699999997 2.7329788900000000 Au
atom 4.6523139499999999 8.2959006300000002 2.6959551600000000 Au
atom 9.0735709799999995 10.6036395700000003 2.8654772400000001 Au
atom 11.6268117899999996 10.7876595900000005 2.6450284900000001 Au
atom 14.6900675700000001 10.8138597799999996 2.5923204200000001 Au
atom 17.3207870300000017 10.6421293499999994 2.5658718199999999 Au
atom 20.3048077000000013 10.7102966100000003 2.7657749400000000 Au
atom 23.0087283400000011 10.6848965299999996 2.7151716600000002 Au
atom 25.8706096700000003 10.7721316100000006 2.8028514000000002 Au
atom 0.4814434900000000 10.8483511000000004 2.6402965699999998 Au
atom 3.5303422699999998 10.6746958599999999 2.7060411900000001 Au
atom 6.0360760300000003 10.7666275599999999 2.5758046600000002 Au
atom 7.4729465800000003 13.1945688600000004 5.6107187800000000 Cl
atom 7.4696875299999999 15.9794424799999994 8.5222639000000004 Cl
atom 7.4768645800000000 13.1835448799999995 8.3000593499999997 Na
atom 7.4944490100000003 16.0946642500000010 5.8595635000000001 Na
atom 7.3137694800000004 18.9959322700000008 5.7460919900000000 Cl
atom 7.5440683899999996 21.4726248400000017 8.4187209999999997 Cl
atom 7.4635167500000001 18.9307300900000008 8.4334293799999998 Na
atom 7.3482646899999997 21.6001040300000007 5.9386207600000001 Na
atom 7.4162461100000003 24.4488137399999985 5.6796565699999997 Cl
atom 7.5190017300000003 27.2565880699999994 8.6554682199999995 Cl
atom 7.6056633400000004 24.4966123899999992 8.3254406099999994 Na
atom 7.4336355000000003 27.2443967100000002 6.2390390599999996 Na
atom 7.4471946000000004 30.1240470599999988 5.7650467299999999 Cl
atom 7.5212588199999999 32.9221415000000022 8.6239963900000003 Cl
atom 7.4589179999999997 29.9751859500000002 8.3531493399999999 Na
atom 7.4572569499999997 32.9591945100000032 5.8384179700000001 Na
atom 7.5381516599999996 35.9056299699999997 5.7835352899999997 Cl
atom 7.5842358900000004 38.3095171300000032 8.5839481600000003 Cl
atom 7.4734331300000001 35.7462790299999966 8.3706947500000002 Na
atom 7.6224830700000004 38.6520952600000030 5.7606538100000000 Na
atom 7.4185939899999997 1.9239941300000001 5.6069077099999998 Cl
atom 7.4489199900000003 4.8663168700000003 8.4167682999999993 Cl
atom 7.6866959000000001 1.8199652399999999 8.4992698400000002 Na
atom 7.4582122699999998 4.5701733700000000 5.9130621400000001 Na
atom 7.4656036500000003 7.5718010900000001 5.7276289100000000 Cl
atom 7.7767620099999997 10.5089224399999992 8.6086126299999997 Cl
atom 7.5855681900000000 7.6170727500000002 8.2135640700000003 Na
atom 7.4878262099999997 10.5145485700000005 5.7296394499999996 Na
atom 10.4266272299999994 13.4298234000000001 5.8836603700000003 Na
atom 13.3077039300000006 13.2798247600000003 5.5942277300000001 Cl
atom 10.3885510199999995 16.0319828000000015 8.3662324100000003 Na
atom 13.1555506999999992 16.0023250499999996 8.6792841200000002 Cl
atom 13.1145343000000008 13.1587920000000000 8.2224024300000007 Na
atom 10.3600925999999998 13.1318893200000009 8.4357419199999999 Cl
atom 13.2982684599999992 16.1227479100000011 5.8940961500000002 Na
atom 10.4301591200000008 16.0932985500000001 5.6168049199999999 Cl
atom 10.4040768600000000 18.7980072199999988 5.8524638099999997 Na
atom 12.9992299899999999 18.9612766599999993 5.7463557099999996 Cl
atom 10.3051799400000004 21.6327592399999986 8.4338575400000000 Na
atom 13.1986915000000007 21.6433015900000001 8.5986505300000005 Cl
atom 12.9555601100000004 18.6085021799999986 8.3981941899999999 Na
atom 10.2964673900000001 18.7749662599999994 8.6230525999999994 Cl
atom 13.3041538199999998 21.6985617300000015 5.9496511999999999 Na
atom 10.2533525000000001 21.5965561500000014 5.7367498399999999 Cl
atom 10.3573167999999995 24.5548106399999995 5.9076019500000001 Na
atom 13.0496954899999995 24.4575926999999993 5.7384847399999996 Cl
atom 10.3345387199999994 27.1929226799999988 8.4258170499999991 Na
atom 13.2107790400000003 27.3739999999999988 8.5355699200000004 Cl
atom 13.1581990799999993 24.3857727500000010 8.2845124699999992 Na
atom 10.4663762899999995 24.3868537200000013 8.4383542800000004 Cl
atom 12.9782947899999996 27.2835922699999998 5.7378920999999998 Na
atom 10.4382540499999994 27.3073244799999983 5.6252465599999999 Cl
atom 10.1975804100000005 30.1343388599999997 5.8960015300000004 Na
atom 13.2522709899999995 30.0910127699999990 5.6767321700000002 Cl
atom 10.3781429599999999 32.8566558300000011 8.2679317099999992 Na
atom 13.2297816200000007 33.0002077700000029 8.5879347999999993 Cl
atom 13.0100677600000001 29.9947171399999988 8.3696677600000005 Na
atom 10.4188500800000003 30.1980569500000016 8.4076114799999999 Cl
atom 13.2810776199999996 32.8253797899999995 5.8946449100000002 Na
atom 10.3757387100000003 32.8548449000000033 5.7850592000000001 Cl
atom 10.3320912299999996 35.7674479100000013 5.8005564400000003 Na
atom 13.2151147299999998 35.7370218300000033 5.6515705799999996 Cl
atom 10.1103324800000003 38.5573053000000030 8.3455317299999994 Na
atom 13.1240656300000005 38.4304146500000030 8.5356303800000006 Cl
atom 13.0704910699999992 35.8166250900000023 8.3224946299999996 Na
atom 10.1862692199999998 35.4855703500000033 8.6277160899999998 Cl
atom 13.1772146200000009 38.6948030200000019 5.6864416400000000 Na
atom 10.3309330900000003 38.5992040599999982 5.7010150199999998 Cl
atom 10.4208336300000006 1.8348201000000000 5.7802258799999997 Na
atom 13.1160713999999992 2.1045034000000000 5.7687258200000002 Cl
atom 10.2611471800000000 4.5204110999999996 8.3588454100000007 Na
atom 13.4159132099999994 4.6720000800000001 8.5400519999999993 Cl
atom 13.0854555999999995 1.7662967100000000 8.3857494700000004 Na
atom 10.2611451900000006 1.8705631300000001 8.5037151699999995 Cl
atom 13.2350040000000000 4.7049158899999997 5.8130781000000002 Na
atom 10.3930953099999996 4.6985332599999996 5.8002637300000002 Cl
atom 10.3538903500000004 7.5575462599999996 5.9652695299999996 Na
atom 12.9694046200000006 7.4181165299999998 5.7597715200000001 Cl
atom 10.2761634100000006 10.3555900399999992 8.3566122400000005 Na
atom 13.0693989399999992 10.3450731299999994 8.5089776599999993 Cl
atom 13.1786145599999998 7.5035182699999998 8.4672709299999998 Na
atom 10.1859778300000006 7.6058666700000002 8.6206012699999999 Cl
atom 13.1690263000000005 10.3221895799999999 5.8342042799999998 Na
atom 10.2919595800000003 10.4442683100000000 5.7625061899999999 Cl
atom 15.9711027600000008 13.1974829699999994 5.7343690299999999 Na
atom 18.8971341700000011 13.0182427399999998 5.7104281300000004 Cl
atom 16.0497993900000004 15.9877558299999993 8.4361820600000001 Na
atom 18.6908007800000000 16.0575639300000006 8.4524418499999996 Cl
atom 18.8158305900000009 13.1199720000000006 8.3542600000000000 Na
atom 15.9683820099999991 13.1677499900000008 8.6561996800000003 Cl
atom 18.6702451899999993 15.9404781799999995 5.6286719300000003 Na
atom 15.9823912299999993 15.9330987499999992 5.7301278800000004 Cl
atom 16.0007202100000008 18.9360434200000007 5.8497652000000002 Na
atom 18.7665222900000010 18.9277293799999988 5.6994638100000001 Cl
atom 16.0750561699999999 21.5994682000000005 8.3275927500000009 Na
atom 18.7795614499999992 21.6992548800000016 8.4835226099999996 Cl
atom 18.7655197600000001 18.8153888299999998 8.4565024900000001 Na
atom 15.8818767300000001 18.8755852299999987 8.5678840199999993 Cl
atom 18.7487509699999997 21.5272789799999984 5.9037344400000000 Na
atom 15.9716179799999995 21.6669229700000017 5.6006207899999998 Cl
atom 15.9158517100000001 24.5841777700000002 5.9062859300000001 Na
atom 18.8489936500000006 24.5061664000000015 5.8026264899999997 Cl
atom 15.9595266200000001 27.2406416299999989 8.4822262899999998 Na
atom 18.8864900999999996 27.2533349700000009 8.5746122400000004 Cl
atom 18.6136960000000009 24.5798440599999992 8.1745616000000005 Na
atom 15.9884745099999996 24.3016141099999992 8.5829032699999992 Cl
atom 18.7148908200000008 27.3781398500000002 5.6792614600000002 Na
atom 16.0679717800000006 27.3143849000000003 5.6970975099999999 Cl
atom 16.1461648199999992 29.8901268500000015 5.9169475000000000 Na
atom 18.6135592599999988 29.9531383499999997 5.6917632100000004 Cl
atom 15.8453288600000004 32.9001380099999992 8.3905613399999996 Na
atom 18.8301126399999994 33.0131326699999974 8.6639228300000006 Cl
atom 18.6906200399999989 30.0517880800000015 8.5428379400000001 Na
atom 15.9309061300000003 30.1439472299999984 8.6022990099999994 Cl
atom 18.7645308899999996 32.9552697299999977 5.9145017600000003 Na
atom 15.9261139899999993 33.0430757299999982 5.7524034700000000 Cl
atom 16.2539444000000017 35.8363137699999967 5.7566619200000000 Na
atom 18.8700364100000009 35.7450360699999976 5.7465570300000000 Cl
atom 16.2247904399999996 38.4262318399999998 8.5067351099999993 Na
atom 18.7632868200000011 38.4626066300000033 8.4502472100000006 Cl
atom 18.8079725400000015 35.7046908700000003 8.3831035299999996 Na
atom 15.9306253499999997 35.8480478000000033 8.5329724400000000 Cl
atom 18.7599395599999994 38.4721345700000015 6.0020005699999999 Na