#===============================================================================
# Created using the Atomic Simulation Environment (ASE)

# Tue Dec 23 22:26:22 2025

#=======================================================
lattice_vector 28.1999999999999993 0.0000000000000000 0.0000000000000000 
lattice_vector 0.0000000000000000 39.4799999999999969 0.0000000000000000 
lattice_vector 0.0000000000000000 0.0000000000000000 62.3296083400000001 
atom 7.6259677799999999 14.8183116699999999 -0.2556860600000000 Au
atom 10.6967233999999998 14.8143552199999995 -0.1478291000000000 Au
atom 13.1223652699999995 14.9145846300000002 0.0551759200000000 Au
atom 15.9153741800000006 14.9071108700000003 -0.0410454300000000 Au
atom 18.7763062299999994 14.8924368900000008 -0.0890508600000000 Au
atom 21.5972792200000008 14.7797137900000006 -0.3515886800000000 Au
atom 24.3919013199999988 14.8521614799999995 -0.2383866400000000 Au
atom 27.2156844800000002 14.7935787100000002 -0.4112100600000000 Au
atom 1.8144732500000000 14.8060883000000008 -0.4042519600000000 Au
atom 4.6906758899999996 14.7890240100000003 -0.2550863700000000 Au
atom 8.9871367899999992 17.3278511299999991 -0.1462089300000000 Au
atom 11.7896368400000000 17.3203208400000008 -0.0326941000000000 Au
atom 14.5930508499999991 17.4271217800000002 0.0248975400000000 Au
atom 17.4366470900000010 17.3733223000000017 -0.0930502200000000 Au
atom 20.2130140800000007 17.3260490800000007 -0.2434331500000000 Au
atom 23.0645739600000006 17.3147730600000003 -0.2679290300000000 Au
atom 25.8589170800000012 17.2754255900000011 -0.1799335100000000 Au
atom 0.4559043600000000 17.3777728700000011 -0.1956317600000000 Au
atom 3.2896264300000002 17.3179346199999991 -0.3844504400000000 Au
atom 6.2131976499999997 17.2584773600000005 -0.1863884000000000 Au
atom 7.5856463700000001 19.7901070099999998 -0.1507888300000000 Au
atom 10.3825560299999999 19.7934736099999995 -0.0202832300000000 Au
atom 13.2002603000000001 19.8638057100000012 -0.0677793800000000 Au
atom 15.6399208999999999 19.8518102300000017 0.0751081900000000 Au
atom 19.0603422199999990 19.8269763700000006 -0.0011388300000000 Au
atom 21.5460707700000000 19.8259031700000001 -0.0851511800000000 Au
atom 24.4275471300000007 19.7021510900000010 0.0405649000000000 Au
atom 27.2642881800000012 19.8291992599999993 -0.1980615800000000 Au
atom 1.9192106099999999 19.7605865399999985 -0.1778435200000000 Au
atom 4.6888223199999999 19.7456622999999993 -0.0917396400000000 Au
atom 8.9641136600000006 22.1944052499999991 0.0071235600000000 Au
atom 11.7628735399999993 22.3206700600000012 0.1101226900000000 Au
atom 14.6249201200000005 22.3408230000000003 0.1366080200000000 Au
atom 17.3837011299999986 22.3046511400000007 0.0697134000000000 Au
atom 20.1629266200000004 22.2223276799999994 0.0055205900000000 Au
atom 22.9419601700000015 22.2990210500000003 0.1688040300000000 Au
atom 25.8415141199999994 22.3339223800000006 -0.1047153400000000 Au
atom 0.4564420300000000 22.3153450199999988 -0.0782312800000000 Au
atom 3.2833970600000000 22.2381790399999986 -0.0313141100000000 Au
atom 6.0274959199999998 22.1550512700000013 -0.0050323200000000 Au
atom 7.5743567000000001 24.6329311699999991 0.1983056000000000 Au
atom 10.3278087299999992 24.7631013399999986 0.0954319200000000 Au
atom 13.1711084799999991 24.7392481000000011 0.0876311100000000 Au
atom 15.9887504299999996 24.7904472200000008 0.0699017700000000 Au
atom 18.8443640300000013 24.7309197099999984 0.1861835100000000 Au
atom 21.5715801099999993 24.7408273399999992 0.2489705800000000 Au
atom 24.3368460099999986 24.7469509999999993 -0.0116777300000000 Au
atom 27.0526040899999991 25.0756222700000002 0.0688251600000000 Au
atom 1.8217829200000000 24.6777810299999985 0.1279100300000000 Au
atom 4.7751020799999999 24.6248278800000016 0.0390719900000000 Au
atom 8.9319149899999992 27.1119782899999997 0.3704565900000000 Au
atom 11.7500987800000001 27.1332317699999983 0.2918631600000000 Au
atom 14.5642710500000003 27.2085265199999995 0.0251114100000000 Au
atom 17.3814003300000017 27.1812365400000004 0.0814199300000000 Au
atom 20.1675785300000001 27.1587848500000000 -0.0783473600000000 Au
atom 23.0153636299999995 27.2084288200000017 -0.1635058000000000 Au
atom 26.0026830000000011 26.9028540199999995 -0.1044010000000000 Au
atom 0.5559248200000000 27.2085195300000002 0.0650683500000000 Au
atom 3.1822733699999999 27.1373065300000000 0.1168595200000000 Au
atom 6.0946908600000000 27.0605738500000008 0.1384472300000000 Au
atom 7.4536037300000002 29.6650794799999993 0.1118496900000000 Au
atom 10.2868483899999994 29.5126133599999996 0.0649453900000000 Au
atom 13.0923058000000001 29.6561875999999991 -0.1495727700000000 Au
atom 15.9335731799999998 29.6452797399999994 0.0194290700000000 Au
atom 18.7028822300000002 29.6053966200000005 -0.1609451100000000 Au
atom 21.4886485299999990 29.6120011699999992 -0.1940627700000000 Au
atom 24.3146101299999984 29.6987312400000008 -0.0450993300000000 Au
atom 27.1822906599999996 29.6269437300000007 -0.2389600000000000 Au
atom 1.8193295899999999 29.7120101800000000 0.0839009800000000 Au
atom 4.6156534599999999 29.6213327799999995 0.0967242800000000 Au
atom 9.0121618699999999 32.0648504299999999 -0.0545456400000000 Au
atom 11.7715911799999997 32.1230902300000025 -0.1776314100000000 Au
atom 14.5833773099999995 32.2065609200000011 -0.2790642100000000 Au
atom 17.3758512799999991 32.1616040799999965 -0.2795775900000000 Au
atom 20.1166736800000017 32.1482049000000032 -0.3501705500000000 Au
atom 22.9721492400000002 32.1588631999999990 -0.4111279200000000 Au
atom 25.8159298600000007 32.1050729099999970 -0.3578475700000000 Au
atom 0.4057640200000000 32.0920945100000026 -0.4042589900000000 Au
atom 3.2541111100000002 32.0587042699999998 -0.1648869700000000 Au
atom 6.0417826300000002 32.0421572699999970 0.0171587000000000 Au
atom 7.4701128900000002 34.5056219900000016 0.0002940400000000 Au
atom 10.3361978099999998 34.5058880400000021 -0.1356283200000000 Au
atom 13.0857465000000008 34.6229463700000011 -0.1691851900000000 Au
atom 15.9036518999999998 34.6258398200000030 -0.0864774700000000 Au
atom 18.7627860700000006 34.6648797900000005 -0.4633285200000000 Au
atom 21.5795569399999998 34.6252829100000028 -0.3599423100000000 Au
atom 24.4042150199999988 34.5827575799999991 -0.0773248900000000 Au
atom 27.2717733200000012 34.5883245400000021 -0.2303454200000000 Au
atom 1.8137694799999999 34.5851388000000028 -0.0938914900000000 Au
atom 4.6553595500000000 34.5761227400000024 -0.0765448000000000 Au
atom 8.8831269600000002 36.9738516600000011 -0.0329999200000000 Au
atom 11.7118891600000001 37.1801772399999990 -0.0984723200000000 Au
atom 14.5593790199999997 37.1044826199999989 0.1196277200000000 Au
atom 17.4027901699999994 37.1068729899999994 -0.0900411900000000 Au
atom 20.1975104799999983 37.1611144900000028 -0.3391843400000000 Au
atom 23.0688191600000003 37.1740166599999995 -0.1934221900000000 Au
atom 25.8296937299999989 37.1263024799999997 -0.0976440600000000 Au
atom 0.5237129500000000 37.0192792400000030 -0.0345015100000000 Au
atom 3.3205680900000001 37.0795205100000018 0.1452537500000000 Au
atom 6.1240174500000002 37.1293435700000032 -0.0559371800000000 Au
atom 7.5004650599999998 0.1745168500000000 0.1190735700000000 Au
atom 10.3094222999999996 0.1655652500000000 0.1460785700000000 Au
atom 13.0858202699999993 0.1210447300000000 0.1038422700000000 Au
atom 15.8787081099999998 0.0276933800000000 0.2905862300000000 Au
atom 18.7961597800000000 0.0900726200000000 0.0388675300000000 Au
atom 21.5853776500000016 0.1681343000000000 0.0124087300000000 Au
atom 24.3964585400000011 0.1771592100000000 0.0200933700000000 Au
atom 27.2629505600000002 0.0701806400000000 0.0238239600000000 Au
atom 1.9161157300000000 0.1400493400000000 0.0086820700000000 Au
atom 4.7211193199999997 0.0668878900000000 0.4753719600000000 Au
atom 8.9552469600000002 2.6328087800000000 0.1680764700000000 Au
atom 11.7234824999999994 2.5989732999999999 0.3529694500000000 Au
atom 14.5351998299999998 2.5208548199999998 0.1747628700000000 Au
atom 17.2975747400000017 2.4659345099999999 0.2840383800000000 Au
atom 20.1313929599999994 2.6436313800000000 0.1587848900000000 Au
atom 22.9461541800000006 2.6481103799999999 0.2466365900000000 Au
atom 25.7155917999999986 2.6206070399999999 0.2467314600000000 Au
atom 0.4693251600000000 2.5504107999999999 0.1860876200000000 Au
atom 3.3293974999999998 2.5111957399999998 0.1756116600000000 Au
atom 6.1465637800000001 2.5703785200000002 0.3870029200000000 Au
atom 7.4719237300000003 4.9748791700000004 0.1183458000000000 Au
atom 10.2771876700000000 5.0961283699999997 0.1146797400000000 Au
atom 13.1388691499999997 5.0300684000000002 0.0377639100000000 Au
atom 15.8859437099999994 5.0277821500000002 0.2600448500000000 Au
atom 18.7636697499999983 4.9534876600000004 0.2591534100000000 Au
atom 21.6470041199999983 5.0901207599999996 0.5067743000000000 Au
atom 24.4212230499999983 5.1847709200000001 0.2143610000000000 Au
atom 27.2251794999999994 4.9798507599999997 0.3409613300000000 Au
atom 1.8528442400000000 4.9753768500000000 0.1511593600000000 Au
atom 4.6760477900000001 4.9633540199999997 0.1488226700000000 Au
atom 8.8651435999999997 7.4823268499999998 0.2092361500000000 Au
atom 11.7522053399999997 7.4373893400000002 0.2272583400000000 Au
atom 14.5892032599999997 7.4278164200000001 0.3640634000000000 Au
atom 17.3515465599999992 7.4790045300000001 0.0869524600000000 Au
atom 20.2070276600000014 7.4278145599999998 0.1881312800000000 Au
atom 23.0038959799999994 7.5217810700000003 0.1681276400000000 Au
atom 23.5481994499999985 7.5147195800000004 0.1905600600000000 Au
atom 2.8168428300000001 7.4788289299999997 0.3221216700000000 Au
atom 3.3010858800000000 7.4233603099999996 0.2149538100000000 Au
atom 6.0864377500000000 7.4290851800000004 0.2383671300000000 Au
atom 7.4915751899999998 9.9649546099999995 -0.0688401800000000 Au
atom 10.3359195899999996 9.8653945000000007 0.1189701800000000 Au
atom 13.1075952200000003 9.8857235200000009 0.1905684400000000 Au
atom 16.0231976299999985 9.8641254600000003 0.3365964500000000 Au
atom 18.8316887000000008 9.8509053299999998 0.2076911200000000 Au
atom 21.6705537100000001 9.9050420999999993 0.0938761000000000 Au
atom 24.4352783699999989 9.8631819800000002 -0.1244036000000000 Au
atom 27.3185299700000002 9.9421624499999997 -0.0849310700000000 Au
atom 2.3880870999999999 9.8807035699999997 0.0221463200000000 Au
atom 4.3793556400000000 9.9127008700000001 0.1334638200000000 Au
atom 9.0548977100000005 12.3915803800000006 0.0642447900000000 Au
atom 11.8936636900000003 12.3782830300000004 0.0517417200000000 Au
atom 14.6639778700000001 12.3173715900000005 0.2944215900000000 Au
atom 17.4131552300000010 12.3640356899999997 0.1090765200000000 Au
atom 20.1801208099999982 12.3940250899999995 -0.2248173100000000 Au
atom 23.0508807900000008 12.3592710199999996 -0.1409420800000000 Au
atom 25.8169605699999991 12.3740263899999992 -0.2243244200000000 Au
atom 0.4867064100000000 12.3638238000000005 -0.1410202100000000 Au
atom 3.2828663400000000 12.4061140000000005 0.1428787100000000 Au
atom 6.0996118499999996 12.3932663499999993 -0.2712574000000000 Au
atom 7.5324174599999996 13.3364558100000004 2.4497053700000002 Au
atom 10.3250050600000005 13.2903165500000000 2.7202725100000000 Au
atom 13.1884941599999994 13.3146208000000001 2.7245543600000000 Au
atom 15.9480717500000004 13.2827816199999997 2.7174256300000001 Au
atom 18.8762321200000009 13.3197221599999995 2.5751686800000000 Au
atom 21.7113996699999987 13.3249512899999996 2.3800407799999999 Au
atom 24.4927609900000007 13.3441857499999994 2.5111298799999999 Au
atom 27.2954179299999993 13.1929965700000000 2.4355708100000002 Au
atom 1.9007313600000000 13.1831611100000003 2.5064232099999999 Au
atom 4.7581272300000004 13.3002814600000008 2.4721209599999998 Au
atom 8.8975976499999998 15.7424270300000000 2.4853160900000000 Au
atom 11.7315936099999991 15.6692618400000008 2.5640118200000002 Au
atom 14.5343021700000001 15.8745036499999994 2.5595908700000001 Au
atom 17.3206849699999985 15.7041973200000005 2.5693336599999999 Au
atom 20.2477079099999990 15.8017894299999995 2.4334427700000001 Au
atom 23.0727502800000011 15.7547727099999992 2.2823620400000002 Au
atom 25.9085977499999984 15.7086952100000001 2.4219253300000001 Au
atom 0.4429630000000000 15.5827962299999996 2.3115780899999998 Au
atom 3.2455654300000001 15.6749920399999993 2.2364483000000002 Au
atom 6.0991774500000000 15.7146857799999999 2.3686628600000001 Au
atom 7.4819449599999999 18.1151876399999985 2.4190294300000001 Au
atom 10.3311990599999994 18.1299804699999996 2.4806025900000002 Au
atom 13.1757920399999993 18.0644892299999995 2.5950310200000000 Au
atom 16.0136255500000004 18.2480958099999988 2.6257185700000001 Au
atom 18.7778529899999995 18.1537865399999987 2.5038416600000000 Au
atom 21.5824450699999986 18.1819926299999999 2.2647348599999999 Au
atom 24.5813976099999998 18.0977236300000008 2.6183061200000002 Au
atom 27.3218812299999989 18.0968138699999983 2.4024375000000000 Au
atom 1.8996120999999999 18.0731796799999991 2.3802549399999999 Au
atom 4.6635309700000001 18.0933276499999991 2.3138697499999998 Au
atom 8.8912392100000002 20.5671307900000002 2.4537457400000000 Au
atom 11.7657564000000008 20.6494196800000012 2.6586827700000000 Au
atom 14.5169521300000000 20.6062096900000000 2.5697343699999999 Au
atom 17.3378742300000006 20.7613650000000014 2.6963225999999998 Au
atom 20.1734266899999994 20.6589504999999996 2.6244588700000002 Au
atom 22.9964236600000014 20.6611174200000001 2.6232333500000000 Au
atom 25.9234821800000006 20.5538830700000013 2.4515520999999998 Au
atom 0.5595876500000000 20.6680084999999991 2.4379860500000001 Au
atom 3.4347398800000000 20.5975847799999983 2.6103108599999998 Au
atom 5.9308071499999997 20.5808805200000009 2.5198769500000000 Au
atom 7.4600217000000004 22.9197144399999999 2.5819264500000001 Au
atom 10.2093677100000004 23.0084978800000002 2.7549190600000002 Au
atom 13.1091247499999994 23.1027906799999982 2.7509696500000000 Au
atom 15.9061088300000009 23.1886945100000013 2.6845466299999998 Au
atom 18.8523387800000002 23.1176590100000006 2.6281900899999999 Au
atom 21.6791052300000011 23.1057689699999997 2.8235065900000000 Au
atom 24.5075020200000004 23.1414147200000002 2.5371930900000002 Au
atom 27.2842060699999998 23.1703485799999989 2.4882569499999998 Au
atom 1.8893441700000000 23.1308256400000012 2.6588050800000000 Au
atom 4.6745273200000002 23.1582392699999993 2.7605546699999999 Au
atom 8.9532349100000008 25.5329736700000005 2.9541640100000000 Au
atom 11.7335475900000006 25.5372282000000013 2.7934701300000002 Au
atom 14.6100668000000002 25.6202801499999993 2.6188227500000001 Au
atom 17.3473536099999990 25.5951031499999999 2.7082947300000000 Au
atom 20.3001121200000014 25.5874446400000011 2.7952212300000001 Au
atom 23.0831389700000003 25.6144835099999995 2.7331377200000002 Au
atom 25.8715783200000011 25.6128595600000004 2.6287086700000000 Au
atom 0.5198223199999999 25.6819561699999994 2.7265028600000001 Au
atom 3.3874871799999999 25.5962388199999999 2.6034743800000002 Au
atom 6.1605213299999999 25.5868070100000011 2.7794026500000002 Au
atom 7.4046279600000000 28.0229011700000008 2.8286339900000002 Au
atom 10.2924889900000007 28.0111044500000013 2.8051494799999999 Au
atom 13.1658541699999994 28.0459260700000002 2.6967222199999998 Au
atom 16.0301432000000013 28.0076553100000005 2.7013750600000002 Au
atom 18.7991107799999995 28.0073838600000009 2.6506169300000000 Au
atom 21.6400710600000004 28.0670325200000015 2.3666915199999998 Au
atom 24.4616077300000008 28.0645809200000009 2.4508027800000001 Au
atom 27.2446765699999993 28.1415932899999994 2.5416710899999999 Au
atom 1.8918585000000001 28.0841757700000016 2.6586651799999999 Au
atom 4.6281266900000002 27.9822078999999988 2.6758737099999998 Au
atom 8.9219878500000007 30.4752358200000018 2.6946284600000001 Au
atom 11.7405920800000008 30.4030764399999995 2.5682396700000001 Au
atom 14.4761450600000003 30.5330963100000012 2.4956186699999998 Au
atom 17.3975188100000011 30.4725287700000003 2.5205214800000002 Au
atom 20.1393113499999998 30.4284922800000004 2.3788844099999999 Au
atom 22.9837333699999995 30.4995799000000005 2.4950669200000002 Au
atom 25.7895584800000002 30.5332084799999990 2.4496704999999999 Au
atom 2.2754661700000001 30.7369131499999995 2.4944849100000002 Au
atom 3.2462623100000001 30.5638335999999988 2.5959469099999999 Au
atom 6.0885919800000003 30.4587467200000006 2.7782839899999998 Au
atom 7.5824372599999998 32.9121003400000021 2.5619352200000001 Au
atom 10.3420598899999998 32.9814727700000034 2.6282039400000001 Au
atom 13.1894264499999991 32.9265105400000024 2.3353544600000000 Au
atom 15.9241345899999995 32.9360580800000022 2.5168690100000002 Au
atom 18.7515529000000001 32.9340545100000028 2.2250892200000001 Au
atom 21.4953992300000003 32.9237254499999992 2.1643921399999999 Au
atom 24.3531812999999993 32.9245668399999971 2.2104656800000000 Au
atom 25.3537431700000013 32.7484420999999983 2.2420077699999998 Au
atom 1.8471679400000001 32.9595083000000031 2.3259061100000000 Au
atom 4.7380376899999996 33.0142354899999972 2.5895257100000002 Au
atom 8.8664168900000000 35.4856897599999996 2.5437493099999999 Au
atom 11.6173677800000004 35.3785107799999992 2.3816437100000001 Au
atom 14.4664822300000004 35.4117123400000011 2.5583209600000001 Au
atom 17.3938122200000009 35.3774556899999979 2.3903378200000001 Au
atom 20.1418235599999988 35.4117735999999965 2.2194750800000000 Au
atom 22.9678034800000006 35.3898839399999972 2.4769783200000002 Au
atom 25.8267691200000016 35.3990383499999979 2.3571165299999999 Au
atom 0.4075499600000000 35.4092806000000024 2.5255567200000000 Au
atom 3.2528612500000000 35.4371242499999966 2.5346687900000000 Au
atom 6.1421681599999998 35.3905015400000025 2.5432340899999999 Au
atom 7.5004640000000000 37.9554252100000014 2.6544722500000000 Au
atom 10.2936601900000007 37.9437235799999968 2.6108357500000001 Au
atom 13.1187177500000001 37.8640062400000019 2.6010855600000000 Au
atom 15.9491726800000002 37.7472144999999983 2.6852387000000002 Au
atom 18.8171870800000001 37.8489902900000033 2.4421504399999998 Au
atom 21.5660704699999997 37.9675469299999975 2.3033296100000000 Au
atom 24.4049199799999990 37.8274800299999967 2.4513529799999998 Au
atom 27.3003936200000012 37.8821883900000032 2.6120726200000002 Au
atom 1.9094406799999999 37.8743793299999965 2.5749403399999999 Au
atom 4.7658212100000004 37.8542670799999996 2.9016436200000002 Au
atom 8.8883791500000005 0.8912530000000000 2.8238303899999999 Au
atom 11.6646300800000002 0.8691643100000001 2.8621138699999999 Au
atom 14.4797281600000005 0.8394717300000000 2.8855082200000002 Au
atom 17.3415937400000004 0.8373136600000000 2.7544881900000000 Au
atom 20.1944134099999992 0.9140070200000000 2.7084773200000001 Au
atom 23.0239308099999995 0.8800662299999999 2.7855844099999998 Au
atom 25.7755954000000003 0.8085773100000000 2.6305886699999999 Au
atom 0.4401421200000000 0.8477707799999999 2.7109135499999999 Au
atom 3.3323526499999998 0.8577006500000000 2.8402232100000000 Au
atom 6.1153783400000004 0.9461056500000000 2.9662661199999998 Au
atom 7.4715818299999999 3.4256307900000000 2.8190511800000002 Au
atom 10.3498946499999995 3.4884845599999998 2.8601405199999999 Au
atom 13.1352843600000000 3.3709475900000001 2.8082189799999999 Au
atom 16.1399407799999999 3.3543901599999999 2.8225117399999999 Au
atom 18.4176375199999995 3.2611149899999998 2.8681238300000000 Au
atom 21.5217950500000015 3.3766126700000001 2.8708989900000002 Au
atom 24.3944468599999986 3.5192973500000000 2.7876653299999998 Au
atom 27.1835274499999997 3.3418204000000000 2.7883674699999998 Au
atom 1.9763145099999999 3.3187555199999998 2.8616263100000001 Au
atom 4.7384807699999998 3.3368192099999998 2.9604849600000001 Au
atom 9.0550334400000008 5.8758062700000000 2.7606240199999998 Au
atom 11.7859860800000007 5.8826569199999996 2.8013951499999998 Au
atom 14.5240434799999996 5.8821964600000003 2.9196666499999999 Au
atom 17.3674404899999999 5.8211739500000004 2.8443982800000001 Au
atom 20.2192063500000003 5.8245857599999997 2.8733871000000000 Au
atom 23.0249939099999992 5.9173188600000000 2.9629833400000001 Au
atom 25.8763299499999988 5.9084792100000003 2.9597343600000001 Au
atom 0.4777652900000000 5.8067673199999996 2.8101472799999998 Au
atom 3.2989395899999998 5.8667335600000001 2.7770172600000000 Au
atom 5.9184045999999997 5.8693085900000002 2.8807021000000002 Au
atom 7.4196861500000004 8.3979447599999997 2.7570896600000001 Au
atom 10.2341103199999992 8.3178691100000002 2.7440448000000002 Au
atom 13.0538527599999998 8.3773314200000009 2.9375159300000000 Au
atom 15.9111068800000002 8.3084413500000007 2.8951796299999999 Au
atom 18.6744045199999995 8.2970355500000004 2.8524007199999999 Au
atom 21.5809535600000011 8.3312957000000001 2.7428681400000001 Au
atom 24.4561014199999995 8.4455154599999993 2.6744194000000001 Au
atom 27.3121724199999996 8.2762978599999997 2.7923727800000000 Au
atom 1.9332857699999999 8.3260513100000004 2.7875993200000000 Au
atom 4.7503435800000000 8.2779964800000005 2.7948800500000002 Au
atom 8.9077284100000007 10.8142796600000004 2.6450122500000002 Au
atom 11.7568400099999995 10.8599113799999998 2.7200206699999998 Au
atom 14.5573869400000007 10.7927379699999992 2.8645015800000002 Au
atom 17.4006468299999995 10.8528289600000001 2.7210396600000002 Au
atom 20.3396595399999995 10.9013326999999993 2.6935700200000001 Au
atom 23.0923114699999985 10.8664325000000002 2.5770369999999998 Au
atom 25.8724782399999995 10.8205977600000001 2.3761801700000000 Au
atom 0.4574768400000000 10.6825799999999997 2.4520500099999998 Au
atom 3.2866991099999998 10.7808209500000007 2.6817303199999998 Au
atom 6.1771825900000001 10.8717975800000008 2.6144590399999998 Au
atom 7.6600007999999997 12.8685683399999995 5.6226517500000002 Cl
atom 7.3790347799999996 15.6629499600000006 8.6149819200000000 Cl
atom 7.3353929899999999 12.9080972999999997 8.4427072600000006 Na
atom 7.8471538599999997 15.8012851100000002 5.8235418499999998 Na
atom 7.7281943100000001 18.6930695600000014 5.9716179699999996 Cl
atom 7.5793680099999996 21.3261200200000012 8.8958644499999995 Cl
atom 7.4990524299999999 18.6505476899999998 8.2593948400000006 Na
atom 8.0811560999999994 21.3892163599999989 5.9145660600000003 Na
atom 7.8010674699999996 24.1848340800000017 5.7502437700000000 Cl
atom 7.5650939700000004 26.8718744100000002 8.7716083600000001 Cl
atom 7.6377844799999997 24.0959109900000001 8.4165930099999997 Na
atom 7.6108798799999997 27.0817335999999997 5.9289124900000001 Na
atom 7.6857503500000002 29.8123162300000004 5.7841664599999998 Cl
atom 7.4727834599999996 32.5464812199999969 8.7309659699999997 Cl
atom 7.4491513999999999 30.0467303600000015 8.5685748700000008 Na
atom 7.6310622600000002 32.6896008599999988 5.8889545200000004 Na
atom 7.6222839899999997 35.3943755299999978 5.7074767700000004 Cl
atom 7.4098218100000004 38.2995488500000008 8.7426971499999997 Cl
atom 7.4453055900000003 35.3619955500000032 8.4491082800000008 Na
atom 7.5146808800000002 38.1526934800000035 5.8945337799999997 Na
atom 7.4329411800000003 1.4386509599999999 5.9879020199999999 Cl
atom 7.2605875199999996 4.3989683700000004 9.0120577900000001 Cl
atom 7.5003381800000000 1.5751192300000001 8.7290507500000007 Na
atom 7.4753292000000000 4.3506884599999998 5.9649935200000002 Na
atom 7.5269226099999997 7.0601724199999998 6.4101952300000002 Cl
atom 7.4906791899999998 9.9949267699999993 8.8036732700000009 Cl
atom 7.5203291600000002 7.1962498400000001 8.2073790800000008 Na
atom 7.7838061700000001 9.8810129100000008 6.0168336199999999 Na
atom 10.4273226599999997 12.9469638200000006 5.8886235400000002 Na
atom 13.2653726299999999 12.7574646999999999 6.1765388000000003 Cl
atom 10.2824550899999991 15.7228896200000001 8.4826567100000005 Na
atom 13.1294882800000003 15.8237620200000002 8.6945839599999992 Cl
atom 13.3204226499999994 12.9870820899999995 8.5638912699999992 Na
atom 10.2512265500000002 12.5139233799999996 8.7815886600000006 Cl
atom 13.2858672099999993 15.6868704599999997 6.0073429000000003 Na
atom 10.3707825400000004 15.8018817899999995 5.9988979400000000 Cl
atom 10.5134064899999995 18.5481868699999985 6.0847407599999999 Na
atom 13.2584460699999998 18.5902445400000005 5.8915966600000003 Cl
atom 10.3852889099999999 21.3836519100000011 8.5536774300000005 Na
atom 13.2914727500000005 21.2676529400000014 8.7409368700000005 Cl
atom 13.2866133499999997 18.5112613599999989 8.6947566199999997 Na
atom 10.2652542199999992 18.7056809000000008 8.7515914299999995 Cl
atom 13.2858891400000001 21.2752775400000012 5.9784726700000004 Na
atom 10.2296232699999994 21.4077468400000015 5.8729245399999996 Cl
atom 10.5210065200000003 24.2554572899999989 5.8414116500000004 Na
atom 12.9607369400000003 24.0999890000000008 5.8786037200000001 Cl
atom 10.3277106599999993 27.0059295100000014 8.4555710000000008 Na
atom 13.2919133499999997 26.9002957900000013 8.6092828899999994 Cl
atom 13.2792172999999991 23.9485714300000012 8.3584487700000007 Na
atom 10.5421558300000004 24.1194363299999992 8.6442138899999996 Cl
atom 13.3414999099999996 26.9056582900000016 6.0643470900000001 Na
atom 10.4699426100000004 27.0149560599999994 5.6550808200000002 Cl
atom 10.3819357900000000 29.7294008400000003 5.8073596099999998 Na
atom 13.2600490099999995 29.7925842900000006 5.7002113999999997 Cl
atom 10.3296978799999994 32.6022340999999969 8.3461210900000005 Na
atom 13.1724150000000009 32.5723041800000033 8.6524764899999997 Cl
atom 13.0890457100000006 29.8564147300000009 8.4255408700000007 Na
atom 10.2466695100000003 29.8378489400000007 8.6488317099999996 Cl
atom 13.2631279499999994 32.5704035899999980 5.9117999200000000 Na
atom 10.4993497300000005 32.6293285599999976 5.6062745800000000 Cl
atom 10.4074788199999997 35.4533044000000004 5.8787680599999996 Na
atom 13.2215153200000000 35.4053350000000009 5.7325417099999996 Cl
atom 10.0975551699999997 38.3256619200000017 8.5271971499999992 Na
atom 13.1954107799999996 38.1319830999999994 8.6106187199999997 Cl
atom 13.1161235099999995 35.4010798600000030 8.4403521399999999 Na
atom 10.2888992300000002 35.3350289700000033 8.6423836800000000 Cl
atom 13.1695303999999993 38.0843596799999986 5.9074030500000001 Na
atom 10.2702986299999992 38.2156857399999978 5.7596824700000004 Cl
atom 10.2979957899999999 1.5258395899999999 5.8738005800000002 Na
atom 13.1703502500000003 1.4533174900000001 5.4561278099999999 Cl
atom 10.3044999100000005 4.3338753099999998 8.2552959700000006 Na
atom 13.0485801499999994 4.3246130599999999 8.7139745299999998 Cl
atom 12.9745356800000007 1.5337048900000001 8.8461644600000007 Na
atom 10.2453558299999994 1.6099765800000001 8.6655202300000003 Cl
atom 13.1471943000000007 4.3342316600000004 6.0904735099999998 Na
atom 10.3720090999999996 4.3337677399999999 6.1152081100000002 Cl
atom 10.4247378200000007 7.1202622900000003 5.9509521599999999 Na
atom 13.1375746000000007 7.2128562499999997 5.9769108299999996 Cl
atom 10.2986953600000000 10.2462605500000006 8.5317436099999995 Na
atom 13.1729143299999993 9.9187509899999995 8.5744712700000001 Cl
atom 13.0019150700000008 7.1824860800000003 8.7521900400000003 Na
atom 10.2249449800000001 7.3136579199999998 8.6678331100000001 Cl
atom 13.3019507899999994 9.9266250399999993 6.1270638599999998 Na
atom 10.3441864399999996 9.9120152299999997 5.8053707399999999 Cl
atom 16.0605065200000006 12.9192387100000001 5.8682538299999996 Na
atom 18.8352751299999994 12.7277205099999993 5.5787674300000001 Cl
atom 15.9074547099999997 15.7584997399999995 8.6861772100000003 Na
atom 18.8270710100000009 15.6845282699999995 8.4539264500000009 Cl
atom 18.8899453599999987 12.9570795600000004 8.7480810400000006 Na
atom 16.1402968099999988 12.9538914399999996 8.5967937499999998 Cl
atom 18.6743026000000008 15.7106939600000004 5.7485681199999998 Na
atom 15.8624644799999999 16.1647031500000011 5.8243698799999999 Cl
atom 15.9478696400000004 17.9800720799999993 5.9619314499999998 Na
atom 18.7861642499999988 18.3826357199999997 5.5183478800000003 Cl
atom 16.2071149900000009 21.3007026599999989 8.4877638999999991 Na
atom 18.9402342099999998 21.3603670799999996 8.4260115399999993 Cl
atom 18.9924681600000014 18.5671762700000009 8.2445729199999995 Na
atom 16.1386058100000014 18.8455208200000008 8.7677085600000009 Cl
atom 18.8192578700000013 21.4687062600000012 5.7744372100000003 Na
atom 16.0713310900000010 21.3474727999999985 5.8720400100000001 Cl
atom 16.2779577599999996 24.1409202200000017 5.7084748500000000 Na
atom 18.8558925700000017 24.3876811999999994 5.5427044700000003 Cl
atom 16.0844087100000017 27.0319795800000016 8.4442669200000005 Na
atom 18.8749752199999996 27.0326395400000017 8.4505612899999996 Cl
atom 18.8407865100000009 24.3528449900000012 8.2696448500000006 Na
atom 16.1175373399999984 24.1262542000000018 8.4083748000000007 Cl
atom 18.8927899400000001 27.1018696500000011 5.7550656099999999 Na
atom 16.1071296299999993 27.0302831599999998 5.7179549400000003 Cl
atom 16.0770281299999986 29.8090065099999997 5.7190944999999997 Na
atom 18.9495183300000001 29.9345726899999995 5.3539822700000004 Cl
atom 15.9928264400000000 32.7280726899999976 8.3157071100000000 Na
atom 18.7830312399999997 32.6732945400000006 8.5395288300000001 Cl
atom 18.8686410299999991 29.8287151399999999 8.4390216200000001 Na
atom 15.9869311100000004 29.9348474899999992 8.5414894900000000 Cl
atom 18.9779593599999998 32.7188467799999998 5.8048170399999997 Na
atom 16.1022074900000014 32.6797538100000011 5.5680673399999998 Cl
atom 16.0231858100000011 35.4911632499999996 5.7134676000000004 Na
atom 18.8448784499999995 35.5081074900000004 5.3538831699999996 Cl
atom 15.9346058300000006 38.0899740300000005 8.4467931299999996 Na
atom 19.0400701199999993 38.3156751900000003 8.4905304200000007 Cl
atom 18.8658478400000007 35.4926954299999977 8.2807906399999993 Na
atom 16.1645708799999994 35.8635281800000030 8.4278246400000008 Cl
atom 18.7624865700000001 38.2968382899999966 5.8078992500000002 Na