#===============================================================================
# Created using the Atomic Simulation Environment (ASE)

# Sat Nov  1 21:48:29 2025

#=======================================================
lattice_vector 28.1999999999999993 0.0000000000000000 0.0000000000000000 
lattice_vector 0.0000000000000000 39.4799999999999969 0.0000000000000000 
lattice_vector 0.0000000000000000 0.0000000000000000 62.3296083400000001 
atom 7.4751346099999996 14.8301164500000002 0.0560453500000000 Au
atom 10.3127842899999997 14.8502617600000004 -0.0330723100000000 Au
atom 13.1464192999999998 14.7966872299999999 0.0782491100000000 Au
atom 15.9814670200000002 14.8886792400000001 0.0180712100000000 Au
atom 18.7959263800000009 14.8013541699999998 0.0606552900000000 Au
atom 21.6132558500000016 14.8136634199999992 -0.0581481900000000 Au
atom 24.4153388800000002 14.8309222999999992 0.0430419600000000 Au
atom 27.2662447400000012 14.8025001899999999 0.0374461800000000 Au
atom 1.8888614600000000 14.8523738900000009 0.0739775600000000 Au
atom 4.6698165899999999 14.8066550699999997 -0.0072908600000000 Au
atom 8.9300571000000009 17.3090126200000007 0.0268076600000000 Au
atom 11.7590486100000007 17.2991085499999997 0.0566576400000000 Au
atom 14.5410943499999998 17.2894039699999986 0.0235957500000000 Au
atom 17.3709584600000007 17.3019684500000004 0.0564623900000000 Au
atom 20.1735782499999985 17.2841208500000008 0.0268289000000000 Au
atom 23.0305105800000014 17.2957674399999988 0.0447389300000000 Au
atom 25.8265948499999993 17.3881671699999991 0.1044256500000000 Au
atom 0.4901855500000000 17.3777686799999991 0.2031625500000000 Au
atom 3.2711146599999998 17.2930350799999992 0.0317793100000000 Au
atom 6.1172670399999998 17.2936803300000008 0.0363370900000000 Au
atom 7.5357394900000001 19.7874958300000010 0.1480281800000000 Au
atom 10.3264094499999999 19.8051965699999997 0.0331080200000000 Au
atom 13.1259464799999996 19.7642323699999984 0.1055931200000000 Au
atom 15.9664163400000003 19.7514932200000004 0.0350089800000000 Au
atom 18.7828746799999990 19.7508842800000011 0.0885221000000000 Au
atom 21.6141685800000012 19.7846229200000003 0.0613079300000000 Au
atom 24.4103731199999991 19.7382025299999988 0.1163268500000000 Au
atom 27.2367898100000012 19.5631373099999983 0.1284714400000000 Au
atom 1.8670729600000000 19.7121987499999989 0.1534548200000000 Au
atom 4.6854324800000002 19.7490400599999987 0.0750107500000000 Au
atom 8.8704511099999994 22.2129564899999998 0.0931625700000000 Au
atom 11.7190374700000000 22.2130110000000016 0.0602945900000000 Au
atom 14.5260439100000003 22.2317016900000013 0.0992793900000000 Au
atom 17.3738172900000016 22.2156106400000013 0.0889476100000000 Au
atom 20.1987726599999995 22.2198401499999996 0.0874895400000000 Au
atom 23.0148518600000003 22.2324823000000009 0.0699920300000000 Au
atom 25.8372550099999998 22.1859574799999990 0.1002615000000000 Au
atom 0.4751820300000000 22.1881365899999992 0.0796862700000000 Au
atom 3.2664262200000000 22.2503801099999983 0.0880622800000000 Au
atom 6.1026933000000003 22.2188577900000013 0.0938870500000000 Au
atom 7.4999458600000004 24.7120348800000009 0.0954051100000000 Au
atom 10.3025009900000004 24.7007000900000016 0.0760926900000000 Au
atom 13.1413134300000003 24.6890484100000016 0.1149749500000000 Au
atom 15.9703646399999997 24.6731100699999999 0.1045646400000000 Au
atom 18.7779322399999984 24.7162502199999992 0.0785644700000000 Au
atom 21.6006272800000012 24.6917926200000011 0.0851671300000000 Au
atom 24.4519869999999990 24.6831045200000005 0.0890097000000000 Au
atom 27.2555603600000005 24.6095038300000013 0.1829932500000000 Au
atom 1.8614591100000000 24.7640828999999982 0.0905586700000000 Au
atom 4.7349609199999998 24.6848528099999989 0.1121325200000000 Au
atom 8.9519300000000008 27.1369305300000008 0.0531551800000000 Au
atom 11.7909864100000004 27.1311237500000004 0.0664620100000000 Au
atom 14.5659619399999993 27.1505056899999992 0.0800574400000000 Au
atom 17.3717553299999992 27.1249666400000002 0.0655243000000000 Au
atom 20.1937332000000005 27.1615082799999996 0.0423055700000000 Au
atom 22.9838495700000003 27.1832698099999988 0.1023543500000000 Au
atom 25.8419199999999982 27.1624473000000002 0.0667914000000000 Au
atom 0.4618089300000000 27.3440632000000008 -0.0454309600000000 Au
atom 3.2920395899999999 27.1475584499999982 0.0881734800000000 Au
atom 6.1095563700000000 27.1391667299999995 0.0328590600000000 Au
atom 7.5240293100000004 29.6089117000000002 0.0560948500000000 Au
atom 10.2870204500000000 29.6228495999999986 0.0756257500000000 Au
atom 13.1489706599999998 29.6207401200000007 -0.0031348000000000 Au
atom 15.9673532399999996 29.6301368399999987 0.0309037700000000 Au
atom 18.7734514300000015 29.6314399100000010 0.0209685400000000 Au
atom 21.6282502000000001 29.6189335500000013 0.0751264100000000 Au
atom 24.4342989499999987 29.6445238400000015 0.0054306000000000 Au
atom 27.2421375499999989 29.6722878899999998 -0.0258175000000000 Au
atom 1.8737269599999999 29.5363262999999989 -0.0177745700000000 Au
atom 4.6778118600000003 29.6212787300000002 0.0867986200000000 Au
atom 8.9191672499999992 32.1020311699999965 0.0210613600000000 Au
atom 11.7432604499999993 32.0942071899999988 -0.0003694500000000 Au
atom 14.5625059399999994 32.0680509700000016 0.0263024500000000 Au
atom 17.3672591899999986 32.0789444199999991 0.0258195000000000 Au
atom 20.1899833400000013 32.0680185800000004 0.0190713700000000 Au
atom 22.9947077299999982 32.1120205100000007 0.0113009900000000 Au
atom 25.8238220299999988 32.0615116700000016 0.0545239200000000 Au
atom 0.4423724500000000 32.1000579999999971 -0.0882053500000000 Au
atom 3.2739818299999999 32.0889725799999965 0.0034022400000000 Au
atom 6.0752765499999999 32.0883697399999974 -0.0130666200000000 Au
atom 7.5042623900000001 34.5807591900000020 -0.0446349900000000 Au
atom 10.3248160799999997 34.5518668400000024 0.0680733300000000 Au
atom 13.1547715800000002 34.5200472000000005 -0.0256165600000000 Au
atom 15.9757105900000003 34.5766183799999993 0.0465764600000000 Au
atom 18.7921720500000013 34.5746556100000006 -0.0046177400000000 Au
atom 21.6239572200000012 34.5522162299999991 0.0762106300000000 Au
atom 24.4210717399999986 34.5612517200000013 0.0025094000000000 Au
atom 27.2538339799999996 34.4499033600000004 0.1953491100000000 Au
atom 1.8869088199999999 34.5633070100000026 -0.0021892600000000 Au
atom 4.6705550200000001 34.5561015199999986 0.0491873400000000 Au
atom 8.9030401200000000 37.0666048100000012 0.0758492100000000 Au
atom 11.5764047300000001 37.0478155599999965 0.0996259700000000 Au
atom 14.3609164499999995 37.0266287600000013 -0.0079988200000000 Au
atom 17.3771893000000013 37.0221361999999985 0.0611278300000000 Au
atom 20.2836915299999987 37.0481101000000024 0.3443562500000000 Au
atom 23.0923868200000015 37.0515016800000012 0.0981426100000000 Au
atom 25.8158465200000009 36.9171449299999992 0.0625169800000000 Au
atom 0.4862244400000000 37.1153343300000031 -0.0071236300000000 Au
atom 3.2330128999999999 37.0316731799999985 0.0182594800000000 Au
atom 5.9956456300000003 37.0297012400000014 0.0410774700000000 Au
atom 7.4706488799999997 -0.0007068200000000 -0.0774041500000000 Au
atom 10.3113644499999992 0.0207361700000000 0.1911048900000000 Au
atom 13.3937933299999994 0.0229004700000000 0.0560476300000000 Au
atom 15.8542691199999997 0.0272095500000000 0.2272764900000000 Au
atom 18.7638542999999984 0.0081470900000000 0.1713537800000000 Au
atom 21.5735524900000009 0.0244499600000000 0.0147797000000000 Au
atom 24.2433905100000011 0.0379218900000000 0.0719476800000000 Au
atom 27.3207578600000005 0.2130429000000000 0.2922649000000000 Au
atom 1.8167610599999999 -0.0162728400000000 0.0176121200000000 Au
atom 4.5945732899999996 0.0192436000000000 0.2645190800000000 Au
atom 8.9335302199999997 2.4763716800000002 0.0817692600000000 Au
atom 11.7472122599999995 2.4775680499999999 0.0892712000000000 Au
atom 14.5585742899999993 2.4691419600000000 0.1019561800000000 Au
atom 17.3676306099999991 2.4814058100000000 0.0629635100000000 Au
atom 20.1669900599999998 2.4983507600000001 0.0877999500000000 Au
atom 23.0228697199999992 2.4740086099999998 0.0837422500000000 Au
atom 25.8280902899999987 2.4598679200000002 0.0817679800000000 Au
atom 0.4809565200000000 2.4656902100000000 0.2161422400000000 Au
atom 3.2622833500000001 2.4929047199999999 0.0901790900000000 Au
atom 6.0764645699999997 2.4909970800000001 0.0952087600000000 Au
atom 7.4737267599999999 4.9405549700000000 0.0980334700000000 Au
atom 10.3496211200000001 4.9489122900000000 0.1255848000000000 Au
atom 13.1630816100000008 4.9424543400000003 0.0904146100000000 Au
atom 15.9683282200000001 4.9562815300000000 0.1046721600000000 Au
atom 18.8011210599999998 4.9059297900000001 0.0865030300000000 Au
atom 21.5940804399999990 4.9342905300000002 0.1183562800000000 Au
atom 24.3986872999999989 4.9421009800000002 0.1108347200000000 Au
atom 27.2599951300000001 4.8824775999999996 0.1829877300000000 Au
atom 1.8780189400000000 4.9484084199999998 0.0823774600000000 Au
atom 4.6856326900000003 4.9516266099999999 0.0647403200000000 Au
atom 8.9308138600000007 7.4118076500000001 0.0383270700000000 Au
atom 11.7506096099999997 7.3792991499999996 0.0734686600000000 Au
atom 14.5420799400000007 7.4244909600000000 0.0881661200000000 Au
atom 17.3851602800000009 7.4185060800000002 0.0851081600000000 Au
atom 20.2242884899999993 7.4017950800000003 0.0861351700000000 Au
atom 23.0500067900000012 7.4150266900000004 0.0868786200000000 Au
atom 25.8213495500000008 7.4439002399999996 0.0724505400000000 Au
atom 0.4790619500000000 7.3569561500000002 -0.0003258400000000 Au
atom 3.2633884900000001 7.4341653399999998 0.0595298300000000 Au
atom 6.1025154199999996 7.4155837800000004 0.0777272300000000 Au
atom 7.4998659999999999 9.8568333700000004 0.0996954000000000 Au
atom 10.3204273600000000 9.8800926899999997 -0.0131069600000000 Au
atom 13.1468970100000000 9.8497062700000004 0.0730826100000000 Au
atom 15.9665286300000009 9.9170718200000003 0.0013968300000000 Au
atom 18.7718707299999998 9.9007748000000007 0.0681983300000000 Au
atom 21.5870386900000000 9.9087821700000003 0.0149908300000000 Au
atom 24.4114237400000000 9.8713539699999995 0.0775410300000000 Au
atom 27.2390363300000011 9.7523721499999994 0.2345225200000000 Au
atom 1.8797998199999999 9.8934078000000003 0.0629301400000000 Au
atom 4.6615289000000004 9.9163495499999996 0.0200064700000000 Au
atom 8.9303802900000004 12.3531883199999992 0.0146516000000000 Au
atom 11.7211644300000000 12.3403619399999993 0.0276437800000000 Au
atom 14.5407585200000007 12.3114074000000002 0.0499548800000000 Au
atom 17.3458296300000008 12.3293606899999997 0.0315095400000000 Au
atom 20.2278259399999989 12.3501495099999996 -0.0225998700000000 Au
atom 23.0214854799999991 12.3417569000000000 0.0398300200000000 Au
atom 25.8503591300000011 12.3191527500000007 0.0650827500000000 Au
atom 0.4359605700000000 12.3431764699999995 0.0329442300000000 Au
atom 3.2857150900000001 12.3122221799999991 0.0021612600000000 Au
atom 6.1050512100000001 12.3318209200000002 0.0105128500000000 Au
atom 7.5055482199999997 13.1662042899999996 2.6533749900000001 Au
atom 10.3540283300000002 13.1851678999999997 2.5161344200000002 Au
atom 13.1457907699999996 13.1819369099999992 2.6777016200000001 Au
atom 15.9608939200000002 13.1558285099999992 2.5569231299999999 Au
atom 18.7922519600000015 13.1913544900000002 2.6494667800000000 Au
atom 21.6221004900000011 13.1805300400000007 2.5594332299999998 Au
atom 24.3993660199999987 13.1835745699999993 2.6675811800000000 Au
atom 27.2147724699999998 13.1823014000000001 2.4262137500000001 Au
atom 1.8651981700000000 13.1999258099999999 2.6226828900000001 Au
atom 4.7104635899999998 13.2056811599999993 2.5437776699999999 Au
atom 8.9164560700000006 15.6044044599999996 2.6286733400000002 Au
atom 11.7453431100000003 15.6477152900000007 2.6360686300000000 Au
atom 14.5842273200000001 15.6618045899999991 2.6258115200000001 Au
atom 17.3682907799999988 15.6430995199999998 2.6650221500000000 Au
atom 20.1935163099999997 15.6211313599999997 2.6200878599999999 Au
atom 23.0283290399999991 15.6110226099999991 2.6360957400000000 Au
atom 25.8412541800000000 15.7007443400000000 2.6485184899999998 Au
atom 0.4755275900000000 15.5064252000000007 2.5617596699999998 Au
atom 3.2801131600000000 15.6875076999999994 2.6575560399999998 Au
atom 6.0762941300000000 15.6575776700000002 2.6182014400000000 Au
atom 7.4831627400000000 18.0861424100000008 2.7026052699999998 Au
atom 10.3319311400000000 18.1039346600000002 2.5875963899999999 Au
atom 13.1351472200000003 18.1087824300000015 2.6480272299999998 Au
atom 15.9405741899999995 18.1222664400000006 2.6250742100000002 Au
atom 18.7758778900000003 18.1180695900000011 2.6797154000000001 Au
atom 21.5814085499999990 18.1432479600000001 2.5827135700000001 Au
atom 24.4136054000000016 18.0924277499999988 2.7119088900000001 Au
atom 27.2255664099999990 18.1170770300000008 2.5053250999999999 Au
atom 1.8684776400000001 18.0533290199999996 2.6981492399999998 Au
atom 4.6937538099999996 18.1273632800000009 2.6127615400000002 Au
atom 8.9012011500000003 20.5670902899999994 2.6847296599999999 Au
atom 11.7219543900000005 20.5893450300000005 2.7383655099999999 Au
atom 14.5627532199999994 20.5513774100000006 2.6870722900000001 Au
atom 17.3476360400000011 20.6079720600000016 2.7200389199999999 Au
atom 20.1903562399999998 20.5930028800000002 2.7173438399999998 Au
atom 23.0291827399999995 20.5459339900000018 2.7344897499999998 Au
atom 25.8496805199999997 20.6592124800000008 2.7024359200000001 Au
atom 0.4563373500000000 20.6155271800000008 2.6534144899999998 Au
atom 3.2952854800000000 20.5963249200000007 2.7249185800000002 Au
atom 6.0880327100000002 20.5795242599999995 2.7386974899999998 Au
atom 7.4886357600000002 23.0548879599999985 2.7057372100000001 Au
atom 10.3104146399999994 23.0295197599999995 2.7110606200000000 Au
atom 13.1512893300000009 23.0529557999999994 2.6830550000000000 Au
atom 15.9800515799999996 23.0194710399999991 2.6786856299999999 Au
atom 18.7528762200000010 23.0461252999999999 2.6727640899999998 Au
atom 21.6068474799999990 23.0605835900000002 2.6494824800000001 Au
atom 24.4109820199999987 23.0418494000000003 2.6772516099999999 Au
atom 27.2496375800000017 22.8943013099999995 2.6739155800000001 Au
atom 1.8709634399999999 23.0555144100000007 2.6973015100000000 Au
atom 4.6812877600000000 23.0755128700000007 2.6720644099999999 Au
atom 8.9802022200000007 25.5091800699999993 2.7070408200000000 Au
atom 11.7391848400000001 25.5304455700000013 2.7104836500000000 Au
atom 14.5852696500000008 25.5366160499999992 2.7108963199999998 Au
atom 17.3694748300000015 25.5054005000000004 2.6989051499999999 Au
atom 20.1893829499999988 25.5419375399999993 2.7287002600000001 Au
atom 22.9954672000000002 25.5010677000000001 2.6862619799999998 Au
atom 25.8327055500000000 25.4720237500000017 2.8333056100000000 Au
atom 0.4512584500000000 25.4788324000000017 2.7425923999999999 Au
atom 3.2501162400000001 25.5260638600000007 2.7368713200000001 Au
atom 6.1054481400000000 25.5170709400000000 2.7134713100000001 Au
atom 7.5326163900000003 27.9611128499999992 2.6114606999999999 Au
atom 10.3304949399999995 28.0390408399999984 2.7377875999999999 Au
atom 13.1575378399999998 27.9843609700000009 2.6138390199999999 Au
atom 15.9630210699999999 27.9982390499999987 2.6661377900000001 Au
atom 18.7411372999999983 28.0137877199999998 2.5912719599999998 Au
atom 21.5778944400000015 27.9776720099999991 2.6995580700000001 Au
atom 24.4411593700000012 28.0107834000000011 2.6357457300000000 Au
atom 27.2594743199999989 28.0243422200000012 2.5672555699999999 Au
atom 1.9022804400000000 27.9225287000000009 2.6412699000000002 Au
atom 4.6976468699999998 27.9937555399999987 2.6719115699999998 Au
atom 8.8989294399999999 30.5138368699999987 2.6561275200000001 Au
atom 11.7379492699999997 30.4393650700000009 2.6306955099999998 Au
atom 14.5499966399999998 30.4727516399999985 2.6349537199999999 Au
atom 17.3602511300000018 30.4688914500000010 2.6451286600000001 Au
atom 20.1948915900000010 30.4619618699999997 2.6287505499999999 Au
atom 23.0005402900000000 30.4452846000000008 2.6311132300000000 Au
atom 25.8368415499999990 30.4594025600000009 2.7155587699999999 Au
atom 0.4483682600000000 30.7053001799999983 2.6586564799999999 Au
atom 3.2637208400000000 30.4574071099999983 2.6705601300000001 Au
atom 6.1182144699999998 30.4411870700000016 2.6394935899999998 Au
atom 7.4806393800000004 32.9222763000000000 2.5378531999999998 Au
atom 10.3129950800000003 32.9152992499999968 2.6625223500000001 Au
atom 13.1252380599999992 32.9006177300000004 2.5661106500000002 Au
atom 16.0110515500000012 32.8909657299999978 2.6549580000000002 Au
atom 18.8088448799999988 32.9452833900000002 2.5841636000000001 Au
atom 21.6202477600000016 32.9023692299999979 2.6545454199999998 Au
atom 24.4624513400000012 32.9155500199999977 2.5417703899999999 Au
atom 27.2128137199999998 32.8718356799999967 2.6677951000000002 Au
atom 1.8442200600000000 32.9623784899999990 2.5544289400000002 Au
atom 4.7192209900000002 32.9425492700000007 2.6752331300000001 Au
atom 8.9207370400000006 35.3754140500000034 2.6504978499999998 Au
atom 11.7302680200000005 35.3826121800000024 2.6439553600000001 Au
atom 14.5366860399999993 35.3778266799999983 2.6467392099999998 Au
atom 17.3778145299999984 35.3792225099999982 2.6168819100000000 Au
atom 20.2256594400000012 35.3545303900000008 2.6502722599999999 Au
atom 23.0210881799999996 35.3716996300000019 2.6457303799999998 Au
atom 25.8155166399999985 35.4051965600000003 2.6919972799999998 Au
atom 0.4494070000000000 35.3363976500000021 2.6389073800000000 Au
atom 3.2609235499999998 35.4341346400000035 2.6388514900000000 Au
atom 6.1049725500000003 35.3584767199999987 2.6640954300000002 Au
atom 7.6477957200000004 37.8828841999999995 2.2880684599999999 Au
atom 10.1540212200000006 37.8296039299999975 2.8812673900000001 Au
atom 13.1044023599999999 37.8403065600000019 2.5371649000000001 Au
atom 16.0423065099999995 37.8268366000000000 2.5269287100000000 Au
atom 18.6991338499999991 37.8578840500000027 2.5653890700000002 Au
atom 21.4651373599999999 37.8370753399999984 2.9681974900000001 Au
atom 24.4609354900000007 37.8412941400000022 2.8210561099999998 Au
atom 27.1447866200000014 37.9064210700000004 2.7178860199999999 Au
atom 2.0056172600000002 37.8219364200000001 2.5632235799999998 Au
atom 4.7092446800000003 37.8430570499999988 2.7622756599999998 Au
atom 9.0397473300000009 0.8089763599999999 2.8389051500000000 Au
atom 11.5710320699999993 0.8155118400000000 2.6844544600000000 Au
atom 14.4961364400000008 0.8438175700000000 2.8133935499999998 Au
atom 17.5287797699999999 0.8139058500000000 2.7478176900000002 Au
atom 20.1387840999999987 0.8861474600000000 2.7561448000000000 Au
atom 22.9185909300000006 0.8358321900000000 2.6812083400000000 Au
atom 25.7715116799999997 0.6047926600000000 2.9422927400000001 Au
atom 0.4672953300000000 0.6907681200000000 2.6834512899999998 Au
atom 3.3480428099999999 0.8319390300000000 2.7070796300000000 Au
atom 5.9621167200000000 0.8251452400000000 2.6182742499999998 Au
atom 7.4696444800000004 3.2906053800000001 2.6767468399999998 Au
atom 10.3008240499999992 3.3098159200000001 2.7006076000000001 Au
atom 13.1876696399999993 3.3282464799999998 2.6962239800000001 Au
atom 15.9576711299999996 3.2692920200000000 2.6774361799999999 Au
atom 18.7666386100000011 3.3149953299999999 2.6531356800000001 Au
atom 21.6228043800000016 3.3129933999999999 2.6787197400000000 Au
atom 24.4414231000000015 3.3412731999999998 2.6821637500000000 Au
atom 27.2267909699999997 3.0147447299999999 2.6504383200000001 Au
atom 1.8504678999999999 3.2807297599999998 2.7320115899999999 Au
atom 4.7006875299999997 3.2857263300000001 2.6801616899999998 Au
atom 8.8738839200000008 5.8017366399999997 2.6902927299999999 Au
atom 11.7792762000000000 5.7972876800000002 2.7078651300000001 Au
atom 14.5689439200000006 5.7767428900000004 2.7251346299999999 Au
atom 17.3935510700000009 5.7634899400000004 2.7037336399999998 Au
atom 20.2097811199999988 5.7934038699999997 2.6984584500000000 Au
atom 22.9722154200000013 5.7713751899999997 2.7239420100000000 Au
atom 25.8421037300000016 5.7869267999999998 2.6559416300000001 Au
atom 0.4484489400000000 5.7539886400000002 2.7219452300000002 Au
atom 3.2832550600000001 5.8235762199999996 2.6817812000000001 Au
atom 6.1015780299999998 5.8031195100000001 2.7268604500000002 Au
atom 7.5076920200000004 8.3005627200000003 2.6885252199999998 Au
atom 10.3150103899999994 8.2648742800000008 2.6351724100000000 Au
atom 13.1453496600000008 8.2685942600000004 2.7011350400000000 Au
atom 16.0037780500000011 8.2665564200000006 2.5868689699999998 Au
atom 18.8034648699999991 8.2689419500000003 2.7121848399999999 Au
atom 21.6233809400000005 8.2376875300000005 2.6139139500000002 Au
atom 24.4016480000000016 8.2633665100000009 2.6972602600000002 Au
atom 27.2645260200000017 8.2635328099999992 2.5810780599999998 Au
atom 1.8609851399999999 8.2994128899999993 2.5981774799999999 Au
atom 4.6976716100000004 8.2508394299999992 2.6368105200000000 Au
atom 8.9490835900000008 10.7219447199999998 2.6297761199999998 Au
atom 11.7245882100000003 10.7296657700000004 2.6370485800000001 Au
atom 14.5467116900000004 10.7362828399999994 2.6045609900000000 Au
atom 17.3750273300000018 10.7410727000000001 2.6450671699999999 Au
atom 20.2253437299999987 10.7174494399999993 2.6449623799999999 Au
atom 23.0122628499999990 10.7131240600000002 2.6500059700000000 Au
atom 25.8363266600000010 10.6908107000000001 2.7503612600000000 Au
atom 0.4275829900000000 10.7908438899999997 2.4516028699999999 Au
atom 3.2634726399999998 10.7145298400000009 2.6233558800000001 Au
atom 6.0996732199999997 10.7313880899999994 2.6213189799999999 Au
atom 7.4942325800000003 13.1877671299999992 5.6517491199999998 Cl
atom 7.4738292199999998 15.9731288100000004 8.5135441499999995 Cl
atom 7.5207626400000001 13.1755364499999992 8.3605204000000004 Na
atom 7.5106990299999996 16.0000303200000005 5.8143846100000003 Na
atom 7.4966489999999997 18.8136563999999993 5.7389035300000000 Cl
atom 7.4961054200000001 21.6083784200000011 8.5856473999999992 Cl
atom 7.4948606199999999 18.8059809599999994 8.3784757400000007 Na
atom 7.4808257899999999 21.6398787800000001 5.8251942400000001 Na
atom 7.4939226999999997 24.4377412300000003 5.7599014799999999 Cl
atom 7.4964269699999999 27.2751982899999987 8.6234481899999995 Cl
atom 7.5144733900000000 24.4582087199999982 8.4379656999999995 Na
atom 7.5025561099999996 27.2626281000000006 5.8334421200000000 Na
atom 7.4823089999999999 30.0703338799999997 5.7025199000000004 Cl
atom 7.4862503900000004 32.9169410299999967 8.5602925299999999 Cl
atom 7.4803899200000004 30.0976704300000009 8.3949886300000003 Na
atom 7.4848642500000002 32.9319948400000015 5.8458829799999998 Na
atom 7.5026159300000002 35.7447103800000008 5.7392953300000000 Cl
atom 7.7170281699999999 38.5505929500000022 8.5531515000000002 Cl
atom 7.4975146500000003 35.7399893300000002 8.3893891000000007 Na
atom 7.2206382400000004 38.5757624499999991 5.8112180100000002 Na
atom 7.5112764199999997 1.9170728699999999 5.7496804299999997 Cl
atom 7.4963707900000003 4.7154927700000000 8.5941360299999996 Cl
atom 7.5973954399999997 1.9551449299999999 8.4854222499999992 Na
atom 7.4891388900000004 4.6931757500000000 5.8379970600000002 Na
atom 7.4977178400000000 7.5369527500000002 5.7706382200000004 Cl
atom 7.5184514299999998 10.3600711099999998 8.5312806299999995 Cl
atom 7.4852453700000003 7.5659535800000004 8.3959860699999993 Na
atom 7.5056617900000004 10.3429642899999994 5.7851521000000004 Na
atom 10.3529721200000004 13.1504817599999999 5.8091685200000001 Na
atom 13.1257053399999997 13.1592998899999998 5.7005306500000001 Cl
atom 10.3035856799999994 15.9969344499999995 8.3367078600000006 Na
atom 13.1361573699999994 15.9743689100000008 8.5129904399999994 Cl
atom 13.1315947499999996 13.1654670199999995 8.3301054699999995 Na
atom 10.2995804900000003 13.1660644100000006 8.5626547100000003 Cl
atom 13.1282873599999999 15.9944702499999991 5.8008525899999999 Na
atom 10.3254317100000002 15.9882013599999997 5.7014699499999999 Cl
atom 10.3217783399999998 18.8397237100000012 5.8436159700000001 Na
atom 13.1300292100000000 18.7997419800000003 5.7102608899999998 Cl
atom 10.3119037200000001 21.6689065999999997 8.3659047100000006 Na
atom 13.1532960499999998 21.6081364499999999 8.5600036500000005 Cl
atom 13.1305345300000003 18.7760377399999996 8.3426037999999991 Na
atom 10.3240619799999997 18.8106408999999992 8.5860595199999992 Cl
atom 13.1244453100000005 21.6728411700000017 5.8228848700000002 Na
atom 10.3162885899999992 21.6180252000000017 5.7352349699999996 Cl
atom 10.3281100800000001 24.4796557399999983 5.8187522100000004 Na
atom 13.1787377699999997 24.4253143900000005 5.7012501799999997 Cl
atom 10.2946504799999996 27.2312777299999986 8.3750750499999995 Na
atom 13.1140191500000007 27.2531392600000011 8.5685131699999992 Cl
atom 13.1416974100000008 24.4252497700000006 8.3805492499999996 Na
atom 10.3254669400000001 24.4457771800000003 8.5633767899999995 Cl
atom 13.1621326399999994 27.2651008600000004 5.7852206199999996 Na
atom 10.3263383399999995 27.2593362399999997 5.7775605800000003 Cl
atom 10.2914074299999996 30.0864814199999984 5.7851201600000000 Na
atom 13.1348382499999996 30.0777423400000004 5.7120363799999998 Cl
atom 10.3101823899999996 32.9169350600000001 8.3673979999999997 Na
atom 13.1359508399999996 32.9020988799999969 8.5722224400000009 Cl
atom 13.1532644600000008 30.0546870599999991 8.3687662899999999 Na
atom 10.3013334600000004 30.0961762200000003 8.5464191500000002 Cl
atom 13.1449157900000007 32.9236846000000014 5.8015665900000002 Na
atom 10.3315941799999997 32.9151457099999973 5.6890963100000000 Cl
atom 10.3058255899999995 35.7444872599999997 5.8283125199999999 Na
atom 13.1333811899999997 35.7285328199999981 5.7210390799999997 Cl
atom 10.2800924899999995 38.5169458199999966 8.4678313900000006 Na
atom 13.1641697900000008 38.5418461399999970 8.4611211900000001 Cl
atom 13.1404717400000006 35.7314458500000001 8.3998848400000004 Na
atom 10.3074563999999995 35.7146980600000035 8.5551201300000006 Cl
atom 13.2219006399999994 38.6014218999999983 5.9348932799999998 Na
atom 10.3685060799999995 38.5602867300000014 5.6467561300000000 Cl
atom 10.2728041999999995 1.9051686500000000 5.7943439999999997 Na
atom 13.0252708100000003 1.8758324600000000 5.7237808000000001 Cl
atom 10.3201333500000008 4.6961458599999997 8.4013234800000003 Na
atom 13.1531816500000005 4.7266084599999996 8.5894279999999998 Cl
atom 13.1403876400000001 1.8893184000000001 8.3689022600000005 Na
atom 10.2786565999999997 1.8888324999999999 8.5332134199999992 Cl
atom 13.1911676700000005 4.6803843499999997 5.7892987199999997 Na
atom 10.3236333299999998 4.7085926100000002 5.7261229699999996 Cl
atom 10.3291507100000004 7.5180825899999997 5.8332344599999999 Na
atom 13.1505866699999991 7.5165234300000003 5.7321461500000002 Cl
atom 10.3162247899999997 10.3239885900000008 8.3940155399999998 Na
atom 13.1616508900000007 10.3616341799999994 8.5523974500000008 Cl
atom 13.1353289600000007 7.5271543300000001 8.3816299200000000 Na
atom 10.3120914199999998 7.5293363600000003 8.5775514099999999 Cl
atom 13.1504254300000003 10.3358543100000002 5.8104733599999996 Na
atom 10.3325698999999993 10.3452877999999995 5.6977135299999997 Cl
atom 15.9577120899999993 13.1476858199999995 5.8245243899999997 Na
atom 18.7879627700000000 13.1719733199999993 5.7188675900000003 Cl
atom 15.9404220100000007 16.0045452300000015 8.3808153900000004 Na
atom 18.7532888000000000 15.9859132699999993 8.5199251199999999 Cl
atom 18.7964505799999984 13.1593170799999992 8.3592103499999997 Na
atom 15.9534686200000007 13.1756393299999992 8.5785875100000002 Cl
atom 18.7966850299999990 15.9818626300000002 5.7729179300000002 Na
atom 15.9686046400000006 16.0053638999999990 5.7226547200000004 Cl
atom 15.9668131500000001 18.8293926399999982 5.8418595099999999 Na
atom 18.7938545200000000 18.8134286999999993 5.7182608600000000 Cl
atom 15.9695091300000005 21.6590204499999999 8.4024545899999996 Na
atom 18.7931231799999985 21.6232407100000010 8.5695913400000006 Cl
atom 18.7996537600000018 18.8329333400000003 8.4305121700000001 Na
atom 15.9527424199999999 18.8125156599999990 8.5699867300000001 Cl
atom 18.7525299899999993 21.5968864300000014 5.8381775200000003 Na
atom 15.9666940400000001 21.6242313199999998 5.7284821900000003 Cl
atom 15.9277076100000006 24.4622813199999989 5.8240850300000000 Na
atom 18.7838565499999994 24.4249278200000006 5.7389662599999998 Cl
atom 15.9805348299999999 27.2809237700000011 8.3867070300000002 Na
atom 18.7755537799999992 27.2686619499999985 8.5750022099999992 Cl
atom 18.7544599800000000 24.4166093300000000 8.3481219899999992 Na
atom 15.9600217000000004 24.4416660400000012 8.5618538300000004 Cl
atom 18.7642339199999988 27.2652741200000008 5.8645662200000004 Na
atom 15.9531228200000008 27.2578049799999995 5.7373551200000001 Cl
atom 15.9552313300000002 30.0987976400000008 5.8326190000000002 Na
atom 18.7790289000000001 30.0824472000000007 5.7055397699999997 Cl
atom 15.9403941400000004 32.9175017800000020 8.3631020199999995 Na
atom 18.7526549399999993 32.8966705200000007 8.6044811200000009 Cl
atom 18.7884269099999983 30.0631730399999988 8.3676312199999998 Na
atom 15.9571087499999997 30.0770785700000012 8.5862650200000008 Cl
atom 18.7654845899999998 32.8879433099999972 5.8239092100000001 Na
atom 15.9387815300000000 32.9033173300000001 5.6983924899999998 Cl
atom 15.9702913199999994 35.7189072600000017 5.8171506500000003 Na
atom 18.7709404000000006 35.7263377299999974 5.7230404200000002 Cl
atom 15.9440654399999993 38.5476543300000003 8.3520236200000006 Na
atom 18.8282230900000016 38.5262701999999990 8.5647282499999999 Cl
atom 18.7851331899999998 35.7511118700000026 8.3854909099999997 Na
atom 15.9382289700000008 35.7286699300000024 8.5588365300000007 Cl
atom 18.8197917399999994 38.5669042999999974 5.7780475200000003 Na
atom 16.0737721299999983 38.5609798200000000 5.8439211499999999 Cl