#===============================================================================
# Created using the Atomic Simulation Environment (ASE)

# Tue Dec 23 22:26:35 2025

#=======================================================
lattice_vector 28.1999999999999993 0.0000000000000000 0.0000000000000000 
lattice_vector 0.0000000000000000 39.4799999999999969 0.0000000000000000 
lattice_vector 0.0000000000000000 0.0000000000000000 62.3296083400000001 
atom 7.5636770999999996 14.7270461699999995 0.0390612300000000 Au
atom 10.4333153200000002 14.6972363599999998 0.0958760300000000 Au
atom 13.2053059000000008 14.5271235799999996 -0.0941525400000000 Au
atom 16.0905178299999996 14.9491814999999999 -0.1718518000000000 Au
atom 18.7852497800000009 14.8222598699999999 -0.2629553600000000 Au
atom 21.6589693300000015 14.7925701299999997 -0.3284094800000000 Au
atom 24.4162650399999990 14.7085703500000005 -0.0450265400000000 Au
atom 27.3799980500000011 14.5227205200000000 -0.1665707700000000 Au
atom 1.9082335699999999 14.9265696999999999 0.1399243800000000 Au
atom 4.7025315399999998 14.9362932599999993 0.0119063700000000 Au
atom 9.0974219900000008 17.1507538799999999 -0.2124370200000000 Au
atom 11.7623404600000008 17.1971666100000000 -0.0722131200000000 Au
atom 14.3987191800000005 17.2376355200000013 -0.4378002900000000 Au
atom 17.3339114400000014 17.2781445100000006 -0.3476893100000000 Au
atom 20.1268253799999997 17.5589351399999991 -0.5613140599999999 Au
atom 22.8773166600000017 17.2036506299999985 -0.0559977300000000 Au
atom 26.0519053400000011 17.0764828500000014 -0.1653399700000000 Au
atom 0.3797972600000000 17.1536900500000016 0.0799637500000000 Au
atom 3.3370372800000001 17.5223869800000003 -0.0546499700000000 Au
atom 5.9713516899999997 17.2581647199999999 0.0057154100000000 Au
atom 7.4517711699999998 19.7938377000000010 -0.2306330700000000 Au
atom 10.3798297799999997 19.7165348000000016 -0.0538644500000000 Au
atom 13.0563580399999992 19.6463887100000001 -0.2340455000000000 Au
atom 15.7682780800000000 19.7611388699999999 -0.2238992700000000 Au
atom 18.7657972099999988 19.9832016000000010 -0.1786561600000000 Au
atom 21.6738424000000016 19.8044482399999993 -0.0850152100000000 Au
atom 24.3897050700000015 19.6592418299999991 -0.0402338500000000 Au
atom 27.1799527900000015 19.7928565600000006 -0.0857072800000000 Au
atom 1.9010258400000000 19.8393575099999993 0.3565558100000000 Au
atom 4.6118603499999997 19.9838768599999987 -0.0269551000000000 Au
atom 8.9545186599999997 22.1984367099999993 -0.0531676900000000 Au
atom 11.7313388399999994 22.1789109199999999 -0.1548862600000000 Au
atom 14.4371517199999992 22.3805007700000012 -0.4457396500000000 Au
atom 17.2508666099999992 22.4269126099999987 -0.3458972800000000 Au
atom 20.3181629199999989 22.3435489199999999 -0.2274623600000000 Au
atom 23.0638181899999992 22.4505485100000008 0.0166374400000000 Au
atom 25.8129381699999989 22.1750300799999991 -0.1876691500000000 Au
atom 0.3808475100000000 22.0484046900000017 0.4090616200000000 Au
atom 3.1277026299999999 22.1564148900000006 0.1617946100000000 Au
atom 6.2506112199999997 22.3698059600000008 0.2209583900000000 Au
atom 7.4005943199999997 24.8242480900000011 0.1725134800000000 Au
atom 10.3799823000000000 24.7614894499999991 0.0185340300000000 Au
atom 12.9403123400000002 24.5812179499999992 0.0295633600000000 Au
atom 15.8784633500000005 24.9523086700000007 -0.0318277700000000 Au
atom 18.7475841199999991 24.5911734899999992 0.0637654000000000 Au
atom 21.6160176399999990 24.7226367499999995 -0.2211897700000000 Au
atom 24.4415024699999996 24.6725398899999995 -0.1104778300000000 Au
atom 27.3789764200000008 24.7231192200000010 0.1309805500000000 Au
atom 1.8902676000000000 24.8288158099999983 0.3958087300000000 Au
atom 4.6750367700000002 24.8604921300000008 -0.0968058400000000 Au
atom 8.8956552299999991 27.1481282099999994 -0.0396656400000000 Au
atom 11.7684224700000009 27.0226990600000008 0.0585519400000000 Au
atom 14.3173879100000008 27.4368672300000007 -0.1595146100000000 Au
atom 17.3399573899999986 27.4580897099999994 -0.2874387700000000 Au
atom 20.1674198199999992 27.3783384299999994 -0.0683818300000000 Au
atom 23.2043945299999983 27.2575640200000002 -0.1066475900000000 Au
atom 25.8947516700000016 27.1171760000000006 -0.2460178800000000 Au
atom 0.2597470800000000 27.1098033299999983 0.0389745600000000 Au
atom 3.0530411300000000 27.3555559600000002 0.0054277500000000 Au
atom 6.3203448000000000 27.2307765400000008 0.1063409900000000 Au
atom 7.3691500999999997 29.7246242400000007 0.2218040400000000 Au
atom 10.0476466700000007 29.8074963599999982 -0.0796667300000000 Au
atom 13.1874158599999998 29.7818849899999982 -0.2846376000000000 Au
atom 16.0742386199999991 29.6159578400000001 -0.3199118300000000 Au
atom 18.8391902500000015 29.9983582899999988 -0.1136338300000000 Au
atom 21.6990523599999996 29.7123401800000018 -0.0328062700000000 Au
atom 24.4146926600000000 29.5754812999999999 -0.0059216200000000 Au
atom 27.2263695900000009 29.7591598300000015 -0.2541445000000000 Au
atom 1.6511322300000000 29.7011652499999990 -0.1007444300000000 Au
atom 4.5666288899999996 29.6880348599999984 0.1738224200000000 Au
atom 8.7732781699999993 32.0563632200000015 0.1725964400000000 Au
atom 11.7481712199999997 31.9647676199999999 -0.3258368000000000 Au
atom 14.6330877600000004 32.0133349800000033 -0.3741108600000000 Au
atom 17.2408209200000009 32.3060872599999982 -0.2326377100000000 Au
atom 19.9936225000000007 32.1212491799999995 -0.1145730400000000 Au
atom 23.0767600500000007 32.0810481899999971 -0.2421279400000000 Au
atom 26.0338842200000009 32.2900264399999983 -0.1318300200000000 Au
atom 0.4958647900000000 32.1300959300000031 -0.1730687600000000 Au
atom 3.5444382999999999 31.9935856299999983 -0.1070473300000000 Au
atom 6.0240833599999997 31.9715829800000009 -0.0802730100000000 Au
atom 7.4206081299999997 34.8511122499999999 -0.0725930200000000 Au
atom 10.2216597199999999 34.5592700099999988 -0.0360982600000000 Au
atom 13.1014014499999991 34.7214726099999993 -0.2237638600000000 Au
atom 15.9721190199999992 34.6551407400000002 -0.1237780200000000 Au
atom 18.9713451599999985 34.6539806400000003 -0.0244829100000000 Au
atom 21.7124222700000011 34.5793379200000004 -0.0721864400000000 Au
atom 24.4475644400000007 34.5867627599999992 -0.3727650600000000 Au
atom 27.1556785199999986 34.5780888099999970 0.0343256000000000 Au
atom 1.7253735600000000 34.5293693599999969 0.0930835300000000 Au
atom 4.5920432599999996 34.7508171200000007 0.1016452200000000 Au
atom 8.8020010200000005 37.1751720000000034 -0.2559625600000000 Au
atom 11.7166792700000002 37.0820033199999983 -0.0394356300000000 Au
atom 14.5362878799999997 37.1072509500000010 0.4352543900000000 Au
atom 17.2990800100000008 37.0435816800000026 0.2330781000000000 Au
atom 20.1143188899999998 37.0693058600000001 0.3419730800000000 Au
atom 23.1797329699999999 37.0792269700000006 0.1029247900000000 Au
atom 25.7067182299999999 36.9654535100000032 -0.0526642900000000 Au
atom 0.4672224000000000 37.1134204900000029 0.0394706700000000 Au
atom 3.4303362599999998 36.8823417899999981 0.2294473800000000 Au
atom 6.1614798200000003 37.1362129400000001 -0.0921297600000000 Au
atom 7.2332925399999999 -0.1094039100000000 -0.1708131900000000 Au
atom 10.3594347399999993 0.1117736200000000 -0.0404990900000000 Au
atom 13.2139360099999994 0.1534706400000000 0.2488926100000000 Au
atom 16.0185166899999984 0.1575581200000000 0.2435437600000000 Au
atom 18.7941259299999999 -0.0066582400000000 0.1779743700000000 Au
atom 21.6722749000000015 -0.0311470300000000 0.2114679000000000 Au
atom 24.5146727700000007 0.2191422500000000 -0.0603789000000000 Au
atom 27.3085265799999988 0.2118358100000000 0.2270588300000000 Au
atom 1.9692879200000000 0.0809130600000000 0.1031102500000000 Au
atom 4.7202388300000004 -0.0361241600000000 -0.1128681900000000 Au
atom 8.9409596300000000 2.3582241700000002 0.1222470500000000 Au
atom 11.9123500500000006 2.3106260100000000 0.2279362300000000 Au
atom 14.4058703500000007 2.5050930199999999 0.2994083000000000 Au
atom 17.2195250999999985 2.4992800000000002 0.2149217900000000 Au
atom 20.2256471600000012 2.5998326600000001 0.1751242000000000 Au
atom 22.9884212400000010 2.5973236300000000 0.4565825700000000 Au
atom 26.0270386900000013 2.5552711399999999 0.1060063300000000 Au
atom 0.5038022400000000 2.4609159500000000 0.2745926200000000 Au
atom 3.3034900399999998 2.4601032100000002 0.1778945000000000 Au
atom 6.0226521300000000 2.4096204299999999 0.2313479300000000 Au
atom 7.3272170299999999 4.8865660799999997 -0.0681094300000000 Au
atom 10.4931980599999992 4.8175489499999999 0.2558607500000000 Au
atom 13.0192983800000004 4.9384782899999999 0.0325774900000000 Au
atom 15.9366239800000002 4.7675005900000000 0.2804329100000000 Au
atom 18.7600557700000010 4.9784097899999997 0.1868246400000000 Au
atom 21.6338104199999997 4.9276882100000003 0.6290327900000000 Au
atom 24.2540612399999986 4.8628474199999996 0.2796030900000000 Au
atom 27.1138823000000002 5.2747491899999996 0.2694955300000000 Au
atom 1.8342406899999999 4.8147798100000001 0.0794193800000000 Au
atom 4.7104799799999997 4.9827033600000004 0.4063476900000000 Au
atom 9.1595660100000007 7.3727742799999998 -0.0390800100000000 Au
atom 11.8821262300000008 7.3330267899999999 0.1313739800000000 Au
atom 14.4694885400000004 7.4495176900000004 0.0521350100000000 Au
atom 17.3601478900000004 7.3184867699999998 0.5185482700000000 Au
atom 20.2133555399999985 7.3826741800000004 0.5374430300000000 Au
atom 23.1207993599999995 7.2773849700000000 0.3731247200000000 Au
atom 26.0051366500000007 7.5810742500000003 0.0593716000000000 Au
atom 0.4655122300000000 7.3564270199999999 0.3636754500000000 Au
atom 3.0555734600000002 7.2952552199999996 0.2155439700000000 Au
atom 6.1753321799999998 7.1569236500000004 0.0308730900000000 Au
atom 7.4221333600000001 9.8714863899999994 0.0593648000000000 Au
atom 10.3981732499999993 9.8465203100000007 -0.0773761900000000 Au
atom 13.3487396599999997 9.7570995499999995 0.2122904900000000 Au
atom 15.9097951799999997 9.7327256299999991 0.5058092900000000 Au
atom 18.7805316399999995 9.9647151899999997 0.2200194800000000 Au
atom 21.5879597499999996 9.8481801099999995 0.3176499500000000 Au
atom 24.6162006799999986 9.6698255300000007 0.0368336900000000 Au
atom 27.1299942999999999 9.7509027400000008 0.3439730600000000 Au
atom 1.7918769999999999 10.1125791700000001 0.1954239900000000 Au
atom 4.6777508299999999 9.8597473200000003 0.1208994800000000 Au
atom 8.9453601299999992 12.3565753699999998 0.1579420400000000 Au
atom 11.6010628300000000 12.4480216299999995 0.1536766000000000 Au
atom 14.5081546100000001 12.0309232399999999 0.4877512700000000 Au
atom 17.4739141400000015 12.2730666500000005 0.1909783900000000 Au
atom 20.2028418999999992 12.3864256600000004 0.0317659700000000 Au
atom 22.9405394800000018 12.4480847000000008 -0.0090768400000000 Au
atom 25.9797934700000006 12.1727559200000002 -0.2070049900000000 Au
atom 0.5775785600000000 12.2803635700000005 -0.1609233300000000 Au
atom 3.2926888999999999 12.3183777600000006 -0.1453639000000000 Au
atom 6.1412439200000000 12.4681119900000006 0.1913619000000000 Au
atom 7.4783341800000001 13.2432319399999994 2.6034352100000002 Au
atom 10.2898418199999995 13.2759865099999992 2.5067389200000001 Au
atom 13.0311669999999999 13.3630361700000009 2.7546574000000001 Au
atom 15.8626644399999996 13.4241688700000008 2.8096207899999999 Au
atom 18.7796762100000016 13.1439615199999995 2.6409104100000000 Au
atom 21.6655920600000016 13.1942084499999996 2.6480170900000002 Au
atom 24.4638674700000003 13.2338702900000005 2.2931973800000001 Au
atom 27.3716595200000015 13.0726793099999998 2.2339454800000000 Au
atom 2.1240142799999999 13.0885015700000000 2.5385066699999999 Au
atom 4.6479065500000001 13.3246045599999992 2.6369240899999999 Au
atom 8.7276900600000005 15.7413072300000003 2.6623623300000001 Au
atom 11.9331100899999996 15.7509385000000002 2.6083635900000002 Au
atom 14.4832257799999997 15.8644694600000005 2.3603380199999999 Au
atom 17.3414535100000009 15.6188107699999996 2.2849183100000001 Au
atom 20.3021664100000017 15.7994960800000008 2.2083570600000000 Au
atom 23.0727631399999993 15.4976663600000002 2.4160820799999998 Au
atom 25.7933260500000010 15.6182879700000008 2.4667374799999999 Au
atom 0.3761075800000000 15.5065924299999995 2.5620952699999999 Au
atom 3.4237400600000001 15.5962543500000006 2.8086366800000002 Au
atom 6.1790728699999997 15.5718085800000008 2.6534875800000002 Au
atom 7.4326909399999996 18.2842506100000008 2.6065125700000000 Au
atom 10.3990128700000000 18.1193517200000009 2.6334614699999999 Au
atom 13.0871592600000000 18.1821403699999991 2.3720969900000002 Au
atom 15.9735338999999996 18.0987590000000012 2.3664535199999999 Au
atom 18.9063168499999996 18.2307481100000004 2.2375871200000002 Au
atom 21.4336643600000016 18.1649622099999988 2.3001606300000002 Au
atom 24.5320114099999991 18.1481488599999992 2.4710836199999999 Au
atom 27.3174703799999996 18.0276803200000018 2.4138634200000002 Au
atom 1.9800178500000001 17.8773374800000013 2.5569702400000001 Au
atom 4.7033995800000001 18.1951976500000008 2.4355215200000000 Au
atom 9.0764586299999994 20.5052061899999991 2.4063559600000000 Au
atom 11.6384852799999994 20.7181748900000002 2.4570330999999999 Au
atom 14.4683646800000005 20.6266748399999997 2.2222881600000002 Au
atom 17.2900972000000017 20.7238199399999985 2.4890084699999999 Au
atom 19.9940660100000009 20.5842218599999995 2.4916216699999998 Au
atom 22.9004050300000017 20.6524102200000002 2.6409483100000002 Au
atom 25.7829218500000010 20.6292416799999998 2.5146031199999999 Au
atom 0.3656802000000000 20.6298624299999993 2.8453715700000002 Au
atom 3.2557385299999999 20.6578600799999990 3.0327447699999999 Au
atom 6.1442863499999998 20.5118735699999988 2.5092615000000000 Au
atom 7.5976395099999996 22.9019316099999983 2.8546088200000002 Au
atom 10.2784343400000004 23.1543021600000003 2.5643575099999998 Au
atom 12.8819912500000004 23.1081204599999985 2.3519017999999998 Au
atom 16.0458855599999985 22.9237605600000016 2.2372475700000001 Au
atom 18.9032606899999998 23.1645035499999992 2.5760252499999998 Au
atom 21.4289449699999999 23.2347821400000001 2.4297634000000001 Au
atom 24.3690185700000015 23.0337543300000007 2.5977711000000001 Au
atom 27.3236750700000002 22.9763595699999996 2.6989074000000000 Au
atom 1.5459099999999999 23.0775603400000016 2.8191567100000001 Au
atom 4.7065887899999996 22.9095327299999987 2.3997024599999999 Au
atom 8.8968383899999992 25.6882668000000010 2.6847916199999999 Au
atom 11.8576174499999993 25.6012887599999992 2.7581731500000002 Au
atom 14.5208521800000003 25.5439744500000003 2.3154150599999999 Au
atom 17.2998877899999997 25.4055209700000013 2.7162598700000000 Au
atom 20.0375697300000013 25.7595962900000011 2.5429039699999998 Au
atom 22.8613121899999996 25.7343648700000003 2.6363765899999998 Au
atom 25.7429475100000005 25.7805373099999997 2.4015532600000000 Au
atom 0.4573589700000000 25.7553674699999995 2.8285913400000000 Au
atom 3.2352916600000001 25.6512318000000015 2.9243502100000001 Au
atom 6.1366655500000000 25.6200215299999989 2.6489355400000001 Au
atom 7.3983097200000003 28.0209727099999988 2.4989469000000000 Au
atom 10.3777798600000004 28.0362858899999985 2.3472331999999998 Au
atom 13.1257726100000003 28.1023904299999998 2.4859018200000000 Au
atom 15.9454708400000005 27.9832699699999985 2.4108973499999999 Au
atom 18.5565862099999990 27.9898553800000016 2.3984804500000001 Au
atom 21.6046403500000004 28.0350649099999991 2.5248982899999999 Au
atom 24.0919526499999996 28.1591062900000004 2.4642105700000001 Au
atom 27.0813580800000011 27.9416580900000007 2.3152169200000001 Au
atom 1.8877262100000001 28.1186252699999990 2.7305502000000001 Au
atom 4.7567565900000002 27.9947088199999996 2.8669274400000000 Au
atom 8.7727321800000002 30.5816740600000010 3.1118742799999999 Au
atom 11.6786232299999995 30.6482929400000010 2.4394663200000002 Au
atom 14.4500039499999993 30.5453947300000017 2.3514109400000001 Au
atom 17.3226197800000001 30.4685025899999999 2.3648707400000002 Au
atom 20.2799737200000010 30.5003538399999989 2.4519365899999999 Au
atom 22.9369082199999994 30.6650779699999987 2.5361185200000000 Au
atom 25.8705233399999983 30.5564171699999996 2.4128496899999998 Au
atom 0.4735419200000000 30.6247963500000004 2.4583561600000001 Au
atom 3.0610282999999998 30.6612857500000011 2.4969185100000000 Au
atom 6.0682866500000001 30.5788300000000000 2.6905320300000000 Au
atom 7.4034387199999996 33.0719667700000031 2.8406217599999999 Au
atom 10.3053863900000007 33.0287316599999983 2.4811205699999999 Au
atom 12.9077262899999994 32.9714557900000003 2.4709871600000000 Au
atom 15.8533122700000000 33.0280042400000013 2.3004260400000001 Au
atom 18.6815601999999998 32.7534909800000023 2.3524276300000002 Au
atom 21.4443489300000003 32.9884533600000012 2.6476813500000000 Au
atom 24.4206247199999993 32.9564430699999988 2.4821830500000002 Au
atom 27.3414938099999993 32.8631186400000033 2.6534890099999999 Au
atom 1.8335912200000000 32.8879752100000005 2.5372416900000001 Au
atom 4.4931763699999996 32.9062555300000028 2.6309873499999998 Au
atom 8.9583930499999997 35.3046814400000031 2.5925105500000001 Au
atom 11.8965959800000007 35.3629938999999993 2.5839316800000001 Au
atom 14.6867080199999993 35.4142276800000033 2.7947962999999998 Au
atom 17.6077237500000017 35.4083118200000015 2.8627943999999999 Au
atom 20.0230341500000009 35.3933873599999984 2.6071864400000000 Au
atom 22.8451328700000005 35.5940308300000012 2.5542989700000001 Au
atom 25.7582137600000003 35.4533914200000027 2.2800112600000002 Au
atom 0.2941410300000000 35.5877202300000022 2.5682255299999999 Au
atom 3.2967621100000000 35.4731997299999975 2.9567221500000000 Au
atom 5.9613106199999999 35.5527002199999984 2.8821518799999999 Au
atom 7.5355127099999999 38.0308784599999967 2.3254718200000002 Au
atom 10.1552295600000004 37.9625068900000002 2.3979941899999999 Au
atom 12.9629884400000002 37.8481827600000003 2.7687845400000000 Au
atom 15.8260337300000007 37.8480282900000020 2.9583931500000000 Au
atom 18.8101043300000015 37.7056207899999976 2.8769408400000001 Au
atom 21.7662516199999985 37.7966500499999967 2.9439721699999999 Au
atom 24.1181962900000002 38.0545084700000018 2.5531511199999999 Au
atom 27.2141243199999998 38.0492331000000021 2.7851416699999998 Au
atom 1.6572618400000001 38.1752833899999970 2.4860558500000001 Au
atom 4.4930810000000001 37.6123946900000021 2.6933661600000001 Au
atom 8.9057578399999997 0.9565379000000001 2.4837156899999999 Au
atom 11.8698321599999996 0.7818057000000000 2.8758232600000002 Au
atom 14.6497225400000008 0.7112671000000000 2.7241695199999998 Au
atom 17.5674834299999993 0.9251013500000000 2.8332826799999999 Au
atom 20.1319752200000011 0.8431048100000000 2.8505694799999999 Au
atom 23.0147331000000008 0.8614097700000000 2.9098305799999999 Au
atom 25.8276154300000016 0.7390733200000000 2.5843940100000000 Au
atom 0.3383855000000000 0.9245481100000000 2.7683524899999998 Au
atom 3.5169461900000001 0.8611015200000000 2.8970518599999999 Au
atom 6.1346761599999997 0.9165031600000000 2.6868751799999999 Au
atom 7.7602732500000000 3.5081023500000001 2.6927980699999998 Au
atom 10.3149424199999995 3.0802309299999999 2.7941679200000000 Au
atom 13.0764656200000005 3.2239136700000000 2.7605426600000000 Au
atom 15.7294330799999997 3.2904001900000002 3.0490269600000000 Au
atom 18.7834336499999992 3.4520236000000000 2.7488740500000000 Au
atom 21.7426951099999997 3.4110597000000000 2.9302991700000001 Au
atom 24.4007503499999991 3.2521503500000000 2.8894348399999998 Au
atom 27.1824440799999998 3.3687014400000002 2.7941621900000002 Au
atom 1.8924245099999999 3.3717678900000001 2.6435565599999999 Au
atom 4.6892467900000003 3.3342930300000000 2.9040133699999999 Au
atom 8.8939971900000003 5.7689946100000000 2.7204807899999999 Au
atom 11.8033521900000000 5.6897812400000003 2.9186229899999998 Au
atom 14.5726599500000003 5.6187792200000004 2.9255314200000000 Au
atom 17.3203081999999995 5.9301108100000004 2.9952739899999998 Au
atom 20.1309901599999996 5.7650909900000000 2.8641512300000000 Au
atom 22.9867384500000007 5.5674447699999998 2.9575427500000000 Au
atom 25.8508194899999992 5.9393975899999996 2.9977645599999998 Au
atom 0.4219303200000000 5.6527223299999996 2.6071540000000000 Au
atom 3.2887921200000001 5.8443262999999996 3.1444833399999998 Au
atom 6.1182966800000003 5.7348138799999999 2.7456195299999999 Au
atom 7.4640235300000004 8.4271430299999999 2.5398026100000002 Au
atom 10.4722700100000008 8.2496396000000001 2.5035414399999998 Au
atom 13.1955554799999994 8.2084299200000004 2.8668946599999998 Au
atom 15.8334232299999993 8.3373517899999996 3.2540968100000001 Au
atom 18.6643889799999982 8.4280757099999999 2.9287530099999999 Au
atom 21.7733183600000011 8.3071644199999994 2.8328711400000000 Au
atom 24.5944352299999984 8.1250564000000001 2.7610125900000000 Au
atom 27.1980374699999992 8.3168637200000006 2.7249439799999999 Au
atom 2.1188723999999999 8.1708618400000006 2.5377234999999998 Au
atom 4.6820721799999996 8.3843980699999996 2.5303334899999999 Au
atom 9.1344844300000005 10.5710369699999998 2.3140112500000001 Au
atom 11.7907818100000004 10.7185727499999999 2.7894634200000001 Au
atom 14.6904149000000004 11.0039712000000005 3.1893942800000001 Au
atom 17.1885003999999988 10.8616216699999999 2.8097594099999998 Au
atom 20.3468261400000010 10.7886864599999992 2.6533902999999999 Au
atom 23.2429631000000008 10.7897673199999993 2.8017619499999999 Au
atom 25.8851410800000004 10.6897490099999999 2.6503066899999999 Au
atom 0.6365066300000000 10.8727224499999995 2.6699819100000002 Au
atom 3.4541280900000002 10.8011916499999998 2.5680639500000000 Au
atom 6.2139896500000003 10.8061084699999999 2.6720183799999999 Au
atom 7.8310957800000001 12.9377524000000008 5.7845833500000001 Cl
atom 7.5251749500000003 16.0433982899999990 8.3192850099999998 Cl
atom 7.6439229600000003 13.1383005100000005 8.3923361100000005 Na
atom 7.4158279699999996 15.7638107600000001 5.5049352000000003 Na
atom 7.7440732499999996 18.5865598699999985 5.5318919600000003 Cl
atom 7.5688645799999996 21.7161605199999990 8.4563496100000002 Cl
atom 7.5012144699999999 18.9227642100000004 8.3299407999999993 Na
atom 7.7769574099999996 21.5555273800000009 5.4462704700000000 Na
atom 7.4297955900000003 24.1587882799999996 5.4838015699999998 Cl
atom 7.6733022799999997 26.8696862900000006 8.5258697699999999 Cl
atom 7.6897410099999997 24.3005767699999993 8.4330344499999992 Na
atom 7.4713250999999996 26.9149668400000017 5.6271379399999999 Na
atom 7.4126155100000002 30.0976693299999987 5.7558828899999996 Cl
atom 7.7688068899999996 32.7984652299999979 8.3007895999999999 Cl
atom 7.6566011500000002 29.8026584800000016 8.5086742700000002 Na
atom 7.7720917900000002 32.7081021600000028 5.5996071100000000 Na
atom 7.5836264499999997 35.3747165099999989 5.7480266100000001 Cl
atom 7.4665987100000004 38.3951423500000004 8.5096357299999994 Cl
atom 7.4709975399999999 35.4773943799999998 8.3129976800000005 Na
atom 7.7168761600000000 38.1797049700000031 5.8146838000000001 Na
atom 7.5064328900000001 1.7179470400000001 5.8927685800000003 Cl
atom 7.6761984600000002 4.7334389799999999 8.7256711199999994 Cl
atom 7.5543272899999998 1.8235826600000000 8.4678851700000006 Na
atom 7.6421003499999998 4.5550150399999998 5.9761760099999996 Na
atom 7.6438633300000003 7.3236863100000003 5.8643857099999996 Cl
atom 7.9198380899999998 10.3228363299999994 8.5214889199999995 Cl
atom 7.5706665299999996 7.2027844900000000 8.2067311699999994 Na
atom 7.5902696199999999 10.0075399100000002 5.7054427499999996 Na
atom 10.3417378600000003 12.9112142999999993 5.8696558999999997 Na
atom 13.0357242499999995 12.9773087100000009 5.9198459899999998 Cl
atom 10.3447217200000008 16.0638142899999998 8.5579369300000003 Na
atom 13.0266993899999992 15.8107457100000008 8.2929789599999992 Cl
atom 12.9117016299999996 13.3376401300000005 8.3422085900000003 Na
atom 10.0785160200000004 13.3326197499999992 8.4783432100000002 Cl
atom 13.3650872500000002 15.8008133900000001 5.5575523400000000 Na
atom 10.3825132900000003 15.9395376300000002 5.5462914999999997 Cl
atom 10.3928968400000006 18.4913090699999998 5.5472209699999997 Na
atom 13.4072728100000003 18.8109125199999987 5.6002317200000000 Cl
atom 10.3835075000000003 21.4064231400000011 7.9945009100000002 Na
atom 13.2194327200000004 21.5454043700000000 8.4133590399999996 Cl
atom 13.3987302499999998 18.8005412700000001 8.1634702499999996 Na
atom 10.2745108900000002 18.9054927799999994 8.4699870900000001 Cl
atom 13.2412579400000006 21.5446913100000010 5.6568568700000004 Na
atom 10.1976336199999995 21.3592292300000004 5.6869909800000000 Cl
atom 10.4014757499999995 24.2757317599999993 5.8414914900000001 Na
atom 13.5695732200000005 24.2609592999999997 5.5517795500000000 Cl
atom 10.4600853399999991 26.9772288300000014 8.1416679399999996 Na
atom 13.2528567600000002 27.0239715199999999 8.5470436299999992 Cl
atom 13.2652280099999995 24.3749551599999990 8.3056028600000005 Na
atom 10.5546080300000007 24.1453020000000009 8.4007409899999992 Cl
atom 13.1993327899999997 26.7518038300000001 5.6472113100000003 Na
atom 10.1754788499999993 27.2291530699999988 5.5071050300000000 Cl
atom 10.5835490300000004 29.9079728100000004 5.7480245400000003 Na
atom 13.2412867399999996 29.7198303199999998 5.6592854800000003 Cl
atom 10.3068987399999994 32.4559545700000029 8.2824014199999993 Na
atom 13.2244340699999992 32.7309227900000010 8.5153462399999995 Cl
atom 13.1783642600000004 29.7950747699999994 8.3336392299999993 Na
atom 10.6079516100000006 29.7167483499999996 8.6354691300000006 Cl
atom 13.0463436599999998 32.3995442599999990 5.7403552800000002 Na
atom 10.4862610499999995 32.5054358200000024 5.7761456300000003 Cl
atom 10.4651028400000001 35.6255034300000020 5.7625000399999999 Na
atom 13.1576617500000008 35.7638659400000023 5.6937063300000004 Cl
atom 10.4785897099999996 38.2082799300000033 8.6084855099999995 Na
atom 13.2730063299999994 38.0119363600000000 8.6798240199999999 Cl
atom 13.3787506999999994 35.5039146000000017 8.3852597899999992 Na
atom 10.2667128400000003 35.6192435999999972 8.5605250599999998 Cl
atom 13.0573359300000007 38.2936994700000000 5.8877142200000003 Na
atom 10.4261191199999992 38.4555175200000008 5.8178099100000003 Cl
atom 10.6168566299999991 1.6682627200000000 5.8925500199999998 Na
atom 13.2436770399999997 1.7073237800000001 5.9525311900000002 Cl
atom 10.4838813099999992 4.5867748900000000 8.3948225999999995 Na
atom 13.1602443800000000 4.5299737699999998 8.5849322200000007 Cl
atom 13.1238860099999997 1.7707258699999999 8.5388304799999997 Na
atom 10.4773536400000005 1.6982525100000001 8.5505151000000001 Cl
atom 13.3576575999999996 4.5734440799999998 5.9799220300000000 Na
atom 10.2696884799999992 4.4218873900000002 5.9196867800000001 Cl
atom 10.4186762000000002 7.2737014499999999 5.9306477600000003 Na
atom 13.4308409100000006 7.1625555700000003 5.8367228500000001 Cl
atom 10.3569931299999993 9.8491546499999991 8.5099081400000003 Na
atom 13.1038723600000004 10.0458922000000008 8.6327105199999998 Cl
atom 13.3319171999999995 7.3178663100000003 8.6396399099999996 Na
atom 10.3379787600000004 7.2064098500000000 8.4683880699999996 Cl
atom 13.1912015500000006 10.1749255800000000 5.9132354999999999 Na
atom 10.7014135800000005 10.2286287799999993 5.6179416299999998 Cl
atom 15.8931877200000002 12.7991201500000003 5.5625576399999996 Na
atom 18.9660796100000013 13.0725131300000008 5.4608859100000000 Cl
atom 16.0485621800000011 15.7047811100000008 8.1159615299999999 Na
atom 18.9456071199999982 15.5643787099999997 8.5258611900000005 Cl
atom 18.9881028900000004 13.1952316300000003 8.0017689599999997 Na
atom 16.1594083399999988 12.9941610300000008 8.1156140099999998 Cl
atom 18.9427370800000006 16.0539257000000006 5.6874903699999999 Na
atom 16.0661543900000012 15.9285137199999998 5.6091538900000000 Cl
atom 16.1009126500000015 18.6204721000000006 5.8502637499999999 Na
atom 19.0827636100000007 18.5306700000000006 5.5591163100000003 Cl
atom 16.0453357099999998 21.5417962400000000 8.1600325900000001 Na
atom 19.1814416899999998 21.0466739400000016 8.8138487800000007 Cl
atom 18.7351279099999992 18.4753083099999991 8.2324211700000003 Na
atom 16.1364195899999991 18.7796908999999985 8.2697737199999999 Cl
atom 18.9959099400000007 21.3825717900000001 5.9722987600000002 Na
atom 16.1164806799999987 21.4357359500000015 5.8430869899999998 Cl
atom 16.0691566500000000 24.3312506699999993 5.9533256999999997 Na
atom 18.9524692200000011 24.0343764399999991 5.9280195000000004 Cl
atom 16.1118613900000014 27.1140939299999992 8.4214723399999993 Na
atom 18.7835739900000007 27.3851231900000016 8.4561321100000004 Cl
atom 19.0391667899999995 24.1173210900000008 8.5607607500000000 Na
atom 16.1110457999999994 24.3241568400000006 8.6749106000000005 Cl
atom 18.7416483499999984 26.7155860599999997 5.6380252799999999 Na
atom 16.1700729000000010 27.0257518999999995 5.7321931399999997 Cl
atom 16.0502459600000016 29.9418660800000005 5.5605640899999997 Na
atom 18.7308477700000005 29.8113721600000012 5.3933467700000000 Cl
atom 16.1167370100000014 32.6789892399999999 7.8184953699999999 Na
atom 18.8184065599999997 32.6267693699999981 8.2158183200000003 Cl
atom 18.5356397199999989 29.8436970799999983 8.2670377399999992 Na
atom 15.8309022000000006 29.9002639399999985 8.3449218100000007 Cl
atom 18.6151769199999997 32.5758299499999993 5.6018505699999999 Na
atom 15.9355469999999997 32.7758884100000003 5.4463095700000004 Cl
atom 16.0313503900000001 35.7174068500000033 5.6076251800000003 Na
atom 18.6011018800000016 35.4860814700000020 5.9265837000000001 Cl
atom 16.0568067799999987 38.4994559900000013 8.5471189600000006 Na
atom 19.0153782900000010 38.4909281899999982 8.7396939800000002 Cl
atom 18.8522008099999994 35.5467888200000033 8.2874173399999993 Na
atom 16.0615126699999990 35.5419536699999981 8.3963219099999993 Cl
atom 18.8107186000000013 38.2895206600000009 6.1840500399999998 Na