#===============================================================================
# Created using the Atomic Simulation Environment (ASE)

# Tue Dec 23 22:26:20 2025

#=======================================================
lattice_vector 28.1999999999999993 0.0000000000000000 0.0000000000000000 
lattice_vector 0.0000000000000000 39.4799999999999969 0.0000000000000000 
lattice_vector 0.0000000000000000 0.0000000000000000 62.3296083400000001 
atom 7.5262285400000000 14.9323840600000004 -0.3182403900000000 Au
atom 10.3624525799999994 14.9637279599999999 -0.1477521600000000 Au
atom 13.1394444099999994 15.0030431800000006 -0.3771057700000000 Au
atom 15.9214540800000002 14.8395833499999998 0.0857509600000000 Au
atom 18.6838833599999994 14.7720865200000002 -0.0051269500000000 Au
atom 21.5077585499999984 14.8860002799999993 -0.0234235600000000 Au
atom 24.3186389600000012 14.8795327900000007 -0.1410933700000000 Au
atom 27.2610864900000003 14.6923365100000005 -0.5228332800000000 Au
atom 1.9131708599999999 14.9611242799999999 -0.2594245300000000 Au
atom 4.7139786900000002 14.7949011099999996 -0.4413024900000000 Au
atom 8.9647720000000000 17.4146619499999993 -0.0720975200000000 Au
atom 11.8387043399999996 17.5418955099999998 -0.0320985900000000 Au
atom 14.5185939299999998 17.3568101500000012 0.0570685900000000 Au
atom 17.3728765799999998 17.3174618100000011 -0.0410691100000000 Au
atom 20.1962970099999986 17.3375337400000014 -0.1296407300000000 Au
atom 23.0400820099999990 17.4572688300000003 -0.2875983200000000 Au
atom 25.8365752399999984 17.2060419799999984 -0.1745539600000000 Au
atom 0.4646342000000000 17.4731893999999990 0.1338432700000000 Au
atom 3.2129923400000000 17.3370598399999984 -0.1691572800000000 Au
atom 6.1279319299999999 17.3110604700000010 -0.2545448000000000 Au
atom 7.5153409099999999 19.7668716899999986 -0.1112987000000000 Au
atom 10.3956246900000000 19.9201146300000005 0.0831230100000000 Au
atom 13.2894532499999993 19.9389961299999996 0.3769256200000000 Au
atom 15.9697581799999995 19.8096590299999988 0.1499000500000000 Au
atom 18.8966524999999983 19.7762916000000004 0.4183874500000000 Au
atom 21.5621524300000011 19.7827519900000013 0.1585256300000000 Au
atom 24.5220778499999987 19.8983277399999992 -0.2159295900000000 Au
atom 27.3503452799999991 19.8423553800000008 -0.0786987900000000 Au
atom 1.9241871900000000 19.8793361200000014 -0.0339302000000000 Au
atom 4.7062453800000004 19.8071815300000011 -0.1012308000000000 Au
atom 8.9602098600000009 22.1680307600000006 -0.0376826900000000 Au
atom 11.8361524599999992 22.2904313400000014 0.0194587900000000 Au
atom 14.6477786400000003 22.3192043799999986 0.3839557400000000 Au
atom 17.5189899800000006 22.1741340999999998 0.2012583400000000 Au
atom 20.2943939799999988 22.2349609800000003 0.1288234800000000 Au
atom 23.0192776099999996 22.1665990800000010 0.1458121400000000 Au
atom 25.8984783500000013 22.2947514399999989 -0.1187620100000000 Au
atom 0.4893606300000000 22.2556541099999983 0.1740208600000000 Au
atom 3.2890473600000001 22.2542518200000004 0.0559956300000000 Au
atom 6.1757951200000001 22.3038537099999985 -0.2090954600000000 Au
atom 7.5641752799999997 24.7464839499999982 0.0785080000000000 Au
atom 10.3452839599999997 24.7167316899999996 0.0424831200000000 Au
atom 13.1163242300000000 24.7258879600000014 0.0435247600000000 Au
atom 16.0455480199999982 24.6620728000000007 -0.1307714100000000 Au
atom 18.8091165499999988 24.5836900199999988 0.5774833600000000 Au
atom 21.6744870200000008 24.7562785900000009 0.2605668400000000 Au
atom 24.4871889799999991 24.6876779800000001 0.3972183700000000 Au
atom 27.3754703299999989 24.7583723700000000 0.1562084800000000 Au
atom 1.9747559699999999 24.6715495199999992 0.1319450700000000 Au
atom 4.7297724299999997 24.7194362699999992 -0.0136248500000000 Au
atom 8.9305219099999995 27.1484386600000001 0.1776412000000000 Au
atom 11.7991237600000005 27.1645678500000010 0.0329519600000000 Au
atom 14.6182264699999998 27.2260924899999992 -0.0262441200000000 Au
atom 17.3764795200000002 27.1223053000000007 0.1536617000000000 Au
atom 20.1993719200000008 27.1665043399999995 0.3267830400000000 Au
atom 23.0635427300000018 27.2070335300000004 0.2893721300000000 Au
atom 25.8057289999999995 27.1669774199999985 0.1561139500000000 Au
atom 0.4716766000000000 27.2584024400000011 -0.0628068400000000 Au
atom 3.3470235300000000 27.1793083799999984 -0.0393185900000000 Au
atom 6.1370043699999997 27.0825840999999983 -0.1580799700000000 Au
atom 7.5275311399999998 29.5736382499999984 -0.1676836500000000 Au
atom 10.2784432199999998 29.6718689200000014 0.0847018200000000 Au
atom 13.1196229700000000 29.6114307600000011 0.1266088400000000 Au
atom 16.0218098900000001 29.7125379000000009 0.3776270100000000 Au
atom 18.7570514300000006 29.6883241799999986 0.4116530900000000 Au
atom 21.4975360699999989 29.7166176499999999 0.1621381900000000 Au
atom 24.3663822500000009 29.6859657400000003 0.2183146600000000 Au
atom 27.0896803300000002 29.7431716600000016 -0.3817949700000000 Au
atom 1.8483105099999999 29.6185675999999987 -0.1670330500000000 Au
atom 4.7035751899999996 29.5874122799999988 0.0071075100000000 Au
atom 8.8163187700000005 32.1841715899999983 -0.2927153600000000 Au
atom 11.8352135100000009 32.1709153899999976 0.2474437300000000 Au
atom 14.5073538099999997 32.0850743000000023 0.2829870900000000 Au
atom 17.3206378000000001 32.1691186899999977 0.1511502200000000 Au
atom 20.1113382899999991 32.1018118300000026 0.0828692300000000 Au
atom 22.9453208400000008 32.1302866400000013 0.0096735400000000 Au
atom 25.6747718499999991 32.2267762099999970 -0.1963064800000000 Au
atom 0.3475516100000000 31.9387524099999993 -0.3591494300000000 Au
atom 3.1894793400000001 32.0647028799999987 -0.1181886000000000 Au
atom 6.1131638099999996 32.0661834599999978 -0.3474336800000000 Au
atom 7.4168865500000001 34.6204324799999981 0.0394296200000000 Au
atom 10.2591248400000001 34.5415283800000026 -0.1471741800000000 Au
atom 12.9794138399999994 34.5817920300000026 0.0441099700000000 Au
atom 15.8559680099999998 34.5024220099999965 0.3196100700000000 Au
atom 18.6754828900000014 34.6283448200000024 -0.0949954600000000 Au
atom 21.4966601699999984 34.6122080299999979 0.2326801700000000 Au
atom 24.3701621599999996 34.6906767700000032 0.1422910900000000 Au
atom 27.2117469599999993 34.5691345299999995 -0.3882781400000000 Au
atom 1.7651654500000000 34.5387569000000028 -0.0730782300000000 Au
atom 4.6198413000000000 34.5286329400000014 -0.3672902800000000 Au
atom 8.8174043199999996 37.0934062500000010 -0.1128836800000000 Au
atom 11.5145701700000007 37.0943909599999984 -0.0150088900000000 Au
atom 14.3130777699999996 36.8808758600000033 0.3892907200000000 Au
atom 17.1837261699999999 37.0347005200000012 0.2041885300000000 Au
atom 20.2263222999999996 37.0226637600000004 0.1660505600000000 Au
atom 23.0986629999999984 37.0798829499999982 0.0933965600000000 Au
atom 25.8156032700000004 37.1599908299999981 0.0064665700000000 Au
atom 0.5366314200000000 37.1540511400000000 -0.0008491800000000 Au
atom 3.2515451500000001 37.0608666600000021 -0.2177031800000000 Au
atom 5.9909492200000001 37.1682596799999985 0.0151445400000000 Au
atom 7.7284816699999999 0.1913727500000000 -0.1558867100000000 Au
atom 10.0646198499999997 0.1745486500000000 0.0384538100000000 Au
atom 12.9105833299999997 -0.0799103600000000 0.0023428200000000 Au
atom 15.8522805899999994 -0.0268873300000000 0.1415853900000000 Au
atom 18.5088614100000015 0.0097591200000000 -0.0932918100000000 Au
atom 21.5170227199999999 0.0073235200000000 0.0739798700000000 Au
atom 24.2857709899999996 0.0131557900000000 -0.2426488900000000 Au
atom 27.0739391599999983 -0.0534400500000000 0.1797292700000000 Au
atom 1.8839731399999999 0.0432516700000000 -0.4243833300000000 Au
atom 4.6944132800000000 0.1409850800000000 0.0382845900000000 Au
atom 8.7761880800000007 2.6440261899999999 0.1801908200000000 Au
atom 11.5823503700000003 2.4892957199999999 0.1197516400000000 Au
atom 14.5093866499999997 2.5772225899999999 0.1036603200000000 Au
atom 17.3742540599999984 2.4449516899999999 0.1077716400000000 Au
atom 20.2022593199999996 2.6029434199999999 -0.0898200100000000 Au
atom 23.1146757700000016 2.4479620999999998 0.2271697800000000 Au
atom 25.7739782700000006 2.3903117500000000 0.2929827100000000 Au
atom 0.4165884300000000 2.5093027800000001 -0.0127542500000000 Au
atom 3.1928594499999998 2.5279376099999999 -0.1671461000000000 Au
atom 5.9895206400000003 2.6686104700000000 0.1666889400000000 Au
atom 7.4163494800000000 5.1571443400000003 0.3974258400000000 Au
atom 10.2019840899999998 5.0110107199999998 0.2786928500000000 Au
atom 12.9258644100000009 4.9608454599999998 0.0059686500000000 Au
atom 15.8491209099999999 4.9382768900000000 -0.2661927700000000 Au
atom 18.6828732200000012 5.0151788799999997 0.0570089200000000 Au
atom 21.6510146600000013 5.0518527700000000 0.1006085100000000 Au
atom 24.4614118400000002 4.9409552000000003 0.1063958500000000 Au
atom 27.2087558799999982 5.0583038699999996 0.0209921000000000 Au
atom 1.7305299700000001 5.0870369999999996 0.1778873100000000 Au
atom 4.5155419900000000 5.1400264599999996 0.1106558200000000 Au
atom 8.9138613600000003 7.3872381200000001 -0.1398879200000000 Au
atom 11.7210164999999993 7.5106751100000002 0.2385617400000000 Au
atom 14.6475292300000000 7.4991122600000004 -0.1909600800000000 Au
atom 17.3600626700000014 7.4773103499999998 0.0819196000000000 Au
atom 20.1415973400000006 7.4894922800000003 0.1488771900000000 Au
atom 23.0051884700000002 7.5248199500000004 0.4046430300000000 Au
atom 25.8173163999999993 7.4730927500000002 0.1206619900000000 Au
atom 0.3850001300000000 7.5412348199999997 0.1027125400000000 Au
atom 3.1694342600000001 7.5299035999999999 0.1271276500000000 Au
atom 6.0997796199999996 7.4111165300000001 -0.0710061500000000 Au
atom 7.4653092200000000 9.9525142399999993 -0.2284502700000000 Au
atom 10.2634036700000006 9.9974506900000009 -0.2515660000000000 Au
atom 13.1404686000000002 9.9135224500000003 -0.1398996000000000 Au
atom 16.0242928300000003 9.8911170700000000 -0.2279705900000000 Au
atom 18.8178123699999986 9.7630117199999997 0.3259641800000000 Au
atom 21.6001148799999996 9.9189384599999997 0.0442410200000000 Au
atom 24.4403851799999998 9.8567438299999992 0.2918520100000000 Au
atom 27.2021481200000004 10.1301847800000004 0.0670996800000000 Au
atom 1.8579740400000000 10.0737084899999996 0.1214241100000000 Au
atom 4.7262544599999998 9.9829576699999993 0.0341063600000000 Au
atom 9.0549963699999996 12.5195900000000009 -0.3776439500000000 Au
atom 11.8247035399999998 12.4842144200000007 -0.0877246500000000 Au
atom 14.4903604599999998 12.3358262900000000 -0.1816663400000000 Au
atom 17.3433699399999988 12.3361081000000006 0.0101207900000000 Au
atom 20.0616955099999998 12.3684016799999998 -0.0180059200000000 Au
atom 23.0283960400000005 12.3508685099999997 0.1725470300000000 Au
atom 25.7680680399999993 12.4485075199999997 -0.0530071900000000 Au
atom 0.5194650600000000 12.3906828000000004 -0.2408789000000000 Au
atom 3.3535154700000001 12.3854643600000003 -0.1311040200000000 Au
atom 6.3976421200000004 12.4501858599999995 -0.0812865200000000 Au
atom 7.5838142099999999 13.3257776000000003 2.5529855600000002 Au
atom 10.3569014700000004 13.2073659100000000 2.3578813699999999 Au
atom 13.1890344200000005 13.2680628299999999 2.3625631100000000 Au
atom 15.8355568299999998 13.2031744599999996 2.4938434699999998 Au
atom 18.7769974899999994 13.2200677899999999 2.6149636500000000 Au
atom 21.6034820100000005 13.2763899100000007 2.5813415399999999 Au
atom 24.3380846300000009 13.3824156399999996 2.6304522100000001 Au
atom 27.2648805799999998 13.4151315699999998 2.4668689399999999 Au
atom 1.9282355099999999 13.1398875700000008 2.2802203200000002 Au
atom 4.7433296900000004 13.2505269000000006 2.2882883299999999 Au
atom 9.0083331999999992 15.5668997499999993 2.5509099399999999 Au
atom 11.8699278100000001 15.7326706000000005 2.2151025500000001 Au
atom 14.6286052899999994 15.6869665400000002 2.6805890799999998 Au
atom 17.3689556200000013 15.6393466599999993 2.6247631199999999 Au
atom 20.1471719699999987 15.6987692699999997 2.5869944399999998 Au
atom 23.0143278100000011 15.7905841799999997 2.4152962699999998 Au
atom 25.7982231300000002 15.7515981200000006 2.5211786500000000 Au
atom 0.4078246100000000 15.5758224799999994 2.3418438799999999 Au
atom 3.2519852700000000 15.6616382800000000 2.4022719000000001 Au
atom 6.0901404799999996 15.7187943899999993 2.1663204199999999 Au
atom 7.6053051299999996 17.9478150599999999 2.5429488400000002 Au
atom 10.3380698700000000 18.0859749100000009 2.4546484300000002 Au
atom 13.1022582700000001 18.0899417800000002 2.7043514100000001 Au
atom 16.0038844199999986 18.1223498300000010 2.5313327900000000 Au
atom 18.8033718299999997 18.0750708499999995 2.9346195200000000 Au
atom 21.6198948699999995 18.0511696599999993 2.6323645000000000 Au
atom 24.5071900000000014 18.1771301799999989 2.3970368299999998 Au
atom 27.3137816300000011 18.0524311399999995 2.5779618399999999 Au
atom 1.9929420799999999 18.1336328400000006 2.4361248700000000 Au
atom 4.7343126599999996 18.1375194600000000 2.4856656799999999 Au
atom 8.9825156499999999 20.5218648500000000 2.8710943900000001 Au
atom 11.7139112399999998 20.6046809000000017 2.7825934999999999 Au
atom 14.5119180599999993 20.4990218900000016 2.8584538099999999 Au
atom 17.3211840600000002 20.6390835800000012 2.7831634400000000 Au
atom 20.2087942500000004 20.6190523699999986 2.8358962100000000 Au
atom 23.1347159900000001 20.5346303600000013 2.7460721800000001 Au
atom 25.9252773699999999 20.6792696000000014 2.4985204799999998 Au
atom 0.5871984800000000 20.6237060099999994 2.6357069000000002 Au
atom 3.3606444199999999 20.6654437699999995 2.4450636100000001 Au
atom 6.1439577700000001 20.5549924900000001 2.4974766100000001 Au
atom 7.5252122999999997 23.0369921099999999 2.5789565900000002 Au
atom 10.3985620399999998 23.1368847100000004 2.6462795200000002 Au
atom 13.2334386300000002 23.0701940199999989 2.8015510799999999 Au
atom 16.0300333799999990 23.1179761799999994 2.8279778800000002 Au
atom 18.8548338199999996 23.0234248000000008 2.9729944000000001 Au
atom 21.7586542399999985 22.9848072300000013 2.7673684299999999 Au
atom 24.5852082500000009 23.1320927699999999 2.7301866499999998 Au
atom 27.2850222900000006 22.9572213100000013 2.9564501800000000 Au
atom 2.0286133799999999 23.0225685999999996 2.9477527200000000 Au
atom 4.7478589600000003 23.0473685199999991 2.5073516900000001 Au
atom 8.9386546899999999 25.6285606199999982 2.8438003100000002 Au
atom 11.7885526600000006 25.5067109199999997 2.6552231599999998 Au
atom 14.5343842100000007 25.4809401099999988 2.6301394899999999 Au
atom 17.4271651299999988 25.5558608099999987 2.8618893700000001 Au
atom 20.3036152899999998 25.4565219800000015 3.0626133200000001 Au
atom 23.1100853199999996 25.6128207100000012 2.9106619100000000 Au
atom 25.9346039300000015 25.6152428199999989 2.7648694800000002 Au
atom 0.6177821700000000 25.5070765399999999 2.6249014900000001 Au
atom 3.3556607299999999 25.5739350200000004 2.7577617299999999 Au
atom 6.1678139600000002 25.5415108000000011 2.6043063700000002 Au
atom 7.6131428899999998 27.9853975499999983 2.5407516200000000 Au
atom 10.4728368900000000 28.0394027299999991 2.7661100500000000 Au
atom 13.2729657799999998 28.0691247799999992 2.6120488900000001 Au
atom 15.9407534900000005 28.0398885299999989 2.9519675799999998 Au
atom 18.7215837100000009 27.9446285799999998 2.7288976400000000 Au
atom 21.5273155600000017 28.0742248500000002 2.8265605200000001 Au
atom 24.4873394600000012 28.1219244099999983 2.7753877000000000 Au
atom 27.2333973200000017 28.0671516200000006 2.4467429699999999 Au
atom 1.9543136800000001 27.9518098200000011 2.5093027700000001 Au
atom 4.8086627100000001 28.0209105299999983 2.5240634599999998 Au
atom 8.9619991399999996 30.3581201500000013 2.5057469600000002 Au
atom 11.5990995100000003 30.6674102099999999 2.7579237100000000 Au
atom 14.5120526400000003 30.6895936099999993 2.9416367299999999 Au
atom 17.3172128399999998 30.6299779399999998 2.8796204400000001 Au
atom 20.2132222500000012 30.5273357499999989 2.7946392800000002 Au
atom 23.0604514800000011 30.5622869100000010 2.6278157100000001 Au
atom 25.9096807799999986 30.5496205500000002 2.6043270299999999 Au
atom 0.5610650600000000 30.4037787000000002 2.2709059500000000 Au
atom 3.3409840200000001 30.3739259799999992 2.6144839000000002 Au
atom 6.2048288999999999 30.4364730500000000 2.6038046200000000 Au
atom 7.6165810599999997 32.9260260900000006 2.4707572600000001 Au
atom 10.2267941400000009 33.1304560600000002 2.4977763400000002 Au
atom 12.9264336300000000 33.0106591199999997 2.8352052200000002 Au
atom 15.8852637500000000 33.0583811899999986 2.9302115799999999 Au
atom 18.7268280500000017 33.0247675199999975 2.6385383400000002 Au
atom 21.5562761300000005 32.9334637299999997 2.8084965199999998 Au
atom 24.4163977999999986 33.0331474099999980 2.4306890900000000 Au
atom 27.2335211400000006 33.0757978500000007 2.4862870099999999 Au
atom 1.8881717899999999 32.8501721000000018 2.5249378199999999 Au
atom 4.7886115699999996 32.8837408999999994 2.3022908399999999 Au
atom 8.8119688400000005 35.5847071099999965 2.5151007100000000 Au
atom 11.6431018500000008 35.4877472000000012 2.5046572399999998 Au
atom 14.4204142100000006 35.4657320600000006 2.8806482099999999 Au
atom 17.3845099900000015 35.4615526199999991 2.9249763000000000 Au
atom 20.0558490899999988 35.4952350399999972 2.6737233800000002 Au
atom 22.9200138500000001 35.4851715100000007 2.7091105999999998 Au
atom 25.7142079899999985 35.5110069799999977 2.7407123100000002 Au
atom 0.4208955400000000 35.4212091500000028 2.6012772499999999 Au
atom 3.2322599400000001 35.3846146799999985 2.4420254199999998 Au
atom 6.0273464600000004 35.3927875899999975 2.5950648400000000 Au
atom 7.1567505400000000 37.9054683499999996 2.3935297699999998 Au
atom 10.4126548499999991 37.9667685300000031 2.5927406600000000 Au
atom 13.0577540800000005 37.9810326099999997 2.6786805999999999 Au
atom 15.8467216799999999 37.9673328299999966 2.7331499600000000 Au
atom 18.5951068299999989 37.8751536199999990 2.7652407200000000 Au
atom 21.3580578900000013 37.9946429399999985 2.5638962300000001 Au
atom 24.4672294800000003 37.8920779800000034 2.6242635100000000 Au
atom 27.3156783599999997 37.8174637700000034 2.6558971699999998 Au
atom 1.8529777700000001 38.0059326700000000 2.4337379399999999 Au
atom 4.4211654500000002 37.9762005600000023 2.9288230799999999 Au
atom 8.8899672699999996 0.8219843100000001 2.5379645499999999 Au
atom 11.6814226399999992 0.9092150800000000 2.8077898600000002 Au
atom 14.5590249899999993 0.9396647400000000 2.6381323900000000 Au
atom 17.5153929800000014 0.9429171400000000 2.8025150900000000 Au
atom 20.1771220999999983 0.9372401100000000 2.6695295600000000 Au
atom 23.0192245200000016 0.8166474100000000 2.7987124200000002 Au
atom 26.0292510899999989 0.8319617200000000 2.6797632700000000 Au
atom 0.3807917600000000 0.8820937400000000 2.4797780500000002 Au
atom 3.0693378199999999 0.9889377600000000 2.4061088800000001 Au
atom 5.9090778400000001 0.8237267500000000 2.7188558800000000 Au
atom 7.4175957400000003 3.3698682099999999 2.8143669299999998 Au
atom 10.2096223300000002 3.3800893300000001 2.9008563600000001 Au
atom 13.0782289699999996 3.3680699000000001 2.6259416600000001 Au
atom 15.8184769099999993 3.5010094600000001 2.5813334900000000 Au
atom 18.7879903500000012 3.3752666599999999 2.6322187600000002 Au
atom 21.6028007600000009 3.3172113900000002 2.6795330800000001 Au
atom 24.3862436600000017 3.3270641500000000 2.7844543900000001 Au
atom 27.1758730700000015 3.2485857100000000 2.6703287200000001 Au
atom 1.7663400400000000 3.4291447599999998 2.5808485700000001 Au
atom 4.5702140199999999 3.3962294399999999 2.6258530200000001 Au
atom 8.8072044399999996 5.9148407399999998 2.8152021000000000 Au
atom 11.7188703699999994 5.8625822999999997 2.9558277199999998 Au
atom 14.4522724599999997 5.8698584299999998 2.4319795100000001 Au
atom 17.4181203700000005 5.7713311500000000 2.5062879100000002 Au
atom 20.2459640900000011 5.7574494100000004 2.6576741600000000 Au
atom 23.0592600700000006 5.7991987900000002 2.9517045999999998 Au
atom 25.8710860999999994 5.8366051199999998 2.7541953399999999 Au
atom 0.3598623100000000 5.9244288400000000 2.8000351299999999 Au
atom 3.2031108599999998 5.8183947299999996 2.7089931500000000 Au
atom 6.0065872599999999 5.8162373699999996 2.9003608900000000 Au
atom 7.3987807300000004 8.3367210699999994 2.5997649699999998 Au
atom 10.1748020399999994 8.3781578000000003 2.4253638199999998 Au
atom 13.1609357399999993 8.3421829200000008 2.6515907400000001 Au
atom 15.9784036000000000 8.3698451800000004 2.5500289000000000 Au
atom 18.7787316100000012 8.2963582000000002 2.8599705499999999 Au
atom 21.5774406899999995 8.2572961300000003 2.8192399600000000 Au
atom 24.4603090700000010 8.2279706600000004 2.8993804600000002 Au
atom 27.2743767800000008 8.2389969900000004 2.5633062700000000 Au
atom 1.8768354800000000 8.3799314200000001 2.7876539299999998 Au
atom 4.5954864700000000 8.3200654400000005 2.4602536599999998 Au
atom 8.8728839799999992 10.8540647000000003 2.2139658899999999 Au
atom 11.6573273600000000 10.7457730300000005 2.2779350799999998 Au
atom 14.4432764299999992 10.7146180199999996 2.4076154100000000 Au
atom 17.3273055499999984 10.7726313400000002 2.6937653600000000 Au
atom 20.1805225600000000 10.7585795799999993 2.6403592499999999 Au
atom 22.9536115800000005 10.8013445899999994 2.7205108400000002 Au
atom 25.8399114099999991 10.8362380500000004 2.7162819100000002 Au
atom 0.5160320200000000 10.8843909399999994 2.7749921299999998 Au
atom 3.3731760600000000 10.9028249299999995 2.6114115700000000 Au
atom 6.1002991900000003 10.8811785600000004 2.5835260500000001 Au
atom 7.2523544600000003 12.7653095499999996 5.5477828100000002 Cl
atom 7.2833012600000000 15.5214737700000001 8.5020578699999998 Cl
atom 7.3354134300000000 12.8431005700000007 8.0628610100000007 Na
atom 7.3241739399999997 15.7756716600000004 5.6714682300000003 Na
atom 7.3426790600000000 18.5184741700000011 5.7550843100000000 Cl
atom 7.2070930400000002 21.2789967100000013 8.6806941599999998 Cl
atom 7.2928808099999998 18.5733662600000002 8.4660964100000005 Na
atom 7.3600069599999998 21.3812125000000002 5.9319325400000000 Na
atom 7.4125802299999997 24.2474863599999999 6.0392742200000002 Cl
atom 7.1710469100000003 27.1184932399999994 8.4358293799999995 Cl
atom 7.2217311100000003 24.2114761799999982 8.4802046000000004 Na
atom 7.5816587400000000 26.9602968599999997 5.6922427400000002 Na
atom 7.3560262900000000 29.8350274400000011 5.7475222700000002 Cl
atom 7.1899610500000000 32.5332221000000033 8.4723070400000005 Cl
atom 7.2509809000000001 29.7928880099999986 8.2785408199999999 Na
atom 7.2583124300000001 32.5944358799999989 5.7340402700000004 Na
atom 7.2873189900000002 35.3156527900000015 5.8352646300000002 Cl
atom 7.2006564900000001 38.2667994500000006 8.4552337800000004 Cl
atom 7.3119933399999999 35.2746354299999965 8.4582102300000006 Na
atom 7.2386795399999997 38.4023570599999999 5.7878224700000001 Na
atom 7.3252434900000001 1.6675542000000001 5.7639177600000000 Cl
atom 7.3227506900000003 4.4760605499999997 8.6741577700000008 Cl
atom 7.2445577099999996 1.6390654600000001 8.3272700000000004 Na
atom 7.3184051500000002 4.4420459799999996 5.9359927600000004 Na
atom 7.2669550599999999 7.2080596400000001 5.8553690300000003 Cl
atom 7.3817914699999996 9.9807298000000007 8.4249616300000003 Cl
atom 7.3950227399999999 7.2221726300000002 8.4072991800000008 Na
atom 7.4559027499999999 10.0434635300000004 5.7139271200000001 Na
atom 10.1000182400000007 12.8347919800000003 5.5777470300000003 Na
atom 12.8300695800000000 12.8117794000000007 5.3210138499999999 Cl
atom 10.1627243400000005 15.6709267699999995 8.2593934000000004 Na
atom 13.0742731200000009 15.7140574399999995 8.3448017399999994 Cl
atom 12.9988719699999997 12.7796377900000007 8.2646137000000000 Na
atom 10.0498041600000008 12.8726426200000006 8.3491612499999999 Cl
atom 12.9841220100000001 15.6659467400000008 5.6586113899999999 Na
atom 10.1998307700000002 15.6470764100000004 5.5941242600000001 Cl
atom 10.0732485399999998 18.5613753199999998 5.7640196799999996 Na
atom 13.0246472200000003 18.5201936099999998 5.6022155600000003 Cl
atom 9.8571298899999995 21.2590884600000010 8.6105634599999998 Na
atom 12.9019672599999993 21.3847793899999985 8.7028458999999998 Cl
atom 12.9177955600000001 18.4831502100000016 8.3014649899999995 Na
atom 9.9796224900000006 18.4674092799999983 8.4071190700000002 Cl
atom 12.9992450599999998 21.1887573600000003 5.9499765299999998 Na
atom 9.9881447800000007 21.3547380300000000 5.9627172599999998 Cl
atom 10.1514788199999995 24.0979562099999995 5.9792148699999998 Na
atom 12.9431909100000002 24.1401652200000001 5.8648883400000003 Cl
atom 9.8831056799999999 27.0956986300000011 8.5812074599999999 Na
atom 12.9459236900000008 26.8698727200000000 8.8754262399999995 Cl
atom 12.9641596799999999 24.2406260600000003 8.7427103400000004 Na
atom 9.9819443799999998 23.9837422199999999 8.6721442100000008 Cl
atom 12.8513993200000005 26.8495933300000011 6.1070131099999996 Na
atom 10.3186583299999999 26.9489932000000003 5.8330260000000003 Cl
atom 10.1634372000000006 29.8043003599999992 5.7191985399999998 Na
atom 13.1080382199999992 29.5528725100000003 6.0073234800000002 Cl
atom 9.9980989999999998 32.5485778199999984 8.4113189899999998 Na
atom 12.9086181599999996 32.5979395900000029 8.6478027799999992 Cl
atom 13.0537357299999996 29.6986595099999988 8.5312405099999999 Na
atom 10.0312632700000002 29.8262007500000017 8.6277424299999996 Cl
atom 12.9654686100000003 32.5434008000000006 5.9963364199999996 Na
atom 10.1695873500000005 32.7273593600000012 5.8613847899999998 Cl
atom 10.1150791600000005 35.5935661600000017 5.6762383200000004 Na
atom 13.0081483099999993 35.5086566800000014 5.8744976900000001 Cl
atom 10.0879179000000008 38.2301075800000021 8.3822632699999993 Na
atom 13.1724598299999993 38.1630265000000009 8.5708868099999993 Cl
atom 12.8529512799999992 35.4208878600000006 8.5471649400000000 Na
atom 10.1141577700000003 35.5565091400000028 8.6634746299999996 Cl
atom 12.9739305199999997 38.3545708199999993 5.9091099199999997 Na
atom 10.0559548900000006 38.3873035499999986 5.6710858499999999 Cl
atom 10.1388895500000000 1.6422464299999999 5.7304011399999997 Na
atom 12.6682131699999996 1.6459621499999999 5.6590688099999999 Cl
atom 10.1075865500000006 4.5562442799999996 8.5405212800000001 Na
atom 12.9375236000000005 4.4541848300000000 8.4644373999999996 Cl
atom 13.1429918800000003 1.6315697899999999 8.5287322299999992 Na
atom 10.0905843300000004 1.5391559900000000 8.7689974100000008 Cl
atom 12.8191591000000003 4.3230455900000004 5.7126863200000004 Na
atom 10.0475323499999991 4.3975712600000003 5.9934821500000002 Cl
atom 10.1334150300000001 7.3036585599999997 5.8577112800000002 Na
atom 13.0141833499999997 7.1752658000000000 5.4663389999999996 Cl
atom 10.0167788499999997 10.2104839700000003 8.3009186499999998 Na
atom 12.9406267499999998 9.9712413099999999 8.3490692200000005 Cl
atom 12.9916247600000005 7.1975959400000002 8.2764483200000001 Na
atom 10.1616829699999993 7.2082465100000004 8.6448523999999995 Cl
atom 13.0309716899999994 9.9613218999999997 5.6678297100000004 Na
atom 10.2762706999999995 10.0417667700000006 5.4555974400000000 Cl
atom 15.6594543700000006 12.9267253800000006 5.7093791100000004 Na
atom 18.7727989499999985 12.8679031199999994 5.8758740700000001 Cl
atom 15.8813664499999998 15.6248504599999993 8.1981201899999991 Na
atom 18.6984985299999984 15.6866818099999996 8.5444200099999996 Cl
atom 18.6533796800000005 12.9368028899999992 8.3619889599999997 Na
atom 15.6195264799999993 12.6570913600000008 8.3939355199999994 Cl
atom 18.6913614999999993 15.5163029899999998 5.6519947500000001 Na
atom 15.8567265600000002 15.6419613900000005 5.5518779100000000 Cl
atom 15.9947606499999999 18.6411354600000010 5.7468169900000001 Na
atom 18.7554481899999992 18.6618977599999987 5.6678074699999996 Cl
atom 15.8308354999999992 21.3364463399999984 8.5234352399999995 Na
atom 18.7661860500000017 21.4096039900000008 8.8297441899999995 Cl
atom 18.7296096699999985 18.5841559399999987 8.2785580700000008 Na
atom 15.8911590599999997 18.6658508999999988 8.4871741899999993 Cl
atom 18.4682261600000004 21.5490238400000003 5.9193564600000004 Na
atom 15.7105714299999999 21.3998163599999991 5.8973789099999996 Cl
atom 15.6259134999999993 24.1329307499999999 6.0057469499999998 Na
atom 18.5587515900000000 24.1579495699999995 6.1786471900000004 Cl
atom 15.6520828999999999 27.0694127999999985 8.7325344699999992 Na
atom 18.5636070699999998 27.0625661499999985 8.7162935299999997 Cl
atom 18.6447056499999988 24.1041866599999999 8.9662603900000004 Na
atom 15.6833889699999993 24.0917957999999999 8.9585396100000008 Cl
atom 18.5917837000000006 26.8005939399999988 5.8943022599999999 Na
atom 15.5391937700000007 26.7792087599999995 6.0022061300000003 Cl
atom 15.7301754700000007 29.7906702900000013 5.9684374000000000 Na
atom 18.5589405700000007 29.7222344300000003 5.8463248700000001 Cl
atom 15.6317670500000006 32.6526173099999966 8.6726300300000005 Na
atom 18.5729996600000007 32.7134004500000017 9.0697055199999994 Cl
atom 18.4738263300000014 29.8473818699999995 8.5549979500000006 Na
atom 15.7746085699999998 29.8120800400000014 8.6591086599999993 Cl
atom 18.4916196500000005 32.5670713100000029 6.1069683899999996 Na
atom 15.8524740499999997 32.5024850599999979 6.0557643099999998 Cl
atom 15.7763259599999994 35.4285724799999997 6.1885357299999999 Na
atom 18.4235787400000000 35.4960012399999982 5.8005546299999997 Cl
atom 15.6168696600000008 38.2668658600000029 8.5507693099999997 Na
atom 18.4748212999999986 38.1821089499999999 8.7554561399999997 Cl
atom 18.6310983300000004 35.2789956299999972 8.7882176699999999 Na
atom 15.8766639900000008 35.3692762599999995 9.0143952600000006 Cl
atom 18.3361693700000004 38.1793974400000025 6.0118489200000003 Na