#===============================================================================
# Created using the Atomic Simulation Environment (ASE)

# Sat Nov  1 21:48:37 2025

#=======================================================
lattice_vector 28.1999999999999993 0.0000000000000000 0.0000000000000000 
lattice_vector 0.0000000000000000 39.4799999999999969 0.0000000000000000 
lattice_vector 0.0000000000000000 0.0000000000000000 62.3296083400000001 
atom 7.4663954600000002 14.8988215900000007 -0.0275904100000000 Au
atom 10.4356617899999993 14.8755447600000004 -0.0414330800000000 Au
atom 12.9578207100000000 14.9921919999999993 0.1537088900000000 Au
atom 15.9066756599999994 14.8552824000000001 -0.0938388500000000 Au
atom 18.7463460600000005 14.7738298900000000 -0.0712666600000000 Au
atom 21.6426972800000001 14.7554946900000008 0.0363186400000000 Au
atom 24.3877649100000014 14.9073431500000009 0.0737177900000000 Au
atom 27.2075676100000017 14.5762583299999999 -0.0957967700000000 Au
atom 2.1055712600000001 14.6692293800000009 0.0077438900000000 Au
atom 4.7208338699999999 14.7764463799999994 -0.0726944600000000 Au
atom 8.9021900899999995 17.1595909099999986 0.1352151600000000 Au
atom 11.5359443400000004 17.3117472700000015 0.1095642000000000 Au
atom 14.3309851699999999 17.4002408399999986 -0.1277577200000000 Au
atom 17.3540660399999993 17.1620153000000002 0.0249849400000000 Au
atom 20.0731001499999984 17.2549987999999992 0.0656293700000000 Au
atom 22.9525054900000001 17.2985821699999995 -0.2471478400000000 Au
atom 25.7954850399999991 17.0813753999999989 0.0134076200000000 Au
atom 0.3359590500000000 17.4816247400000009 0.0298234600000000 Au
atom 3.2110542600000000 17.3483331999999990 0.0487937700000000 Au
atom 6.1788782099999997 17.3834996199999985 -0.0997578500000000 Au
atom 7.5124959499999999 19.6806986600000009 0.1388041100000000 Au
atom 10.2066735899999994 19.6915751199999995 -0.0015616600000000 Au
atom 13.1050037600000007 19.7553066699999995 0.0451936600000000 Au
atom 16.0791635600000014 19.7808531400000014 0.0848590800000000 Au
atom 18.8965932899999984 19.8806253400000017 -0.0146213400000000 Au
atom 21.7788696699999988 19.7369807900000005 0.1223054600000000 Au
atom 24.4053456100000012 19.8721005300000009 0.1179969700000000 Au
atom 27.1635232199999983 19.6458144899999994 0.0150134700000000 Au
atom 1.9441848399999999 19.6359123900000014 0.3158977800000000 Au
atom 4.7151657199999999 19.7683228299999989 0.1126110900000000 Au
atom 8.8817998899999999 22.1541911099999993 0.1581794600000000 Au
atom 11.7208700599999993 22.2201390200000013 -0.0173080000000000 Au
atom 14.5349607699999996 22.3279193599999992 -0.0245909800000000 Au
atom 17.4147349899999995 22.4571561399999986 0.0835850000000000 Au
atom 20.0687347000000003 22.0557844199999984 0.0924548700000000 Au
atom 22.9297683499999998 22.1629692499999997 -0.1203281800000000 Au
atom 25.7383245199999990 22.3358934299999987 -0.0404973700000000 Au
atom 0.5382649100000000 22.0510573900000004 0.0792531300000000 Au
atom 3.1701691099999998 22.2402110800000017 0.1515985800000000 Au
atom 5.9028676100000004 22.2670281199999991 0.0791541800000000 Au
atom 7.3571053700000002 24.5093307399999993 0.1323841700000000 Au
atom 10.4072816899999996 24.6651155899999992 0.3274279400000000 Au
atom 13.3139558800000000 24.6969220800000002 0.0229304000000000 Au
atom 16.0866372999999996 24.8462711600000006 0.1221141900000000 Au
atom 18.7720705000000017 24.9805978599999996 0.0574379100000000 Au
atom 21.5372373999999986 24.6778113300000008 -0.0669020500000000 Au
atom 24.6669532300000007 24.6355208599999997 -0.0797667900000000 Au
atom 27.3339505600000017 24.7687444300000017 0.0104684900000000 Au
atom 1.7585210700000000 24.6092744199999984 0.0712498700000000 Au
atom 4.6077193300000001 24.8754862099999983 0.0583526500000000 Au
atom 9.0150522199999994 27.1432629900000002 0.1170297500000000 Au
atom 11.7032561699999995 27.0423336300000017 0.0338109300000000 Au
atom 14.6714883500000006 27.0869242600000000 0.1090794600000000 Au
atom 17.4212946200000012 27.2913587500000006 -0.0155967300000000 Au
atom 20.3415512800000009 26.9477353899999983 0.1275892100000000 Au
atom 22.8569855599999983 27.2182549499999986 0.0503909000000000 Au
atom 25.7804500400000016 27.2578490799999997 0.0913225200000000 Au
atom 0.3520207600000000 27.0648328000000014 0.1157394800000000 Au
atom 3.4396616799999999 27.1359629300000016 -0.0020306400000000 Au
atom 6.1874146200000002 27.1498712699999984 0.1117556900000000 Au
atom 7.4176911399999996 29.6757764100000010 0.0211459900000000 Au
atom 10.3172961999999995 29.7075684100000004 -0.0197410200000000 Au
atom 13.2897014200000001 29.7581744300000004 -0.1427817600000000 Au
atom 15.8913774100000005 29.8029735699999989 -0.0544604200000000 Au
atom 18.6493139100000000 29.7240506499999988 0.0955069400000000 Au
atom 21.4716438899999993 29.5033616000000016 0.0797150400000000 Au
atom 24.4582213300000006 29.6540671899999992 -0.1167924000000000 Au
atom 27.2674498499999984 29.7100325699999992 0.0836244300000000 Au
atom 1.8700018700000001 29.5102170800000003 0.0321552200000000 Au
atom 4.6915112800000003 29.5581349799999984 0.0258965100000000 Au
atom 8.9402883499999994 32.1498154100000022 -0.0758145700000000 Au
atom 11.8076410299999992 32.0959870399999971 -0.0118161800000000 Au
atom 14.5672365500000005 32.0911996000000030 -0.0385096500000000 Au
atom 17.3629751399999996 32.1333869500000020 -0.0110614300000000 Au
atom 20.2020307700000004 32.1209696100000031 -0.0787119400000000 Au
atom 23.1024893999999996 31.9667461300000006 -0.0716234100000000 Au
atom 25.8585616199999997 32.1668487199999973 -0.0659040700000000 Au
atom 0.5069578600000000 32.0137473699999973 0.0291954700000000 Au
atom 3.4828965099999998 31.9643603799999987 -0.0208677300000000 Au
atom 6.1091577600000004 32.2522413200000031 -0.2710309000000000 Au
atom 7.5533869800000000 34.4576768900000019 -0.2147417300000000 Au
atom 10.3548960399999999 34.3645957800000019 -0.0353425600000000 Au
atom 13.3209374599999997 34.3847678099999996 -0.0794088300000000 Au
atom 16.0272182200000017 34.4786015899999967 -0.0448255100000000 Au
atom 18.7502850099999989 34.7594018100000000 -0.1873527100000000 Au
atom 21.8112238199999986 34.5531264700000023 0.0337954600000000 Au
atom 24.2930644499999993 34.3431040099999976 -0.0991004400000000 Au
atom 27.3120445200000006 34.6919185400000032 0.0800083000000000 Au
atom 1.8203038400000000 34.6803469800000030 -0.0654922800000000 Au
atom 4.5312848199999998 34.5493151900000015 0.0561593000000000 Au
atom 8.8025287999999993 37.0612962800000005 -0.0748838000000000 Au
atom 11.5654701499999994 37.1409598899999978 -0.0582356300000000 Au
atom 14.6321962499999998 37.0790768800000023 0.0596079600000000 Au
atom 17.4575930600000007 37.1429421599999969 0.0813997300000000 Au
atom 20.1801147400000005 36.9392469800000001 0.0480841000000000 Au
atom 23.0536434899999989 37.0444330099999988 -0.0246883100000000 Au
atom 25.9312026700000011 37.1063187700000015 -0.1013507300000000 Au
atom 0.4105196500000000 37.0195463100000026 -0.0245673700000000 Au
atom 3.2922635400000000 36.9694351400000016 0.1226566100000000 Au
atom 6.2249189200000004 36.8957431600000021 0.0666209400000000 Au
atom 7.4132691499999996 0.1589969900000000 0.0224252700000000 Au
atom 10.2511406300000001 0.1599968600000000 0.0883448400000000 Au
atom 13.0841473300000004 -0.0454252600000000 0.2238462300000000 Au
atom 16.0570637100000013 -0.1336737700000000 -0.0617144300000000 Au
atom 18.7103208300000006 -0.0471828000000000 0.0943509500000000 Au
atom 21.6178040299999985 0.0704295000000000 -0.0111243300000000 Au
atom 24.5116274899999986 0.0795662900000000 -0.0385578700000000 Au
atom 27.1896248400000005 -0.0444624500000000 0.1306665000000000 Au
atom 1.9030961099999999 0.1754610300000000 0.0010459900000000 Au
atom 4.7631824199999997 -0.0403841100000000 0.3333790700000000 Au
atom 8.9374925800000007 2.5891894600000001 0.0319653200000000 Au
atom 11.7043675100000009 2.4859620200000001 0.1733668100000000 Au
atom 14.5378224199999995 2.5760824400000000 0.2389992100000000 Au
atom 17.4133528099999992 2.4356832000000002 0.0856490100000000 Au
atom 20.0462667299999993 2.5492499600000000 0.2043219700000000 Au
atom 22.9741147599999991 2.5085962400000001 0.1412545800000000 Au
atom 25.9005377599999989 2.5467151399999999 -0.0762876200000000 Au
atom 0.5449366000000000 2.5241499699999999 0.0753768400000000 Au
atom 3.1492336500000002 2.5436204899999999 0.1469698800000000 Au
atom 6.0286602599999997 2.4183856200000000 0.1328323500000000 Au
atom 7.4260693299999998 4.8657602000000004 0.0955841600000000 Au
atom 10.3556407999999998 4.9726784899999998 -0.0150394400000000 Au
atom 13.1773025500000003 5.0513337399999996 0.3060616500000000 Au
atom 16.0686833799999995 4.9673178499999997 0.2542908100000000 Au
atom 18.6391821700000015 4.9305343700000002 0.2154327600000000 Au
atom 21.6752792899999989 5.0209972399999998 0.0978979400000000 Au
atom 24.2748880699999994 4.9648880300000000 0.1124017500000000 Au
atom 27.3209139900000011 4.9972205900000004 0.2014856800000000 Au
atom 1.8004313700000001 4.9241342100000001 0.1282856000000000 Au
atom 4.7415728899999996 5.0338763300000000 0.0105674800000000 Au
atom 9.0464693000000000 7.4219603300000001 0.0720233500000000 Au
atom 11.5838804900000003 7.5543326100000003 0.2240513500000000 Au
atom 14.7404646300000000 7.6619103700000002 0.0173188100000000 Au
atom 17.4938259900000013 7.5238148300000001 0.0945657600000000 Au
atom 20.1675031999999987 7.4501244599999996 0.0166624000000000 Au
atom 23.1148824499999996 7.3747529500000004 0.1627016100000000 Au
atom 25.8442724199999994 7.3914225800000004 0.2733300200000000 Au
atom 0.3295739000000000 7.2199054900000004 -0.0371896300000000 Au
atom 3.2938389199999998 7.5295243300000001 0.0778442500000000 Au
atom 6.0880568100000003 7.3667443800000001 -0.0492322400000000 Au
atom 7.5274910600000000 9.7620309499999998 -0.0777883300000000 Au
atom 10.2697008099999998 9.8122198600000008 -0.0650537100000000 Au
atom 13.2039605699999996 9.8303574900000008 0.0105390200000000 Au
atom 16.0600445600000015 9.8744878200000006 -0.0805782900000000 Au
atom 18.6676185500000003 10.0012549600000007 -0.0579579800000000 Au
atom 21.3992190899999990 9.9199683200000006 0.1649179100000000 Au
atom 24.4124376699999992 9.9310152200000008 0.2238358900000000 Au
atom 27.1975259499999993 9.9635864800000000 -0.0342127200000000 Au
atom 2.1794250300000000 9.7473083599999999 -0.0018143700000000 Au
atom 4.8167482000000001 10.0760950099999995 -0.0999894900000000 Au
atom 8.7609285900000007 12.4227117800000002 0.0041205600000000 Au
atom 11.8959242100000004 12.3172554200000004 0.0757963300000000 Au
atom 14.6062596199999994 12.3793938299999997 -0.0256024100000000 Au
atom 17.5777211700000002 12.3095075200000004 -0.1108158400000000 Au
atom 20.1247052599999989 12.3580524300000008 -0.1186313100000000 Au
atom 23.0379668899999999 12.1924590500000001 0.2577894000000000 Au
atom 25.7267972299999990 12.1450999100000008 -0.0066646700000000 Au
atom 0.5553177200000000 12.4424247500000007 -0.0044212600000000 Au
atom 3.1485396300000001 12.4461667100000000 -0.0269920600000000 Au
atom 6.1092314099999996 12.3999603199999999 0.1353610400000000 Au
atom 7.3956222399999998 13.0919614600000003 2.6733750199999999 Au
atom 10.3461028499999994 13.0479770899999998 2.5248973700000001 Au
atom 12.9935375400000002 13.2247490200000009 2.7983618699999999 Au
atom 15.8571265100000005 13.3072608500000005 2.4987572100000000 Au
atom 18.5666723000000005 13.0144889900000003 2.7034898400000000 Au
atom 21.3676951700000011 13.1871358999999995 2.4048871300000001 Au
atom 24.6160911400000018 13.0814073499999992 2.7640011100000001 Au
atom 27.3417145099999992 13.1412380599999992 2.5734699000000001 Au
atom 1.8196949099999999 13.2215318699999997 2.7196366300000001 Au
atom 4.5587258700000000 13.2669952299999991 2.5255107500000000 Au
atom 8.9383434400000006 15.8557811300000004 2.7144940200000001 Au
atom 11.6066929200000004 15.6259409300000005 2.6997002900000000 Au
atom 14.6834096800000005 15.7457119100000007 2.6706118399999998 Au
atom 17.3080923999999996 15.7551497499999993 2.7158539600000000 Au
atom 20.1014447199999999 15.5917453199999994 2.6361543900000002 Au
atom 22.9748674299999998 15.5920904300000007 2.5132219700000000 Au
atom 25.8444195599999986 15.8109633800000005 2.7516603200000000 Au
atom 0.4684865800000000 15.4818498299999998 2.6584841600000000 Au
atom 3.2725151399999999 15.8442053699999992 2.4878470099999999 Au
atom 6.1162845600000004 15.7155236699999996 2.5938188499999999 Au
atom 7.6218772899999996 18.0936700899999998 2.7727039400000000 Au
atom 10.3493609000000006 18.1772584299999984 2.6719513699999999 Au
atom 13.1659044699999992 18.1890528600000003 2.7361671799999998 Au
atom 15.8146942300000006 18.0237744299999996 2.5146607799999998 Au
atom 18.7043282899999994 18.0598434800000014 2.5696090400000000 Au
atom 21.6931494399999991 18.1425187100000009 2.6480816699999998 Au
atom 24.4020378700000009 18.0103842699999994 2.6718805900000002 Au
atom 27.3294160400000017 18.0598434599999997 2.5278639200000002 Au
atom 1.6746874700000001 17.9789735700000008 2.6503560500000001 Au
atom 4.8853783000000002 18.1565766000000011 2.7243540600000000 Au
atom 8.8946871200000004 20.8047999600000004 2.7882722900000001 Au
atom 11.8062927500000008 20.5276733799999995 2.9221335200000000 Au
atom 14.6636243799999999 20.4891995300000005 2.7053360600000000 Au
atom 17.5273420400000006 20.2977227999999990 2.7642740899999998 Au
atom 20.0683709300000004 20.4618658499999988 2.5955103500000001 Au
atom 22.9830878299999988 20.4682092500000010 2.7447755300000001 Au
atom 25.9221405300000001 20.4752962700000012 2.7037350099999999 Au
atom 0.4747861400000000 20.5642429200000016 2.6638880999999999 Au
atom 3.4601873699999999 20.4588670099999987 2.6360089900000001 Au
atom 6.1376802599999998 20.6331442299999992 2.7497648400000001 Au
atom 7.6418637800000004 23.0323624799999997 2.5987992400000000 Au
atom 10.3673447400000001 23.1228524799999988 2.7645630600000000 Au
atom 13.0669765099999999 23.0968418100000008 2.7278698499999998 Au
atom 15.9807410300000008 23.1083557599999985 2.6133901200000000 Au
atom 18.7472608500000000 23.0442733299999993 2.5372895700000000 Au
atom 21.4994501999999983 22.9036523800000005 2.7426267000000002 Au
atom 24.3577323700000008 22.9789842200000010 2.7871961000000001 Au
atom 27.1876842500000002 22.8826173900000001 2.7733040299999998 Au
atom 1.8511749700000000 22.9533667399999999 2.8348179899999999 Au
atom 4.6906020499999999 23.2711164799999999 2.8105150999999999 Au
atom 8.8635488400000000 25.3758380499999987 2.6880260800000002 Au
atom 11.5804718199999996 25.5886457599999986 2.4748664200000001 Au
atom 14.6216915200000006 25.4552807399999992 2.6283601399999998 Au
atom 17.3283373000000012 25.6527440400000017 2.7281486699999999 Au
atom 20.0791198500000014 25.5528017100000007 2.6404335099999998 Au
atom 23.1127775500000006 25.4843502700000002 2.7185309400000000 Au
atom 25.8101062799999994 25.4748110799999985 2.6820808899999999 Au
atom 0.4989248600000000 25.4459349000000010 2.7031350999999999 Au
atom 3.2166041399999998 25.5347390800000014 2.6700996300000002 Au
atom 6.1126169900000002 25.4284554500000013 2.8681859200000002 Au
atom 7.4237358499999999 28.1056471200000004 2.8186175400000000 Au
atom 10.4430075599999999 28.0115102500000006 2.7415247300000001 Au
atom 13.2473623699999994 27.9869022100000002 2.6745686599999998 Au
atom 15.9700449599999992 27.9201246300000001 2.8429956600000001 Au
atom 18.8840225599999982 27.9927338900000002 2.6127929700000001 Au
atom 21.5960221200000007 28.0467186300000009 2.8590832399999999 Au
atom 24.2535978499999985 27.9155967499999988 2.5422041599999998 Au
atom 27.2194133799999989 28.0002354099999984 2.6234979100000002 Au
atom 1.9684906900000001 27.9338313199999995 2.6368553000000001 Au
atom 4.7696224699999998 28.0787757000000013 2.6925590000000001 Au
atom 8.9559665200000005 30.3331838599999983 2.6284087000000000 Au
atom 11.4691491899999995 30.5728423900000017 2.5881275000000001 Au
atom 14.4573499800000000 30.5261930899999996 2.8918564500000001 Au
atom 17.1645631999999999 30.4827661799999987 2.5556269600000001 Au
atom 20.2029329799999999 30.4995114700000016 2.6631113399999999 Au
atom 23.0127167099999994 30.5149663599999990 2.5530520200000000 Au
atom 25.7475058899999993 30.5404250200000007 2.4515549399999998 Au
atom 0.2882443200000000 30.6711437099999991 2.6499382200000001 Au
atom 3.2689829499999998 30.2679216800000006 2.5703663400000001 Au
atom 6.0030354600000004 30.5156833799999987 2.6026234700000002 Au
atom 7.5243905399999997 32.9540519600000010 2.7521095299999998 Au
atom 10.2766552200000003 32.8400774400000017 2.5253833200000000 Au
atom 12.9908961200000004 32.8513031499999997 2.4824542599999999 Au
atom 15.8945889000000005 32.7881602100000009 2.7867064199999998 Au
atom 18.9081284499999995 32.9584064399999974 2.6312026999999998 Au
atom 21.4858398699999995 32.9694102799999982 2.6186737299999998 Au
atom 24.3479021899999992 32.7428745899999996 2.7077229400000000 Au
atom 27.3531825899999994 32.9187400100000005 2.8646256499999998 Au
atom 1.8239894400000001 33.1008352599999967 2.4170578300000001 Au
atom 4.6502729299999999 32.8107193100000032 2.7882114400000000 Au
atom 8.7885558899999996 35.2711571600000013 2.6734799800000002 Au
atom 11.7195939599999992 35.3774153900000030 2.6097070000000002 Au
atom 14.4440027299999993 35.3322293100000024 2.6485261599999999 Au
atom 17.3434849600000014 35.3564700499999987 2.7296551500000001 Au
atom 20.1446788900000016 35.3692034500000005 2.6614675299999999 Au
atom 23.0752363000000003 35.2700104099999976 2.5729281799999999 Au
atom 25.8893698900000011 35.3394040599999997 2.6230206599999999 Au
atom 0.6544615400000000 35.4335342500000010 2.5499378300000002 Au
atom 3.3252701899999999 35.4269038600000030 2.6295559499999999 Au
atom 6.2804256599999997 35.3682459400000013 2.5803288100000001 Au
atom 7.4209536800000002 37.8307840000000013 2.5154857599999998 Au
atom 10.4522175900000001 37.6548610899999971 2.7328407700000001 Au
atom 13.1503101200000003 37.9315271899999971 2.5098779400000000 Au
atom 16.0958628499999996 37.9080563600000033 2.6210148599999998 Au
atom 18.6648399699999992 37.9041644599999970 2.5970105700000001 Au
atom 21.6009650499999992 37.8737562999999966 2.7949728800000000 Au
atom 24.5200847400000015 37.8988716400000030 2.6729262100000000 Au
atom 27.3406538400000017 37.7697256800000005 2.6774502899999999 Au
atom 1.8056239000000001 37.8271219200000033 2.5728464400000002 Au
atom 4.5405707599999996 37.7879600899999986 2.7414835800000001 Au
atom 8.9383824900000004 0.6800873300000000 2.6330887700000001 Au
atom 11.8887357999999992 0.7645860600000000 2.8632532199999998 Au
atom 14.8361331900000000 0.9422956100000000 2.5539939600000001 Au
atom 17.2825539500000005 0.8108528699999999 2.6842706800000000 Au
atom 20.1828499599999986 0.9440719600000000 2.7532834199999998 Au
atom 22.8122198199999993 0.7473670600000000 2.8012076299999999 Au
atom 25.8622110499999991 0.7576396300000000 2.8623734199999999 Au
atom 0.4571626900000000 0.7384056900000000 2.6623279800000001 Au
atom 3.2885607800000001 0.8969895300000000 2.7689792000000000 Au
atom 6.1466942099999997 0.8265426900000000 2.6374920199999998 Au
atom 7.3923806499999998 3.2410476199999998 2.9364303700000001 Au
atom 10.2463490900000007 3.1434837600000001 2.5516976699999998 Au
atom 13.1716804500000002 3.2419535800000001 2.7940509800000002 Au
atom 15.9942186900000003 3.4158287700000001 2.7127183600000002 Au
atom 18.8907063999999991 3.4619278599999999 2.6653865300000001 Au
atom 21.5089554700000001 3.1679697800000000 2.6594003599999998 Au
atom 24.4663083499999985 3.2590382099999999 2.7456113400000000 Au
atom 27.2774937199999989 3.2197238800000001 2.5622848700000000 Au
atom 1.8574911100000000 3.1834345200000000 2.8722736699999998 Au
atom 4.7595786200000001 3.3009034599999998 2.7290902899999998 Au
atom 9.1018807400000004 5.9575480799999996 2.6800313099999999 Au
atom 11.7432751900000003 5.6266887600000004 2.7437767200000001 Au
atom 14.7492757599999997 5.8331818200000001 2.7448929099999999 Au
atom 17.3258471100000015 6.0160492200000002 2.7527270000000001 Au
atom 20.3964761000000010 5.8761562400000003 2.5831979800000000 Au
atom 23.1948112199999983 5.6887903700000004 2.6858148700000002 Au
atom 25.8575410800000007 5.9774539600000001 2.7081446400000000 Au
atom 0.4245778300000000 5.8396396199999998 2.7946820300000002 Au
atom 3.1507537000000001 5.7802832000000004 2.6281627300000001 Au
atom 6.0303315700000004 5.7406800499999999 2.8579037600000001 Au
atom 7.5504668800000001 8.4558279899999995 2.5303305200000001 Au
atom 10.3384834899999998 8.1753145899999993 2.5852459200000002 Au
atom 13.1597761799999997 8.1931962299999999 2.5334119099999999 Au
atom 16.0593654299999997 8.2778025799999995 2.7532808200000001 Au
atom 18.8007367000000016 8.0542699599999992 2.6443891900000001 Au
atom 21.6090192999999999 8.1915083499999994 2.6557576799999998 Au
atom 24.4250241400000014 8.4060983799999995 2.5775845199999998 Au
atom 27.1497159100000012 8.3301919800000004 2.5169860900000001 Au
atom 1.8994846000000001 8.2933891200000005 2.7293406099999999 Au
atom 4.6957059000000001 8.1606159700000003 2.6501666899999998 Au
atom 9.0329710399999996 10.6393516399999992 2.5934679300000001 Au
atom 11.6077007600000002 10.7669458599999999 2.4698747900000000 Au
atom 14.5806988700000009 10.6666602600000004 2.7411064999999999 Au
atom 17.4460574599999987 10.8765613600000002 2.6738277699999999 Au
atom 20.2230045400000016 10.7596116700000000 2.5080746500000002 Au
atom 22.9852755600000016 10.7405801099999998 2.6482860200000000 Au
atom 25.9911641399999986 10.5699663400000006 2.8524820599999998 Au
atom 0.4967161400000000 10.8936980000000005 2.6820629999999999 Au
atom 3.4886999599999999 10.7542572700000001 2.4469119199999998 Au
atom 6.1033059200000004 10.6468947299999996 2.6145347499999998 Au
atom 7.5546726800000004 13.1766603799999995 5.6740611500000000 Cl
atom 7.5489687500000002 15.9977518799999991 8.4081184899999997 Cl
atom 7.3820535899999999 13.2863788599999992 8.4038638100000007 Na
atom 7.3627431899999998 15.9075159100000008 5.8835518100000002 Na
atom 7.6132132900000000 18.8855381099999988 5.7030601599999997 Cl
atom 7.4492673700000003 21.5558110200000002 8.6870247400000000 Cl
atom 7.6068530299999999 18.8823641699999989 8.3036267400000003 Na
atom 7.5358239600000001 21.6828006799999997 5.9369104699999999 Na
atom 7.6312062999999997 24.4484458199999999 5.5974373399999999 Cl
atom 7.3487543899999999 27.1884377099999988 8.5656424199999996 Cl
atom 7.5807311799999999 24.5707221999999987 8.2843231799999995 Na
atom 7.5359385100000003 27.2652938999999996 6.0105125399999997 Na
atom 7.5618638000000002 29.9826070099999988 5.7964357399999997 Cl
atom 7.4881457400000002 33.0348599399999969 8.5944809400000004 Cl
atom 7.5784922799999999 30.0664254900000003 8.3396927400000003 Na
atom 7.4821967400000000 33.0593103400000032 5.7895522799999997 Na
atom 7.7134358100000000 35.7867509599999991 5.7521126400000000 Cl
atom 7.6721249599999997 38.4521837799999986 8.4704516499999993 Cl
atom 7.3292505999999999 35.7072286900000009 8.3746464899999999 Na
atom 7.3022111000000001 38.4857207499999987 5.8572708300000000 Na
atom 7.5738772900000004 1.7690751600000001 5.7476076000000003 Cl
atom 7.4095685099999997 4.6869021100000001 8.5837103799999994 Cl
atom 7.3688463899999999 1.9665402100000000 8.6116973100000003 Na
atom 7.4175627500000001 4.8480552799999996 5.8355082200000004 Na
atom 7.5765019200000001 7.5188010199999997 5.5875326300000001 Cl
atom 7.5180471799999999 10.3058074299999998 8.3898323599999998 Cl
atom 7.7379844300000000 7.4524285600000004 8.4726578799999999 Na
atom 7.5063968200000000 10.4430691400000004 5.7570621700000002 Na
atom 10.2351589700000005 13.0243289999999998 5.8397435199999999 Na
atom 13.2551981600000008 13.2052154399999999 5.7752587300000000 Cl
atom 10.3047554800000007 15.9650161199999996 8.4057062400000007 Na
atom 13.0865416000000003 15.8888508399999999 8.5139081599999997 Cl
atom 13.0460445200000006 13.1274136200000004 8.2146391399999992 Na
atom 10.3713411700000009 13.3228574500000008 8.5518916600000008 Cl
atom 13.1557347799999995 15.9146211999999991 5.8852122400000004 Na
atom 10.3724669400000007 16.2404625899999999 5.6339500400000002 Cl
atom 10.1521631800000005 18.8434421599999986 5.8504649999999998 Na
atom 13.4507400700000002 18.9149231399999991 5.6371722699999998 Cl
atom 10.3041543299999994 21.7567628299999996 8.4759005399999996 Na
atom 13.0249477799999998 21.6190640700000003 8.6604480299999995 Cl
atom 13.1852788200000006 18.7998632699999995 8.2461223100000005 Na
atom 10.2520768600000007 18.8409150399999987 8.7468046200000007 Cl
atom 12.9994187900000000 21.7422318399999988 5.9027535300000000 Na
atom 10.3049415300000007 21.6354014200000009 5.6366563699999999 Cl
atom 10.2357254399999995 24.5671899300000014 5.7497278200000004 Na
atom 13.1916591600000004 24.6142342099999993 5.5888394100000003 Cl
atom 10.3565832199999992 27.2877975799999994 8.4023482099999995 Na
atom 12.9205631899999993 27.3128808899999989 8.6875428200000009 Cl
atom 13.1820472700000000 24.5649432300000008 8.5024017300000008 Na
atom 10.1998477399999992 24.4928105299999999 8.5554264500000006 Cl
atom 13.2528210200000007 27.1007377200000015 5.9076844900000003 Na
atom 10.3509169300000003 27.0985787900000012 5.7593131099999999 Cl
atom 10.3726472600000008 30.1403227800000018 5.8367785999999997 Na
atom 13.2098886699999998 30.0350671600000005 5.5905705200000000 Cl
atom 10.3336841800000006 33.0175089600000007 8.4624697799999993 Na
atom 13.1211826100000000 32.9737780600000008 8.4932055700000006 Cl
atom 13.0143316700000007 30.0509047500000008 8.4660482699999999 Na
atom 10.3847081200000009 30.0335852099999983 8.3877354000000004 Cl
atom 13.2405297300000004 32.9832157399999986 5.8638134400000004 Na
atom 10.4029753599999992 32.8601119200000014 5.8703354799999996 Cl
atom 10.2645959599999994 35.7974833899999965 5.8020151200000001 Na
atom 13.4226778400000004 35.8867292300000003 5.6804590700000004 Cl
atom 10.1728337199999999 38.4742582200000030 8.4144645800000006 Na
atom 13.1597413900000006 38.5398469900000009 8.4245934699999996 Cl
atom 13.2619965999999998 35.7464268700000005 8.4033901199999992 Na
atom 10.2411547299999999 35.7083951400000004 8.4838382899999996 Cl
atom 13.1310804399999999 38.6922477199999975 5.9511402799999997 Na
atom 10.2706652399999996 38.6234512999999993 5.7826066300000001 Cl
atom 10.4539819600000001 1.8094083200000000 5.8336012200000003 Na
atom 13.0353499500000005 1.9549997299999999 6.0510649100000000 Cl
atom 10.2739033000000006 4.6480053999999997 8.4442857000000000 Na
atom 13.0367028400000002 4.8089506599999998 8.4093377700000005 Cl
atom 13.1014031000000006 2.0205672600000000 8.3910388699999992 Na
atom 10.2660117000000000 2.0185580100000000 8.7014633900000007 Cl
atom 13.1786550200000008 4.6148459700000002 5.7544158500000000 Na
atom 10.2518407499999995 4.7227218000000004 5.8261329000000002 Cl
atom 10.3321775500000008 7.4683691400000001 5.8336634199999997 Na
atom 13.1478436500000004 7.5208516400000001 5.8160038099999998 Cl
atom 10.4328150399999995 10.3617114400000006 8.2491268299999998 Na
atom 13.2147668399999993 10.2220833800000008 8.5266581000000006 Cl
atom 13.1457917500000008 7.5027867800000001 8.3885267399999996 Na
atom 10.3415550300000003 7.6006630800000003 8.5538668300000005 Cl
atom 13.2363457199999992 10.3055814500000000 5.8152777899999997 Na
atom 10.4416822699999994 10.2740840799999997 5.6458865899999999 Cl
atom 15.9818040200000002 13.1100333800000008 5.8306687999999998 Na
atom 18.9158894599999989 13.2030376599999997 5.5744592800000001 Cl
atom 15.9095251199999996 16.0041479399999993 8.4651702300000000 Na
atom 18.8644870199999986 16.0847725500000003 8.5480221699999994 Cl
atom 18.8281442299999995 13.1637565700000003 8.4484727900000003 Na
atom 16.1509575800000000 13.2293475899999997 8.5911155299999997 Cl
atom 18.8438457600000007 15.9203373900000003 5.8155245899999999 Na
atom 15.9601487199999994 16.0665825700000013 5.6979916099999999 Cl
atom 15.7642550700000008 18.8330984299999997 5.8779057600000000 Na
atom 18.8954606399999996 18.6712532899999992 5.6716165299999997 Cl
atom 15.9465876099999999 21.5144573200000018 8.3938701800000004 Na
atom 18.8375907100000006 21.5378254200000008 8.7746808000000005 Cl
atom 18.5557298300000006 18.7363687500000005 8.5325712500000002 Na
atom 15.8740120000000005 18.7553616100000013 8.4801323300000000 Cl
atom 18.7997684599999992 21.5650416500000013 5.7806213700000004 Na
atom 15.9257815899999997 21.5167897100000012 5.6614208100000001 Cl
atom 16.1660085900000006 24.4852017599999989 5.6870436599999996 Na
atom 18.6638083700000017 24.3766973600000014 5.6106874099999997 Cl
atom 15.9243759899999997 27.3171698999999997 8.2619537800000007 Na
atom 18.6969742600000011 27.1528451299999993 8.7184854099999995 Cl
atom 18.6270553200000002 24.5643889199999990 8.4235869099999992 Na
atom 15.9279150299999994 24.4109946399999984 8.5472187000000002 Cl
atom 18.6730730899999990 27.3597363099999988 5.8003361199999999 Na
atom 16.0339782699999986 27.3715932799999990 5.8234685900000001 Cl
atom 15.9016064799999999 30.1334076800000012 5.8319196399999997 Na
atom 18.7421741299999987 30.0750794799999994 5.5914609000000004 Cl
atom 16.0214959700000001 32.8430439799999974 8.2684510099999997 Na
atom 18.8107358600000012 32.8210637199999979 8.6558020300000003 Cl
atom 18.7543287099999993 30.1376984599999993 8.4744021499999995 Na
atom 15.9484305200000005 30.2950030999999989 8.6277315699999999 Cl
atom 18.4404742199999987 32.9248114099999967 5.7759863500000002 Na
atom 15.9177105900000004 32.8218847500000024 5.6980943200000000 Cl
atom 15.8174802799999998 35.8407970399999982 5.9169128799999999 Na
atom 18.7648767099999993 35.8796866699999981 5.6752210400000003 Cl
atom 15.9039608799999996 38.3494767999999979 8.2881360700000002 Na
atom 18.7926074700000001 38.5792630999999986 8.7211035799999994 Cl
atom 18.9575750099999993 35.7302534600000001 8.4204807600000002 Na
atom 15.9539522700000003 35.8518997700000028 8.6410421799999995 Cl
atom 18.8030383599999986 38.6760006499999989 5.9056614200000004 Na