#===============================================================================
# Created using the Atomic Simulation Environment (ASE)

# Tue Dec 23 22:26:00 2025

#=======================================================
lattice_vector 28.1999999999999993 0.0000000000000000 0.0000000000000000 
lattice_vector 0.0000000000000000 39.4799999999999969 0.0000000000000000 
lattice_vector 0.0000000000000000 0.0000000000000000 62.3296083400000001 
atom 7.3531576000000003 14.8078640000000004 -0.0072380600000000 Au
atom 10.1637859600000002 14.9242962200000004 0.1552631400000000 Au
atom 13.2722435500000007 14.5779829900000006 0.3288002100000000 Au
atom 15.9358820699999999 14.9005014899999999 -0.2511953500000000 Au
atom 18.6059801299999990 14.8549862299999997 -0.2223208600000000 Au
atom 21.6619066400000015 14.8336364599999992 -0.0120744100000000 Au
atom 24.3708290400000003 14.7167781699999995 -0.5474974800000000 Au
atom 27.0333464100000000 14.8375404199999998 -0.7470733100000000 Au
atom 1.8391481100000000 15.0529988100000001 -0.6915212800000000 Au
atom 4.5927575200000001 14.7225950500000007 0.0649775700000000 Au
atom 8.8590359400000001 17.2076027399999987 0.4407510000000000 Au
atom 11.5732877599999995 17.2997519799999999 0.2149307600000000 Au
atom 14.4080362700000002 17.2971017300000014 -0.3820325400000000 Au
atom 17.4489307199999999 17.2424749900000016 -0.5144179600000000 Au
atom 20.0562385399999989 17.1688543100000004 0.1152353000000000 Au
atom 23.3233685100000017 17.3545092399999987 0.1423160800000000 Au
atom 25.9007931199999994 17.4341768299999984 -0.9695308800000000 Au
atom 0.4350678800000000 17.2914191200000005 -0.5720445300000000 Au
atom 3.1706323900000002 17.2403991599999991 -0.2605225000000000 Au
atom 6.0887947100000002 17.1628774600000007 -0.1493843800000000 Au
atom 7.6679897199999996 19.5917089599999983 0.1244810700000000 Au
atom 10.1440389000000000 19.8247238900000013 0.0092739200000000 Au
atom 13.2775218499999994 19.7637543899999990 -0.0395882400000000 Au
atom 15.8603072300000001 19.7328131099999986 -0.5800438700000000 Au
atom 18.7992534199999994 19.6914382100000012 0.0477460600000000 Au
atom 21.5985434699999992 19.3049805899999996 0.0359850500000000 Au
atom 24.6205454400000008 19.6407527100000010 0.3440935400000000 Au
atom 27.2805791199999987 19.7115951400000000 -0.7320372000000001 Au
atom 2.0651897699999999 19.8023021600000000 -0.1479279900000000 Au
atom 4.4758355099999996 19.8155715000000008 0.0450732900000000 Au
atom 8.8566039700000001 22.1708554900000010 0.0403322500000000 Au
atom 11.7547653099999998 22.2944009799999989 0.3685509700000000 Au
atom 14.5482076300000003 22.3732190899999992 -0.1309371700000000 Au
atom 17.2625075599999995 22.6075956500000004 0.0369630400000000 Au
atom 20.1132443000000016 22.1023329299999993 -0.1088985400000000 Au
atom 22.8850973700000004 22.0693802400000010 0.4150020000000000 Au
atom 26.0170227899999986 22.1618322700000014 0.1573608700000000 Au
atom 0.4823932100000000 22.2444256600000010 -0.3422722000000000 Au
atom 3.0935953299999999 22.2753611000000014 -0.1577913700000000 Au
atom 6.1432738599999999 22.2638088600000010 0.1988368400000000 Au
atom 7.4872241600000002 24.5354047299999998 0.2147255000000000 Au
atom 10.3357240600000004 24.6892816900000014 0.1929165100000000 Au
atom 13.1320174999999999 24.5322093099999989 0.2271676200000000 Au
atom 15.8443991999999998 24.5890756500000016 0.1745724500000000 Au
atom 18.6603452499999989 24.7706842000000016 0.4137361000000000 Au
atom 21.4716220900000003 24.6183825300000017 0.2572544800000000 Au
atom 24.5156698599999991 24.5437769099999983 0.3143089000000000 Au
atom 27.1594447300000006 24.6816123699999999 0.1342978900000000 Au
atom 1.9430487299999999 24.6752930799999994 -0.0257506700000000 Au
atom 4.6918852800000002 24.7058513600000005 -0.0189731400000000 Au
atom 8.9540069300000003 27.0930462200000015 0.4086845700000000 Au
atom 11.7283604599999993 27.2084302800000017 0.3849627600000000 Au
atom 14.5619799000000008 27.0454940499999985 0.0438076700000000 Au
atom 17.3130091999999998 27.1550839999999987 0.0971787100000000 Au
atom 20.4001036800000008 27.0369978300000007 0.4308652100000000 Au
atom 23.1603688500000011 27.1779036000000005 0.2428340200000000 Au
atom 25.9330144599999990 27.3615354699999997 -0.0019007800000000 Au
atom 0.4138538700000000 27.0994300099999990 0.1322610500000000 Au
atom 3.3216026099999998 27.1919345999999997 -0.1470058600000000 Au
atom 6.1517450100000000 27.3772037499999996 0.2148379900000000 Au
atom 7.5213624599999997 29.6361364300000005 -0.4061214600000000 Au
atom 10.5387971900000004 29.7442425399999983 -0.2122023100000000 Au
atom 13.1626307199999992 29.7634979699999995 -0.1128924500000000 Au
atom 15.9413876699999992 29.6156222299999996 -0.2685905500000000 Au
atom 18.8963976299999992 29.5318286800000003 -0.2102402100000000 Au
atom 21.6612472400000016 29.7430233599999987 0.4747860700000000 Au
atom 24.6177153500000010 29.8090233200000014 0.1433704800000000 Au
atom 27.3437317200000010 29.5752670699999989 0.1964804300000000 Au
atom 1.9662998400000000 29.6600161100000008 0.2349777600000000 Au
atom 4.5781770699999997 29.6646826300000015 -0.2218685000000000 Au
atom 8.9614205600000005 32.1813131700000028 -0.1595808700000000 Au
atom 11.5924990099999992 32.2803948999999974 -0.1108007900000000 Au
atom 14.6438082699999992 32.0308693300000016 0.1275923100000000 Au
atom 17.4514562700000013 32.1442061400000014 0.0756854500000000 Au
atom 20.2924853399999989 32.1870580599999982 0.0197230800000000 Au
atom 22.8684419400000003 32.1435508900000002 -0.0995423600000000 Au
atom 26.0370661800000001 32.1039275500000016 0.0269134300000000 Au
atom 0.5448283400000000 32.1679627099999976 -0.1662358900000000 Au
atom 3.3558562099999998 32.0342669899999990 -0.1507159100000000 Au
atom 6.0271467300000001 32.0653687000000005 -0.3675788900000000 Au
atom 7.5984325000000004 34.5316146700000033 -0.2649501300000000 Au
atom 10.3052478700000005 34.5757611499999982 -0.1972171200000000 Au
atom 13.0212504300000003 34.5902366600000022 -0.0525396900000000 Au
atom 16.0817440900000008 34.5301876999999990 0.2291586600000000 Au
atom 18.8423133800000002 34.5248677299999969 -0.2798980200000000 Au
atom 21.5403927999999993 34.6145722500000019 0.1552371800000000 Au
atom 24.4443313999999994 34.8035776799999965 0.0271833500000000 Au
atom 27.2285198999999984 34.5500793300000026 -0.1286530000000000 Au
atom 2.0731167099999999 34.7777317099999976 -0.3551470300000000 Au
atom 4.7521719400000002 34.5884406500000026 -0.1362001400000000 Au
atom 8.9821596899999996 37.0919604099999987 -0.1006256900000000 Au
atom 11.6049760099999997 37.0255181699999980 -0.1863113000000000 Au
atom 14.5298938500000006 36.9346857499999999 0.1921281300000000 Au
atom 17.4015243499999990 37.1784262799999965 0.1040044400000000 Au
atom 20.0207261299999999 37.1761106200000029 -0.1105279900000000 Au
atom 23.1156529199999987 37.1296664899999982 0.0309505600000000 Au
atom 25.9066473200000011 36.9051290900000026 0.0843505400000000 Au
atom 0.3951865500000000 36.9183628400000003 0.0027060600000000 Au
atom 3.1311111700000001 36.8904478899999972 0.1555667200000000 Au
atom 6.2270240299999999 37.1427193800000026 -0.0595024100000000 Au
atom 7.5678530300000002 0.1176485300000000 -0.2322572300000000 Au
atom 10.3280312199999997 0.2478368900000000 -0.1775103300000000 Au
atom 13.0707439399999998 0.1934410700000000 0.1016621700000000 Au
atom 16.0059341699999997 0.0190907400000000 0.1945507100000000 Au
atom 19.0823650499999999 0.3013059200000000 0.0122017500000000 Au
atom 21.7102412200000003 0.0262880700000000 0.1083266900000000 Au
atom 24.6304750900000009 -0.0735395400000000 0.3897048400000000 Au
atom 27.0911689299999985 0.0443098900000000 0.2674948900000000 Au
atom 1.8311907500000000 0.0864655100000000 0.1557818300000000 Au
atom 4.5936928400000001 -0.0019565100000000 0.3134225100000000 Au
atom 9.0160704200000001 2.2283513300000002 -0.0154181500000000 Au
atom 11.9533927799999997 2.4765104199999999 0.1305328100000000 Au
atom 14.4869625499999994 2.6144906500000000 -0.0628939100000000 Au
atom 17.4376734099999986 2.6404144500000002 0.1931975600000000 Au
atom 20.1938290299999998 2.5041927899999998 0.0478062800000000 Au
atom 23.0211590800000003 2.3747142800000001 0.1533653200000000 Au
atom 25.9259436399999998 2.4268623499999999 0.5575913200000000 Au
atom 0.4343523300000000 2.5130585900000000 0.2026260200000000 Au
atom 3.1753144099999999 2.4280766100000002 0.2438993000000000 Au
atom 6.0013241900000001 2.5174377899999998 0.4105712700000000 Au
atom 7.6302356500000004 5.0051901299999999 0.4279528100000000 Au
atom 10.1219018599999995 5.0176560099999996 0.0817732800000000 Au
atom 13.2326445800000005 5.0456324099999996 -0.0918322600000000 Au
atom 15.9292878699999996 4.9811676399999998 0.2370916800000000 Au
atom 18.7767464400000001 4.7630044600000003 0.1934064900000000 Au
atom 21.9620033700000015 4.8911669699999996 0.4084760900000000 Au
atom 24.5443504300000015 5.0025915599999999 0.3916352600000000 Au
atom 27.3285163199999985 5.1166128700000000 0.2763088500000000 Au
atom 2.0352399100000000 4.8790953400000001 0.1628560700000000 Au
atom 4.6955513599999996 4.8539266100000003 0.0024277300000000 Au
atom 8.9196583700000005 7.3642854699999996 0.0989974400000000 Au
atom 11.7385761300000002 7.4142339499999999 -0.1941847500000000 Au
atom 14.5160376499999995 7.3595989399999997 0.0688838600000000 Au
atom 17.4312065800000013 7.3154779400000001 0.0823845500000000 Au
atom 20.2134114099999991 7.5156255800000000 0.2919855100000000 Au
atom 23.0987569300000004 7.4306652299999998 0.4321034200000000 Au
atom 25.8921318099999986 7.2904792699999996 0.3630205200000000 Au
atom 0.6668274400000000 7.2546429799999999 0.1900363800000000 Au
atom 3.3856472000000002 7.5460665400000000 0.0992010400000000 Au
atom 6.1810976499999999 7.2722599499999996 -0.0070502100000000 Au
atom 7.6088799600000003 9.8064532100000008 0.0870207400000000 Au
atom 10.3965419600000004 9.9455933000000005 0.0120524900000000 Au
atom 13.2134987800000001 9.8860213300000002 -0.2749869700000000 Au
atom 16.0458065599999991 9.9476888700000003 -0.0206521300000000 Au
atom 18.6456541499999986 10.1059100599999994 0.2047639600000000 Au
atom 21.6203624000000012 9.7907497800000005 0.1221239000000000 Au
atom 24.4189095099999989 10.0554484700000000 0.2637788500000000 Au
atom 27.1829341100000015 9.8300302899999998 0.0456011000000000 Au
atom 1.9329356300000000 10.0106388699999993 0.2074419900000000 Au
atom 4.9836348399999997 10.0297980500000001 -0.1103579100000000 Au
atom 8.9423222100000004 12.4598576800000007 0.2275354800000000 Au
atom 11.7553244800000005 12.3476171400000005 -0.0021147200000000 Au
atom 14.4124216599999997 12.1196204800000000 -0.2436093800000000 Au
atom 17.2532059500000017 12.2290155699999996 -0.5575956300000000 Au
atom 20.1108943499999988 12.2442816400000005 -0.2922575900000000 Au
atom 22.7679231400000006 12.1659307699999992 -0.9561082300000000 Au
atom 25.8359847100000017 12.1141052800000004 -0.8493683800000000 Au
atom 0.4219739800000000 12.4674179800000005 -0.1267491000000000 Au
atom 3.2916183100000000 12.2487984599999997 -0.2308827800000000 Au
atom 6.1681922299999998 12.3266792200000008 0.1184228400000000 Au
atom 7.6784007799999996 13.0680405099999994 2.6013905400000001 Au
atom 10.3847441400000005 13.1864377899999994 2.7805720900000002 Au
atom 13.0379430599999999 13.4117439300000001 2.7996322700000000 Au
atom 16.1560957499999986 13.3224284100000006 2.2471515499999999 Au
atom 18.7978400800000003 13.2231575899999996 2.1352622200000000 Au
atom 21.5332563800000010 12.8680314700000000 2.7524798700000002 Au
atom 24.2356450599999995 13.1298803100000008 1.6686407599999999 Au
atom 27.2704853500000013 13.1410535100000008 2.1205282300000001 Au
atom 2.2396830300000001 13.2172634900000006 2.1525168899999998 Au
atom 4.5588007399999997 13.0630174700000001 2.6336473300000001 Au
atom 8.7785282099999993 15.5259705799999992 2.5401285499999999 Au
atom 11.7399220500000006 15.7448426700000006 2.6373266599999998 Au
atom 14.7018990400000007 15.7674684599999999 2.4597307000000002 Au
atom 17.5908109199999991 15.7187961400000002 2.3616400299999998 Au
atom 20.3261981300000016 15.4448440999999992 2.4303290000000000 Au
atom 23.1280920200000004 15.4596020400000000 2.6111377199999999 Au
atom 25.9369004200000006 15.6983926900000004 1.8051761399999999 Au
atom 0.5395765300000001 15.5650836300000002 2.1202789000000002 Au
atom 3.2106797000000000 15.7896008099999996 2.2830011899999998 Au
atom 6.0040188399999996 15.7914358799999999 2.6186398500000001 Au
atom 7.4292309799999998 17.9044062500000010 2.7839888699999999 Au
atom 10.5156987199999996 17.9696229999999986 2.7357489500000001 Au
atom 13.1695943300000007 18.2565524900000007 2.7018448500000001 Au
atom 16.3884567799999985 18.2456450399999994 1.9493729300000000 Au
atom 18.5690179399999984 18.2238650100000008 2.7857582399999998 Au
atom 21.4370935299999985 17.9962930599999993 3.1369646800000002 Au
atom 24.4399706499999994 18.0141327300000000 3.0665635600000001 Au
atom 27.0006396399999993 17.9985151799999983 1.8772793800000001 Au
atom 1.9063778100000000 18.3151955599999994 2.3290064400000001 Au
atom 4.8356097299999998 18.0555317100000003 2.5150267600000000 Au
atom 9.0660532800000002 20.2018092799999991 2.5223482599999998 Au
atom 11.7985405700000001 20.5775509999999997 2.6766434000000001 Au
atom 14.5554233300000000 20.7865935700000009 2.0850507199999999 Au
atom 17.4161211999999992 20.6423122799999987 2.3162972000000002 Au
atom 20.2766090400000003 20.6537794199999993 2.4974492200000000 Au
atom 22.9329987700000011 20.4877721000000008 2.8562015600000001 Au
atom 26.0802092399999985 20.3898288100000009 2.8515275199999999 Au
atom 0.4371865300000000 20.4578289200000007 2.3457184400000002 Au
atom 3.1753298600000002 20.7898099700000003 2.6548379899999999 Au
atom 6.1123635399999996 20.3966100300000015 2.7862460900000001 Au
atom 7.4630086200000001 22.9338132700000017 2.6711052600000000 Au
atom 10.1922299800000005 23.0498240000000010 2.7395000399999998 Au
atom 13.1000866499999997 22.9592641899999990 2.6650017500000001 Au
atom 16.0504779500000012 23.2080770899999997 2.7395498699999998 Au
atom 18.9527370300000015 22.8302847200000016 2.5243700499999999 Au
atom 21.5989161500000009 22.8213210500000017 2.8061189799999999 Au
atom 24.4258586999999991 22.7517376899999988 2.7812519899999999 Au
atom 27.4331018299999982 22.6298591000000009 2.7803223799999999 Au
atom 1.9783023700000000 22.9073737199999989 2.2623595999999999 Au
atom 4.6130534100000000 22.9957129199999990 2.9105286499999998 Au
atom 8.5643977400000004 25.5379595100000003 3.1401728300000000 Au
atom 11.4496310000000001 25.4910896200000003 2.9801225400000000 Au
atom 14.4347911900000003 25.6484571899999985 2.8334048400000000 Au
atom 17.3283589599999992 25.5281139400000008 2.6056217400000001 Au
atom 20.2545368000000003 25.4726254700000005 2.9645193100000000 Au
atom 22.8141253000000006 25.3039439000000002 3.0744754500000000 Au
atom 25.8315287900000001 25.3249883199999992 2.8611918500000000 Au
atom 0.2538052300000000 25.4876050800000016 2.7099502499999999 Au
atom 3.1800350900000001 25.4626342500000007 2.6556180100000000 Au
atom 5.9882732299999999 25.6211195600000003 2.7146255899999998 Au
atom 7.4055843200000000 27.8718987799999987 2.7568659599999998 Au
atom 10.1805868700000008 28.0750279499999991 2.8390426199999999 Au
atom 13.1444543899999999 27.9296187899999993 2.7480097500000000 Au
atom 15.8938421000000005 28.0463623200000001 2.7224134599999998 Au
atom 18.7470657299999992 28.1215839599999988 2.3465341000000000 Au
atom 21.6595922399999985 28.1674069100000004 2.9592263700000001 Au
atom 24.4227735099999990 27.8248291099999996 2.7338705700000001 Au
atom 27.2878447000000008 27.7384176300000007 2.6726916500000000 Au
atom 1.7692899499999999 27.6888883099999994 2.3373087600000000 Au
atom 4.5478162900000001 27.7281416800000002 2.7499993400000000 Au
atom 8.9575044599999991 30.5229658300000004 2.4029018899999999 Au
atom 11.5875097100000009 30.2560797199999989 2.3742695299999999 Au
atom 14.4127172899999998 30.3017147400000013 2.6730035499999998 Au
atom 17.4230712099999998 30.3457889700000010 2.6620945300000001 Au
atom 20.0579065800000009 30.5927626299999993 2.8940710300000001 Au
atom 23.0040895600000006 30.7378479099999993 2.8706228500000002 Au
atom 25.9485510800000014 30.3845594500000011 2.5694632600000000 Au
atom 0.4732454800000000 30.3252889299999993 2.8036891100000001 Au
atom 3.4551408200000000 30.3683709800000017 2.3604048099999999 Au
atom 6.1222777300000004 30.3419190100000016 2.2583242100000001 Au
atom 7.4083153499999996 32.9268297599999968 2.2252437299999999 Au
atom 10.1992613599999995 32.9359336200000001 2.3951747299999999 Au
atom 12.9741391200000002 32.8981103300000015 2.4185205100000000 Au
atom 15.9144501100000006 32.8593989499999992 2.8438550000000000 Au
atom 18.5974722899999989 32.9612387499999997 2.4263848399999999 Au
atom 21.4572794599999987 33.0016505899999970 2.5846867800000002 Au
atom 24.4276802900000014 32.8397992700000003 2.4758322399999999 Au
atom 27.2178506499999990 32.9720519700000025 2.7777348599999998 Au
atom 1.8314125600000000 32.9901910199999975 2.2086217299999999 Au
atom 4.5320602000000001 32.8557278899999972 2.4004934800000002 Au
atom 8.8538245100000008 35.4191780499999993 2.3116489200000001 Au
atom 11.6752235100000004 35.4022643599999967 2.5184011100000001 Au
atom 14.6177832799999994 35.1767173200000016 2.9335567700000000 Au
atom 17.3884146699999995 35.3547694900000025 2.6237547800000001 Au
atom 20.0622923100000001 35.4828032899999997 2.3709306600000000 Au
atom 22.8767208900000014 35.4876748000000006 2.5850525300000000 Au
atom 25.8378720199999989 35.5141775600000003 2.4891636199999998 Au
atom 0.3975550800000000 35.5350944200000001 2.2485292800000001 Au
atom 3.2279830600000001 35.4201249500000017 2.8480868099999999 Au
atom 6.0938691800000004 35.5751590799999988 2.2897870600000001 Au
atom 7.5481999000000002 37.8351175499999997 2.5357816099999999 Au
atom 10.3707358999999997 38.0386201399999990 2.5847529300000001 Au
atom 13.1222256999999995 37.9372814000000034 2.5989112699999999 Au
atom 16.0218394400000008 38.0019865200000027 2.6965111600000000 Au
atom 18.9613205499999999 37.9163675799999993 2.5541640100000000 Au
atom 21.7188945199999992 37.8435499899999996 2.4464163999999999 Au
atom 24.4056411599999983 37.7333550600000009 2.8018657100000000 Au
atom 27.1859585899999985 37.8481219299999978 2.6093806599999998 Au
atom 1.9413585200000001 37.9151547700000009 2.6991143000000002 Au
atom 4.6702552500000003 37.7015547299999980 2.7683461500000002 Au
atom 8.9812193499999999 0.8749780300000000 2.3882153100000001 Au
atom 11.4657662699999996 1.0736267900000001 2.6064690800000001 Au
atom 14.7006047800000008 0.9452715000000000 2.9039800599999999 Au
atom 17.4960037399999990 0.7981874100000000 2.6736534100000000 Au
atom 20.3329093699999994 0.8444833000000000 2.6137104000000000 Au
atom 22.8880735599999987 0.6678889900000000 2.8974006200000000 Au
atom 25.8317145500000009 0.5929083600000000 2.9778534600000000 Au
atom 0.6689162300000000 0.7852689500000000 2.8149052299999999 Au
atom 3.1824300399999998 0.6887047900000000 2.8180341699999998 Au
atom 6.2773672100000004 0.8907718800000000 2.8372613000000002 Au
atom 7.6655967699999996 3.2465809299999999 2.6253902999999998 Au
atom 10.4408405599999998 3.4179066400000000 2.6289311600000000 Au
atom 13.0147826799999997 3.3156071800000002 2.5140770200000002 Au
atom 15.9783009899999993 3.3962722799999998 2.8799667599999998 Au
atom 18.8342208800000002 3.5567815700000001 2.5488406200000000 Au
atom 21.6933002100000003 3.5072122600000002 3.0845922899999998 Au
atom 24.4127395800000002 3.1739652199999999 3.0525707500000001 Au
atom 27.3622581899999986 3.4773966600000001 3.0189642000000001 Au
atom 1.8469235399999999 3.4199288100000000 2.9375102300000000 Au
atom 4.8471203799999998 3.4385508200000001 2.8921396399999999 Au
atom 8.8653702899999995 5.6817186599999996 2.5923613200000002 Au
atom 11.6591846199999996 5.8095498499999998 2.8610748300000002 Au
atom 14.6038568899999994 5.9087022200000003 2.5417714800000000 Au
atom 17.2800184700000017 5.8272190899999998 3.0927041900000001 Au
atom 20.1698488199999986 5.7728557100000000 2.8958824800000000 Au
atom 23.3042048699999995 5.7803968599999997 2.8114566800000000 Au
atom 25.8119757900000018 5.5486214199999999 2.8877614100000000 Au
atom 0.4952793000000000 5.9073053199999999 2.8861265500000002 Au
atom 3.3455203400000002 5.7751050800000003 2.7379275500000002 Au
atom 6.0603096200000000 5.8824426799999996 2.6246663400000001 Au
atom 7.5678999100000004 8.3081407800000004 2.6185543600000001 Au
atom 10.2991332999999994 8.3168342000000006 2.5017749199999999 Au
atom 13.0266270899999999 8.3922263699999995 2.4472931500000001 Au
atom 15.8788522800000003 8.4870019899999996 2.7314141500000000 Au
atom 18.7526960699999989 8.3140521399999994 2.6028546399999999 Au
atom 21.7058954799999988 8.2135205300000003 2.8819423000000000 Au
atom 24.3467670500000004 8.2622339399999998 2.7604226500000002 Au
atom 26.9886343800000006 8.2201632100000008 2.6758179200000001 Au
atom 1.7797256600000000 8.2752844000000003 2.7410124599999999 Au
atom 4.7835104900000003 8.3411645300000004 2.6603892999999998 Au
atom 8.9111830500000000 10.6965369500000005 2.4990432299999998 Au
atom 11.7533951999999999 10.5749766199999993 2.7974584199999999 Au
atom 14.5586884500000000 10.9133463800000001 2.4510013300000000 Au
atom 17.3638554499999991 10.5789682099999993 2.6309300800000002 Au
atom 20.1040581600000010 10.8357300799999994 2.6111046700000000 Au
atom 22.9757216900000003 10.7747409600000008 2.8728290300000001 Au
atom 26.0219760899999990 10.6283985500000000 2.8533194200000001 Au
atom 0.4712101800000000 10.5981231699999991 2.3780120600000001 Au
atom 3.0586315399999999 10.5547377400000002 2.6784509000000001 Au
atom 5.9339479700000002 10.6197706200000006 2.5462035099999998 Au
atom 7.8048882400000004 12.8838518000000004 5.5641265300000002 Cl
atom 7.6036327799999999 15.8544283299999993 8.4882102800000006 Cl
atom 7.6341435300000002 12.7102812699999994 8.2054495299999992 Na
atom 7.5878498199999997 15.7323020000000007 5.9715181900000003 Na
atom 7.9227501100000000 18.6950470300000013 5.6125234800000001 Cl
atom 7.4017482200000000 21.4078648399999985 8.7527438300000000 Cl
atom 7.9399155700000001 18.3674695600000000 8.4221141199999998 Na
atom 7.7413735099999998 21.1876153900000013 5.9237304899999996 Na
atom 7.9185658099999996 24.3288467900000001 5.8782922099999997 Cl
atom 7.4564154599999997 26.8453254100000009 8.7470602100000008 Cl
atom 7.6014314599999997 24.0106937900000013 8.6922271200000001 Na
atom 7.6020353299999996 26.7861974399999987 5.9530337500000003 Na
atom 7.7142071500000000 30.0027560700000002 5.6593676500000001 Cl
atom 7.5146228400000004 32.7986602699999992 8.3538073399999995 Cl
atom 7.4975871100000004 29.8548860299999994 8.3956201200000002 Na
atom 7.4855989599999999 32.6178095100000007 5.6644758599999996 Na
atom 7.6482518300000004 35.4863888599999981 5.6071542399999998 Cl
atom 7.4724992300000004 38.5699615199999997 8.5048890700000008 Cl
atom 7.4952734799999998 35.5009738600000020 8.2103513499999998 Na
atom 7.8072740400000002 38.5769938500000009 6.0166135699999996 Na
atom 7.6584731499999998 1.7029543400000000 5.8284177799999997 Cl
atom 7.8252908799999998 4.2705860700000002 8.7565203000000000 Cl
atom 7.5236234599999996 1.7040841499999999 8.4906124599999995 Na
atom 7.5270362600000000 4.4057755600000004 6.1222945900000001 Na
atom 7.4433947600000003 7.0002639999999996 5.8488570700000002 Cl
atom 7.9103526300000002 10.1190939199999992 8.6647211399999993 Cl
atom 7.6338842800000002 6.9990206099999996 8.7888239499999994 Na
atom 7.7778233500000002 10.1624835999999998 6.0861504599999998 Na
atom 10.4414591800000007 12.9159202299999993 5.8094035300000000 Na
atom 13.1590288500000003 12.7863676900000005 5.8613872499999999 Cl
atom 10.3884312399999992 15.7978342200000004 8.3601993300000004 Na
atom 13.0142585700000009 15.9014006200000004 8.8143736500000003 Cl
atom 13.2408738800000005 12.9690101599999998 8.5598361900000004 Na
atom 10.6948077900000005 12.6938305000000007 8.7201174800000008 Cl
atom 13.2179845900000004 15.5927800199999993 5.7834973099999996 Na
atom 10.6439186899999996 15.9048742500000007 5.7089126300000004 Cl
atom 10.8651038399999997 18.7032456200000006 5.6839939700000004 Na
atom 13.9214969300000000 18.7484775699999986 6.0515612000000001 Cl
atom 10.5042223499999992 21.4345396100000016 8.5374628099999992 Na
atom 13.0577035400000003 21.5408893600000013 8.6619595599999997 Cl
atom 13.2052691299999996 18.6932678999999986 8.6726064100000002 Na
atom 10.4738391400000008 18.5673664999999986 8.7153211899999992 Cl
atom 13.3234139299999992 21.6489418799999989 5.8202387900000003 Na
atom 10.6502363100000004 21.4264545099999992 5.8863720400000004 Cl
atom 10.4601145100000004 24.3935659800000018 5.8967050299999997 Na
atom 13.3373046100000003 24.4671362899999991 5.6941246999999997 Cl
atom 10.5034211600000003 27.3203000500000002 8.2028057099999998 Na
atom 13.2490912200000004 27.5630261599999997 8.3348246899999996 Cl
atom 13.3136737099999998 24.4141364100000011 8.5844676399999997 Na
atom 10.3909318099999997 24.5207074600000006 8.6183611100000004 Cl
atom 13.5617811699999997 27.2443116399999994 5.8360220900000002 Na
atom 10.5267994900000001 27.1181148000000007 5.8313949300000001 Cl
atom 10.4215552900000006 30.1638306699999994 5.5345100900000004 Na
atom 13.4256574700000009 30.0399346499999993 5.4004125399999996 Cl
atom 10.4976813500000006 33.0087391699999984 8.1975200699999995 Na
atom 13.1722267500000001 33.0030688900000015 8.1741356399999994 Cl
atom 13.1195199799999997 29.9709798300000010 8.4514328100000000 Na
atom 10.3376718800000003 30.0014220899999984 8.2814373900000007 Cl
atom 13.6417310199999999 32.8072919199999973 5.5640926600000000 Na
atom 10.4735557000000004 33.0736597499999974 5.7745490200000003 Cl
atom 10.6193229099999993 35.6226895100000007 5.7308874999999997 Na
atom 13.5952373000000009 35.7052794700000007 5.6427761299999997 Cl
atom 10.3861282999999993 38.3285747700000030 8.2649051599999996 Na
atom 13.5466301500000004 38.3938984700000034 8.4834968699999997 Cl
atom 13.4260912099999992 35.6713244199999977 8.2146450800000004 Na
atom 10.4318378799999998 35.6267051800000019 8.4269171499999995 Cl
atom 13.6468785300000004 38.4681580600000004 5.5657418800000000 Na
atom 10.5276225700000001 38.6646252399999995 5.6439776100000003 Cl
atom 10.5966736499999996 1.7868827300000001 5.8547641600000002 Na
atom 13.5928747100000002 1.7700587200000000 5.5646211399999999 Cl
atom 10.4714052500000001 4.2565011100000003 8.5717390400000006 Na
atom 13.2452035899999991 4.2091352100000003 8.4989435100000001 Cl
atom 13.6264567299999992 1.6959231600000000 8.5685354900000004 Na
atom 10.7690563299999997 1.5387996700000000 8.6130536000000006 Cl
atom 13.3741187099999994 4.4288116500000001 5.9613091400000000 Na
atom 10.3364693299999999 4.5428038400000004 5.8723383499999997 Cl
atom 10.3441980699999991 7.0483037900000003 5.9811788699999999 Na
atom 13.1096192200000008 7.2524932599999996 5.6738683999999999 Cl
atom 10.4050514300000003 10.0476779399999998 8.5459364999999998 Na
atom 13.3069724100000002 9.8321255799999996 8.4283706400000007 Cl
atom 13.2035397000000003 6.9835104599999998 8.7516363500000001 Na
atom 10.6861934900000008 6.8491620600000003 8.9090942399999999 Cl
atom 13.2040393700000003 9.9588488599999998 5.6514743200000002 Na
atom 10.3562669100000004 10.0691795699999993 5.7876026600000001 Cl
atom 15.8575250000000008 12.7883200800000001 6.0292474699999996 Na
atom 18.5005003300000013 12.9376963299999996 6.0943270800000002 Cl
atom 16.2713184599999998 17.7523139599999986 6.8892377299999996 Na
atom 18.1789240999999997 16.1720462599999983 8.5645530500000007 Cl
atom 18.9650159999999985 12.9816647599999992 8.5488884699999996 Na
atom 15.8329388800000004 12.8820320600000002 8.8547389400000007 Cl
atom 18.7125793599999994 15.7178584000000008 5.7279336699999996 Na
atom 15.5981711500000007 15.4927777599999992 5.8201740800000001 Cl
atom 16.0221894700000007 19.4365079700000010 4.6558885600000002 Na
atom 18.5004772600000003 18.7019259799999986 5.6836545500000000 Cl
atom 15.8946708999999995 21.5387445200000016 8.1012158000000003 Na
atom 18.5932385099999991 21.8410659500000008 9.1384555299999999 Cl
atom 18.2871592400000011 18.7762616300000005 8.4815944400000003 Na
atom 15.6852324999999997 19.1048374000000010 9.3473318200000008 Cl
atom 18.8467686199999989 21.7629362999999998 5.8626428600000002 Na
atom 15.9613540199999999 21.7836085900000000 5.6675215699999999 Cl
atom 16.2924082199999987 24.3737446999999996 5.7872404299999998 Na
atom 18.8455869299999996 24.2691659100000017 5.8081868200000004 Cl
atom 16.2811557899999997 27.3746533300000010 8.1723013299999998 Na
atom 19.0843930999999998 27.2653708299999984 8.5907595899999993 Cl
atom 18.9655967300000015 24.7407063600000008 8.7326403700000004 Na
atom 16.1464229400000008 24.4915935299999994 8.5090107499999998 Cl
atom 19.2285733699999994 27.2406244499999985 5.9023224100000000 Na
atom 16.4915401999999993 27.3058991999999989 5.7778141800000000 Cl
atom 16.1507542700000002 30.0211739599999987 5.6399131400000000 Na
atom 18.7845715800000015 30.0882420599999989 5.6645857700000004 Cl
atom 16.0080677700000003 32.8089567999999971 8.2362188100000004 Na
atom 19.0179053499999995 32.7865630699999997 8.6995243099999993 Cl
atom 18.6716939400000008 29.9933674000000003 8.1871969300000007 Na
atom 15.9896972799999997 29.8932000000000002 8.2990369499999996 Cl
atom 18.8316827300000007 32.8605909999999994 5.9181740400000002 Na
atom 16.1910282999999993 32.6663071899999977 5.6060944199999998 Cl
atom 16.3421515100000008 35.8427293000000020 5.7430036500000003 Na
atom 18.8686333899999994 35.6558769700000013 5.6023593600000003 Cl
atom 16.1541044000000014 38.5704225200000010 8.3079810900000002 Na
atom 18.9942749000000006 38.1753247400000006 8.8347770899999993 Cl
atom 18.8668054000000005 35.6392544200000003 8.2772330800000002 Na
atom 16.2760070799999994 35.8066752900000012 8.6342638699999998 Cl
atom 19.0005344200000010 38.3324021500000001 6.0651981499999996 Na