#===============================================================================
# Created using the Atomic Simulation Environment (ASE)

# Tue Dec 23 21:42:05 2025

#=======================================================
lattice_vector 28.1999999999999993 0.0000000000000000 0.0000000000000000 
lattice_vector 0.0000000000000000 39.4799999999999969 0.0000000000000000 
lattice_vector 0.0000000000000000 0.0000000000000000 62.3296083400000001 
atom 7.4473154299999997 14.7325381899999996 -0.2147570000000000 Au
atom 10.2656865100000001 14.7768272599999992 -0.3644955200000000 Au
atom 13.1414442400000002 14.8683484000000004 -0.4020688200000000 Au
atom 15.8757089400000009 14.8349923100000005 -0.3078719800000000 Au
atom 18.7027687500000006 14.8443000499999993 -0.1923469500000000 Au
atom 21.5333949400000009 14.7344183900000001 -0.1609683100000000 Au
atom 24.3553296900000014 14.8690542000000008 -0.2359209000000000 Au
atom 27.1946810600000006 14.8656759300000001 -0.2900110900000000 Au
atom 1.7362347100000000 14.9430412399999994 -0.3105591000000000 Au
atom 4.5974059000000000 14.8384321099999994 -0.1658225500000000 Au
atom 8.7883153400000005 17.2965607299999995 -0.1694213700000000 Au
atom 11.6266839999999991 17.2867147199999991 -0.2517704600000000 Au
atom 14.3859239199999998 17.3809282399999994 -0.4867820100000000 Au
atom 17.1983938199999997 17.2558948299999990 -0.1248785700000000 Au
atom 20.0360217600000006 17.3530510400000004 -0.1304737600000000 Au
atom 22.9563038000000006 17.3412783600000004 -0.0535721000000000 Au
atom 25.7537728299999991 17.3222092699999983 -0.1644209600000000 Au
atom 0.3334983600000000 17.3978495200000012 -0.2102539600000000 Au
atom 3.2274280300000000 17.4507010399999984 -0.1652892800000000 Au
atom 6.0071825700000003 17.3030635599999982 -0.0861414300000000 Au
atom 7.4658579999999999 19.7700092500000011 0.2337590100000000 Au
atom 10.2502357300000000 19.7138375600000018 -0.0859751600000000 Au
atom 13.0999182800000007 19.8383825199999997 -0.3514742800000000 Au
atom 15.9596299300000002 19.8131670299999989 -0.0342696300000000 Au
atom 18.7270409499999992 19.8159989000000003 -0.0625309200000000 Au
atom 21.5820373399999994 19.6948038499999996 -0.1163979700000000 Au
atom 24.4243570199999986 19.7802583299999988 -0.1269665200000000 Au
atom 27.1817236499999986 19.8950288999999998 -0.1054813800000000 Au
atom 1.7225859400000001 19.8803448200000012 0.0327444300000000 Au
atom 4.5731735100000002 19.8594257600000006 0.1776442600000000 Au
atom 8.8404500099999996 22.2458091899999992 0.2898553800000000 Au
atom 11.7213820500000008 22.2568860199999996 -0.0484484000000000 Au
atom 14.5981996299999999 22.1491040900000016 -0.0569482100000000 Au
atom 17.3359947199999986 22.3012543600000015 -0.1066310800000000 Au
atom 20.1738847899999989 22.2422890700000018 0.0174303500000000 Au
atom 22.9809641700000000 22.2547166099999991 -0.1448743600000000 Au
atom 25.7731391999999992 22.3034356199999984 0.2252248200000000 Au
atom 0.3359209200000000 22.3261262699999996 0.2270721500000000 Au
atom 3.1918340399999998 22.3086652600000015 -0.0704120900000000 Au
atom 5.9959474999999998 22.1891779599999985 0.2724042600000000 Au
atom 7.4772650000000001 24.6580517599999993 0.2817866500000000 Au
atom 10.3400707599999997 24.7291739700000015 -0.0279867300000000 Au
atom 13.0527909199999996 24.7708476699999984 -0.1237234800000000 Au
atom 15.9134002199999998 24.7657458400000010 0.0290837100000000 Au
atom 18.7291329500000003 24.7478707000000000 -0.2424604500000000 Au
atom 21.5083356300000013 24.7309509699999985 -0.0875446500000000 Au
atom 24.3033346600000009 24.7606107999999985 0.1673819400000000 Au
atom 27.0972520900000013 24.7714929599999998 0.1831111300000000 Au
atom 1.7744431000000001 24.7319255099999999 0.2461908400000000 Au
atom 4.6330326099999999 24.6651197400000015 0.1854766500000000 Au
atom 8.8649992399999995 27.0933669700000017 0.0792312200000000 Au
atom 11.7078968999999997 27.2087165000000013 0.0304494500000000 Au
atom 14.4984661399999997 27.1639280800000016 -0.0780710400000000 Au
atom 17.3852033100000014 27.1993347999999990 -0.1284599800000000 Au
atom 20.2450513000000001 27.3514319000000015 -0.1297406900000000 Au
atom 22.9686062600000014 27.3146720000000016 0.0027539700000000 Au
atom 25.7305549499999984 27.1734627300000007 0.1984546700000000 Au
atom 0.3640770100000000 27.1434730900000005 0.1245171300000000 Au
atom 3.1578770600000001 27.0872421999999986 0.0548509700000000 Au
atom 6.0556850899999999 27.0427866399999992 -0.0774653200000000 Au
atom 7.4792253200000003 29.5494178299999994 0.1623473300000000 Au
atom 10.2561056399999995 29.5906290399999996 0.0580311900000000 Au
atom 13.1911046800000005 29.5690256100000006 0.2126583200000000 Au
atom 15.9888315300000006 29.6846362699999986 0.0516874600000000 Au
atom 18.7636379200000007 29.6898599899999986 0.0881200600000000 Au
atom 21.5089231000000005 29.7742214599999997 0.1905151300000000 Au
atom 24.4165802200000002 29.7208151799999989 0.2945612200000000 Au
atom 27.2396758000000005 29.5764126300000001 0.1272685900000000 Au
atom 1.8412656900000000 29.6562784000000015 0.0478574400000000 Au
atom 4.7123781500000002 29.4792035299999995 0.0116137900000000 Au
atom 8.9313805800000008 32.0652439599999965 0.0588911900000000 Au
atom 11.7405938200000008 32.1225480200000035 0.0510922500000000 Au
atom 14.5129968300000005 32.0625389200000015 0.0018229900000000 Au
atom 17.3608688200000003 32.1236867799999999 -0.0076349800000000 Au
atom 20.1609314499999996 32.1441593999999995 -0.0804033800000000 Au
atom 23.0044433800000014 32.0912325700000025 0.1418843100000000 Au
atom 25.9014746900000006 32.1258489900000015 0.0541904100000000 Au
atom 0.4794541400000000 32.1112529199999983 -0.1088920200000000 Au
atom 3.3655438499999999 32.0223935300000022 0.0181618200000000 Au
atom 6.1127935600000001 32.0483968699999977 0.0173750500000000 Au
atom 7.6126278500000000 34.4673411899999991 -0.0975516600000000 Au
atom 10.4224821100000007 34.6088001600000013 0.0153053300000000 Au
atom 13.2267924099999998 34.5815572300000014 0.0607636400000000 Au
atom 15.9712737100000002 34.5550089299999996 -0.1025751500000000 Au
atom 18.8053699899999991 34.6526944900000018 0.0942957000000000 Au
atom 21.5355579299999995 34.5690033400000019 -0.1042120900000000 Au
atom 24.3633657600000006 34.5194662199999982 0.0777246300000000 Au
atom 27.2139369600000016 34.5746064399999966 -0.0963622300000000 Au
atom 1.8931589600000001 34.5316146099999983 -0.1502513800000000 Au
atom 4.7264211100000004 34.5062965600000027 -0.0132269000000000 Au
atom 8.8963342300000008 36.9855301999999995 -0.0318056500000000 Au
atom 11.7692596199999997 37.0484045399999999 0.0784238300000000 Au
atom 14.5404926299999993 37.0343819599999975 -0.1304470500000000 Au
atom 17.3175562399999983 36.9987839699999981 0.0500251100000000 Au
atom 20.1827957600000012 37.0591884299999990 -0.0953159100000000 Au
atom 23.0005588600000017 37.0878202299999984 -0.0382012500000000 Au
atom 25.9177051499999997 37.0102930199999989 -0.1751898200000000 Au
atom 0.4204109300000000 37.0004736500000035 0.0538915500000000 Au
atom 3.2295660200000000 36.9310164400000005 -0.0362835900000000 Au
atom 6.0753158300000001 37.0049158200000008 -0.1536331400000000 Au
atom 7.5200707199999997 0.0107854500000000 -0.1027834100000000 Au
atom 10.3260576499999992 -0.0404649500000000 -0.0032077200000000 Au
atom 13.1280346899999998 0.0950550900000000 -0.0772625300000000 Au
atom 15.9197601500000001 0.1123006900000000 0.0238096000000000 Au
atom 18.8377334400000009 0.0108956500000000 0.0288116900000000 Au
atom 21.6347955700000014 0.0092991700000000 0.1490416700000000 Au
atom 24.5047945399999989 -0.0513893400000000 -0.0880942700000000 Au
atom 27.3328270000000018 -0.0055151100000000 0.1981656400000000 Au
atom 1.9351444900000001 -0.0531556200000000 0.2340040300000000 Au
atom 4.7165103899999998 -0.1094655500000000 0.2438630300000000 Au
atom 8.9062304799999996 2.5195650800000000 -0.1320611500000000 Au
atom 11.7041789900000008 2.4720525599999998 -0.1408235600000000 Au
atom 14.5005612199999998 2.5533940199999998 0.1703328500000000 Au
atom 17.3894602800000015 2.5498345800000002 0.0822790300000000 Au
atom 20.1441534900000008 2.4769583399999999 0.2035713300000000 Au
atom 23.0603161099999987 2.4657966199999999 0.0207880200000000 Au
atom 25.9346104000000004 2.3872806400000002 0.2273111000000000 Au
atom 0.5240720000000000 2.4521167600000000 0.1573348600000000 Au
atom 3.2955292599999999 2.4396935700000002 0.1384444000000000 Au
atom 6.1393738600000001 2.4207797000000002 0.0694944700000000 Au
atom 7.4415680200000001 4.9391789099999999 0.0075362800000000 Au
atom 10.2245914700000000 4.8967419699999999 -0.0842376000000000 Au
atom 13.0808314800000005 4.9605255499999998 0.0415819400000000 Au
atom 15.9287880299999998 4.9592200899999996 0.1044156800000000 Au
atom 18.7400876899999993 4.9896898800000002 0.0365278700000000 Au
atom 21.5795746199999989 4.9472988800000000 0.0673833400000000 Au
atom 24.4416317099999993 4.9051955800000000 0.3719456900000000 Au
atom 27.2409709199999988 4.8873885599999998 0.3180290700000000 Au
atom 1.9363321400000000 4.9412338299999998 0.1594205500000000 Au
atom 4.6897307000000001 4.9414576099999996 0.1490606600000000 Au
atom 8.9203322899999993 7.4491721499999999 0.0328727400000000 Au
atom 11.6981686499999995 7.3935764800000001 0.1715553500000000 Au
atom 14.4978067300000006 7.4690795100000003 0.1537801600000000 Au
atom 17.3277596299999992 7.5412847999999997 0.1423332600000000 Au
atom 20.1639851899999982 7.4370677199999999 0.0385113900000000 Au
atom 23.0100877200000014 7.3669243599999996 0.2361845600000000 Au
atom 25.8654706999999995 7.3736680699999999 0.2900586700000000 Au
atom 0.4120847600000000 7.3862451199999999 0.1946848100000000 Au
atom 3.2368085199999999 7.4132141899999997 0.2054812000000000 Au
atom 6.0744380600000003 7.4242383700000003 0.0904359100000000 Au
atom 7.5237584499999999 9.8577629200000008 0.0355103400000000 Au
atom 10.3629520100000008 9.9082261099999993 0.0711385700000000 Au
atom 13.1286366099999992 9.8478785700000007 -0.1722597800000000 Au
atom 15.9322634799999996 9.8843820400000002 -0.2547283200000000 Au
atom 18.7989823600000001 9.9093361899999994 -0.1734637600000000 Au
atom 21.5785922200000009 9.8748551399999993 -0.0523031300000000 Au
atom 24.4394168200000017 9.8480610599999991 -0.1012555200000000 Au
atom 27.2191859899999997 9.9517126000000005 -0.0056049500000000 Au
atom 1.8511274000000000 9.8556305099999992 -0.0459226100000000 Au
atom 4.6213713500000004 9.8826232300000001 0.0309692400000000 Au
atom 8.9817820200000007 12.3213329500000004 0.0734367300000000 Au
atom 11.7999148900000002 12.4267948599999993 -0.1822231300000000 Au
atom 14.5581763500000001 12.3334308200000002 -0.4332525600000000 Au
atom 17.3628226999999988 12.3647617499999996 -0.3749950200000000 Au
atom 20.2261984499999983 12.3189856100000004 -0.3719850800000000 Au
atom 23.0078072099999993 12.3524957000000004 -0.3774263300000000 Au
atom 25.7503969599999998 12.4440857499999993 -0.1239209300000000 Au
atom 0.4443739100000000 12.3764139499999999 -0.2673028400000000 Au
atom 3.2447414399999999 12.4414424100000005 -0.2569944000000000 Au
atom 6.0888642700000002 12.2681619099999999 -0.2069243700000000 Au
atom 7.4501417900000000 13.2644949800000003 2.5417467600000001 Au
atom 10.2869907499999993 13.2784925499999993 2.5130010100000000 Au
atom 13.1681498099999992 13.3131949400000007 2.3643041600000001 Au
atom 15.9600448900000007 13.2460697399999994 2.2852463900000002 Au
atom 18.7993293100000010 13.2186552899999992 2.2422394699999999 Au
atom 21.5574399499999991 13.1235195299999994 2.2946972699999999 Au
atom 24.4089275299999997 13.1594885399999999 2.4777595400000001 Au
atom 27.2509052999999994 13.2326562600000006 2.3792177600000000 Au
atom 1.8428496000000001 13.2411007400000003 2.3039588000000002 Au
atom 4.5893372699999997 13.1899434000000007 2.3651414700000002 Au
atom 8.9098534899999997 15.6518028900000008 2.2616388600000001 Au
atom 11.7006467199999999 15.6729797299999998 2.1082344800000001 Au
atom 14.4877159399999993 15.7482482899999994 2.1232093999999999 Au
atom 17.3790897899999983 15.6866280600000003 2.4317726999999998 Au
atom 20.2158357299999984 15.6457670699999998 2.3296805900000002 Au
atom 23.0169506599999991 15.6085131100000005 2.3497918400000000 Au
atom 25.8516066600000016 15.5992891500000006 2.4014715700000000 Au
atom 0.4333418100000000 15.6602879200000000 2.3531471700000002 Au
atom 3.2603901400000002 15.6430204100000001 2.3648243600000001 Au
atom 6.0286201200000002 15.6148774199999991 2.4011269000000000 Au
atom 7.4990981899999998 18.0944767599999992 2.7342678000000000 Au
atom 10.2836200899999994 18.1015512600000008 2.2949996200000000 Au
atom 13.0610595699999994 18.1761307300000006 2.0823076899999999 Au
atom 15.9763424999999994 18.1488416599999987 2.2340699399999999 Au
atom 18.7485707999999995 18.1821402100000000 2.3105032500000000 Au
atom 21.6032505499999985 18.1099113799999998 2.5604584099999999 Au
atom 24.4124541499999985 18.1039725900000015 2.4704602699999998 Au
atom 27.1499811000000015 18.1258547199999995 2.4663265999999999 Au
atom 1.7561441300000000 18.0924344300000008 2.4162987800000000 Au
atom 4.6184809500000004 18.0663156600000008 2.5636199300000002 Au
atom 8.8340156099999998 20.6018190300000015 2.8238544999999999 Au
atom 11.6666901900000006 20.5847443800000001 2.3569659999999999 Au
atom 14.5458023300000008 20.6112691999999988 2.3572381400000002 Au
atom 17.3253039700000002 20.7114072799999995 2.4655982999999999 Au
atom 20.1770512099999983 20.6608798399999998 2.5066243699999999 Au
atom 22.9610061899999991 20.6296617200000014 2.4335927700000002 Au
atom 25.7110460200000013 20.6380829199999987 2.5701758300000002 Au
atom 0.3845430400000000 20.5886015499999999 2.7929739300000000 Au
atom 3.1712172299999999 20.6196865400000000 2.5783001799999998 Au
atom 6.0205097700000003 20.4799784799999998 2.7537544299999999 Au
atom 7.3480705700000000 23.0534448900000015 2.9257192900000000 Au
atom 10.2841627300000003 23.1195006700000008 2.6352581200000000 Au
atom 13.1366873599999998 23.0784063699999997 2.3077634800000002 Au
atom 15.8283278299999992 23.1587420100000010 2.5828425699999999 Au
atom 18.7481814399999998 23.0817949499999990 2.4337003600000000 Au
atom 21.5143273700000002 23.1291658499999997 2.5887910500000002 Au
atom 24.2918855700000016 23.0842833100000000 2.6610445700000001 Au
atom 27.1767021900000003 23.0577137500000013 2.9443761400000001 Au
atom 1.8095198299999999 23.1110169799999987 2.6545263299999999 Au
atom 4.5448795400000002 23.0438527899999990 2.8193013100000002 Au
atom 8.8808669099999999 25.5277775700000014 2.7419120800000001 Au
atom 11.7494273699999994 25.4586991500000011 2.6818892700000001 Au
atom 14.4744354200000007 25.5816525000000006 2.6214249100000000 Au
atom 17.2824249399999985 25.5244218399999987 2.5027233799999999 Au
atom 20.0923520800000013 25.5985389199999993 2.4803146300000001 Au
atom 22.9220359500000015 25.5968360299999986 2.5329331800000001 Au
atom 25.6944723199999991 25.4971215800000017 2.9416328599999999 Au
atom 0.3173817100000000 25.5190754800000015 2.8468461000000000 Au
atom 3.2228295199999999 25.5660785100000005 2.8355289199999998 Au
atom 6.0180729399999997 25.4685611399999985 2.7895974099999998 Au
atom 7.4233663800000000 27.9165507200000000 2.6450268100000001 Au
atom 10.3435003099999996 28.0015161600000013 2.6300583600000000 Au
atom 13.0693559399999994 27.9697643599999992 2.5966131400000001 Au
atom 15.8915479299999998 28.1277042000000002 2.4261313900000001 Au
atom 18.7448597899999996 28.0587286800000015 2.4537997599999999 Au
atom 21.5522965699999993 28.0353591299999998 2.6414986100000002 Au
atom 24.4125738199999986 28.0228957299999983 2.8423257099999999 Au
atom 27.2127854599999992 27.8943800599999996 2.8663245900000001 Au
atom 1.7365664700000001 27.9980364699999988 2.6257760000000001 Au
atom 4.6175838100000002 27.9315279799999985 2.6674662599999999 Au
atom 8.8647921400000005 30.4241640599999990 2.7299330600000000 Au
atom 11.7006518100000001 30.5033048200000003 2.6755475600000000 Au
atom 14.4821641600000000 30.5155552300000004 2.7533888800000001 Au
atom 17.3322724199999989 30.5131390399999987 2.6608914299999999 Au
atom 20.1925971100000012 30.6256996199999989 2.6725390899999999 Au
atom 22.9360476300000009 30.5146846399999987 2.9028976000000002 Au
atom 25.8340149900000000 30.4684003600000004 2.7534230000000002 Au
atom 0.2919135300000000 30.5089184700000011 2.7598589800000002 Au
atom 3.2717963999999999 30.3718395500000007 2.6734253099999998 Au
atom 6.0744246600000000 30.4302520399999992 2.6186667699999999 Au
atom 7.4609207499999997 32.8954354899999970 2.5752240999999998 Au
atom 10.2763513300000007 32.9662143400000005 2.6671075700000002 Au
atom 13.1227879400000003 32.9352870600000003 2.6802419500000001 Au
atom 15.9256686100000007 32.9575762699999970 2.5986035300000001 Au
atom 18.7814297900000007 32.9793274399999987 2.5895654299999999 Au
atom 21.5608601399999991 33.0349091400000034 2.5619086300000000 Au
atom 24.3862485000000007 32.8764791600000024 2.5253221699999999 Au
atom 27.1670765000000003 32.8878907699999985 2.5446957399999999 Au
atom 1.8264082600000000 32.8001931499999984 2.4850458899999999 Au
atom 4.6409393000000003 32.8960971599999965 2.6725137999999999 Au
atom 9.0027765199999994 35.4101847700000008 2.6322427700000000 Au
atom 11.8422197899999997 35.4304321899999977 2.7722164800000000 Au
atom 14.6637979299999994 35.4954522999999966 2.5655139999999999 Au
atom 17.3791173599999986 35.3517660999999990 2.6847890099999998 Au
atom 20.2031394099999986 35.4730322400000020 2.6121568399999999 Au
atom 22.9957945300000013 35.3935207800000029 2.6295199700000000 Au
atom 25.7654996300000008 35.3483459999999994 2.5119695200000001 Au
atom 0.4255989700000000 35.3084738900000019 2.5720975199999998 Au
atom 3.2519624399999998 35.3077744899999999 2.5304784499999999 Au
atom 6.0987958799999999 35.3439966999999982 2.5922074199999998 Au
atom 7.4578322999999997 37.8833861199999973 2.4105736400000000 Au
atom 10.3315702900000002 37.8160901899999971 2.5377942500000001 Au
atom 13.2270461099999999 37.8708633899999967 2.5317335800000000 Au
atom 16.0443655499999984 37.8984887599999993 2.5851470299999999 Au
atom 18.8219427099999983 37.9022368199999988 2.5191845499999999 Au
atom 21.6084368900000001 37.8177989699999983 2.8103942800000001 Au
atom 24.3808203399999996 37.8387532500000034 2.4840374999999999 Au
atom 27.3372744800000014 37.7193854499999972 2.7329547999999999 Au
atom 1.9395808800000001 37.8692804300000034 2.5991376200000000 Au
atom 4.6947768400000003 37.7577157500000027 2.7306897299999999 Au
atom 8.9264222199999992 0.7392845800000000 2.6296531500000002 Au
atom 11.7653374799999995 0.8670994300000000 2.5317236400000001 Au
atom 14.5812151399999994 0.9159644800000000 2.7084018200000002 Au
atom 17.3679769200000003 0.9258912600000000 2.5911897300000000 Au
atom 20.2399702099999992 0.8325045300000000 2.7852277399999998 Au
atom 23.1402891799999999 0.8549981300000000 2.5601967900000000 Au
atom 25.9144725999999999 0.7478943800000000 2.7705834000000000 Au
atom 0.5964672900000000 0.7628256400000000 2.8006675099999998 Au
atom 3.3962661999999999 0.7798746400000000 2.8038268300000002 Au
atom 6.1594795800000002 0.8357977200000000 2.6761890699999999 Au
atom 7.5585983299999997 3.3601765700000001 2.6594688500000001 Au
atom 10.2905394200000000 3.2001036799999998 2.5864995500000001 Au
atom 13.0957910799999997 3.4038311600000002 2.6867412900000001 Au
atom 15.9641077899999999 3.3900704199999998 2.7671960699999998 Au
atom 18.7561675200000018 3.3875534699999998 2.7326802099999998 Au
atom 21.6707884399999990 3.4063878200000000 2.6592588500000001 Au
atom 24.4185497600000012 3.3184263100000000 2.8178172300000002 Au
atom 27.2843493799999983 3.2787737199999998 2.8232227299999999 Au
atom 1.9007026199999999 3.2726722399999999 2.7281685599999999 Au
atom 4.8002500899999996 3.3365541799999998 2.6006816499999998 Au
atom 8.9175031800000006 5.7994989300000004 2.5898369799999998 Au
atom 11.6946024800000004 5.7582887800000000 2.6695549100000000 Au
atom 14.5829400800000002 5.8526061800000004 2.7667438999999998 Au
atom 17.4311477500000009 5.9002633900000001 2.6634108799999998 Au
atom 20.2577156500000015 5.9004722799999998 2.7167289900000000 Au
atom 23.0367819199999992 5.8830228599999996 2.8930461300000001 Au
atom 25.8757778899999984 5.8187715799999999 2.8566536199999999 Au
atom 0.5192847600000000 5.7984170800000001 2.8165557799999998 Au
atom 3.3075432700000000 5.7822152300000003 2.9322971500000001 Au
atom 6.0971661099999999 5.7668680900000000 2.8396208100000000 Au
atom 7.4861736499999996 8.3042340200000009 2.6557874400000001 Au
atom 10.2658548900000000 8.2764047299999994 2.6572396800000000 Au
atom 13.0834560900000003 8.4365516800000009 2.7376203299999999 Au
atom 15.8796910499999999 8.3916553000000000 2.6657698999999999 Au
atom 18.7706528800000001 8.3586619399999993 2.6598580400000000 Au
atom 21.5860985499999991 8.3379438799999992 2.6548089600000000 Au
atom 24.3759565999999985 8.2955299199999999 2.8153299100000000 Au
atom 27.1973039700000001 8.2923098199999998 2.8191376799999999 Au
atom 1.8680458499999999 8.2732088000000008 2.6010124299999999 Au
atom 4.6609672499999997 8.3002150599999993 2.8041296000000000 Au
atom 8.8960038800000003 10.8118769900000000 2.6675267599999999 Au
atom 11.7340801799999994 10.8295912800000007 2.4492515500000001 Au
atom 14.4839698899999991 10.8382024099999992 2.3395510200000000 Au
atom 17.2517111000000014 10.7753745900000002 2.3821884000000000 Au
atom 20.1034430499999992 10.7713605900000005 2.4475227899999998 Au
atom 22.9918743799999987 10.7378771700000009 2.4216743799999998 Au
atom 25.7527040300000003 10.7852233200000001 2.5268768700000002 Au
atom 0.4478654900000000 10.7157079500000005 2.5688756599999998 Au
atom 3.1914843799999999 10.7806068400000008 2.5408883200000001 Au
atom 6.0551308800000001 10.7682500799999996 2.6065970400000000 Au
atom 7.7863612900000003 12.8541983299999991 5.7644509099999999 Cl
atom 7.7605572399999998 15.9476401100000000 8.2471139699999991 Cl
atom 7.4964163900000003 13.1327884400000006 8.4429559500000000 Na
atom 7.6276562900000000 16.0333040999999987 5.4298079299999999 Na
atom 7.4598492299999997 18.7668934000000007 5.6010995899999996 Cl
atom 7.7836001799999996 21.5480738100000018 8.5330965899999995 Cl
atom 7.6824138599999996 18.8781921799999992 8.1509974599999993 Na
atom 7.5817695199999999 21.6719765399999993 5.7068974399999997 Na
atom 7.4629039199999996 24.4315897799999995 5.6996314100000003 Cl
atom 7.7263114799999997 27.1133118899999985 8.6004955899999995 Cl
atom 7.8019713299999998 24.2941582099999991 8.2837516099999995 Na
atom 7.4889242400000002 27.2771466899999986 5.7537782399999999 Na
atom 7.5385870700000002 29.9251780700000012 5.7691505999999997 Cl
atom 7.5767840299999998 32.8087287800000027 8.4683625500000002 Cl
atom 7.7368354899999998 30.0391740300000016 8.4007773500000003 Na
atom 7.6386759299999998 32.7861051599999982 5.8092141200000000 Na
atom 7.8377708999999998 35.6803769099999997 5.5531231200000004 Cl
atom 7.5867186200000001 38.4379246100000032 8.3809379199999992 Cl
atom 7.5781015299999996 35.6006679300000002 8.1938684599999991 Na
atom 7.5798119899999996 38.5404444600000033 5.6542887600000000 Na
atom 7.6217696600000000 1.8312158900000000 5.7646847699999997 Cl
atom 7.7063287000000003 4.6077415899999998 8.7446440100000000 Cl
atom 7.6233810799999997 1.7431752100000000 8.4265518700000008 Na
atom 7.6923844199999998 4.5907016499999997 5.9688206099999999 Na
atom 7.6842947600000002 7.3483514100000003 5.6817480500000004 Cl
atom 7.4929095800000001 10.1102606000000002 8.2306630700000003 Cl
atom 7.6602882399999999 7.5035931800000002 8.3757479299999993 Na
atom 7.6184466799999999 10.0501392799999998 5.6082820000000000 Na
atom 10.5537056800000002 12.9273652200000004 5.8410468800000004 Na
atom 13.2950675700000005 12.9916471399999995 5.2899838900000002 Cl
atom 10.4691580200000001 15.9738989000000000 7.9602963999999998 Na
atom 13.5816389900000001 15.9991363399999997 7.9750125299999999 Cl
atom 13.5821497200000003 13.1885590799999992 8.0981122899999995 Na
atom 10.9871938700000005 13.4958878700000007 8.4093386999999993 Cl
atom 13.3241783100000006 15.8920026500000002 5.4440045100000001 Na
atom 10.4866190800000005 16.0124322300000017 5.2414999199999999 Cl
atom 10.5161207799999996 18.8291937300000001 5.4845395400000001 Na
atom 13.4104221199999998 18.8339957600000005 5.2047497700000003 Cl
atom 10.6155342200000007 21.3681964200000003 8.1859315299999995 Na
atom 13.4137617299999992 21.4513771599999998 8.3058680900000006 Cl
atom 13.2657255799999998 18.6477592100000003 7.9411233200000000 Na
atom 10.4749544700000001 18.5915806699999990 8.3710977700000004 Cl
atom 13.1767200300000002 21.5728921100000015 5.5639380899999997 Na
atom 10.4685603500000006 21.4107148400000007 5.5549796499999999 Cl
atom 10.6290324700000003 24.2583729699999999 5.6355437100000003 Na
atom 13.2960876999999993 24.4100655899999985 5.7400864199999999 Cl
atom 10.4887493000000003 27.1697164899999990 8.2394761699999997 Na
atom 13.3757466600000008 27.0646519400000010 8.5784078699999995 Cl
atom 13.4327925900000000 24.3694217500000008 8.3321054900000000 Na
atom 10.5282984699999993 24.1354891400000007 8.4244818400000003 Cl
atom 13.2796418000000003 26.9904648700000003 5.4309225400000001 Na
atom 10.3533175600000007 27.1678289799999995 5.7496613200000004 Cl
atom 10.4352784900000000 29.9607526399999990 5.6754585200000003 Na
atom 13.4681442300000001 29.7702783400000008 5.7421297700000000 Cl
atom 10.4795643300000005 32.7744399400000006 8.2320193400000008 Na
atom 13.3401385399999999 32.7038827100000020 8.4790053299999997 Cl
atom 13.2757888299999998 29.8541007100000009 8.2064592699999999 Na
atom 10.4723855599999993 30.0668185100000009 8.4595024999999993 Cl
atom 13.2762040300000006 32.6814847799999981 5.7405215099999998 Na
atom 10.6548022099999997 32.5948666500000002 5.5395975399999999 Cl
atom 10.4979846999999999 35.6243471499999984 5.6545975700000000 Na
atom 13.3733174899999998 35.7181659800000020 5.5855404399999999 Cl
atom 10.4636674500000009 38.4847571199999976 8.3079004699999999 Na
atom 13.3810050799999996 38.5207059099999967 8.5004321600000008 Cl
atom 13.2804822999999992 35.5960544100000007 8.2333327900000004 Na
atom 10.4855979900000005 35.6509321099999994 8.4804934099999993 Cl
atom 13.4717599299999993 38.4695559000000031 5.8328011300000000 Na
atom 10.4622029800000007 38.5633472499999996 5.7394484400000003 Cl
atom 10.4980801899999996 1.8252661400000001 5.7321380000000000 Na
atom 13.2208531699999998 1.8104153999999999 5.7956664800000004 Cl
atom 10.4782879799999993 4.6624511999999996 8.3890182299999996 Na
atom 13.2405050099999997 4.7855492899999996 8.5805188399999999 Cl
atom 13.1899580800000003 1.8512468799999999 8.3865671699999993 Na
atom 10.3777835500000002 1.6813953500000001 8.5547592399999992 Cl
atom 13.1824694299999994 4.7486793199999999 5.7874901899999998 Na
atom 10.4669392699999992 4.6437452199999996 5.7336931199999999 Cl
atom 10.4428280299999994 7.5040305600000003 5.8716780399999999 Na
atom 13.3105020900000000 7.5021005900000004 5.7360525999999998 Cl
atom 10.5152817899999995 10.6594639200000003 8.6853282800000002 Na
atom 13.3418530999999998 10.3199415900000009 8.6680466700000007 Cl
atom 13.3326212500000008 7.6664366199999998 8.4292031600000001 Na
atom 10.3762153099999992 7.6592551400000000 8.7202589699999997 Cl
atom 13.4053769099999993 10.2884415300000001 5.8301473100000001 Na
atom 10.6540593300000008 10.2405095100000008 5.8644069099999996 Cl
atom 16.2139290799999998 13.0476065200000004 5.4706974199999996 Na
atom 19.0286326099999989 12.9365233600000007 5.4312475200000003 Cl
atom 16.2773451700000003 15.9388850899999994 7.9207051300000000 Na
atom 19.1109593300000000 15.8269188900000000 8.1246981199999997 Cl
atom 19.0393556100000012 13.0930430100000006 8.1161039899999992 Na
atom 16.3764374699999991 13.1637971300000007 8.3702782899999999 Cl
atom 19.0930116199999986 15.8983070499999997 5.3600653500000002 Na
atom 16.1130441200000014 15.8017990200000007 5.2490813000000003 Cl
atom 16.0966884700000001 18.9724070900000008 5.3222879599999997 Na
atom 18.9984300700000013 18.5034646999999985 5.0930329800000003 Cl
atom 16.1486111399999999 21.4899859800000002 7.9068687700000000 Na
atom 18.9086287099999986 21.5720795400000007 7.7850321100000004 Cl
atom 18.9675827499999983 18.9066680299999987 7.6385854799999997 Na
atom 16.2568071600000010 18.7129982800000008 8.1214970300000004 Cl
atom 18.7725522200000015 21.6961512399999989 5.2103577599999999 Na
atom 15.9522551700000008 21.6012175000000006 5.3615765900000003 Cl
atom 16.1290705099999983 24.4005752200000003 5.5028158600000001 Na
atom 19.0245552499999988 24.4649339700000006 5.4665871800000003 Cl
atom 16.0499643899999995 27.1837314100000000 8.0638473800000003 Na
atom 18.6484533799999994 27.2543216400000006 8.4263750500000008 Cl
atom 18.8418598800000012 24.4181744000000016 8.1659087100000001 Na
atom 16.0972629100000013 24.3226580000000006 8.2281668499999991 Cl
atom 18.9780441300000007 27.1825777100000003 5.6735361400000004 Na
atom 16.1564296399999989 27.1043031499999998 5.4591911000000000 Cl
atom 16.1663405000000004 29.9256255399999986 5.7191984299999996 Na
atom 18.8779970100000014 30.0121403800000017 5.6337438400000002 Cl
atom 16.0716069600000004 32.6519416800000002 8.3469086699999995 Na
atom 18.7169667500000010 32.6613304700000029 8.6040880699999995 Cl
atom 18.9264965099999998 29.9626149800000015 8.1451068200000005 Na
atom 16.1097731000000017 29.8804924099999987 8.4833040700000009 Cl
atom 18.7552586000000012 32.7902062900000004 5.9256013999999997 Na
atom 15.9582806000000001 32.7901962500000010 5.7988906599999996 Cl
atom 16.2197737500000017 35.6982909600000013 5.8300319099999998 Na
atom 18.9945196400000000 35.5703138100000018 5.6858641900000002 Cl
atom 16.1194333299999997 38.5349964700000029 8.2956148699999996 Na
atom 18.9239876600000017 38.4454804499999980 8.6180593400000003 Cl
atom 18.9111235899999990 35.7720866000000015 8.3317224200000002 Na
atom 16.1633346499999995 35.6636806899999996 8.5503564099999991 Cl
atom 18.9812592600000016 38.4818876399999965 5.7335735799999998 Na