#===============================================================================
# Created using the Atomic Simulation Environment (ASE)

# Tue Dec 23 22:26:51 2025

#=======================================================
lattice_vector 28.1999999999999993 0.0000000000000000 0.0000000000000000 
lattice_vector 0.0000000000000000 39.4799999999999969 0.0000000000000000 
lattice_vector 0.0000000000000000 0.0000000000000000 62.3296083400000001 
atom 7.4684897100000001 14.8139740500000006 0.0709075400000000 Au
atom 10.3213745400000008 14.7533751599999992 -0.0701567200000000 Au
atom 13.1639425299999999 14.7758881800000008 -0.0732978100000000 Au
atom 16.0582334799999984 14.7900755400000001 -0.0489867200000000 Au
atom 18.7901390500000005 14.7658885000000009 -0.6966167700000000 Au
atom 21.6900233799999995 14.8595452300000002 -0.4292755200000000 Au
atom 24.4113584999999986 14.7352783100000000 -1.0168663300000000 Au
atom 26.2813068299999983 14.7385290100000006 -0.4983994900000000 Au
atom 2.7981145100000000 14.7564311900000007 -0.0509959800000000 Au
atom 4.6131520600000000 14.8158357299999999 0.0199156000000000 Au
atom 8.9800552000000007 17.2498549799999985 -0.0002124000000000 Au
atom 11.8236031300000004 17.2935076000000016 0.0603174900000000 Au
atom 14.6078721700000003 17.2041147400000014 0.0664347000000000 Au
atom 17.5327301200000001 17.1916593599999992 -0.0038441600000000 Au
atom 20.4084212299999983 17.2804106799999992 -0.6455557500000000 Au
atom 23.1928044100000008 16.9981047700000012 0.2589798400000000 Au
atom 25.8613512800000009 17.2198926599999993 -0.6503609200000000 Au
atom 0.3791236000000000 17.3004818799999995 -0.1354416000000000 Au
atom 3.2282708699999998 17.2516833900000002 -0.0168823200000000 Au
atom 6.1636474100000003 17.2821197600000005 0.1080269900000000 Au
atom 7.5559277600000003 19.7374883200000006 0.0075116800000000 Au
atom 10.3170653800000007 19.7956307799999998 0.0369643000000000 Au
atom 13.2205429100000007 19.7128416800000004 -0.0041290600000000 Au
atom 16.0691269100000014 19.7032634100000017 0.0821331200000000 Au
atom 18.9316595300000010 19.6394906200000001 0.0509355800000000 Au
atom 21.6803202100000014 19.5966116600000007 0.0929588800000000 Au
atom 24.4256659999999997 19.5378314199999998 0.1575353700000000 Au
atom 27.2080380499999990 19.7596096000000010 0.0219209100000000 Au
atom 1.8761740600000001 19.7744153699999998 -0.0450022000000000 Au
atom 4.7510485899999999 19.7436829399999993 0.0123145500000000 Au
atom 8.9086370299999995 22.2215712100000005 0.1309199500000000 Au
atom 11.7136471100000001 22.1971201499999999 -0.0571474000000000 Au
atom 14.5466047799999991 22.1700067499999989 -0.0384352500000000 Au
atom 17.4091047900000007 22.2363486200000011 0.0704668100000000 Au
atom 20.2097779399999986 22.1503206900000009 0.2097098000000000 Au
atom 23.0166499400000006 22.1400698200000008 0.0789350000000000 Au
atom 25.9077631500000010 22.2335467199999997 0.1932567600000000 Au
atom 0.4901107100000000 22.2620876000000010 0.1325772600000000 Au
atom 3.2749270199999998 22.2070986599999998 0.0390809200000000 Au
atom 6.1075756500000002 22.2619908799999990 0.0559071300000000 Au
atom 7.4634337700000000 24.7003245199999988 0.2487042900000000 Au
atom 10.3140029700000007 24.7278028300000017 0.0341117000000000 Au
atom 13.1819722400000003 24.7078600199999983 -0.0041868300000000 Au
atom 15.9335645299999999 24.6693022900000010 -0.0642421000000000 Au
atom 18.7811541400000017 24.6696893499999987 0.1226920900000000 Au
atom 21.6003375099999992 24.6512786300000002 -0.1322898900000000 Au
atom 24.4201386900000017 24.7277111400000003 0.1189504900000000 Au
atom 27.2849385099999999 24.7564348400000007 -0.0077420100000000 Au
atom 1.8783840400000000 24.7182642600000015 0.0757422900000000 Au
atom 4.6627108599999998 24.7104871700000004 0.0610139400000000 Au
atom 8.9275990200000006 27.1913049999999998 0.1036529000000000 Au
atom 11.7362729600000009 27.1685860999999989 0.1314481000000000 Au
atom 14.5714449100000003 27.1975572899999989 0.2307496300000000 Au
atom 17.3876693099999997 27.1245171399999982 0.1424741000000000 Au
atom 20.2165542299999998 27.0902451000000006 0.0246421200000000 Au
atom 23.0370401399999984 27.1738526200000017 0.1786609100000000 Au
atom 25.8436536600000011 27.2136184499999985 0.1977797400000000 Au
atom 0.5251802000000000 27.1959182099999985 0.0246370900000000 Au
atom 3.3192050399999999 27.1441553499999984 0.0730185500000000 Au
atom 6.1588071700000002 27.1522821500000013 0.0869213900000000 Au
atom 7.4804022699999999 29.6762802800000003 -0.0146156500000000 Au
atom 10.2739666399999994 29.6196977200000013 0.0698361100000000 Au
atom 13.1079901200000002 29.6201936400000001 -0.0567166400000000 Au
atom 15.9691026800000007 29.5873812899999997 -0.0010730900000000 Au
atom 18.8198735399999997 29.5312654700000010 -0.0318791100000000 Au
atom 21.5994632300000013 29.5642004999999983 -0.0572944700000000 Au
atom 24.4351116399999988 29.6941557799999991 0.0647278800000000 Au
atom 27.2243741600000000 29.6902021299999994 0.0822792300000000 Au
atom 1.9266414900000000 29.5970426499999988 -0.1018109100000000 Au
atom 4.7283124499999998 29.6389820099999994 -0.0032974900000000 Au
atom 8.8872305899999997 32.1187191400000032 -0.0328463500000000 Au
atom 11.7636104699999997 32.0568522200000032 -0.0189144800000000 Au
atom 14.5594735499999999 32.0748859199999998 0.1577372200000000 Au
atom 17.3841078399999986 32.0428527299999999 -0.1921744500000000 Au
atom 20.1870273100000013 32.0534805100000000 -0.0544825200000000 Au
atom 22.9688995799999987 32.1289333799999994 -0.0537257700000000 Au
atom 25.7999449200000015 32.1527723600000002 -0.0289954700000000 Au
atom 0.3999208600000000 32.1126075999999969 -0.0321875300000000 Au
atom 3.2208869800000000 32.0820877100000033 -0.0665004900000000 Au
atom 6.0433592899999997 32.1309676699999969 -0.2107335500000000 Au
atom 7.4212936599999999 34.5717106000000030 -0.0430266200000000 Au
atom 10.3081083499999995 34.5240362500000018 -0.0664156300000000 Au
atom 13.1404314200000005 34.5624656199999976 -0.0469366500000000 Au
atom 15.9894956100000005 34.5016743600000027 0.0276754700000000 Au
atom 18.7769308799999983 34.5249847999999986 0.0395662200000000 Au
atom 21.5688947099999986 34.5811354100000017 -0.0715390500000000 Au
atom 24.3580068099999991 34.5387647599999994 -0.0430390400000000 Au
atom 27.2608935700000004 34.5611502100000010 0.0011999100000000 Au
atom 1.8731288399999999 34.5703851099999966 0.0305186000000000 Au
atom 4.6302236299999997 34.5795272299999965 -0.2356299000000000 Au
atom 8.8852551000000002 37.0087720000000004 -0.0827809400000000 Au
atom 11.7025336800000002 36.9979297399999965 -0.0726669500000000 Au
atom 14.5369020399999993 36.9922417599999989 0.0218818800000000 Au
atom 17.3764640700000008 36.9736237999999986 0.0725148200000000 Au
atom 20.2594847199999997 36.9966191600000016 0.0921736600000000 Au
atom 23.0321766100000005 37.0507606199999984 -0.0775812200000000 Au
atom 25.8172792800000011 37.0231580100000031 -0.0436481200000000 Au
atom 0.4020983300000000 37.0309015200000005 0.2088843500000000 Au
atom 3.2929852899999998 37.0319584699999993 -0.0287465100000000 Au
atom 6.1011383800000001 37.0406131700000003 0.1108231300000000 Au
atom 7.5278142199999998 -0.0033545100000000 -0.0013736500000000 Au
atom 10.5123697800000002 -0.0012077400000000 0.0660168300000000 Au
atom 12.9707579499999994 0.0304600100000000 -0.0077362400000000 Au
atom 15.9205439099999992 -0.0406511300000000 0.0612149300000000 Au
atom 18.8200058699999992 -0.0616852700000000 0.0377842900000000 Au
atom 21.6189093499999991 0.0142359800000000 0.1675774900000000 Au
atom 24.4097103299999993 0.0294768500000000 -0.0293705800000000 Au
atom 27.1707579800000012 -0.0219915600000000 0.1929899800000000 Au
atom 1.8712950600000000 0.0368199300000000 0.2393247000000000 Au
atom 4.6815810000000004 0.0198774400000000 0.2100232200000000 Au
atom 8.9506853000000000 2.4972013199999998 0.0381812000000000 Au
atom 11.7295363800000008 2.5258068300000001 0.0230498800000000 Au
atom 14.5895578399999994 2.4361212200000000 0.0385594600000000 Au
atom 17.3503649300000014 2.4526830899999998 0.0608391200000000 Au
atom 20.1431397799999985 2.4343911399999998 0.2070861000000000 Au
atom 22.9949153799999984 2.5116739899999998 0.0618976800000000 Au
atom 25.7905011500000008 2.4799132300000002 0.0536511200000000 Au
atom 0.4391253200000000 2.4696446700000001 0.1329803600000000 Au
atom 3.2513118200000002 2.4754355299999999 0.1495653300000000 Au
atom 6.1079063900000001 2.4685166600000001 0.0419547800000000 Au
atom 7.5357877499999999 4.9058866700000001 0.0988459500000000 Au
atom 10.3554725199999993 5.0090525699999997 0.0279485100000000 Au
atom 13.1293246099999994 4.9431200200000003 0.0032762000000000 Au
atom 15.9817342900000003 4.8895959700000002 0.0940333000000000 Au
atom 18.8054227300000001 4.8734269100000001 0.1174604700000000 Au
atom 21.5782126900000009 4.8600953400000000 0.1785827200000000 Au
atom 24.4418503099999995 4.9190022999999998 0.0735606100000000 Au
atom 27.2552075299999998 4.9429383600000003 0.2445531700000000 Au
atom 1.8272216299999999 4.9142155299999999 0.0837490300000000 Au
atom 4.6967372999999997 4.9163081300000000 0.0934651900000000 Au
atom 8.9280918200000006 7.4101819999999998 -0.0143654900000000 Au
atom 11.7343935599999991 7.4012463500000001 0.0088158500000000 Au
atom 14.5251843399999991 7.3991629699999999 0.0428311200000000 Au
atom 17.3234913299999995 7.3351610500000000 0.0329813100000000 Au
atom 20.2154376400000011 7.2930352500000000 0.1211895300000000 Au
atom 23.0231808899999990 7.3708138900000000 0.1742716800000000 Au
atom 25.8325224899999988 7.3502459900000003 0.2077252100000000 Au
atom 0.4777079300000000 7.3608168799999998 0.0416512800000000 Au
atom 3.3218614199999998 7.3344041200000003 -0.0602700500000000 Au
atom 6.1000494800000000 7.4230473899999998 0.1513995400000000 Au
atom 7.5314433000000003 9.8402180900000005 -0.1241336000000000 Au
atom 10.2975286199999996 9.8766930300000002 0.0782488500000000 Au
atom 13.1388730500000008 9.8696766900000004 -0.0877526400000000 Au
atom 16.0010004300000013 9.8104154700000006 0.1046686500000000 Au
atom 18.7293382900000012 9.8005947899999999 -0.0558012900000000 Au
atom 21.6224701500000016 9.8909168199999993 0.1319369600000000 Au
atom 24.3879609500000001 9.8755206199999996 0.0910893300000000 Au
atom 27.2657957199999998 9.8780353200000004 0.1162175500000000 Au
atom 1.8385639600000001 9.8556271700000000 -0.0183391400000000 Au
atom 4.6699104199999999 9.8310833399999993 -0.0849603000000000 Au
atom 8.9160782399999992 12.2900178600000007 0.0875230000000000 Au
atom 11.7269725699999992 12.3240421500000004 -0.1698998600000000 Au
atom 14.5860047700000006 12.3468895500000002 0.0887912600000000 Au
atom 17.3670570799999986 12.3898499599999994 0.1575258700000000 Au
atom 20.1661856099999994 12.4429683999999998 0.0578162700000000 Au
atom 22.9523326099999991 12.4171381000000007 0.1993835400000000 Au
atom 25.8541098600000012 12.4533924299999992 0.1554630100000000 Au
atom 0.4073411000000000 12.3874999599999995 0.1599387000000000 Au
atom 3.2538355499999998 12.2998711400000005 0.1114737500000000 Au
atom 6.0953828000000003 12.3045708699999992 -0.0288326000000000 Au
atom 7.4872736900000003 13.2247689299999998 2.7072487199999999 Au
atom 10.3343391100000002 13.1948129900000009 2.5092409600000001 Au
atom 13.1305542200000005 13.2145846299999992 2.5447710099999998 Au
atom 15.9220393500000004 13.2165308899999996 2.6140427000000002 Au
atom 18.7805093999999997 13.2194413799999992 2.5453377900000000 Au
atom 21.5624786700000008 13.2763286500000000 2.4642167100000001 Au
atom 24.4388268800000006 13.2153523899999996 2.6958232999999998 Au
atom 29.4049598299999992 13.0819331800000000 2.4404968800000000 Au
atom 1.8411544200000001 13.2207107399999995 2.7993840900000002 Au
atom 4.6880358900000001 13.1601740899999999 2.5322662100000000 Au
atom 8.9684919099999991 15.6590354699999992 2.6041706699999998 Au
atom 11.7960004200000004 15.7201337199999998 2.6446658099999998 Au
atom 14.5235448599999994 15.7193053799999998 2.5970144899999998 Au
atom 17.3923851999999997 15.6034823399999993 2.3903299499999999 Au
atom 20.2186612699999984 15.6617102900000003 2.0158288899999999 Au
atom 22.9934337900000010 15.6405601000000001 2.6777486000000001 Au
atom 25.7209204999999983 15.6369862899999994 1.7648670300000000 Au
atom -1.8096675300000000 15.8132593400000001 2.3627621200000002 Au
atom 3.2284180199999999 15.6596366200000006 2.6167524900000001 Au
atom 5.9966337599999999 15.6618164300000000 2.8039740399999999 Au
atom 7.5568493800000001 18.1372871300000007 2.6499612500000000 Au
atom 10.3434417300000003 18.1392788699999983 2.6183183500000000 Au
atom 13.2241098200000007 18.1885602900000016 2.8294140099999998 Au
atom 16.0583756700000002 18.1417735600000007 2.5680711700000001 Au
atom 18.2821517399999998 18.1519377199999994 2.5126708199999999 Au
atom 22.1108394900000000 18.0290652800000011 2.3596270900000000 Au
atom 24.3136256300000007 18.1875623200000014 2.7254113499999999 Au
atom 27.0390228700000002 18.0922974699999983 2.3204111500000000 Au
atom 1.7411517599999999 18.1543746900000009 2.5117942200000001 Au
atom 4.6709279600000002 18.1442493999999996 2.6624218200000001 Au
atom 9.0105058499999995 20.6052956800000011 2.7699237900000000 Au
atom 11.8006661000000008 20.6216998800000013 2.5701168399999998 Au
atom 14.6021926099999995 20.6157050599999998 2.6476544600000000 Au
atom 17.3961851199999984 20.5785856000000003 2.6559348800000002 Au
atom 20.2015911099999990 20.6424203999999989 2.9100857200000001 Au
atom 22.9558017300000010 20.6029653500000016 2.7274588600000000 Au
atom 25.8468296500000001 20.6145089299999995 2.7803513299999998 Au
atom 0.3913890000000000 20.5733856599999996 2.7502493399999999 Au
atom 3.2507399200000000 20.6029300500000012 2.7611781000000000 Au
atom 6.0967781900000002 20.5895867700000004 2.6698114400000001 Au
atom 7.4759836699999997 23.0716482800000016 2.7720317500000000 Au
atom 10.2948160400000006 23.0892325199999995 2.6284631900000002 Au
atom 13.1342204500000008 23.0818116999999994 2.5294710700000000 Au
atom 15.9841049700000006 23.0339994700000013 2.6489731399999998 Au
atom 18.7425386600000010 23.0489384000000008 2.7884855499999999 Au
atom 21.6037369000000012 23.0609879400000004 2.6050299400000001 Au
atom 24.4146792899999987 23.0252734299999986 2.6954773500000000 Au
atom 27.2327549399999995 23.1129412999999992 2.7397133100000000 Au
atom 1.8771505600000000 23.0278406500000017 2.7380979999999999 Au
atom 4.6958900500000000 23.0791465000000002 2.6505656300000000 Au
atom 8.9380586599999994 25.5745903599999984 2.8057633900000001 Au
atom 11.7518633700000006 25.5295239500000015 2.6197679200000001 Au
atom 14.5499421699999996 25.5572472600000005 2.6777332600000001 Au
atom 17.3513966599999989 25.4573357000000016 2.5768072100000001 Au
atom 20.1715400299999992 25.5075433700000005 2.6549311000000002 Au
atom 23.0154993499999989 25.4460883399999993 2.6850729400000000 Au
atom 25.8213175700000015 25.4974656599999996 2.6151941000000001 Au
atom 0.4252285300000000 25.5104201500000016 2.6563383500000000 Au
atom 3.1867727299999999 25.5968246199999996 2.6789414900000001 Au
atom 6.0336244700000004 25.6328058200000015 2.7481665400000002 Au
atom 7.5560033100000004 28.0708759999999984 2.5972756399999999 Au
atom 10.2973189600000001 28.0382150199999991 2.7191567299999999 Au
atom 13.0923317899999994 28.0291662499999994 2.7510894399999999 Au
atom 16.0103843999999995 28.0269529499999983 2.8795645900000002 Au
atom 18.8485003800000008 27.9734395599999992 2.6263215700000000 Au
atom 21.5817764200000006 27.9245104300000015 2.6318287300000001 Au
atom 24.3724768400000009 27.9863569299999995 2.7448912399999998 Au
atom 27.2079408600000008 28.0076046500000011 2.8283728899999998 Au
atom 1.8095229100000001 28.0166041800000016 2.7039357900000001 Au
atom 4.6819319400000001 28.0310856900000012 2.7118034799999999 Au
atom 8.8929211499999994 30.4855404300000004 2.6324757399999998 Au
atom 11.6610367499999992 30.5064662400000017 2.6348446100000000 Au
atom 14.5084659600000005 30.4885255099999988 2.7153430799999998 Au
atom 17.3513629700000003 30.4889769999999984 2.4785874899999998 Au
atom 20.2263519299999999 30.4607803299999986 2.5697213699999999 Au
atom 22.9989512500000011 30.5214265900000008 2.5533213500000000 Au
atom 25.8260493699999998 30.4564021300000007 2.5997104200000001 Au
atom 0.4769399100000000 30.4521277200000000 2.6029012699999998 Au
atom 3.2870593900000000 30.4536044100000005 2.5067079900000002 Au
atom 6.0936407099999998 30.4780053299999985 2.6118481899999999 Au
atom 7.4769005200000000 32.8805983199999972 2.5004566700000002 Au
atom 10.3478250000000003 32.9470868100000018 2.5611391299999999 Au
atom 13.1347366999999995 32.9218507200000019 2.5896622599999999 Au
atom 16.0009788700000009 32.9109725400000031 2.7267270699999999 Au
atom 18.7924635000000002 32.9157460599999965 2.5490086900000000 Au
atom 21.5778888699999989 32.9691944300000017 2.5831300599999998 Au
atom 24.3870809100000017 32.9304441199999971 2.5850022400000001 Au
atom 27.2049090100000015 32.9200629899999981 2.6172091000000002 Au
atom 1.8746946300000000 32.9091853400000005 2.6138366500000001 Au
atom 4.7021626100000002 32.9562053599999984 2.4231392399999998 Au
atom 8.9330757399999996 35.3547985900000015 2.5429175300000000 Au
atom 11.7430950000000003 35.4114812199999989 2.6178050700000002 Au
atom 14.5435760799999994 35.3940320299999982 2.5729137500000001 Au
atom 17.3401305100000016 35.3528945799999974 2.7463557000000001 Au
atom 20.1712851800000017 35.3913001700000009 2.7176716399999998 Au
atom 22.9736175299999985 35.3780246000000034 2.4864900900000002 Au
atom 25.8147253300000017 35.3672269600000035 2.5802882999999999 Au
atom 0.4477111300000000 35.3166132200000007 2.7327866699999999 Au
atom 3.2991852900000000 35.3845058799999990 2.5661988700000000 Au
atom 6.0544160500000004 35.3752922099999978 2.5990962500000001 Au
atom 7.5051516200000004 37.8194922099999999 2.6258415899999998 Au
atom 10.3114596100000000 37.7829900500000022 2.6706338500000002 Au
atom 13.1101612599999999 37.8641250299999967 2.5937852499999998 Au
atom 15.9512843400000008 37.7863986600000032 2.6487935500000002 Au
atom 18.8341261799999984 37.8589525399999971 2.6231745000000002 Au
atom 21.6277598799999993 37.8825654600000021 2.7491238099999999 Au
atom 24.4155744400000003 37.8801200199999997 2.4784101000000001 Au
atom 27.2441291099999994 37.8384990099999996 2.7385392700000000 Au
atom 1.8277581000000001 37.7860585900000032 2.6862718800000001 Au
atom 4.6648584499999997 37.8330651200000005 2.7129082699999998 Au
atom 8.9165206500000007 0.7709932900000001 2.7322959000000000 Au
atom 11.7293282899999998 0.8429746500000000 2.7494340300000002 Au
atom 14.5617601000000008 0.8495676100000000 2.6783209399999999 Au
atom 17.3864551399999989 0.7452677400000000 2.6507016600000002 Au
atom 20.1394809099999996 0.8148746700000000 2.8123404000000001 Au
atom 23.0055879099999991 0.9270902400000000 2.6503643800000001 Au
atom 25.8405303599999989 0.8204526800000000 2.7240253299999999 Au
atom 0.5321150400000000 0.8226343699999999 2.7837470000000000 Au
atom 3.2986366700000000 0.8817914400000000 2.8036501899999999 Au
atom 6.1057627800000001 0.8155813400000000 2.7260546099999998 Au
atom 7.5097797399999999 3.3273703700000001 2.6394958700000002 Au
atom 10.3213477800000000 3.2569375100000002 2.6656335000000002 Au
atom 13.1950507800000008 3.3534937800000000 2.5950428799999998 Au
atom 15.9939458000000005 3.2492226199999998 2.7876352299999998 Au
atom 18.7829759500000009 3.2907528199999998 2.7504583899999999 Au
atom 21.6212034600000003 3.2962578200000001 2.8556227500000002 Au
atom 24.4567334999999986 3.3977496500000002 2.6277653800000000 Au
atom 27.2496853600000009 3.2396187599999999 2.8333785400000000 Au
atom 1.8722103299999999 3.3329483099999999 2.6769930199999998 Au
atom 4.6936318200000002 3.3067087700000002 2.7184080000000002 Au
atom 8.9403038299999995 5.7757654000000000 2.6620794299999999 Au
atom 11.7955234099999995 5.8173516599999999 2.7211977699999998 Au
atom 14.5729428900000002 5.8085439699999997 2.6227875500000000 Au
atom 17.3938681600000002 5.7913211300000000 2.7245206799999999 Au
atom 20.2185929699999996 5.8939038000000004 2.8325269700000000 Au
atom 23.0130977799999989 5.8676834199999996 2.7728620199999998 Au
atom 25.8775398199999991 5.7982470700000004 2.7428220500000000 Au
atom 0.4961624800000000 5.8117788600000004 2.8056706600000001 Au
atom 3.2904067499999998 5.7772933399999999 2.6189265800000001 Au
atom 6.1262875499999998 5.7878868399999996 2.7415018600000001 Au
atom 7.5629318899999998 8.2175412600000008 2.6560784300000000 Au
atom 10.4169538300000006 8.2091249400000006 2.5843544800000000 Au
atom 13.1809429300000005 8.2865422800000008 2.5480211100000001 Au
atom 15.9927732700000007 8.2502849099999995 2.7630620800000001 Au
atom 18.8095047000000015 8.3209600800000008 2.5816198699999999 Au
atom 21.5831921000000015 8.3388148599999994 2.7338157100000000 Au
atom 24.4100861999999985 8.2937751100000003 2.7383089699999998 Au
atom 27.2517914599999997 8.2883196800000007 2.7577134800000001 Au
atom 1.8537726600000000 8.2769269699999999 2.3732834399999998 Au
atom 4.6485272699999998 8.2559696799999998 2.6826132000000000 Au
atom 8.9173664800000001 10.6813467699999993 2.6252710900000000 Au
atom 11.7723473700000003 10.7338057100000004 2.5812485600000001 Au
atom 14.5497922499999994 10.7559024900000004 2.7032416499999998 Au
atom 17.3492312400000017 10.7404805999999997 2.7328725100000000 Au
atom 20.1617457199999990 10.7717691200000001 2.4868566599999999 Au
atom 23.0503282600000006 10.7682695899999992 2.7693424400000000 Au
atom 25.8292338199999989 10.6839870900000005 2.7190534999999998 Au
atom 0.4613604000000000 10.7976984799999993 2.7546757700000000 Au
atom 3.3043195299999999 10.6778349299999995 2.5774131900000001 Au
atom 6.1013748999999997 10.6370397000000008 2.5476853300000002 Au
atom 7.6713859500000003 12.8680552000000006 5.6014505000000003 Cl
atom 7.6619504599999999 15.8610611499999994 8.7182644600000003 Cl
atom 7.5706501199999998 12.9062655399999997 8.3523510200000004 Na
atom 7.5535245399999997 16.0072379200000015 5.7530018900000002 Na
atom 7.6190041700000002 19.0274918900000003 5.7835857800000001 Cl
atom 7.6152234200000004 21.7998827099999986 8.4974464800000007 Cl
atom 7.5047921600000000 19.0118291200000016 8.5110625300000002 Na
atom 7.5559608300000001 21.9365730700000015 5.7926044499999998 Na
atom 7.6239707100000000 24.7248700899999996 5.7976214300000004 Cl
atom 7.4937389400000001 27.5573872900000012 8.6794277399999995 Cl
atom 7.6162902399999997 24.6347959699999990 8.5145139699999994 Na
atom 7.5618420600000000 27.5149774299999983 5.9312483100000000 Na
atom 7.6346041400000004 29.9964821800000010 5.7407339799999999 Cl
atom 7.6159132800000000 33.2625051200000001 8.7293968599999996 Cl
atom 7.3371788200000001 30.2610260000000011 8.5090057399999992 Na
atom 7.5784801599999998 33.1790521599999977 6.0071547399999998 Na
atom 7.5390287200000001 35.4364689000000013 5.7757827800000001 Cl
atom 7.5460947799999998 38.1826805500000006 8.7354166299999996 Cl
atom 7.5295202600000000 35.2792697100000012 8.5152184700000007 Na
atom 7.5329446500000001 38.2977886199999986 6.0561812599999998 Na
atom 7.6066092799999998 1.5994411799999999 5.9002363400000002 Cl
atom 7.7970706700000001 4.2102783900000000 8.6764320599999998 Cl
atom 7.5732027400000002 1.4657411100000000 8.6220774500000008 Na
atom 7.8059177699999998 4.4249749700000001 5.9043386199999999 Na
atom 7.8533068699999999 7.1215338399999997 5.6694814899999999 Cl
atom 7.9040535700000003 9.9754688500000004 8.4784800300000001 Cl
atom 7.7034596000000004 7.0761680900000004 8.5674753500000005 Na
atom 7.9243594300000000 9.9738224800000008 5.7555522600000000 Na
atom 10.3812579199999995 12.9265543699999998 5.8024987299999999 Na
atom 13.1116414999999993 13.0008586099999999 5.9571229900000002 Cl
atom 10.5473816100000004 15.8476722100000007 8.3751147499999998 Na
atom 13.2268964600000007 15.7667761899999999 8.6030395500000001 Cl
atom 13.0739649900000003 12.9756570999999994 8.1939187400000009 Na
atom 10.4577804899999993 13.0884499800000000 8.5831622099999993 Cl
atom 12.6619895200000006 15.9026973799999993 5.5487188300000003 Na
atom 10.5533178200000002 16.0000817700000013 5.5705320800000004 Cl
atom 10.4959425199999998 19.0974690299999992 6.0576873400000002 Na
atom 13.2908173299999994 18.7592863799999989 6.1474040299999997 Cl
atom 10.3719771099999996 21.8494425700000008 8.3936047699999996 Na
atom 13.0418237300000008 21.7310530499999999 8.6875558099999992 Cl
atom 13.1296333900000004 18.9212274100000002 8.2638509500000001 Na
atom 10.6039473799999993 18.6873842100000012 8.1932647900000006 Cl
atom 12.6530519800000008 21.8277236799999983 5.8407838999999999 Na
atom 10.5052869100000006 21.7523661200000014 5.7241033300000002 Cl
atom 10.5241363799999998 24.6404875499999996 5.8814891100000004 Na
atom 13.3454522799999999 24.5706120000000006 5.9088980600000003 Cl
atom 10.3726136600000007 27.4593419499999989 8.5302886499999993 Na
atom 13.2345176000000002 27.4970852900000011 8.5617040800000002 Cl
atom 13.6306378000000006 24.7390159599999997 8.5351612299999999 Na
atom 10.4495352799999992 24.7556192199999998 8.5970828299999997 Cl
atom 13.1235825199999994 27.3515198200000000 5.8870421899999998 Na
atom 10.4265317300000007 27.5432541399999984 5.8483820099999999 Cl
atom 10.3921784000000006 29.9469101799999997 5.8640693600000002 Na
atom 13.1931940399999998 30.1172159800000010 5.7532406900000002 Cl
atom 10.3191518999999996 32.8521139699999978 8.4574653000000009 Na
atom 13.1662141199999994 32.5895449100000008 8.7553260200000000 Cl
atom 13.0804396000000001 30.5157023000000009 8.5059768200000008 Na
atom 10.6109510999999994 30.1811329000000015 8.6857967899999995 Cl
atom 13.1674632999999996 32.8146136800000008 5.8925897400000000 Na
atom 10.4452150499999998 32.7571478999999997 5.7517028300000002 Cl
atom 10.2909233199999992 35.5541556499999984 5.9084131299999996 Na
atom 13.1360759999999992 35.5182096300000012 5.8696030900000000 Cl
atom 10.3430349899999996 38.1609244799999985 8.9657499499999993 Na
atom 13.0637787000000003 38.0043854299999992 8.8991472199999997 Cl
atom 13.0974823800000006 35.7234406099999973 8.6305335999999997 Na
atom 10.2028693500000003 35.5010137299999968 8.7766835400000005 Cl
atom 13.1766658600000000 38.2714668300000014 6.1319447900000004 Na
atom 10.3659582100000005 38.3475884699999980 5.6209352800000003 Cl
atom 10.5034405399999997 1.5618250499999999 6.0241406399999997 Na
atom 13.3120708200000006 1.6724282300000000 6.0437006400000000 Cl
atom 10.5503365500000008 4.2204710199999997 8.6211650100000004 Na
atom 13.3221048500000006 4.2615616400000000 8.8931799900000001 Cl
atom 12.8980201599999997 1.4289408299999999 8.7298643800000004 Na
atom 10.7776827799999992 1.3793889300000000 8.8383803099999998 Cl
atom 13.6463403299999992 4.4830950300000003 6.0745542500000003 Na
atom 10.6319924900000000 4.3742969100000000 5.9331613699999997 Cl
atom 10.7454313300000006 7.0909224799999997 5.8260340299999998 Na
atom 13.4524099899999996 7.3675407200000000 5.7174654900000004 Cl
atom 10.8427719099999997 10.0956011399999994 8.5330938799999991 Na
atom 13.0110289800000007 9.9602233099999999 8.7706073900000003 Cl
atom 13.3097966099999994 7.1360786699999998 8.6456931000000008 Na
atom 10.5773441500000001 7.1482533400000001 8.5683582600000001 Cl
atom 13.3161496899999996 10.1060070300000007 5.9772449500000002 Na
atom 10.6211843399999992 10.1372158399999996 5.8195642200000002 Cl
atom 16.0973122099999983 13.2965585300000004 5.9730644100000001 Na
atom 18.4660158500000016 13.3481815899999994 5.7042247200000000 Cl
atom 16.8192410499999987 17.0246143299999986 7.1469197299999996 Na
atom 18.0310683800000007 15.9240986699999993 8.1079886000000005 Cl
atom 19.1608401199999996 13.7161064899999996 8.4744807400000006 Na
atom 15.8057533299999999 12.8574211700000003 8.5665733799999995 Cl
atom 18.8718935700000010 16.0762014899999990 6.0689789100000002 Na
atom 16.0006134700000011 16.1380230199999986 5.1783345000000001 Cl
atom 16.2404997599999987 18.9678849800000009 5.7345174900000000 Na
atom 18.9119061700000017 18.7817430700000010 6.3952948000000003 Cl
atom 15.8538750900000007 21.8470115100000015 8.8178816799999993 Na
atom 18.6349302399999992 21.7152886800000005 8.9338029199999998 Cl
atom 18.1462628200000005 18.9702069800000004 8.3699087599999995 Na
atom 16.0972090899999998 18.9822028100000004 8.9684217999999998 Cl
atom 19.0769467699999993 21.7594878200000004 6.1782159500000002 Na
atom 16.6237176499999997 21.6153752200000007 5.8343579400000003 Cl
atom 16.0765337300000013 24.2609595800000015 5.9882219100000000 Na
atom 18.7249650099999982 24.4705816600000006 6.3193948200000003 Cl
atom 15.9405707499999991 27.3411627899999985 8.3770551500000003 Na
atom 18.6523518199999998 27.4305942700000003 8.4792154600000007 Cl
atom 18.7737992499999997 24.7644379900000011 8.9126801800000006 Na
atom 15.4169874300000007 24.6007859599999996 8.8658202900000003 Cl
atom 18.7969348499999995 27.1459270299999993 5.7986071600000004 Na
atom 15.8538615000000007 27.3046019999999992 5.6868791600000002 Cl
atom 15.9334965299999993 29.9212340300000008 5.7402816999999997 Na
atom 18.7788343600000012 30.2012795999999994 5.6631480200000004 Cl
atom 15.9399106300000000 32.7380594799999969 8.4643106499999998 Na
atom 18.7740148500000004 32.5728219399999972 8.5316081399999995 Cl
atom 18.7073094299999987 30.2709951799999999 8.3885499299999999 Na
atom 15.9283835000000007 30.1648946199999983 8.6702542299999994 Cl
atom 18.8204191999999999 32.6041328800000016 5.8283301999999999 Na
atom 15.9544565800000004 32.6417168400000008 5.7440186300000002 Cl
atom 15.8900225000000006 35.5355975399999977 5.9231465800000000 Na
atom 18.6701795500000003 35.6086115499999991 5.6891041199999997 Cl
atom 15.9184517200000002 38.1265969199999972 8.6220404899999998 Na
atom 18.6808615799999984 34.4252579099999991 8.6056504100000009 Cl
atom 18.6739694500000013 35.4708754799999966 8.5733428099999998 Na
atom 15.9035065200000005 35.4574663499999971 8.7083661100000000 Cl
atom 18.7605581800000003 38.3132531600000021 5.8045341199999996 Na