#===============================================================================
# Created using the Atomic Simulation Environment (ASE)

# Tue Dec 23 21:41:56 2025

#=======================================================
lattice_vector 28.1999999999999993 0.0000000000000000 0.0000000000000000 
lattice_vector 0.0000000000000000 39.4799999999999969 0.0000000000000000 
lattice_vector 0.0000000000000000 0.0000000000000000 62.3296083400000001 
atom 7.5058633800000001 14.7234309000000003 -0.2093271900000000 Au
atom 10.3126788200000004 14.7816218599999996 -0.1713222100000000 Au
atom 13.2130037300000005 14.7767260799999995 -0.2875158100000000 Au
atom 15.9730317100000008 14.7123062099999995 -0.2338770000000000 Au
atom 18.7102308599999994 14.7447335800000001 0.0768319600000000 Au
atom 21.6477963299999985 14.7574244900000000 -0.2199635700000000 Au
atom 24.4386906999999987 14.7612303699999998 -0.1981730800000000 Au
atom 27.2687066999999992 14.7390877000000007 0.1093220100000000 Au
atom 1.8117306099999999 14.8288870500000005 -0.1443698000000000 Au
atom 4.6861281899999998 14.7617554999999996 -0.0271631600000000 Au
atom 8.9234203399999998 17.2793887899999987 -0.2135159200000000 Au
atom 11.8121457200000002 17.2159804200000011 -0.2695820200000000 Au
atom 14.5994330600000009 17.2417847799999997 -0.2650588200000000 Au
atom 17.3270576100000007 17.2103703400000008 -0.2767752900000000 Au
atom 20.1704552300000017 17.2541719899999997 -0.1778259500000000 Au
atom 22.9764735800000004 17.3197962700000012 -0.1820520800000000 Au
atom 25.8559535899999986 17.1610505700000004 0.1046782100000000 Au
atom 0.4266773100000000 17.2458903399999990 0.0345194700000000 Au
atom 3.2763957800000001 17.2581169400000007 -0.1357351000000000 Au
atom 6.0826235999999998 17.1885855899999989 -0.2384718600000000 Au
atom 7.5263401300000004 19.6856214399999985 -0.1352298100000000 Au
atom 10.3356813200000008 19.7507048599999990 -0.2384927900000000 Au
atom 13.1464248599999998 19.7560506400000016 -0.1151398000000000 Au
atom 15.9474347200000004 19.7218873200000004 -0.1876797400000000 Au
atom 18.7716360599999987 19.7124530600000014 -0.1461960800000000 Au
atom 21.5912598200000012 19.7726124299999988 -0.1488980100000000 Au
atom 24.4221283599999985 19.6703711800000001 0.0695059000000000 Au
atom 27.2250107099999994 19.6897769999999994 0.0655080800000000 Au
atom 1.7936503200000000 19.7178939900000003 0.0343320700000000 Au
atom 4.6882465699999996 19.7381408500000006 -0.2255130600000000 Au
atom 8.9589903599999996 22.1212738900000012 0.0258206200000000 Au
atom 11.7971367100000002 22.2367627200000015 0.0205673900000000 Au
atom 14.6130136200000003 22.1334982099999991 -0.0663769000000000 Au
atom 17.4215617999999992 22.2171555100000013 -0.1252943700000000 Au
atom 20.2184665099999989 22.1894392600000003 -0.0615560900000000 Au
atom 23.0623510899999999 22.2009872799999997 0.0887764900000000 Au
atom 25.8509802899999990 22.1372849800000004 0.2279904100000000 Au
atom 0.4278364900000000 22.1917090299999984 0.0837836900000000 Au
atom 3.2614318500000001 22.1180861899999996 0.1695146600000000 Au
atom 6.1077933299999998 22.1652525599999990 0.1124190100000000 Au
atom 7.5128437899999998 24.5822068000000016 0.1189871000000000 Au
atom 10.3148927500000003 24.6310932399999984 0.1034696600000000 Au
atom 13.2248635799999992 24.6181328999999991 -0.1496759100000000 Au
atom 16.0203773699999985 24.6711384199999983 -0.2202654000000000 Au
atom 18.8232669299999991 24.6794383500000016 -0.0787566800000000 Au
atom 21.6183885499999988 24.7412016900000005 0.1167727600000000 Au
atom 24.4193736900000005 24.7089267899999996 0.3730621400000000 Au
atom 27.1937924799999990 24.6337455100000007 -0.0259765900000000 Au
atom 1.8810991200000000 24.6421017800000008 0.0335491000000000 Au
atom 4.6577420099999998 24.6210525300000000 0.1158752600000000 Au
atom 8.8894883700000005 27.1065397700000013 0.0697378700000000 Au
atom 11.7250590999999993 27.0872868400000009 -0.1342501300000000 Au
atom 14.5476045000000003 27.1647413499999999 -0.0146314000000000 Au
atom 17.3781743099999986 27.2230572899999999 -0.1219850000000000 Au
atom 20.1616527599999991 27.1648431399999986 0.0113353100000000 Au
atom 23.0054858899999992 27.1161877199999992 0.1563748800000000 Au
atom 25.8333950200000011 27.1290892600000006 0.2286673500000000 Au
atom 0.4207625400000000 27.1322561799999988 0.0918968400000000 Au
atom 3.2687944099999999 27.0869787200000012 0.0798106700000000 Au
atom 6.0989746699999996 27.0885209499999995 0.1071579500000000 Au
atom 7.5711126100000001 29.5910851800000003 -0.0844697500000000 Au
atom 10.3356970199999996 29.6041311000000000 -0.1001655900000000 Au
atom 13.1157257999999999 29.6083526799999994 -0.1383826800000000 Au
atom 16.0130281699999983 29.6253777599999992 0.0317337700000000 Au
atom 18.8516305499999994 29.6810984600000012 0.0041332000000000 Au
atom 21.6906202000000015 29.6240252700000006 0.0617270400000000 Au
atom 24.4775899899999985 29.6539112200000012 0.2618927600000000 Au
atom 27.3260996899999995 29.6216378499999990 0.0321986700000000 Au
atom 1.9060636200000001 29.5980748600000005 0.0143581600000000 Au
atom 4.7103066499999997 29.5983799199999993 -0.0588681900000000 Au
atom 8.9295279399999998 32.0354880200000025 -0.0714475400000000 Au
atom 11.7161405500000004 32.1401929700000011 -0.1329594500000000 Au
atom 14.5694099300000008 32.0723470399999968 -0.0451534700000000 Au
atom 17.3897153700000011 32.1070780499999984 0.0843100400000000 Au
atom 20.2274677300000008 32.1198253600000001 -0.0232433300000000 Au
atom 23.0918608300000017 32.1840633300000007 -0.0058168900000000 Au
atom 25.9713451199999987 32.0295205600000017 -0.0444033800000000 Au
atom 0.5515048299999999 32.1285864700000019 -0.0981364500000000 Au
atom 3.3244327899999999 32.0121835899999994 -0.1465483500000000 Au
atom 6.1256339500000001 32.0314850299999989 -0.1179563100000000 Au
atom 7.5522244799999996 34.4760592299999971 -0.1177891100000000 Au
atom 10.3513125800000001 34.5493052599999970 0.0150805400000000 Au
atom 13.1683515100000008 34.5151187299999975 0.0279228500000000 Au
atom 15.9580243100000008 34.5437702700000031 0.1355248600000000 Au
atom 18.7983996699999985 34.5859225499999994 -0.0350686600000000 Au
atom 21.6806026699999990 34.5970519600000017 -0.0618706800000000 Au
atom 24.5627488300000003 34.5697340099999977 -0.0131846100000000 Au
atom 27.3744337699999996 34.5976538000000033 -0.0553478300000000 Au
atom 1.9893382500000001 34.6206773899999973 -0.2262753100000000 Au
atom 4.7003335599999998 34.4805511400000029 0.0348442000000000 Au
atom 8.9357120699999992 36.9747930199999999 0.0552055900000000 Au
atom 11.7565743800000000 36.9985302999999988 0.0804993600000000 Au
atom 14.5871680300000008 37.0407745199999994 0.0081416600000000 Au
atom 17.3965397499999987 36.9934863599999986 -0.0688502800000000 Au
atom 20.2315441400000005 37.0172065799999999 -0.0327225000000000 Au
atom 23.0532964999999983 36.9970950100000024 0.1036971000000000 Au
atom 25.9212766700000010 37.0340190300000032 -0.0745140800000000 Au
atom 0.5737051399999999 37.1339389099999977 0.0169795700000000 Au
atom 3.3551064500000001 36.9619746799999973 0.0477127500000000 Au
atom 6.1375035899999997 36.9377894400000031 0.1051201700000000 Au
atom 7.5372059900000004 0.0146264300000000 0.0869651500000000 Au
atom 10.2556350700000003 -0.0032616600000000 0.0934552300000000 Au
atom 13.1179084699999997 -0.0136610000000000 0.1038640400000000 Au
atom 15.9629123800000006 -0.0018992300000000 0.0962642800000000 Au
atom 18.7956143299999994 0.0543495600000000 -0.0986820600000000 Au
atom 21.6555264299999983 -0.0343866300000000 0.0859060000000000 Au
atom 24.4375665799999986 -0.0263888700000000 -0.0446564600000000 Au
atom 27.2975124300000012 -0.0052182200000000 0.1331818700000000 Au
atom 1.9658959600000001 0.0370636200000000 0.1143875400000000 Au
atom 4.7865493099999998 -0.0123139700000000 0.1603829000000000 Au
atom 8.9246361699999994 2.5001871200000001 0.0802268800000000 Au
atom 11.7807825600000005 2.4737555599999999 0.1820805600000000 Au
atom 14.5490698599999995 2.4888671499999999 0.1752848400000000 Au
atom 17.4032383199999998 2.3975028699999998 0.1068863400000000 Au
atom 20.2471898099999983 2.4235476999999999 0.0532066800000000 Au
atom 23.1081620000000001 2.4793809499999999 0.0759094300000000 Au
atom 25.8835134999999994 2.4832395900000002 -0.0617773900000000 Au
atom 0.5025338499999999 2.4604682599999999 0.0392915000000000 Au
atom 3.2998023900000000 2.5071381599999998 0.0637927900000000 Au
atom 6.0550744900000000 2.4669555800000000 0.2578849400000000 Au
atom 7.4422785400000002 4.9245906000000002 0.1996896400000000 Au
atom 10.3247343699999998 4.8933957000000001 0.0742976200000000 Au
atom 13.0948692599999994 4.9549164100000000 0.0575448800000000 Au
atom 16.0197987099999999 4.8658371599999999 0.1817685100000000 Au
atom 18.8013835699999987 4.8990701200000002 0.1153603200000000 Au
atom 21.6211945000000014 4.8693565899999998 -0.0861846200000000 Au
atom 24.4219203399999998 4.9260909599999998 0.0634104200000000 Au
atom 27.2231160299999999 4.9447451400000002 0.1660739000000000 Au
atom 1.8035262299999999 5.0047290100000001 0.1316755700000000 Au
atom 4.6315502799999999 4.9221939900000002 0.2084864000000000 Au
atom 8.9350238399999995 7.3738187899999996 -0.0885375100000000 Au
atom 11.7620064800000002 7.4500782399999999 0.0605581200000000 Au
atom 14.6038836199999995 7.3108917399999997 0.1506488300000000 Au
atom 17.3810955000000007 7.3634942499999996 0.0757974900000000 Au
atom 20.1985337499999993 7.3679148400000001 -0.0287530000000000 Au
atom 22.9573796500000000 7.3257422700000001 0.1833818700000000 Au
atom 25.8192829999999987 7.3498354299999997 0.1092212200000000 Au
atom 0.4735839800000000 7.4236076000000004 0.2123565400000000 Au
atom 3.2509254699999999 7.3924977800000002 0.1541426300000000 Au
atom 6.1203624899999998 7.4122485600000001 0.0155571700000000 Au
atom 7.5395564300000002 9.8380767700000007 -0.1555533100000000 Au
atom 10.2874961000000003 9.8574544599999996 0.0498942900000000 Au
atom 13.1588270299999994 9.8290018900000007 -0.1401498400000000 Au
atom 15.9361917900000005 9.8005251599999994 0.0649077900000000 Au
atom 18.7965539200000009 9.8572186899999998 -0.0145756900000000 Au
atom 21.5839492600000007 9.8614069799999999 0.0422395400000000 Au
atom 24.3956999199999984 9.8159282999999995 -0.0853833100000000 Au
atom 27.2326032699999985 9.8505992899999999 -0.1016342800000000 Au
atom 1.8693864099999999 9.8653385999999994 -0.0544448700000000 Au
atom 4.7029412600000002 9.8529710799999997 -0.0531716900000000 Au
atom 8.9520262299999995 12.3167562000000004 -0.1684363300000000 Au
atom 11.7383164499999992 12.3251786899999995 -0.0996781800000000 Au
atom 14.5443113700000008 12.2853751399999993 -0.2397352400000000 Au
atom 17.3399288499999997 12.2621371099999994 -0.0327355600000000 Au
atom 20.1687174400000018 12.2965154000000005 0.0072390400000000 Au
atom 23.0432660499999997 12.2670816800000004 -0.1246465400000000 Au
atom 25.8131017199999988 12.2838083200000003 -0.1049564400000000 Au
atom 0.3607411400000000 12.3284976099999994 -0.0672116700000000 Au
atom 3.2084688699999999 12.3067375999999999 -0.0534522200000000 Au
atom 6.0260581100000001 12.2751404700000002 -0.2655021700000000 Au
atom 7.5242706699999999 13.2386858699999994 2.2807052300000001 Au
atom 10.3891026199999992 13.2080627699999997 2.4025295799999999 Au
atom 13.2156874400000000 13.2481556900000008 2.3317624399999999 Au
atom 15.9718254099999992 13.1932257800000006 2.4741686100000000 Au
atom 18.7484059199999997 13.2655796899999991 2.7660666500000000 Au
atom 21.5712578099999988 13.2408091799999994 2.4553386399999999 Au
atom 24.4324894099999987 13.2221686599999995 2.4842489099999998 Au
atom 27.2480046700000003 13.2038658400000006 2.6252313300000001 Au
atom 1.8591537499999999 13.1413758900000008 2.4398751500000002 Au
atom 4.6994254399999997 13.1698466199999995 2.5106626300000001 Au
atom 8.9723745000000008 15.6612120000000008 2.2741460000000000 Au
atom 11.8176417899999997 15.7017204899999996 2.2191243400000000 Au
atom 14.6466290499999996 15.7043771799999998 2.2917153400000001 Au
atom 17.3877565199999999 15.7366010999999997 2.5238728199999998 Au
atom 20.1919690400000000 15.7318163999999996 2.4255171500000001 Au
atom 23.0007712799999986 15.6756120699999997 2.3436504000000000 Au
atom 25.8141111800000012 15.6344951000000005 2.6870603200000001 Au
atom 0.5195705100000000 15.6153001600000003 2.6983717399999998 Au
atom 3.2936261999999998 15.6410512599999993 2.5257012400000001 Au
atom 6.1269133399999998 15.6830120199999996 2.5317366699999999 Au
atom 7.5051107500000001 18.1046966199999986 2.4766870499999998 Au
atom 10.4309608100000002 18.1471289599999999 2.2343924400000001 Au
atom 13.2024011600000009 18.1724860499999998 2.2694908300000001 Au
atom 15.9708590200000007 18.1625801799999991 2.2518548799999998 Au
atom 18.7896329199999990 18.1459379600000013 2.4147031399999999 Au
atom 21.5754208600000013 18.2064693599999998 2.4234463599999998 Au
atom 24.4054463099999985 18.0830667200000015 2.5780761800000001 Au
atom 27.3365921900000011 18.0908407699999998 2.6562858500000002 Au
atom 1.9040829800000001 18.0685904999999991 2.6296530400000000 Au
atom 4.6752197500000001 18.1465110500000009 2.4371986600000000 Au
atom 8.9717403099999995 20.4756982399999998 2.5477128300000000 Au
atom 11.7940007199999997 20.5851729699999986 2.5477360500000001 Au
atom 14.6148282199999997 20.6058019500000000 2.5696203299999998 Au
atom 17.4152356300000015 20.6446853700000013 2.4107990899999998 Au
atom 20.2592550500000002 20.6378890099999985 2.5729678900000001 Au
atom 23.0338081899999985 20.5721846100000008 2.6242253600000001 Au
atom 25.8647596499999999 20.5197506099999991 2.8257049400000001 Au
atom 0.4764464700000000 20.5705707000000011 2.5809246899999998 Au
atom 3.3117912500000002 20.5510047399999998 2.6774098400000002 Au
atom 6.0924852600000001 20.5316153300000011 2.5906972800000001 Au
atom 7.4957775800000004 22.9726192199999986 2.7092088099999998 Au
atom 10.3788400799999998 23.0341991300000011 2.7172978300000001 Au
atom 13.2248482799999998 23.0380904899999983 2.5322020799999998 Au
atom 16.0103070999999986 23.0784504000000013 2.4128629699999999 Au
atom 18.8069911699999999 23.1114752900000013 2.4730523999999998 Au
atom 21.5752586800000010 23.1693845299999985 2.5136667400000001 Au
atom 24.3423142800000001 23.0636413800000000 2.8775156100000001 Au
atom 27.1901599800000007 23.1071064200000009 2.7263421999999999 Au
atom 1.8262842399999999 23.1200978200000016 2.5992550200000002 Au
atom 4.6291724900000002 23.0153176100000003 2.5717045700000001 Au
atom 9.0001067500000005 25.4542773900000014 2.7424284499999998 Au
atom 11.7506329699999998 25.5038587899999989 2.5462506600000001 Au
atom 14.5992955700000007 25.5085740299999983 2.4228283099999999 Au
atom 17.4670096100000016 25.6068823499999993 2.3452855300000000 Au
atom 20.1374210699999985 25.6070347299999987 2.6310026199999998 Au
atom 22.9706709499999988 25.5904355899999985 2.7750308000000001 Au
atom 25.8373603199999984 25.5856258499999996 2.8821189999999999 Au
atom 0.4556650200000000 25.5635924099999983 2.5858941799999999 Au
atom 3.2508063100000002 25.5492387600000015 2.7748299099999998 Au
atom 6.0621170199999996 25.4237781799999993 2.8540797800000002 Au
atom 7.5093130199999996 27.8747888500000016 2.6078873200000001 Au
atom 10.3760451200000006 27.9836463500000008 2.6000017099999999 Au
atom 13.1709352600000003 27.8981026700000001 2.5326479900000001 Au
atom 15.9615845800000002 27.9534095100000002 2.5559951900000000 Au
atom 18.7810967899999994 28.0329541499999984 2.5693850500000002 Au
atom 21.6470357200000016 28.0891507500000017 2.7103309100000001 Au
atom 24.4283204699999992 28.0873871500000014 2.7214099400000000 Au
atom 27.2486202900000016 28.0906719400000000 2.7080236100000001 Au
atom 1.8409718799999999 28.0514669800000007 2.7091931900000001 Au
atom 4.6195586700000000 28.0354426399999994 2.5601621699999999 Au
atom 8.9114423499999997 30.3843801499999984 2.4638014699999999 Au
atom 11.8079249700000002 30.4359816800000011 2.4661752500000000 Au
atom 14.5372714500000004 30.4219535599999986 2.5906350699999998 Au
atom 17.3729449699999989 30.4498162599999986 2.6883809099999998 Au
atom 20.2456388800000013 30.5284709999999997 2.6057064500000000 Au
atom 23.0342962900000003 30.5405324799999995 2.7459965099999999 Au
atom 25.9185305300000017 30.5474849299999995 2.8043345300000002 Au
atom 0.5117040200000000 30.4994238799999984 2.6473548099999999 Au
atom 3.3553314599999999 30.4706715800000012 2.5605615099999999 Au
atom 6.1345754200000000 30.4229084900000011 2.5555456099999998 Au
atom 7.5324409000000001 32.8820269900000000 2.4724232700000002 Au
atom 10.3208617500000006 32.8530923499999972 2.6582391200000002 Au
atom 13.1323331700000008 32.8926174200000005 2.5727899500000002 Au
atom 15.9285113000000003 32.9443410800000009 2.7232501299999998 Au
atom 18.7593449600000000 32.9606613199999998 2.6899158000000001 Au
atom 21.6208662800000013 32.9910553500000034 2.5549292800000001 Au
atom 24.4812481300000009 32.9379732499999989 2.5695688200000002 Au
atom 27.3108665100000003 33.0461949600000011 2.4919939100000001 Au
atom 1.9141535100000000 32.9534808100000021 2.3727656600000002 Au
atom 4.6748569199999999 32.9592855499999970 2.6044533300000001 Au
atom 8.9430675599999994 35.3800665300000006 2.6070753500000001 Au
atom 11.7492030700000001 35.3655091099999979 2.6658827999999999 Au
atom 14.5708996099999997 35.3446199799999974 2.5925856199999999 Au
atom 17.3851329499999991 35.4041865000000016 2.6648534800000001 Au
atom 20.2710768799999990 35.4415752399999988 2.5664946600000000 Au
atom 23.0604903199999995 35.4212912699999976 2.6762841000000002 Au
atom 25.8716575000000013 35.4709284799999978 2.6030719599999999 Au
atom 0.4764189300000000 35.4073713399999974 2.6337718200000002 Au
atom 3.2519226400000001 35.4539265599999993 2.7132701300000002 Au
atom 6.1206322799999997 35.3905696200000008 2.5753208000000001 Au
atom 7.5989443600000000 37.8791936300000032 2.6802124799999998 Au
atom 10.3743378800000006 37.8360979899999990 2.6128095299999998 Au
atom 13.1490054199999999 37.8322032199999967 2.6765826100000001 Au
atom 15.9648648899999994 37.8442473200000009 2.5916190100000001 Au
atom 18.7542463899999987 37.8629237099999969 2.3471891899999999 Au
atom 21.6335503799999991 37.8703456200000019 2.8084813199999998 Au
atom 24.3761542800000015 37.8992700100000022 2.5999973500000002 Au
atom 27.2782476400000000 37.8898703699999970 2.6011256500000002 Au
atom 1.9464860300000000 37.9181926999999988 2.5513256400000000 Au
atom 4.7791509899999998 37.8146459299999975 2.7292225700000001 Au
atom 8.8920191099999997 0.8163163900000000 2.6313512299999999 Au
atom 11.7200667400000000 0.8803007500000000 2.7271510600000002 Au
atom 14.4998569600000007 0.8132073000000000 2.7555111200000000 Au
atom 17.3841109399999993 0.8800787799999999 2.7176392500000000 Au
atom 20.1384397600000007 0.8397988700000000 2.6754143500000001 Au
atom 23.0290019400000006 0.9096870000000000 2.7447282999999998 Au
atom 25.8404634400000006 0.8480147000000000 2.7201852600000000 Au
atom 0.5754666400000000 0.8230064900000000 2.8593861999999999 Au
atom 3.4086560000000001 0.8045485300000000 2.7961010800000001 Au
atom 6.1618719500000001 0.8337332000000000 2.8486240700000001 Au
atom 7.5747060099999999 3.3036851800000000 2.8073964700000000 Au
atom 10.3408428499999996 3.3039268499999999 2.7634062099999999 Au
atom 13.1312177699999992 3.3388828400000001 2.7656122800000000 Au
atom 15.9217606600000003 3.3275013400000000 2.8160612700000001 Au
atom 18.8118570900000002 3.3158775800000000 2.6187539599999998 Au
atom 21.6086197300000009 3.3020486800000000 2.5922466200000001 Au
atom 24.5054301999999993 3.3734620199999998 2.6447963699999999 Au
atom 27.2353682100000007 3.2441939299999998 2.5381112199999998 Au
atom 1.8922247500000000 3.2656225999999999 2.6701312499999998 Au
atom 4.7694890399999998 3.2689723800000001 2.7575962900000000 Au
atom 8.9343862499999993 5.8199894099999998 2.5585309199999999 Au
atom 11.7729616799999999 5.7683760099999999 2.7092377999999999 Au
atom 14.5650278100000001 5.8001134800000003 2.7313220600000001 Au
atom 17.3572097800000016 5.7540135599999997 2.6512474500000001 Au
atom 20.2176454499999991 5.7952224399999999 2.5560709799999999 Au
atom 22.9553201400000013 5.8045990900000000 2.7384089899999999 Au
atom 25.8800573500000013 5.8089315099999999 2.7302285600000000 Au
atom 0.5165134500000000 5.7376874899999999 2.9174348499999998 Au
atom 3.2783812900000000 5.7915816400000004 2.8850917100000002 Au
atom 6.0979268099999997 5.8033563399999997 2.8012688600000000 Au
atom 7.5019382900000000 8.2539040099999994 2.5343498100000001 Au
atom 10.3138761100000007 8.3005582100000002 2.7508181000000000 Au
atom 13.1157601400000008 8.3431799600000005 2.6223735200000000 Au
atom 15.9813152100000000 8.2685480800000004 2.6871267799999998 Au
atom 18.7997161099999985 8.2789125699999992 2.5655588300000001 Au
atom 21.6049907400000016 8.2896976599999999 2.6178117099999998 Au
atom 24.4596807900000002 8.3074645000000000 2.7469194500000000 Au
atom 27.2591890399999990 8.2724580999999997 2.6869267300000002 Au
atom 1.8872388400000000 8.2459660899999996 2.7505364900000000 Au
atom 4.6804183000000004 8.2093652400000003 2.5945717600000000 Au
atom 8.8729473599999995 10.7567647900000001 2.5567987099999998 Au
atom 11.7303799800000004 10.7535070200000007 2.5360782600000000 Au
atom 14.5909283300000006 10.7592728500000003 2.4965564599999999 Au
atom 17.4194903200000013 10.7588628400000008 2.5118777900000002 Au
atom 20.1993609200000002 10.7398795499999995 2.6642074899999999 Au
atom 22.9994850299999989 10.7478689799999998 2.5678407399999998 Au
atom 25.8534798700000010 10.7097402600000002 2.5643627699999998 Au
atom 0.4933625800000000 10.6993001499999991 2.5896362200000000 Au
atom 3.3313772799999999 10.6845290199999994 2.5613757000000001 Au
atom 6.1332176000000000 10.7123600099999994 2.4509618999999998 Au
atom 7.3140130100000000 13.2463563600000001 5.9070430099999998 Cl
atom 7.3331094600000002 16.0953983899999997 8.5279637499999996 Cl
atom 7.5206355900000004 13.2114259799999996 8.5333645199999992 Na
atom 7.5601095400000000 15.9629661400000007 5.8264610699999997 Na
atom 7.5798737899999997 18.7707420599999999 5.9583263200000003 Cl
atom 7.4079423300000000 21.6247147800000015 8.6492300100000001 Cl
atom 7.3756901499999996 18.9162336300000007 8.4296200500000005 Na
atom 7.4895509100000002 21.7330154600000007 5.8315671499999997 Na
atom 7.4734712900000000 24.5099927199999996 5.9037441599999996 Cl
atom 7.3976242100000000 27.2889090400000001 8.6818453000000009 Cl
atom 7.4229838600000004 24.4492435899999982 8.5039707700000005 Na
atom 7.6335621600000003 27.2658283399999988 5.9736421699999998 Na
atom 7.5412969600000004 29.9835950300000000 5.7024105000000000 Cl
atom 7.3748397299999997 32.8532258199999987 8.6542914399999997 Cl
atom 7.3385834299999999 30.0428613599999998 8.4012444700000000 Na
atom 7.4286447000000004 32.9197615400000032 5.9849000400000003 Na
atom 7.4240307400000001 35.7455981800000018 5.8059428000000004 Cl
atom 7.5879659300000002 38.5812600399999965 8.7226217399999992 Cl
atom 7.5059117700000000 35.7992389400000022 8.4392846699999993 Na
atom 7.4760766299999997 38.7150574599999970 5.8873588699999999 Na
atom 7.4663784199999998 1.9733068700000000 5.9529296399999998 Cl
atom 7.5361020400000003 4.6978007200000000 8.6420201999999993 Cl
atom 7.5119471100000004 1.9445544299999999 8.5115049299999992 Na
atom 7.3797011200000000 4.6796028400000003 5.9031036700000001 Na
atom 7.3961261100000000 7.5023799699999998 5.8160682100000001 Cl
atom 7.3712881200000000 10.4358798499999992 8.6136581700000008 Cl
atom 7.5732163000000003 7.4918655599999999 8.4767048200000001 Na
atom 7.2805919100000001 10.3507832499999992 5.8168185499999998 Na
atom 10.2720882400000004 13.2342250900000007 5.9829510700000004 Na
atom 13.0945280700000009 13.2507942900000000 5.9055416599999999 Cl
atom 10.3913671099999991 16.0059178200000005 8.7480584100000005 Na
atom 13.3472623400000003 15.9560582199999992 8.8568370299999994 Cl
atom 13.1149752399999997 13.2068051700000009 9.2495017199999996 Na
atom 10.2020340199999993 13.1375416200000004 8.7833767799999993 Cl
atom 12.9692833800000002 15.9038211199999999 6.0331573199999999 Na
atom 10.3822909899999996 15.9372802599999996 5.6329189299999998 Cl
atom 10.2386868199999999 18.9029655699999992 6.0053269199999999 Na
atom 13.1651916599999996 18.6567422799999996 6.0151160800000003 Cl
atom 10.3146942399999997 21.6038712199999985 8.6213004400000006 Na
atom 12.9298643099999993 21.6627771699999983 8.7387948899999994 Cl
atom 13.1851404900000002 18.7855150399999999 8.4808722799999998 Na
atom 10.1793001000000007 18.7741376799999991 8.7863226300000008 Cl
atom 13.0656493600000001 21.5521149600000008 5.9267976400000002 Na
atom 10.3902381100000003 21.7624267099999997 5.8164006500000003 Cl
atom 10.3121576400000006 24.4586997400000001 6.0392472899999996 Na
atom 13.0667291500000005 24.7416968600000011 5.9221839300000001 Cl
atom 10.1258407100000003 27.3755826300000003 8.6056303100000004 Na
atom 12.8324751500000005 27.3887249100000005 8.8222011100000000 Cl
atom 13.0747520700000006 24.5009656199999988 8.4787506199999996 Na
atom 10.1854161300000001 24.4258972700000001 8.7645299399999992 Cl
atom 13.2070795200000006 27.3342004400000000 6.1587212600000001 Na
atom 10.3618479800000003 27.1704348499999995 5.9639746400000000 Cl
atom 10.3128970800000008 30.0724432700000008 5.9488205000000001 Na
atom 13.1006462700000004 30.0646982399999985 5.9461161799999998 Cl
atom 10.1357187799999995 32.9428669699999972 8.5035607500000001 Na
atom 12.9966785599999994 32.8741311699999983 8.7723067399999994 Cl
atom 12.9750580600000003 30.0521964200000014 8.6251878499999997 Na
atom 10.1701834000000009 30.2846516500000007 8.6226287399999997 Cl
atom 13.1035015099999992 32.8724661999999981 6.0581490699999998 Na
atom 10.2742892399999999 32.7884327100000021 5.7871695900000004 Cl
atom 10.2294256499999996 35.7272747100000032 5.8123006000000004 Na
atom 13.0215095299999994 35.8940193800000031 5.9365884700000002 Cl
atom 10.3052306300000005 38.5716803400000003 8.4614071499999994 Na
atom 13.0650108300000003 38.5314309399999999 8.7321648300000003 Cl
atom 13.0443264200000009 35.8862791900000033 8.5210215900000001 Na
atom 10.2451046100000003 35.8605296499999966 8.5683438100000000 Cl
atom 13.0216483499999995 38.6684476699999991 5.9903693499999999 Na
atom 10.3064613099999995 38.6580516599999982 5.8587874500000003 Cl
atom 10.2803131400000005 1.9610391300000001 5.8257580999999998 Na
atom 13.0058759300000002 1.9022285299999999 5.8698448799999996 Cl
atom 10.2643270900000001 4.6033766099999998 8.4906393999999992 Na
atom 13.1003950600000003 4.6243952899999998 8.8270488999999994 Cl
atom 13.1165389000000001 1.8792546900000000 8.6011973899999994 Na
atom 10.3746696400000005 1.8830227300000000 8.6294240400000000 Cl
atom 13.0823601099999998 4.6998529800000002 5.9411388199999999 Na
atom 10.3116337999999992 4.8285628400000000 5.9855586599999997 Cl
atom 10.3042211600000009 7.6341987900000001 5.8541791099999996 Na
atom 13.0779272199999994 7.4415298300000003 5.8999899999999998 Cl
atom 10.1334916300000000 10.2222051000000000 8.4026080299999997 Na
atom 13.0106153199999994 10.2861255200000006 8.7506330899999991 Cl
atom 13.0734525799999997 7.4602216400000003 8.5314736799999995 Na
atom 10.3611461699999996 7.4677308399999998 8.6579396600000003 Cl
atom 12.9476727999999994 10.4547711000000003 6.1773956300000004 Na
atom 10.1064494200000006 10.2310343600000007 5.7968184599999999 Cl
atom 15.6407889000000004 13.2139123299999994 6.0556380799999996 Na
atom 18.5636606499999992 13.1272079000000002 5.9987886799999997 Cl
atom 15.8911329400000003 15.8175037300000003 8.7005151600000001 Na
atom 18.7245328600000001 15.8371636999999996 8.9748065199999996 Cl
atom 18.6277426800000008 13.0284519400000001 8.6477103799999995 Na
atom 15.7095673599999994 12.8747560900000000 8.6898933100000004 Cl
atom 18.7170595000000013 15.9697142299999992 6.1465436100000002 Na
atom 15.9874445099999996 15.9545538499999999 6.0304823200000000 Cl
atom 15.9301609600000003 18.5500488499999996 5.9984331199999996 Na
atom 18.6184840099999995 18.8485192499999989 6.1325346300000003 Cl
atom 16.0824287099999985 21.6348106700000002 8.4671113200000008 Na
atom 18.7898224599999999 21.4151242699999997 8.9388564000000006 Cl
atom 18.6753083099999984 18.6285942099999993 8.6201379899999999 Na
atom 15.9841989299999998 18.7777613400000014 8.8871438699999992 Cl
atom 18.7096907600000009 21.5700102999999999 6.1455781600000003 Na
atom 15.7647075500000007 21.5836077999999993 5.9609705399999999 Cl
atom 15.8636511500000008 24.4265924500000011 6.1390142900000004 Na
atom 18.8257133199999984 24.5617812099999995 5.7523995799999996 Cl
atom 16.0468201099999987 27.4241762300000005 9.1315223299999992 Na
atom 18.7068357200000008 27.4036347400000011 8.8512310999999997 Cl
atom 18.6115588000000010 24.5818387099999995 8.4496211300000006 Na
atom 15.9894385499999991 24.5305931699999995 9.0948571299999994 Cl
atom 18.7524197999999984 27.3635434400000008 6.0663010499999999 Na
atom 15.7730976999999992 27.3592762200000017 6.0534802599999997 Cl
atom 15.9616865800000003 30.0261965400000008 6.0136646000000002 Na
atom 18.6611040800000012 30.1093689799999993 5.8332240100000003 Cl
atom 15.6668946400000006 33.0423629499999976 8.6308037800000008 Na
atom 18.5714255199999982 32.9905890599999978 8.8316882499999991 Cl
atom 18.6242336500000008 30.1450204500000005 8.5463934399999992 Na
atom 15.9003080200000007 30.0751906099999999 8.8251636999999992 Cl
atom 18.4825032600000014 33.0231391399999978 6.0109597299999997 Na
atom 15.7838215999999996 33.0266137899999990 6.0113595100000001 Cl
atom 15.8213472900000003 35.8631887199999966 5.8799594900000001 Na
atom 18.5186205999999984 35.6787270000000021 5.7602381600000001 Cl
atom 15.9650948499999998 38.5108748199999980 8.5713412000000009 Na
atom 18.7172575300000013 38.4493898400000020 8.6092199399999991 Cl
atom 18.6407703900000001 35.7136831500000014 8.4027984399999998 Na
atom 15.7758981100000000 35.8714474200000026 8.6515326100000003 Cl
atom 18.6174762099999995 38.6089544900000021 5.8062095300000003 Na