#===============================================================================
# Created using the Atomic Simulation Environment (ASE)

# Tue Dec 23 21:42:51 2025

#=======================================================
lattice_vector 28.1999999999999993 0.0000000000000000 0.0000000000000000 
lattice_vector 0.0000000000000000 39.4799999999999969 0.0000000000000000 
lattice_vector 0.0000000000000000 0.0000000000000000 62.3296083400000001 
atom 7.5727517999999998 14.6967456399999996 -0.0158901700000000 Au
atom 10.2812773100000001 14.7658219400000004 0.0167292500000000 Au
atom 13.0675130900000003 14.7478290399999992 -0.0670156100000000 Au
atom 15.8852762100000007 14.8069271699999998 0.0242769700000000 Au
atom 18.7288012600000009 14.7303272700000001 -0.1773380600000000 Au
atom 21.4511388200000006 14.7754547899999995 -0.0992550000000000 Au
atom 24.2269340799999995 14.7709524400000003 0.1038192800000000 Au
atom 27.0980017699999998 14.6918570899999992 0.0834947300000000 Au
atom 1.6685095400000001 14.7355026799999997 -0.0028512800000000 Au
atom 4.6622101200000001 14.7687271700000000 -0.0540984500000000 Au
atom 8.8403205099999997 17.3787385299999997 0.0345076900000000 Au
atom 11.6922451600000006 17.1932020299999984 0.0823272600000000 Au
atom 14.4477319699999995 17.3705592600000003 0.0423263500000000 Au
atom 17.2910052900000011 17.3155760200000017 -0.0783817600000000 Au
atom 20.1264890299999983 17.2183990099999988 0.0486657700000000 Au
atom 22.9345390400000007 17.2235531100000010 -0.0022257600000000 Au
atom 25.6706362000000006 17.1543785500000006 -0.1561390300000000 Au
atom 0.3403524200000000 17.1922187099999988 0.1049355400000000 Au
atom 3.1173591500000000 17.1265198800000000 -0.0832423600000000 Au
atom 6.0785512199999996 17.2399945000000017 -0.1013949400000000 Au
atom 7.3725456500000002 19.7299284399999983 -0.0531039700000000 Au
atom 10.2909557399999994 19.7361337100000007 0.1898944300000000 Au
atom 13.0958290099999992 19.7522331400000013 0.0052547900000000 Au
atom 15.9578278499999993 19.7972009100000008 -0.0167689900000000 Au
atom 18.8323273899999997 19.6029030199999994 -0.1196023900000000 Au
atom 21.6041597600000017 19.7056829499999999 0.1165158800000000 Au
atom 24.3863996800000002 19.7567524100000007 -0.0751373100000000 Au
atom 27.2269299700000005 19.6262419600000015 -0.1754754000000000 Au
atom 1.7265166900000000 19.6192793300000012 0.3047893600000000 Au
atom 4.6150266300000000 19.6503399499999993 -0.1467710700000000 Au
atom 8.8150788599999998 22.2479688099999997 -0.1725194200000000 Au
atom 11.7208078300000000 22.2000160800000010 0.2892033300000000 Au
atom 14.4174225800000002 22.2187811099999983 0.1180251800000000 Au
atom 17.3107205800000017 22.1968100300000017 -0.3188040500000000 Au
atom 20.1341294899999994 22.2251248299999986 0.1095885300000000 Au
atom 22.8511039099999991 22.1845914800000017 0.0140412600000000 Au
atom 25.8146097400000016 22.1453054899999984 -0.0719612000000000 Au
atom 0.3536125700000000 22.0479258199999997 0.0888896200000000 Au
atom 3.1573128100000001 22.0466468599999992 -0.0704046200000000 Au
atom 5.8916746499999997 22.1969406800000009 -0.0541594500000000 Au
atom 7.3725861500000001 24.5986858400000017 -0.1771939800000000 Au
atom 10.2735382299999998 24.6888813399999982 -0.2279904100000000 Au
atom 13.1684692499999993 24.6633660600000013 -0.2820874100000000 Au
atom 15.9396055800000003 24.7157793199999993 -0.1163198800000000 Au
atom 18.7107016500000007 24.6985093999999989 -0.0179339200000000 Au
atom 21.6042182599999997 24.6618085799999989 -0.0460372800000000 Au
atom 24.2982724599999997 24.5977791100000012 -0.1491153900000000 Au
atom 27.1573011000000015 24.5467078799999996 -0.3388226200000000 Au
atom 1.7412748199999999 24.5010017900000001 -0.2221625500000000 Au
atom 4.5420424800000001 24.6794833000000011 -0.1389061900000000 Au
atom 8.8803183299999997 27.1943511399999984 -0.2185273600000000 Au
atom 11.6920396800000006 27.1559898199999985 -0.3500370000000000 Au
atom 14.5039482500000005 27.1189610600000002 0.0136095600000000 Au
atom 17.2798878500000015 27.0841540499999986 0.2402014200000000 Au
atom 20.0971330100000003 27.0825856999999992 -0.1288425300000000 Au
atom 22.9873921900000013 27.0870781299999983 -0.2849431800000000 Au
atom 25.8100833399999985 26.9787726100000000 -0.1571723000000000 Au
atom 0.4384472100000000 27.0141343899999988 -0.3594587600000000 Au
atom 3.2034957099999999 27.0831237800000011 0.1507342000000000 Au
atom 5.9676301699999996 27.1211497100000010 -0.1720215400000000 Au
atom 7.4109154000000004 29.6869489900000012 -0.2115511800000000 Au
atom 10.2748046399999993 29.6793202299999983 -0.3104854700000000 Au
atom 13.0896933700000009 29.6077792299999984 -0.1963459400000000 Au
atom 15.8662389400000006 29.5538360800000000 -0.2061596400000000 Au
atom 18.7986523699999992 29.4761625100000018 0.1266423000000000 Au
atom 21.6276224200000016 29.5290381400000008 -0.0952008600000000 Au
atom 24.4770993799999985 29.4689421200000012 0.1313654300000000 Au
atom 27.1882567399999999 29.5886807500000018 -0.3872422500000000 Au
atom 1.8153881300000001 29.5706275400000003 0.0395259800000000 Au
atom 4.5332409499999997 29.5490764599999984 0.0575696100000000 Au
atom 8.7976680500000004 32.1590960199999998 -0.2990820300000000 Au
atom 11.6532228799999995 32.0838216599999981 -0.3345020600000000 Au
atom 14.4930014699999994 32.0239081400000032 -0.0698493400000000 Au
atom 17.3340434099999996 31.9200666400000017 -0.0649225700000000 Au
atom 20.1130302699999994 31.8811003799999995 -0.2723721000000000 Au
atom 23.0186555800000008 31.9399731200000012 -0.2186842300000000 Au
atom 25.7525831099999998 31.9650044300000005 -0.0929633100000000 Au
atom 0.3796511100000000 31.9929786800000002 0.2213316100000000 Au
atom 3.1547420100000001 32.0774879000000013 -0.1492112600000000 Au
atom 5.9564766000000002 32.1119963299999966 -0.1125416300000000 Au
atom 7.4999320799999998 34.5983163800000000 0.1743997300000000 Au
atom 10.2697631400000002 34.6378792499999975 -0.3277362900000000 Au
atom 13.0186172399999993 34.5284254099999970 -0.0305710500000000 Au
atom 15.8805128100000008 34.4120691999999977 0.0672122600000000 Au
atom 18.7243228700000017 34.4410243700000009 -0.2385917100000000 Au
atom 21.4933080700000012 34.4563585499999974 -0.3382323700000000 Au
atom 24.2620990799999987 34.4757848400000029 -0.1796800100000000 Au
atom 27.0824280500000008 34.4654763699999975 0.4416749600000000 Au
atom 1.7171562400000000 34.4971195199999983 0.1895880200000000 Au
atom 4.6677363200000004 34.5177927100000019 0.0885824800000000 Au
atom 8.9245592200000008 37.0011978400000032 0.0168278500000000 Au
atom 11.8106652299999997 37.1407913500000006 0.1713284500000000 Au
atom 14.5448167900000005 36.9649397100000030 0.1832995800000000 Au
atom 17.3847382500000016 36.9228539300000023 -0.0174096700000000 Au
atom 20.1744830300000011 36.9073491300000001 -0.2205131700000000 Au
atom 22.9680041499999987 36.8859979400000029 0.0698158500000000 Au
atom 25.7849940300000000 36.9061649599999981 0.1587455700000000 Au
atom 0.3585684700000000 36.8974061500000019 0.1587236500000000 Au
atom 3.2806491499999999 36.9849026999999992 0.1069116300000000 Au
atom 6.1083612499999997 37.0713800999999989 0.0350023900000000 Au
atom 7.5108222199999997 0.0611085600000000 0.1284636200000000 Au
atom 10.2464372499999996 0.0436903400000000 0.1735476500000000 Au
atom 13.1165643099999993 -0.0241551600000000 0.2460007700000000 Au
atom 16.0112220600000015 -0.0461810300000000 0.1891174500000000 Au
atom 18.8179613000000003 -0.0674131100000000 0.0918104800000000 Au
atom 21.6022548299999997 -0.1066860900000000 0.1765417800000000 Au
atom 24.3393254699999986 -0.1243286400000000 -0.0244895300000000 Au
atom 27.2438260099999994 -0.1035827600000000 0.2482226500000000 Au
atom 1.8263585300000000 -0.0369800200000000 0.1843792700000000 Au
atom 4.6500407600000004 0.1284440500000000 0.0024609700000000 Au
atom 8.8549401200000002 2.4653146800000001 0.1968814100000000 Au
atom 11.6241159100000004 2.4537323999999998 0.1991368400000000 Au
atom 14.6043648200000007 2.4069478100000001 0.3072965900000000 Au
atom 17.4261792399999997 2.3833777399999998 0.1905508300000000 Au
atom 20.1327804899999983 2.4343370700000002 0.0143041400000000 Au
atom 22.9851300800000011 2.3094385000000002 0.1072535000000000 Au
atom 25.8272388600000014 2.3668387399999999 0.2556989400000000 Au
atom 0.4220160800000000 2.4364522300000000 0.3044668400000000 Au
atom 3.2583573200000000 2.5873465599999999 0.1466935400000000 Au
atom 6.1510613100000002 2.5958291500000001 -0.0112479500000000 Au
atom 7.5428070199999997 4.9800092800000000 -0.0220138300000000 Au
atom 10.3912248900000002 4.9849852300000004 0.0871164700000000 Au
atom 13.2124977399999999 4.7960877899999996 -0.1443826300000000 Au
atom 16.0626554100000014 4.8584868800000001 0.3003749700000000 Au
atom 18.8114604199999995 4.9554755300000002 0.1004980100000000 Au
atom 21.6851911599999987 4.8591758599999997 0.0279530400000000 Au
atom 24.3973382100000009 4.7905338000000004 0.0496348600000000 Au
atom 27.1548416400000008 4.9001298799999997 0.2326894600000000 Au
atom 1.8992424000000001 4.9898369599999999 0.2522146400000000 Au
atom 4.6366937000000004 5.0905033099999999 0.1146514200000000 Au
atom 9.0113081400000006 7.4762880000000003 0.0042143600000000 Au
atom 11.8117462900000003 7.3564318599999998 0.2307977600000000 Au
atom 14.6811465900000009 7.3660502399999999 -0.2047007100000000 Au
atom 17.4297518300000007 7.4239289399999997 0.0797846200000000 Au
atom 20.2535232399999998 7.4474240500000004 0.0324933100000000 Au
atom 23.0827945800000016 7.3885879000000001 0.3316527200000000 Au
atom 25.8561374599999994 7.4900848800000004 -0.0917556700000000 Au
atom 0.4220008800000000 7.3312765600000001 0.3351776100000000 Au
atom 3.3177872300000000 7.4512872200000002 -0.0043908500000000 Au
atom 6.1665415100000001 7.3529979399999998 -0.0394831800000000 Au
atom 7.4640499900000004 9.8145546800000005 -0.0633037400000000 Au
atom 10.4057838900000004 9.8645891500000005 -0.0726435100000000 Au
atom 13.2572709199999998 9.8707055199999996 0.1580596700000000 Au
atom 15.9720078799999996 9.7853217200000007 -0.0911738900000000 Au
atom 18.7982809400000015 9.8311859699999999 -0.1513729200000000 Au
atom 21.7584762800000000 9.7964093800000001 -0.1255801600000000 Au
atom 24.4910915200000012 9.9169409700000006 0.2754378800000000 Au
atom 27.2420119800000009 9.8320461199999993 0.1115260700000000 Au
atom 1.7989960899999999 9.8461044300000005 -0.0946939200000000 Au
atom 4.6469416700000004 9.8751048600000004 -0.1795825500000000 Au
atom 8.9234768599999992 12.3157969400000002 -0.0759589600000000 Au
atom 11.7194093200000005 12.3361678399999999 -0.0890130300000000 Au
atom 14.5387802300000004 12.3241289500000004 -0.0370743200000000 Au
atom 17.2872960800000008 12.2544730299999998 -0.0884230600000000 Au
atom 20.1692531899999992 12.2605414899999996 -0.1203595700000000 Au
atom 22.9096523099999985 12.2795053000000003 -0.0596891000000000 Au
atom 25.7384701800000002 12.3027321599999997 0.2074562400000000 Au
atom 0.3859046800000000 12.3101018100000008 0.2040241600000000 Au
atom 3.2541894500000001 12.2707927500000000 0.1345039900000000 Au
atom 6.1789204599999996 12.2541200400000001 -0.0542526700000000 Au
atom 7.4586381299999998 13.1084051299999995 2.7492913899999998 Au
atom 10.1891923799999997 13.1019267500000005 2.4264874900000000 Au
atom 13.1133717799999996 13.2018253500000000 2.6883989200000000 Au
atom 16.0029361899999998 13.1374413600000004 2.5588275100000000 Au
atom 18.8145798599999985 13.3060174999999994 2.5339294600000000 Au
atom 21.5926979900000013 13.2651412799999999 2.4809852000000001 Au
atom 24.3731228199999990 13.2752275599999994 2.6743893399999998 Au
atom 27.2192506099999996 13.1487916800000004 2.8887809600000001 Au
atom 1.8203286700000001 13.0687858600000002 2.5865773100000000 Au
atom 4.7313636900000002 13.1090933399999994 2.6141105100000002 Au
atom 8.7769738999999998 15.6825118700000008 2.5816083700000001 Au
atom 11.6917722400000006 15.5474938199999997 2.7197629000000001 Au
atom 14.5342856900000008 15.6055861500000006 2.7105481000000000 Au
atom 17.2904628699999989 15.7128425800000002 2.6656353899999998 Au
atom 20.1135100099999988 15.7004410500000002 2.5356061200000002 Au
atom 22.9728446099999992 15.6374300599999998 2.7539995899999998 Au
atom 25.7980520899999988 15.6375696299999998 2.6331111599999999 Au
atom 0.4537767400000000 15.5414912399999992 2.7004268699999998 Au
atom 3.1374182700000000 15.6048165300000008 2.6941594800000002 Au
atom 6.0087178999999997 15.6024691999999998 2.6303171999999999 Au
atom 7.3780124200000001 18.0874219899999993 2.8188934300000001 Au
atom 10.3094801000000000 18.0338718900000003 2.6856903999999999 Au
atom 13.1613092100000006 18.0771497900000000 2.5694659000000000 Au
atom 15.9752267299999993 18.2424304900000003 2.6299814399999999 Au
atom 18.7692280599999997 18.1426991000000015 2.5822127199999998 Au
atom 21.5995588500000011 18.0898874300000010 2.8036144599999999 Au
atom 24.4134473099999987 18.0757731700000015 2.5463949000000001 Au
atom 27.2769224699999988 17.9835411000000001 2.4822443900000000 Au
atom 1.8477097400000000 18.1026365100000000 2.8974319500000001 Au
atom 4.6869858200000003 18.0902715600000015 2.3940242600000001 Au
atom 8.8856816900000002 20.5035660600000007 2.7130162000000002 Au
atom 11.7208630899999999 20.5681011900000001 2.7877953999999998 Au
atom 14.4840368700000006 20.6042367900000016 2.5376996599999999 Au
atom 17.3275413200000017 20.6421815100000003 2.4340730100000001 Au
atom 20.2178506200000001 20.6002459299999998 2.6768936000000001 Au
atom 23.0319909900000006 20.5323877800000005 2.8278596399999998 Au
atom 25.8125183900000010 20.4711907000000011 2.4932777900000000 Au
atom 0.4205854300000000 20.5470721500000018 2.9799536600000001 Au
atom 3.2332373500000000 20.5513823900000006 2.5222730599999998 Au
atom 6.1056301399999997 20.5263839700000013 2.5949708199999999 Au
atom 7.3239608299999999 22.9703857599999992 2.5201460999999998 Au
atom 10.1515560499999999 23.0049854700000012 2.5023259300000000 Au
atom 13.0566883100000002 23.0483150899999991 2.9007274999999999 Au
atom 15.9183734799999996 23.0686600599999991 2.5317797999999998 Au
atom 18.7250781400000008 23.0132228699999999 2.5059976000000002 Au
atom 21.5322896600000000 23.0929739100000013 2.7426485700000001 Au
atom 24.4229126299999990 23.0512285900000009 2.6081910100000001 Au
atom 27.2277763700000008 22.9327134199999989 2.5768842300000001 Au
atom 1.8668125000000000 23.0329901200000009 2.5666507799999998 Au
atom 4.5998872899999999 22.9964070400000011 2.4795159999999998 Au
atom 8.8422524800000009 25.4602841600000005 2.3890771499999999 Au
atom 11.6355634099999996 25.5126648299999985 2.2579601800000000 Au
atom 14.5305731300000005 25.5349783899999991 2.4526670600000000 Au
atom 17.3491858400000005 25.4379389099999997 2.6893803699999999 Au
atom 20.1111943300000000 25.4425264300000009 2.4841703700000002 Au
atom 22.9994766999999989 25.5032777599999996 2.4810628299999999 Au
atom 25.8432005700000005 25.4198996199999989 2.4533933000000001 Au
atom 0.4863170300000000 25.4941294300000010 2.3853374600000001 Au
atom 3.2828906400000002 25.4092079700000006 2.5611233499999999 Au
atom 6.0798954500000004 25.5257901099999991 2.5184712899999999 Au
atom 7.4701845799999997 28.0340736200000009 2.3657233799999999 Au
atom 10.2913225900000000 27.9354559599999988 2.3719344900000001 Au
atom 13.1227172200000002 28.0243846099999985 2.4832725299999998 Au
atom 15.9210457000000005 27.9659527399999988 2.7526030499999998 Au
atom 18.8060349799999997 27.9006168700000003 2.7803352700000001 Au
atom 21.5901811399999985 27.9569467200000012 2.4580114100000001 Au
atom 24.4215459199999998 27.9524425399999998 2.6462642600000001 Au
atom 27.3408543699999989 27.9945526800000017 2.1315998100000000 Au
atom 1.7805809500000001 27.8823658799999983 2.6635437899999999 Au
atom 4.6872147300000000 27.9713237300000017 2.7763091800000002 Au
atom 8.8630662900000008 30.5096952100000003 2.3421866900000001 Au
atom 11.6098937299999996 30.5847137999999994 2.2898349699999998 Au
atom 14.4584357899999993 30.4599574500000010 2.5121260300000001 Au
atom 17.2142307400000014 30.3580790699999987 2.4468207700000000 Au
atom 20.1270599899999993 30.4309508199999996 2.4626076800000001 Au
atom 23.0155326299999992 30.4532097800000017 2.4472004799999998 Au
atom 25.8705917099999994 30.3976968099999993 2.4619461899999999 Au
atom 0.4370980800000000 30.3864069900000011 2.8360682700000002 Au
atom 3.2598827799999999 30.3737015100000001 2.6347830700000001 Au
atom 6.0587041499999996 30.4691905299999988 2.5546775300000002 Au
atom 7.4597353399999999 32.8590147199999976 2.4238744099999998 Au
atom 10.2378081499999993 32.9328371300000029 2.0373603600000001 Au
atom 13.0176827100000008 32.9818746199999993 2.5972796699999998 Au
atom 15.8920890299999993 32.8041700400000025 2.6507879399999998 Au
atom 18.6928572300000013 32.7829932499999970 2.3594888900000002 Au
atom 21.5086738299999993 32.7666494999999998 2.2463312000000002 Au
atom 24.3796806199999985 32.8627813000000017 2.3125369800000000 Au
atom 27.2489450099999999 32.8102155400000015 2.8898690299999998 Au
atom 1.8524239300000001 32.9310737599999968 2.7439097600000002 Au
atom 4.6210993299999998 32.9012661699999995 2.7193505700000000 Au
atom 8.8871882899999992 35.3282038600000021 2.6727037000000000 Au
atom 11.5835434599999996 35.3946370900000034 2.5079401899999998 Au
atom 14.5430786600000008 35.3821704300000022 2.8510617599999999 Au
atom 17.3462457800000003 35.3073616400000034 2.4201468700000000 Au
atom 20.1942047199999983 35.2542017900000033 2.3088684000000002 Au
atom 22.8725693800000016 35.3160139100000023 2.5737716300000000 Au
atom 25.6144611900000001 35.2745883799999973 2.9224547699999999 Au
atom 0.3107659700000000 35.3423652299999986 2.8894320200000001 Au
atom 3.2057925200000001 35.3108822599999996 2.7634799100000000 Au
atom 5.9943653399999999 35.2855792900000012 2.6891644700000001 Au
atom 7.5272532500000002 37.8233274199999983 2.5385044099999998 Au
atom 10.3536396600000007 37.8524451999999982 2.8270579100000002 Au
atom 13.1992149699999999 37.9422849299999996 2.7570091799999998 Au
atom 15.9437252500000000 37.8156994599999976 2.6838018199999998 Au
atom 18.6845730199999984 37.8103907899999996 2.5984470599999998 Au
atom 21.3802743500000005 37.7459627699999984 2.5785572200000000 Au
atom 24.2729049799999999 37.7936366699999979 2.6303560600000000 Au
atom 27.1117878400000016 37.7836416399999990 2.8451344100000000 Au
atom 1.7953122399999999 37.6961895800000022 2.7272141099999998 Au
atom 4.6121490999999999 37.7408730000000006 2.7081240599999998 Au
atom 8.9883156399999997 0.8182539700000000 2.6702336899999999 Au
atom 11.7829512500000000 0.9707983900000000 2.8916491199999999 Au
atom 14.5876528299999997 0.8720174100000000 3.0329723700000000 Au
atom 17.3232128400000001 0.9173755700000000 2.9023961200000001 Au
atom 20.1509751699999988 0.7263073700000000 2.6932127100000001 Au
atom 22.9126198099999989 0.7963978700000000 2.7694523499999999 Au
atom 25.7433595799999999 0.7101129600000000 2.8850114900000001 Au
atom 0.5227601800000000 0.7447198000000000 2.9878915099999999 Au
atom 3.3695214700000000 0.7728185000000000 2.7658786599999998 Au
atom 6.1072347499999999 0.8854472400000000 2.5274377299999999 Au
atom 7.4811031600000000 3.3640946600000001 2.7714958900000002 Au
atom 10.2979408299999999 3.3249904600000000 2.6317931099999998 Au
atom 13.1857724699999999 3.4225089899999999 2.5889811300000001 Au
atom 15.8816535099999996 3.3692953200000000 2.8966061399999998 Au
atom 18.7873646399999998 3.3404354800000000 2.8375631800000001 Au
atom 21.5375358299999995 3.1929468200000000 2.5782583099999998 Au
atom 24.3721508299999989 3.3295090699999998 2.5668715199999999 Au
atom 27.2189492100000017 3.1195698300000001 2.8495231400000001 Au
atom 1.8133151300000001 3.2877692000000001 2.8452878099999999 Au
atom 4.6662407300000002 3.4033086899999998 2.7763744699999999 Au
atom 8.9383907499999999 5.7847048299999999 2.4110189100000001 Au
atom 11.8137215199999996 5.7884752500000003 2.8394908700000001 Au
atom 14.5023890600000005 5.9066384699999999 2.5961315400000000 Au
atom 17.3887046100000013 5.7717697899999996 2.6840055899999999 Au
atom 20.2580639100000006 5.6781821499999996 2.4421990700000000 Au
atom 22.9547331899999989 5.7572043300000004 2.8316584300000001 Au
atom 25.7504116299999986 5.8071330999999997 2.6477424900000002 Au
atom 0.3731748000000000 5.6609550999999998 2.8252067799999998 Au
atom 3.1911973400000000 5.8051590600000003 2.6798569600000000 Au
atom 6.1284205700000003 5.8242349000000004 2.5964584600000000 Au
atom 7.5595389500000003 8.3272864000000002 2.5893800499999999 Au
atom 10.4231309700000008 8.2488755400000002 2.6560333200000001 Au
atom 13.2323316099999992 8.3844373900000004 2.5447088500000001 Au
atom 16.0184608900000001 8.2751978699999995 2.5410901500000000 Au
atom 18.7789190099999992 8.2843844000000004 2.6405497400000000 Au
atom 21.5157443300000004 8.3797239799999996 2.6803278900000000 Au
atom 24.3100589099999986 8.2536558600000003 2.8747887099999998 Au
atom 27.2070259000000014 8.1236724700000007 2.6634522999999999 Au
atom 1.7686332499999999 8.2114424499999998 2.7787928800000001 Au
atom 4.7935282099999998 8.1282590500000005 2.3174322100000002 Au
atom 8.9594135500000007 10.6719143200000008 2.5028866800000000 Au
atom 11.7796616000000007 10.7167736399999995 2.7097800500000000 Au
atom 14.6700464299999993 10.7271859799999998 2.5009218199999999 Au
atom 17.5194886099999998 10.8322421999999996 2.6413314799999998 Au
atom 20.2419903400000010 10.8291084099999999 2.4305747700000002 Au
atom 22.9745924899999991 10.8565526200000004 2.6593643600000001 Au
atom 25.7046725400000007 10.7063705900000006 2.9368723600000002 Au
atom 0.2976654400000000 10.5527042200000007 2.6433566399999999 Au
atom 3.2908145200000001 10.5571448199999995 2.5453618100000002 Au
atom 6.0741485199999996 10.6324212500000002 2.5211882900000000 Au
atom 7.9003063600000001 13.3525933699999992 5.8530352600000004 Cl
atom 7.8267045399999997 16.3754438499999999 8.5917885700000003 Cl
atom 7.8507180800000000 13.1875129199999996 8.3493552799999993 Na
atom 7.7476795100000002 16.1671782200000003 5.8389405500000002 Na
atom 7.8054466900000001 19.1815564300000005 5.6165372600000003 Cl
atom 7.8050985700000002 22.0395340399999995 8.5744256799999992 Cl
atom 7.7864911499999998 19.1575220199999983 8.3954276599999993 Na
atom 7.7730702300000001 22.0118191199999984 5.8271007700000004 Na
atom 7.8779207600000003 24.8355894600000013 5.5527978300000003 Cl
atom 7.6344646100000002 27.7153654899999999 8.7405492599999999 Cl
atom 7.8568067499999996 24.9500082799999987 8.1977159000000004 Na
atom 7.8130178399999997 27.6167551499999995 5.7894466600000003 Na
atom 7.6532311999999996 30.2657849399999996 5.6854561800000001 Cl
atom 7.8221321200000000 33.1750282699999985 8.6398331200000005 Cl
atom 7.9233899699999997 30.3861436599999983 8.3801499100000001 Na
atom 7.8165437500000001 33.0931448400000008 5.7704985300000002 Na
atom 7.6788273399999998 35.9751808600000018 5.6556188199999999 Cl
atom 7.9676923200000003 38.7562263000000016 8.5387088500000008 Cl
atom 7.9428560299999997 35.9730063499999986 8.3123727299999999 Na
atom 7.9277611700000001 39.0610596900000004 5.7698535599999996 Na
atom 7.8891972800000003 2.2153313699999999 5.7076114799999997 Cl
atom 7.6860430700000002 4.8736933899999997 8.4857862799999992 Cl
atom 7.9118644900000001 2.1392583100000002 8.4829899500000003 Na
atom 7.8729790299999998 4.9162556200000003 5.7689387200000004 Na
atom 7.8491033000000003 7.5680872800000003 5.6136695899999998 Cl
atom 7.8308397200000002 10.4646076299999997 8.6453995900000002 Cl
atom 7.7083837099999997 7.5717942100000002 8.3404207100000001 Na
atom 7.8727414199999997 10.5094401800000004 5.7510260500000001 Na
atom 10.6608648400000003 13.5081213400000006 5.6401274299999997 Na
atom 13.6189896299999997 13.5361334600000003 5.5683870400000002 Cl
atom 10.6883879000000004 16.0765767699999991 8.3066060299999993 Na
atom 13.5023439799999991 16.1193922799999996 8.5550656000000007 Cl
atom 13.5587733999999998 13.2462582999999992 8.1673814100000008 Na
atom 10.7120935300000006 13.3259104199999996 8.4402663899999997 Cl
atom 13.4145897600000001 16.4105564000000008 5.8539513300000001 Na
atom 10.5595576199999996 16.3655518399999984 5.6567673500000000 Cl
atom 10.6786656200000003 19.1951056199999996 5.7720491899999997 Na
atom 13.3427314900000002 19.1467779399999998 5.6417573200000000 Cl
atom 10.6128078200000004 21.8810043699999994 8.4954097100000006 Na
atom 13.5265355199999995 21.7559650799999993 8.6623405499999997 Cl
atom 13.4261950900000002 19.0269502700000004 8.4832379400000004 Na
atom 10.5985148599999999 18.8923586899999982 8.4923269200000000 Cl
atom 13.4467498499999998 21.7793743900000010 5.7780354500000000 Na
atom 10.6416433099999992 21.9279352799999998 5.8932679900000000 Cl
atom 10.6285377800000003 24.7547518900000014 5.6256931200000002 Na
atom 13.4033424100000005 24.6252149899999999 5.5183548499999997 Cl
atom 10.6159850299999992 27.4750046300000008 8.2924420199999993 Na
atom 13.4232478799999999 27.5510900999999997 8.3877393700000002 Cl
atom 13.4376380999999991 24.6280579899999985 8.2338157899999995 Na
atom 10.5847826400000002 24.6900344800000013 8.5242386000000003 Cl
atom 13.5591643800000003 27.4996282600000015 5.7825078899999998 Na
atom 10.5948647299999994 27.6092201800000012 5.7203056300000004 Cl
atom 10.7713548699999997 30.2642858600000011 5.7176524700000000 Na
atom 13.5075084200000006 30.5005174399999994 5.4956251199999997 Cl
atom 10.5146417200000002 33.2250005699999988 8.2063895900000006 Na
atom 13.3142168000000005 33.2577116300000029 8.3751730000000002 Cl
atom 13.4479731499999993 30.2444218800000009 8.2351890900000004 Na
atom 10.6772506099999998 30.3683156600000004 8.3601787800000000 Cl
atom 13.3987715600000001 33.2485190499999987 5.6730164299999997 Na
atom 10.4412988400000000 33.3140802200000010 5.5759708799999999 Cl
atom 10.5790569600000008 36.2098970699999967 5.7499373699999996 Na
atom 13.5098286099999996 36.2140227599999989 5.7175637699999999 Cl
atom 10.7243336700000000 38.7253289900000013 8.5731914299999996 Na
atom 13.5288607100000000 38.8155495099999968 8.7229343799999999 Cl
atom 13.5743771100000004 36.1035957599999975 8.3539303900000004 Na
atom 10.7254082099999994 35.9809928900000031 8.4919443999999995 Cl
atom 13.5280398900000005 38.9033716400000031 5.8883137799999998 Na
atom 10.8337104499999999 38.8700207700000036 5.7065847500000002 Cl
atom 10.6883488399999997 2.1368711399999998 5.8627696900000004 Na
atom 13.6192918699999996 2.1918473700000001 5.8065002200000002 Cl
atom 10.7785752400000003 4.9504616300000004 8.4198851000000001 Na
atom 13.6073880599999999 4.8734810199999998 8.5988749099999993 Cl
atom 13.5208504600000001 2.2276562599999998 8.5965533500000006 Na
atom 10.7382812500000000 2.1693095900000001 8.6111216499999994 Cl
atom 13.4345792700000004 4.8768968399999997 5.8657820400000000 Na
atom 10.7079944600000001 4.8845524200000003 5.8450601999999998 Cl
atom 10.6245547200000008 7.6613795700000002 5.8518878200000000 Na
atom 13.5041270799999999 7.7067989800000003 5.8058594100000001 Cl
atom 10.6970288700000005 10.4728510700000008 8.2443054500000006 Na
atom 13.5463882600000005 10.4831447400000002 8.4395286299999999 Cl
atom 13.5805223300000009 7.6621254199999997 8.3961879600000007 Na
atom 10.4513817000000007 7.8161526900000000 8.5378928700000003 Cl
atom 13.5132844100000007 10.4857783199999997 5.6337890200000000 Na
atom 10.6358517900000002 10.4241740499999995 5.6427545700000001 Cl
atom 16.2432459400000013 13.4375601099999997 5.7922330500000001 Na
atom 18.9780320600000003 13.3090893700000006 5.8034803799999999 Cl
atom 16.2144405399999982 16.1348352700000000 8.3397567099999996 Na
atom 19.0091127899999996 16.2075107500000009 8.5296084099999998 Cl
atom 19.2423608399999999 13.3213114000000008 8.4549443899999996 Na
atom 16.3119466799999984 13.1716706299999995 8.5121546600000002 Cl
atom 18.8821291100000010 16.0711794899999987 5.8679678800000001 Na
atom 16.1375103200000005 16.2571355699999991 5.7620124099999996 Cl
atom 16.2139351599999983 19.1571639299999994 5.7497952899999998 Na
atom 19.0810250900000007 18.7912772100000005 5.6775318199999996 Cl
atom 16.3393684300000004 21.7792695499999986 8.2158806799999997 Na
atom 19.1303133500000015 21.8481694399999995 8.5210668599999995 Cl
atom 18.9700306099999985 19.0485346699999987 8.2645636800000002 Na
atom 16.1802598899999985 19.0855999599999997 8.5716735400000008 Cl
atom 19.1676026999999998 21.9475604799999999 5.7182056899999996 Na
atom 16.4142040499999986 21.7823477600000004 5.5206874499999996 Cl
atom 16.3478943399999999 24.7567901299999988 5.6381860799999997 Na
atom 19.0955968600000006 24.6848438700000017 5.5646685500000004 Cl
atom 16.2576788699999994 27.4872238200000005 8.4093278700000003 Na
atom 19.2748937600000012 27.6543131299999985 8.4376042299999998 Cl
atom 19.0483594799999985 24.5643231600000007 8.2922389699999997 Na
atom 16.3896909400000013 24.5914470899999991 8.4037239800000005 Cl
atom 19.1673092899999986 27.3852680600000014 5.8597772299999997 Na
atom 16.2474848300000012 27.5004846799999996 5.6930643700000001 Cl
atom 16.2517462399999992 30.4234993500000002 5.7417470799999997 Na
atom 19.0820054399999997 30.4583204599999995 5.5366998599999997 Cl
atom 16.1801877999999988 33.1946028999999996 8.2381417599999995 Na
atom 19.1580170900000013 33.1498535699999977 8.3616153600000001 Cl
atom 19.1046152000000014 30.4526921900000005 8.0999667899999999 Na
atom 16.1873417800000006 30.3977038300000011 8.4482538500000004 Cl
atom 19.1892552700000003 33.3225185800000006 5.5792907600000001 Na
atom 16.4481444299999993 33.4065234199999992 5.6264209699999999 Cl
atom 16.1718106199999987 36.0059365199999988 5.7332072900000002 Na
atom 18.9695045200000010 36.0978727199999980 5.7392633899999996 Cl
atom 16.3204400900000017 38.8110850099999993 8.4634816199999996 Na
atom 19.3583784899999998 38.8080236400000018 8.6000704500000005 Cl
atom 19.0995608799999985 36.0067966499999983 8.4147840699999996 Na
atom 16.3340510700000010 35.8848772300000007 8.5498926199999996 Cl
atom 19.0490325499999997 38.7055212499999968 5.8604309099999998 Na