#===============================================================================
# Created using the Atomic Simulation Environment (ASE)

# Tue Dec 23 22:26:11 2025

#=======================================================
lattice_vector 28.1999999999999993 0.0000000000000000 0.0000000000000000 
lattice_vector 0.0000000000000000 39.4799999999999969 0.0000000000000000 
lattice_vector 0.0000000000000000 0.0000000000000000 62.3296083400000001 
atom 7.4991004400000003 14.7913324799999994 0.0023718200000000 Au
atom 10.3093718600000006 14.8083403499999999 -0.1748301800000000 Au
atom 13.1408360200000001 14.7941253899999996 -0.1753010200000000 Au
atom 15.9763950900000005 14.8030666499999999 -0.1294799100000000 Au
atom 18.7946781999999999 14.7937548299999992 -0.0341161700000000 Au
atom 21.6193821799999988 14.8091110900000000 -0.0672621100000000 Au
atom 24.4332909899999997 14.7984880099999998 0.0021545400000000 Au
atom 27.2483610600000006 14.8149454899999995 -0.0350122000000000 Au
atom 1.8619728499999999 14.8023106400000000 0.0053471400000000 Au
atom 4.6746635799999998 14.8125466499999998 -0.0578994600000000 Au
atom 8.8921245199999994 17.2682274900000010 -0.0934446600000000 Au
atom 11.7273425499999995 17.2738360399999991 -0.1991955500000000 Au
atom 14.5555871799999998 17.2696417599999990 -0.1791716000000000 Au
atom 17.3914289800000006 17.2673138299999991 -0.0846326000000000 Au
atom 20.2068139900000006 17.2758176200000015 -0.0113544600000000 Au
atom 23.0342576799999996 17.2746703500000010 0.0097866900000000 Au
atom 25.8395198499999985 17.2798963000000008 0.0269005700000000 Au
atom 0.4580533800000000 17.2805953700000003 0.0283533000000000 Au
atom 3.2627007600000000 17.2795557100000003 0.0220811700000000 Au
atom 6.0846312400000002 17.2758778200000016 0.0012989900000000 Au
atom 7.4986484400000002 19.7332737400000013 0.0824652800000000 Au
atom 10.3109102499999992 19.7579941499999983 -0.1707990200000000 Au
atom 13.1393227600000007 19.7435892399999986 -0.0558632300000000 Au
atom 15.9656774600000002 19.7498392199999984 -0.1620322400000000 Au
atom 18.7873132299999988 19.7335054300000010 0.0134581100000000 Au
atom 21.6232407799999997 19.7460709299999984 -0.0287752400000000 Au
atom 24.4356702500000011 19.7390861400000013 0.0942707200000000 Au
atom 27.2510873599999996 19.7527687299999997 0.0497382300000000 Au
atom 1.8628870099999999 19.7426261700000012 0.1157409900000000 Au
atom 4.6757004899999997 19.7522377700000007 0.0273139400000000 Au
atom 8.9090230100000003 22.2141309400000004 0.0363907500000000 Au
atom 11.7274924499999997 22.2216750999999988 -0.0719432200000000 Au
atom 14.5557800700000008 22.2165946199999986 -0.0948688000000000 Au
atom 17.3759437299999995 22.2104428600000006 -0.0714745300000000 Au
atom 20.2037292099999988 22.2104567700000004 -0.0530201000000000 Au
atom 23.0227098800000007 22.2072061599999984 0.0508625800000000 Au
atom 25.8401010699999993 22.2106403700000001 0.0524375600000000 Au
atom 0.4569143100000000 22.2104415199999998 0.0682232400000000 Au
atom 3.2709384400000001 22.2106242099999989 0.0675028800000000 Au
atom 6.0893391699999997 22.2102630400000010 0.0315860100000000 Au
atom 7.4942528499999996 24.6841483500000010 0.0482361100000000 Au
atom 10.3224972600000005 24.6878014700000001 0.0103865300000000 Au
atom 13.1452945999999997 24.6963783499999998 -0.0249473800000000 Au
atom 15.9678566800000006 24.6881717899999984 -0.0728489300000000 Au
atom 18.7901281100000013 24.6919220899999985 -0.0121730800000000 Au
atom 21.6083012200000013 24.6804606399999997 0.0441087800000000 Au
atom 24.4315708799999989 24.6809345700000016 0.0733928800000000 Au
atom 27.2478241700000012 24.6811503600000002 0.0803723900000000 Au
atom 1.8629089700000001 24.6815156199999990 0.1053155500000000 Au
atom 4.6780863000000004 24.6811723299999990 0.0702195600000000 Au
atom 8.9127198199999995 27.1542486099999998 0.0277714800000000 Au
atom 11.7279178300000009 27.1536345099999998 -0.0078999400000000 Au
atom 14.5635907200000005 27.1582179000000004 -0.0282210200000000 Au
atom 17.3740418299999995 27.1584780799999983 -0.0282981000000000 Au
atom 20.2032793200000000 27.1501178600000017 0.0013353600000000 Au
atom 23.0135231199999986 27.1479459399999996 0.0576283000000000 Au
atom 25.8386926999999993 27.1436655800000004 0.0653776800000000 Au
atom 0.4528941800000000 27.1433030600000009 0.0711244500000000 Au
atom 3.2763314700000001 27.1442060800000000 0.0709252900000000 Au
atom 6.0884619500000001 27.1461123600000001 0.0557091200000000 Au
atom 7.5017808700000002 29.6197323399999988 -0.0139083000000000 Au
atom 10.3245001300000006 29.6141145399999992 0.0060281500000000 Au
atom 13.1450151900000005 29.6340744399999991 -0.0671712300000000 Au
atom 15.9676391800000008 29.6188553900000002 0.0167511400000000 Au
atom 18.7886716400000005 29.6325978600000006 -0.0610490400000000 Au
atom 21.6046751199999996 29.6102814300000006 0.0296565900000000 Au
atom 24.4255327999999992 29.6155651599999992 -0.0009912500000000 Au
atom 27.2449146000000013 29.6043721799999986 0.0195514000000000 Au
atom 1.8645586500000000 29.6128911200000005 0.0049578800000000 Au
atom 4.6838003099999996 29.6052390999999986 0.0193857000000000 Au
atom 8.9167700399999994 32.0868325200000015 -0.0170789200000000 Au
atom 11.7287030800000007 32.0919447099999999 -0.0266576400000000 Au
atom 14.5596352499999995 32.0948262300000025 -0.0317473200000000 Au
atom 17.3729690000000012 32.0940464199999980 -0.0145083000000000 Au
atom 20.2006978299999993 32.0895192999999992 -0.0075297100000000 Au
atom 23.0132129499999998 32.0826154700000004 -0.0098911900000000 Au
atom 25.8393453700000002 32.0802174600000001 -0.0093354600000000 Au
atom 0.4520215500000000 32.0793384600000024 -0.0088474100000000 Au
atom 3.2781250800000001 32.0798145600000026 -0.0102063500000000 Au
atom 6.0904010700000004 32.0816907900000032 -0.0098925700000000 Au
atom 7.5038406499999999 34.5599804599999985 -0.0330915600000000 Au
atom 10.3235934999999994 34.5497783200000015 0.0072069200000000 Au
atom 13.1441493200000004 34.5670586000000029 -0.0423865000000000 Au
atom 15.9646821200000009 34.5530126499999994 0.0075219900000000 Au
atom 18.7863201500000017 34.5641899900000027 -0.0313732500000000 Au
atom 21.6069556700000014 34.5488522400000022 0.0061617800000000 Au
atom 24.4260823699999996 34.5583163200000030 -0.0305234100000000 Au
atom 27.2453921900000005 34.5448342299999993 0.0060885700000000 Au
atom 1.8650711799999999 34.5572149899999985 -0.0307384500000000 Au
atom 4.6845503199999996 34.5453686399999995 0.0047348100000000 Au
atom 8.9175242499999996 37.0250293400000032 0.0273298900000000 Au
atom 11.7309183899999994 37.0259849299999999 0.0301845300000000 Au
atom 14.5584605200000006 37.0269496800000013 0.0288630400000000 Au
atom 17.3721890700000010 37.0263050699999994 0.0287787100000000 Au
atom 20.1989384899999997 37.0253950199999977 0.0288379200000000 Au
atom 23.0124098900000007 37.0242105000000024 0.0295903500000000 Au
atom 25.8385946799999999 37.0233250100000006 0.0289650600000000 Au
atom 0.4519999400000000 37.0230768799999979 0.0294511300000000 Au
atom 3.2782277799999999 37.0234084200000026 0.0279515200000000 Au
atom 6.0913971099999999 37.0237418199999979 0.0288394000000000 Au
atom 7.5045219000000003 0.0156461800000000 0.0590492900000000 Au
atom 10.3245698899999994 0.0048117300000000 0.1161760000000000 Au
atom 13.1450052599999996 0.0163029300000000 0.0600079900000000 Au
atom 15.9651974899999995 0.0052642500000000 0.1166787700000000 Au
atom 18.7852381199999989 0.0158258900000000 0.0598742000000000 Au
atom 21.6051600700000002 0.0046509700000000 0.1165070100000000 Au
atom 24.4251319400000000 0.0154912500000000 0.0596598300000000 Au
atom 27.2449745400000012 0.0045011100000000 0.1164143900000000 Au
atom 1.8650196699999999 0.0155287700000000 0.0593684400000000 Au
atom 4.6848096200000002 0.0046504600000000 0.1160522900000000 Au
atom 8.9154455600000002 2.4701319599999998 0.0655082200000000 Au
atom 11.7339612800000008 2.4702683599999999 0.0650385500000000 Au
atom 14.5564774999999997 2.4706730700000001 0.0654373100000000 Au
atom 17.3746276500000008 2.4704548800000001 0.0670472100000000 Au
atom 20.1965117700000008 2.4705646200000002 0.0662851500000000 Au
atom 23.0143192700000014 2.4709727099999999 0.0670483200000000 Au
atom 25.8358270099999991 2.4712123099999999 0.0663407100000000 Au
atom 0.4540318100000000 2.4713479399999998 0.0665936100000000 Au
atom 3.2756807499999998 2.4713626500000001 0.0658596500000000 Au
atom 6.0936909899999998 2.4708021300000000 0.0662571600000000 Au
atom 7.5042375000000003 4.9388886999999997 0.0773471000000000 Au
atom 10.3243681100000000 4.9379385800000000 0.1015204700000000 Au
atom 13.1446244399999994 4.9393011600000003 0.0752507200000000 Au
atom 15.9662682000000000 4.9384408700000000 0.1043685500000000 Au
atom 18.7867667400000009 4.9388076200000004 0.0807374300000000 Au
atom 21.6061453999999991 4.9399449799999999 0.1077016800000000 Au
atom 24.4252146400000001 4.9408573499999999 0.0814933300000000 Au
atom 27.2447100099999986 4.9410534500000001 0.1069583600000000 Au
atom 1.8644094899999999 4.9410766400000004 0.0797436800000000 Au
atom 4.6840154199999997 4.9399604400000001 0.1042371300000000 Au
atom 8.9118980699999994 7.3981266000000003 0.0594979900000000 Au
atom 11.7354111600000000 7.3999042199999998 0.0533288600000000 Au
atom 14.5530113100000005 7.3979792000000000 0.0494800000000000 Au
atom 17.3808025400000012 7.3967495100000002 0.0571190900000000 Au
atom 20.1960543799999996 7.3992746599999997 0.0676179200000000 Au
atom 23.0191773799999986 7.4006603100000001 0.0696016800000000 Au
atom 25.8330537999999983 7.4018704399999997 0.0687867000000000 Au
atom 0.4564579100000000 7.4019244100000003 0.0662091500000000 Au
atom 3.2709688600000000 7.4004615100000004 0.0621858400000000 Au
atom 6.0954202899999999 7.3980512999999997 0.0613945200000000 Au
atom 7.4998529100000004 9.8567567000000000 0.0153047700000000 Au
atom 10.3216588599999994 9.8720120300000005 0.0098520500000000 Au
atom 13.1447159599999992 9.8626958899999995 -0.0014557300000000 Au
atom 15.9705730700000004 9.8665174300000000 -0.0131287700000000 Au
atom 18.7907246999999984 9.8574623599999995 0.0151257700000000 Au
atom 21.6115123400000009 9.8680351500000008 0.0021136300000000 Au
atom 24.4277421100000005 9.8619685799999992 0.0200685900000000 Au
atom 27.2449820699999989 9.8712439799999991 0.0028256000000000 Au
atom 1.8621926600000001 9.8619634099999995 0.0102951300000000 Au
atom 4.6786588499999997 9.8668972299999993 -0.0085413200000000 Au
atom 8.8982302099999995 12.3199828900000004 -0.1331656600000000 Au
atom 11.7383163499999998 12.3268559999999994 -0.1807438800000000 Au
atom 14.5563090800000001 12.3299224600000006 -0.1238566300000000 Au
atom 17.3900413000000000 12.3250048600000000 -0.0718257000000000 Au
atom 20.2029192600000016 12.3311690800000004 -0.0357378500000000 Au
atom 23.0279513499999986 12.3334859300000002 -0.0214934700000000 Au
atom 25.8355526799999993 12.3370464900000005 -0.0084964300000000 Au
atom 0.4566751900000000 12.3379674999999995 -0.0136341500000000 Au
atom 3.2622851399999999 12.3354469899999994 -0.0290204900000000 Au
atom 6.0851379799999998 12.3297133399999996 -0.0382972300000000 Au
atom 7.5209049900000000 13.1840949399999996 2.5769471799999999 Au
atom 10.3329988700000008 13.1960133099999997 2.2876479299999999 Au
atom 13.1370854700000006 13.2005678900000003 2.4681627700000002 Au
atom 15.9597213700000005 13.1916029500000000 2.4451879299999999 Au
atom 18.7756168400000014 13.1924614099999999 2.5932440899999998 Au
atom 21.6064932600000006 13.1927895900000003 2.5340867399999998 Au
atom 24.4264398299999996 13.1895491499999995 2.6448893299999998 Au
atom 27.2481112000000003 13.1926044099999995 2.5579485499999999 Au
atom 1.8688248400000000 13.1882094999999993 2.6402430400000001 Au
atom 4.6876098400000004 13.1908861000000002 2.5310673800000001 Au
atom 8.9172528399999997 15.6466165999999998 2.5344207600000002 Au
atom 11.7357332999999997 15.6446076499999993 2.4030177799999999 Au
atom 14.5492732500000006 15.6435411000000002 2.4189542400000001 Au
atom 17.3668202299999983 15.6525391700000007 2.5449206100000001 Au
atom 20.1925415299999997 15.6443230000000000 2.5486474800000001 Au
atom 23.0206937600000003 15.6488798199999994 2.5985961199999998 Au
atom 25.8380116199999996 15.6475700100000008 2.6016575300000002 Au
atom 0.4606934600000000 15.6471814800000004 2.6090195999999999 Au
atom 3.2763936999999999 15.6471848599999994 2.6119758800000001 Au
atom 6.0974254600000002 15.6410730000000004 2.5676394500000002 Au
atom 7.5211115900000003 18.0923092499999996 2.6452255600000001 Au
atom 10.3199807799999999 18.1642165800000015 2.4793035099999998 Au
atom 13.1428063000000002 18.0772000900000016 2.4176679200000000 Au
atom 15.9660175599999992 18.1806849499999998 2.6761348200000001 Au
atom 18.7694494499999998 18.0998453599999998 2.6073887299999998 Au
atom 21.6062283800000010 18.1179433600000017 2.5667709900000002 Au
atom 24.4264235999999997 18.1038518000000010 2.7012039600000000 Au
atom 27.2492490799999985 18.1185538299999997 2.6169168500000000 Au
atom 1.8698375000000000 18.1027130300000003 2.7068216899999999 Au
atom 4.6902430199999996 18.1195450700000009 2.5977027300000000 Au
atom 8.9205767500000004 20.5796968599999985 2.5989784500000002 Au
atom 11.7259198300000005 20.5828107100000004 2.4956575999999999 Au
atom 14.5506549700000001 20.5829577400000012 2.4945460200000000 Au
atom 17.3669442799999985 20.5792854500000004 2.5267967200000001 Au
atom 20.1956497400000003 20.5790070500000013 2.5375453100000001 Au
atom 23.0169391700000006 20.5790277199999991 2.6754110099999999 Au
atom 25.8377793599999990 20.5847986499999998 2.6869566800000002 Au
atom 0.4556549400000000 20.5843343099999991 2.7112473600000002 Au
atom 3.2773745200000000 20.5850003999999984 2.7075107200000001 Au
atom 6.0954683699999999 20.5871854499999998 2.6543429500000002 Au
atom 7.5115368100000000 23.0552643699999997 2.6308791299999998 Au
atom 10.3443891099999998 23.0762682499999983 2.5927251999999998 Au
atom 13.1535248899999999 23.0505756899999987 2.4854766800000001 Au
atom 15.9585409800000004 23.0839436199999994 2.4943851800000001 Au
atom 18.7705445399999995 23.0492616599999991 2.4842884500000002 Au
atom 21.5849289300000002 23.0662471300000007 2.6093992699999999 Au
atom 24.4176309700000012 23.0523711599999999 2.6553364199999998 Au
atom 27.2426974999999985 23.0680215500000010 2.6639219700000001 Au
atom 1.8653200000000001 23.0514980499999993 2.6772587900000002 Au
atom 4.6897469300000001 23.0708358699999998 2.6570745599999999 Au
atom 8.9178802600000004 25.5404424600000013 2.6202912600000001 Au
atom 11.7351908599999994 25.5493650499999987 2.6202340199999998 Au
atom 14.5592685399999997 25.5510952200000006 2.5582791899999999 Au
atom 17.3639412700000015 25.5532459799999998 2.5535378999999998 Au
atom 20.1960267400000006 25.5548091900000003 2.6303860700000001 Au
atom 23.0121907700000001 25.5374205699999983 2.6627214000000001 Au
atom 25.8348088199999992 25.5395782099999984 2.7099463300000002 Au
atom 0.4515528400000000 25.5400132400000004 2.7180381300000001 Au
atom 3.2755383100000000 25.5405712399999985 2.7114315400000000 Au
atom 6.0942915500000003 25.5435281799999991 2.6921933299999998 Au
atom 7.5083592200000000 28.0127150200000017 2.6076512599999999 Au
atom 10.3358668700000003 28.0184186799999999 2.6533348399999999 Au
atom 13.1529524400000000 28.0288848600000016 2.4564071099999998 Au
atom 15.9664798399999999 28.0219584399999988 2.6351081700000001 Au
atom 18.7735123900000005 28.0650263600000009 2.3086741499999999 Au
atom 21.5947943699999989 28.0164079000000008 2.6823531699999998 Au
atom 24.4230216400000018 28.0106415200000001 2.6243695200000001 Au
atom 27.2434167900000013 28.0158730499999997 2.6945045200000002 Au
atom 1.8636254699999999 28.0090496299999998 2.6348999300000000 Au
atom 4.6867053500000004 28.0167091399999997 2.6951030999999999 Au
atom 8.9155516499999994 30.4761084300000000 2.5911637199999999 Au
atom 11.7332304500000006 30.4778418500000008 2.5852342199999998 Au
atom 14.5585169400000005 30.4823938400000003 2.5769734600000000 Au
atom 17.3791374400000009 30.4808689999999984 2.5922701500000001 Au
atom 20.1966160799999983 30.4778253799999987 2.6098367800000002 Au
atom 23.0135869500000005 30.4761321999999986 2.6123661000000000 Au
atom 25.8387508399999994 30.4745781899999990 2.6141877700000000 Au
atom 0.4514339400000000 30.4741476300000009 2.6154166499999998 Au
atom 3.2758595000000001 30.4746588299999992 2.6125473399999999 Au
atom 6.0902047599999998 30.4756946199999987 2.6127187900000002 Au
atom 7.5039366500000000 32.9372118200000017 2.5578870999999999 Au
atom 10.3247066000000007 32.9302338800000030 2.6455285599999998 Au
atom 13.1443304899999998 32.9397783799999999 2.5394621499999999 Au
atom 15.9655302700000004 32.9325642700000003 2.6444528200000001 Au
atom 18.7868497300000001 32.9424197100000029 2.5642087400000002 Au
atom 21.6075341799999983 32.9333853300000001 2.6446597999999999 Au
atom 24.4274093199999989 32.9360602300000025 2.5615510300000000 Au
atom 27.2459231399999986 32.9303898300000029 2.6447525700000001 Au
atom 1.8644647000000001 32.9348581200000012 2.5613588599999999 Au
atom 4.6841159599999997 32.9315882100000010 2.6437158500000000 Au
atom 8.9164796000000006 35.3914216900000014 2.6088158400000001 Au
atom 11.7325582500000003 35.3902185700000018 2.6121236600000000 Au
atom 14.5561640899999993 35.3915173600000017 2.6110657700000002 Au
atom 17.3727003899999985 35.3932943900000012 2.6116636400000002 Au
atom 20.1987190400000003 35.3934105000000017 2.6121454200000001 Au
atom 23.0149167699999992 35.3916486999999975 2.6128258600000001 Au
atom 25.8383270299999985 35.3902866299999985 2.6113689500000001 Au
atom 0.4531826600000000 35.3898447799999971 2.6120978300000002 Au
atom 3.2767227700000001 35.3906501399999982 2.6100204200000001 Au
atom 6.0922795900000004 35.3909643200000019 2.6116627200000000 Au
atom 7.5049406500000000 37.8621967500000025 2.6196825200000000 Au
atom 10.3249188400000005 37.8449937899999966 2.7042878400000001 Au
atom 13.1448342999999994 37.8617360200000022 2.6197697799999999 Au
atom 15.9647806299999999 37.8453104999999965 2.7045171300000002 Au
atom 18.7852170299999983 37.8623104600000033 2.6214405799999998 Au
atom 21.6059223200000012 37.8459830999999980 2.7050127300000000 Au
atom 24.4259220100000007 37.8619110599999971 2.6205715100000000 Au
atom 27.2456332600000017 37.8450334799999979 2.7046530199999999 Au
atom 1.8653211400000000 37.8617999800000007 2.6200476300000002 Au
atom 4.6850948600000004 37.8456775499999978 2.7040723099999999 Au
atom 8.9135914900000000 0.8472592799999999 2.7140428499999998 Au
atom 11.7351095099999991 0.8463532400000000 2.7148782900000001 Au
atom 14.5540977999999992 0.8464174800000001 2.7151686700000002 Au
atom 17.3757845999999994 0.8463907200000000 2.7154994100000001 Au
atom 20.1943333500000008 0.8469931100000000 2.7150716899999998 Au
atom 23.0158275600000017 0.8468943700000000 2.7154057699999998 Au
atom 25.8343011599999990 0.8472032700000000 2.7148354200000000 Au
atom 0.4557114800000000 0.8470475200000001 2.7150291100000001 Au
atom 3.2742144199999998 0.8477917000000000 2.7141888000000001 Au
atom 6.0953925099999999 0.8474100900000000 2.7149141499999998 Au
atom 7.5052851900000004 3.3311589000000001 2.6612246399999999 Au
atom 10.3246442399999996 3.3115709000000000 2.6767650199999999 Au
atom 13.1445796700000006 3.3298022399999998 2.6579742999999998 Au
atom 15.9649509700000003 3.3106774300000001 2.6790365500000002 Au
atom 18.7850782299999999 3.3298690600000000 2.6626396600000000 Au
atom 21.6049746800000015 3.3111946500000000 2.6793097000000001 Au
atom 24.4249574100000011 3.3304904400000002 2.6634321500000002 Au
atom 27.2449836500000018 3.3116706300000001 2.6786434600000000 Au
atom 1.8653038399999999 3.3311808799999998 2.6624753200000000 Au
atom 4.6852088500000004 3.3124248000000001 2.6777530700000001 Au
atom 8.9140012500000001 5.8019759500000001 2.7132877400000002 Au
atom 11.7357773900000009 5.8011926699999998 2.7095175600000001 Au
atom 14.5530786299999999 5.7996601099999996 2.7098506100000002 Au
atom 17.3760798899999998 5.8001629299999999 2.7160361599999998 Au
atom 20.1937035899999984 5.7994603900000001 2.7181786699999999 Au
atom 23.0166153499999986 5.8004253700000001 2.7198212200000000 Au
atom 25.8333147200000006 5.8005110599999998 2.7186482000000001 Au
atom 0.4565676100000000 5.8008340699999996 2.7172029100000001 Au
atom 3.2735483099999998 5.8017434899999998 2.7158681699999998 Au
atom 6.0963567999999997 5.8002336999999997 2.7134611000000000 Au
atom 7.5086696200000000 8.2778595799999994 2.6793174500000001 Au
atom 10.3269498100000003 8.2713899899999994 2.6226740999999998 Au
atom 13.1433428400000007 8.2844525000000004 2.6598452199999998 Au
atom 15.9621264800000002 8.2657220200000001 2.6090811999999999 Au
atom 18.7818975600000009 8.2764493800000007 2.6826134700000002 Au
atom 21.6043841800000003 8.2671808099999993 2.6330563699999998 Au
atom 24.4250651400000010 8.2766301799999997 2.6909474100000002 Au
atom 27.2456397499999987 8.2678915400000008 2.6336581300000002 Au
atom 1.8667096200000000 8.2772982600000002 2.6842067599999999 Au
atom 4.6864903299999998 8.2672433499999993 2.6242179499999998 Au
atom 8.9133869099999998 10.7453998100000003 2.6044611500000001 Au
atom 11.7353445199999999 10.7505243799999999 2.5700364400000000 Au
atom 14.5521464399999996 10.7421629900000006 2.5570579000000002 Au
atom 17.3772318500000011 10.7398278800000000 2.5997976999999999 Au
atom 20.1926036899999986 10.7339642499999997 2.6005395700000000 Au
atom 23.0188643199999987 10.7350407299999997 2.6163037000000000 Au
atom 25.8337253500000017 10.7331894000000005 2.6144054900000002 Au
atom 0.4593549700000000 10.7333391000000002 2.6080526499999999 Au
atom 3.2734824300000001 10.7346630100000002 2.6045739100000000 Au
atom 6.0982827700000000 10.7316367699999997 2.5970073500000002 Au
atom 7.2253966299999997 13.1512730599999994 5.3627183100000000 Cl
atom 7.5246136300000002 16.0380861800000005 8.3581290100000007 Cl
atom 7.4051019100000000 13.1554025400000008 8.3309958000000002 Na
atom 7.2689115600000003 16.0012485399999989 5.5872773100000002 Na
atom 7.2470525099999996 18.8591521799999988 5.6061125399999998 Cl
atom 7.4842299399999996 21.5985536700000011 8.4588990400000004 Cl
atom 7.4137651599999996 18.8407982400000016 8.0872440099999992 Na
atom 7.2821693999999999 21.6929863800000007 5.6816755299999997 Na
atom 7.3250302300000003 24.5088174400000014 5.9137009100000002 Cl
atom 7.4613588000000002 27.2916000300000015 8.5360324599999995 Cl
atom 7.4216958300000000 24.4705736199999997 8.1155256799999993 Na
atom 7.3380150899999999 27.3229473499999997 5.7756843000000000 Na
atom 7.4102870899999997 30.1487632199999993 5.6916775599999996 Cl
atom 7.4587248400000004 32.9445175399999997 8.5818272400000009 Cl
atom 7.4581118200000001 30.1279468799999997 8.3833204600000002 Na
atom 7.4504719499999998 32.9514735599999966 5.8247685599999999 Na
atom 7.4771928200000000 35.7590928500000018 5.6440034199999998 Cl
atom 7.4874073900000004 38.5457942500000001 8.5893047899999999 Cl
atom 7.4740714500000003 35.7508497899999966 8.4613552300000006 Na
atom 7.4860369200000001 38.5787685900000028 5.8279726500000004 Na
atom 7.4862060599999998 1.8922066500000001 5.2147481400000002 Cl
atom 7.4792683499999999 4.6899675299999997 8.6139307600000006 Cl
atom 7.4879194299999998 1.8777322200000000 8.9973907700000009 Na
atom 7.4781782100000003 4.6711874099999999 5.8465245499999998 Na
atom 7.4425836199999997 7.4331778100000001 5.6059605699999997 Cl
atom 7.3825811999999997 10.3525381700000008 8.4178234399999994 Cl
atom 7.4674660299999998 7.5175894699999999 8.4831597799999994 Na
atom 7.3973916800000001 10.2540937499999991 5.7039400799999997 Na
atom 10.0501653500000003 13.0030784300000004 5.4080869500000004 Na
atom 13.2076785700000006 12.9708388400000008 5.3703218000000001 Cl
atom 10.2066270299999999 15.9592558899999997 7.4930488999999998 Na
atom 13.0424538600000002 15.9642396400000006 7.8441495500000000 Cl
atom 12.8992260200000004 13.1434260100000007 7.7326119300000000 Na
atom 10.1909582600000004 13.2502873500000007 8.0318824499999995 Cl
atom 13.1726407299999995 15.8337405899999997 5.1553135200000000 Na
atom 10.0607395600000000 15.9972846999999998 5.3085758600000004 Cl
atom 10.0528291999999997 18.8992118500000004 4.9869180499999999 Na
atom 13.1396917099999992 18.8127865800000009 4.8584492499999996 Cl
atom 10.2377502699999994 21.7250380400000012 7.7502461699999996 Na
atom 13.1199217800000003 21.7002282300000005 7.9827522200000001 Cl
atom 13.0698368100000000 18.7977242599999990 7.8481919700000002 Na
atom 10.2939715799999991 18.8677740100000015 7.8459816699999996 Cl
atom 13.0246112899999993 21.7415404099999989 5.2400994200000000 Na
atom 10.0557415399999996 21.7843135299999986 5.5681923500000003 Cl
atom 10.1001719600000008 24.5787648499999989 5.5923899300000004 Na
atom 12.9647869900000003 24.5780537899999985 5.2752520599999997 Cl
atom 10.2050239800000000 27.3264129599999990 8.1659504199999997 Na
atom 12.9750762300000009 27.3912578300000007 7.9564460199999996 Cl
atom 13.0509414199999991 24.5715873100000017 7.9586062100000001 Na
atom 10.2757744300000002 24.4475562900000014 8.3408301500000004 Cl
atom 13.0240247599999996 27.4113717100000009 5.6337222100000002 Na
atom 10.1112592800000005 27.3719491999999995 5.5921542100000003 Cl
atom 10.2211363500000001 30.2019659000000011 5.7052947899999999 Na
atom 13.0612721500000006 30.2465721999999992 5.4775520799999997 Cl
atom 10.2907672300000002 32.9514505400000033 8.2659559700000003 Na
atom 13.1137291800000000 32.9343212899999997 8.5315650699999992 Cl
atom 13.0724561900000005 30.1347250299999985 8.3151211200000006 Na
atom 10.2914505399999996 30.1297077299999998 8.4712960299999995 Cl
atom 13.1078452199999997 33.0161405400000021 5.8017840100000004 Na
atom 10.2589233699999998 32.9907183999999987 5.7908002900000000 Cl
atom 10.2901656100000007 35.7814664100000002 5.7938253099999999 Na
atom 13.1239348800000002 35.7921552899999966 5.7992559100000003 Cl
atom 10.3091271100000004 38.5462393700000021 8.5417047700000008 Na
atom 13.1326160900000009 38.5436423800000014 8.5923708699999999 Cl
atom 13.1298050600000007 35.7584172899999970 8.3028919400000003 Na
atom 10.2971588799999996 35.7540373100000011 8.5671816500000002 Cl
atom 13.1320478000000005 38.5825577399999986 5.8301191299999999 Na
atom 10.3086130899999997 38.5769826300000034 5.5856127300000002 Cl
atom 10.3085384100000006 1.8716201400000001 5.8491201799999999 Na
atom 13.1376883299999996 1.8808876100000000 5.8911078999999997 Cl
atom 10.3146273599999994 4.6755345400000001 8.3516081199999999 Na
atom 13.1454634800000001 4.6900698299999997 8.6100011799999994 Cl
atom 13.1368627300000007 1.8749964800000001 8.3242701599999993 Na
atom 10.3119734100000002 1.8687755100000001 8.6186397299999999 Cl
atom 13.1399901700000008 4.6485050399999999 5.8498351499999997 Na
atom 10.3041476099999993 4.6456465400000004 5.8286803599999999 Cl
atom 10.2887303499999998 7.4215873200000004 5.8059284299999998 Na
atom 13.1642021600000003 7.3939041899999998 5.4183285100000003 Cl
atom 10.2607756699999992 10.2955478399999993 8.2630079100000007 Na
atom 13.1637545399999993 10.3962169699999993 8.3151729700000008 Cl
atom 13.1429729999999996 7.5352558700000003 8.5905447200000005 Na
atom 10.3101184299999993 7.4644154599999997 8.5473875499999998 Cl
atom 13.1325996000000007 10.1924836800000005 5.6207890100000002 Na
atom 10.2246027399999999 10.1885780700000002 5.8058148699999998 Cl
atom 16.0803002399999997 13.0394516800000009 5.4988162400000000 Na
atom 19.0056448200000005 13.0705512400000003 5.4186888199999999 Cl
atom 16.0152278099999990 15.9420879099999997 8.0974823800000006 Na
atom 18.8299167499999989 16.0566008599999996 8.3805966900000008 Cl
atom 18.9558599500000007 13.1560220900000004 8.3363406199999996 Na
atom 16.2324660799999982 13.1720027500000008 8.1834322999999998 Cl
atom 18.9554110099999988 15.8980592699999992 5.6186670100000002 Na
atom 16.1487959299999986 15.9214821999999998 5.3667112200000000 Cl
atom 16.0855692800000014 18.6587599500000003 4.9979936299999999 Na
atom 18.9909293599999991 18.7209851200000017 5.5246492299999996 Cl
atom 16.0748379399999983 21.6199872599999985 7.5294427300000004 Na
atom 19.1102938100000017 21.6511095400000002 7.7256244799999996 Cl
atom 18.8813200999999999 18.8649477899999987 7.9911801200000001 Na
atom 15.9037052600000006 18.8433123999999985 7.9803064499999996 Cl
atom 19.0213755099999986 21.6010215199999998 5.2285640799999999 Na
atom 16.0541627600000005 21.6261693800000003 5.2382695300000002 Cl
atom 15.9371471800000002 24.6033491399999988 5.0741974200000000 Na
atom 19.1077974799999986 24.5014484099999983 5.2330839999999998 Cl
atom 15.9129349999999992 27.3423358100000016 7.7712454500000003 Na
atom 18.8201625999999997 27.0918030600000002 8.3747024900000007 Cl
atom 18.9640397900000011 24.4024546600000001 7.6624277500000000 Na
atom 16.2688754399999986 24.2899456100000002 7.9584486999999999 Cl
atom 18.8876837600000016 27.3747716200000006 5.3500380800000000 Na
atom 15.9083741399999994 27.3966256600000015 5.8204689900000002 Cl
atom 15.9545450500000001 30.2034746299999988 5.6884233399999999 Na
atom 18.8164771199999983 30.1803910399999999 5.7455537699999999 Cl
atom 15.9305148899999995 32.9202428199999986 8.6118681699999993 Na
atom 18.7742857799999996 32.9131070800000032 8.5833874899999998 Cl
atom 18.7723407400000006 30.0591396199999998 8.4554053800000002 Na
atom 15.8682319199999995 30.0693221800000003 8.4402506400000004 Cl
atom 18.8000325299999993 32.9510915400000002 5.8423766500000003 Na
atom 15.9665075400000003 32.9941361200000003 5.4406020799999997 Cl
atom 15.9640829100000001 35.7789771400000021 5.7970468600000000 Na
atom 18.7858921199999997 35.7485813199999996 5.6550188900000000 Cl
atom 15.9560082800000007 38.5442273999999969 8.4764489399999992 Na
atom 18.7767889200000013 38.5408499500000019 8.5889159900000003 Cl
atom 18.7784014799999994 35.7360398900000007 8.4690260599999991 Na
atom 15.9571282500000002 35.7451391199999975 8.5652820300000005 Cl
atom 18.7783182300000000 38.5735960900000023 5.8305969700000002 Na