#===============================================================================
# Created using the Atomic Simulation Environment (ASE)

# Tue Dec 23 21:42:45 2025

#=======================================================
lattice_vector 28.1999999999999993 0.0000000000000000 0.0000000000000000 
lattice_vector 0.0000000000000000 39.4799999999999969 0.0000000000000000 
lattice_vector 0.0000000000000000 0.0000000000000000 62.3296083400000001 
atom 7.4933227799999997 14.8013224200000000 -0.1381728400000000 Au
atom 10.3503475300000005 14.8304668300000007 -0.1533577300000000 Au
atom 13.1803676999999997 14.7679138800000000 0.0601062300000000 Au
atom 15.9772190700000003 14.8296600600000001 0.0169198100000000 Au
atom 18.7981095499999995 14.8123199499999991 0.0065451600000000 Au
atom 21.5962715799999998 14.8335810200000004 -0.0616919500000000 Au
atom 24.3809496199999991 14.8329798499999992 0.0277224100000000 Au
atom 27.1921108400000016 14.8383923099999997 -0.0561875200000000 Au
atom 1.8481333900000001 14.8098580000000002 0.0637423100000000 Au
atom 4.6540862399999998 14.8047482299999995 -0.0691929700000000 Au
atom 8.8947132799999995 17.2780221699999998 -0.0698886300000000 Au
atom 11.7674971100000008 17.2985199700000010 -0.0425797400000000 Au
atom 14.5719186700000005 17.2885501200000000 -0.0596676500000000 Au
atom 17.3710493200000009 17.2547589200000004 0.0469517500000000 Au
atom 20.2053477000000008 17.2982770300000013 0.0910688900000000 Au
atom 23.0285931700000006 17.2992835199999995 0.0166313200000000 Au
atom 25.8003592300000015 17.3054887999999991 0.1020953100000000 Au
atom 0.4305238400000000 17.2497070400000005 0.0545244800000000 Au
atom 3.2285109699999999 17.2612390200000014 0.0561627200000000 Au
atom 6.0609190499999999 17.3072605599999996 -0.0576717000000000 Au
atom 7.5063837900000001 19.7172279800000005 0.0590248100000000 Au
atom 10.3433617200000008 19.7823771599999993 -0.0205120000000000 Au
atom 13.1422242300000001 19.7738830800000009 0.0758604700000000 Au
atom 15.9928593600000006 19.7517906299999986 0.0491632500000000 Au
atom 18.7669997299999984 19.7244592599999997 0.0088792600000000 Au
atom 21.6357981399999986 19.7973444699999988 0.0631319000000000 Au
atom 24.4301528800000014 19.7586296300000015 0.0549604100000000 Au
atom 27.2069184300000018 19.7853398399999989 0.1129192100000000 Au
atom 1.8293304300000000 19.7576397800000017 0.1594560800000000 Au
atom 4.6825357800000003 19.7512513399999996 0.0649808700000000 Au
atom 8.9161997000000000 22.2308118999999991 0.0768689100000000 Au
atom 11.7063453600000003 22.2104602100000008 0.1219575000000000 Au
atom 14.5420487900000008 22.2383239900000014 0.0090133900000000 Au
atom 17.3829630900000005 22.2328959399999988 0.0550807500000000 Au
atom 20.1768872899999998 22.1954280600000011 -0.0190661500000000 Au
atom 23.0453239200000013 22.2276333699999995 -0.0092714100000000 Au
atom 25.8388386300000015 22.2751684899999987 0.0436814800000000 Au
atom 0.4405733400000000 22.2175436399999988 -0.0202087700000000 Au
atom 3.2501152599999998 22.2183040100000007 0.0846896000000000 Au
atom 6.1150640000000003 22.1688417400000013 0.1744485200000000 Au
atom 7.4641892399999996 24.6994846599999995 0.0529907300000000 Au
atom 10.3161585900000006 24.7193526100000014 0.1527997500000000 Au
atom 13.1448661100000006 24.7241552099999993 0.0516856400000000 Au
atom 15.9353431299999997 24.6809037700000005 0.0677009300000000 Au
atom 18.7764160900000014 24.6667131300000015 0.0815242700000000 Au
atom 21.5880281799999985 24.6429215900000003 0.1351724300000000 Au
atom 24.4037172700000013 24.7236846600000000 0.1011633400000000 Au
atom 27.2342517000000015 24.7108747800000010 0.0525366300000000 Au
atom 1.8423390700000000 24.6936925900000013 0.0797288400000000 Au
atom 4.7143244900000001 24.6790492300000004 0.1252154100000000 Au
atom 8.8843120899999999 27.1262036100000010 0.0879510600000000 Au
atom 11.7416511400000001 27.1402184400000017 0.0511487500000000 Au
atom 14.5791220999999993 27.1552991000000006 0.0015509400000000 Au
atom 17.4011113600000016 27.1079083999999995 0.0300459800000000 Au
atom 20.1901414499999987 27.1451519899999987 0.0396341200000000 Au
atom 23.0115628699999988 27.1403077599999989 0.0960811300000000 Au
atom 25.8681802000000012 27.2024483100000012 0.0449245800000000 Au
atom 0.4356107900000000 27.1673381999999997 0.0538228100000000 Au
atom 3.3088469800000002 27.1739598300000011 0.0246931700000000 Au
atom 6.1274711200000000 27.1724888299999989 0.0401377500000000 Au
atom 7.5172143699999996 29.6169902600000015 -0.0113605300000000 Au
atom 10.2958030699999998 29.6094581199999993 0.0745240700000000 Au
atom 13.1465453100000005 29.5874595700000000 0.0620191800000000 Au
atom 16.0107793100000002 29.5908254799999995 0.1080974300000000 Au
atom 18.7912569599999983 29.6274332899999990 -0.0013386200000000 Au
atom 21.6193778300000012 29.6016228199999993 0.0378362600000000 Au
atom 24.4341450000000009 29.6109523099999983 -0.0723875300000000 Au
atom 27.2833609599999996 29.6402530400000011 -0.0615934700000000 Au
atom 1.9158735200000001 29.6115374799999991 0.0249655100000000 Au
atom 4.7054434699999996 29.6085924799999987 0.0352334700000000 Au
atom 8.9215274200000003 32.0915001500000017 -0.0309393100000000 Au
atom 11.7379599599999995 32.0023237300000005 0.0206746500000000 Au
atom 14.5664495100000000 32.0536008099999989 -0.0071408900000000 Au
atom 17.3803450999999995 32.1067125499999975 -0.0905056800000000 Au
atom 20.1798784200000014 32.0708686600000021 -0.0222922500000000 Au
atom 23.0249839600000001 32.0917328700000013 -0.0318189700000000 Au
atom 25.8044026600000009 32.1260728399999991 -0.0018183100000000 Au
atom 0.4878891700000000 32.0864763900000014 -0.0961314300000000 Au
atom 3.2595306700000002 32.0589532700000035 -0.0201549900000000 Au
atom 6.1179486199999999 32.1049133400000031 -0.0635639800000000 Au
atom 7.5410250200000002 34.5843190599999986 -0.0041329900000000 Au
atom 10.3058007099999998 34.5321314899999976 -0.0390070700000000 Au
atom 13.1401484699999997 34.5526711600000027 0.0012483700000000 Au
atom 15.9616006200000005 34.5197220399999978 -0.0302453100000000 Au
atom 18.7971106100000007 34.6085016199999984 -0.0718608100000000 Au
atom 21.5876489499999984 34.5429977399999970 0.0886152000000000 Au
atom 24.4157809199999996 34.5643941499999983 -0.0292871800000000 Au
atom 27.2574290999999995 34.5569205899999972 0.0928647500000000 Au
atom 1.8642801200000001 34.5515269200000006 -0.0419634200000000 Au
atom 4.6821235300000001 34.5395179599999977 0.0208527100000000 Au
atom 8.9229270100000004 37.0103270299999991 0.0345733700000000 Au
atom 11.7326737100000003 37.0137340300000020 0.0182031400000000 Au
atom 14.5774744300000005 36.9933976100000024 -0.0384388500000000 Au
atom 17.4169812300000011 37.0573884100000015 0.0419742900000000 Au
atom 20.2105039799999986 37.0447124499999987 -0.0664780100000000 Au
atom 22.9981010099999992 37.0176619100000011 0.0669609400000000 Au
atom 25.8163272699999986 37.0371619100000018 0.1115220800000000 Au
atom 0.4135676100000000 37.0338382699999968 -0.0817865200000000 Au
atom 3.2508691600000001 37.0597630800000033 -0.0299592900000000 Au
atom 6.0388536700000000 37.0528026200000014 0.0075606100000000 Au
atom 7.4760309200000004 0.0096092800000000 0.1192275100000000 Au
atom 10.3408486199999992 0.0123404100000000 0.1098061400000000 Au
atom 13.1730794499999995 0.0327529200000000 0.0929980000000000 Au
atom 15.9878451600000009 0.0124472900000000 0.0675167400000000 Au
atom 18.8033472599999989 0.0240036300000000 0.0521762800000000 Au
atom 21.6158664999999992 0.0488817300000000 0.0536088500000000 Au
atom 24.3794728399999983 0.0200584900000000 0.1165144200000000 Au
atom 27.2423661800000012 0.0410475400000000 0.0749295600000000 Au
atom 1.8603274900000000 0.0126311500000000 0.0403194000000000 Au
atom 4.6637078399999998 0.0306563500000000 0.1170343200000000 Au
atom 8.8914658899999992 2.4463019600000000 0.0487546800000000 Au
atom 11.7028800000000004 2.5017144600000001 0.1242215700000000 Au
atom 14.5306970500000006 2.4281941400000000 0.1393601900000000 Au
atom 17.3672931300000002 2.4758631200000001 -0.0472494100000000 Au
atom 20.1598046599999989 2.5112811399999999 0.0627692500000000 Au
atom 23.0577768100000000 2.5022184699999999 0.0431129300000000 Au
atom 25.8387544300000016 2.4711604999999999 0.1278115200000000 Au
atom 0.4902118600000000 2.5135299500000001 0.0052249500000000 Au
atom 3.2739861700000001 2.5131458100000001 0.0403457600000000 Au
atom 6.0550811600000003 2.4588119300000000 0.0611647500000000 Au
atom 7.4925840800000003 4.9519767400000001 0.1143033100000000 Au
atom 10.3430201299999993 4.9478887900000004 0.0842638100000000 Au
atom 13.1576456299999993 4.9529727299999999 0.1355814700000000 Au
atom 15.9177876299999994 4.9015907700000003 0.0087592800000000 Au
atom 18.7985304699999993 4.9599594500000004 0.0870671500000000 Au
atom 21.6204707999999997 4.9701795200000003 0.0980297500000000 Au
atom 24.4409812500000001 4.9487001800000003 0.0821781300000000 Au
atom 27.2558116099999985 4.9729460300000001 0.1695686000000000 Au
atom 1.8585726000000000 4.9875837299999999 0.0882344000000000 Au
atom 4.6901946700000003 4.9390154400000004 0.0069399800000000 Au
atom 8.9059664000000005 7.4020169200000003 0.0486224600000000 Au
atom 11.7321159399999999 7.4526941300000002 0.0411869700000000 Au
atom 14.5622399199999997 7.3966597900000002 0.0598040100000000 Au
atom 17.3657012299999991 7.3821671599999998 0.1081507500000000 Au
atom 20.2091950199999992 7.3874033900000002 0.0738118600000000 Au
atom 23.0470648300000001 7.4353018799999999 -0.0069115400000000 Au
atom 25.8330428300000001 7.4029824700000004 0.1001079500000000 Au
atom 0.4407955600000000 7.4199975299999998 0.0847261200000000 Au
atom 3.3063685999999999 7.4277699400000001 0.0752758200000000 Au
atom 6.0754835099999998 7.4121896999999999 0.1001179600000000 Au
atom 7.5051518499999998 9.8522427700000001 0.0928556500000000 Au
atom 10.3559579900000003 9.8688267799999991 -0.0607576400000000 Au
atom 13.1645284300000007 9.8720065699999999 -0.0174612000000000 Au
atom 15.9521650099999999 9.8385836199999996 0.0447680400000000 Au
atom 18.7947946799999990 9.8320643000000008 0.0167488400000000 Au
atom 21.5807218300000017 9.8692027899999992 0.0514301600000000 Au
atom 24.3667225499999986 9.8729021100000001 0.1444086400000000 Au
atom 27.2650759600000008 9.8649506099999993 0.0562069000000000 Au
atom 1.8601956100000001 9.8518439699999991 0.0464675400000000 Au
atom 4.6727044099999997 9.8945507700000004 -0.0041362200000000 Au
atom 8.8739259700000002 12.3199709700000000 -0.1537351200000000 Au
atom 11.7701295199999993 12.3505638500000003 -0.0572177600000000 Au
atom 14.5944517400000002 12.3169430900000005 -0.0327915500000000 Au
atom 17.4164720700000011 12.2848838600000008 0.0094189300000000 Au
atom 20.1928923100000013 12.3433736500000002 0.0241484600000000 Au
atom 23.0097458400000008 12.3618044800000000 -0.0418124000000000 Au
atom 25.8066848600000007 12.3412412899999993 -0.0888694200000000 Au
atom 0.4738278700000000 12.3282901500000008 -0.0235294200000000 Au
atom 3.2476747399999999 12.3627838899999993 0.0058046300000000 Au
atom 6.0588450399999996 12.3075232600000000 -0.0243791600000000 Au
atom 7.5088347300000002 13.1769779499999995 2.5727581000000002 Au
atom 10.3505520700000009 13.1712730800000006 2.3244029199999998 Au
atom 13.1458582400000008 13.1492664300000008 2.6208497099999999 Au
atom 15.9489469300000000 13.1603193300000001 2.4853164900000002 Au
atom 18.7590017799999984 13.1657147999999999 2.6666015999999999 Au
atom 21.6206028199999984 13.1867004399999992 2.5206218300000001 Au
atom 24.4272035699999996 13.1720339800000001 2.6017058000000000 Au
atom 27.1951767999999987 13.1676211500000004 2.4248975499999998 Au
atom 1.8360132499999999 13.1689628899999995 2.7385871200000000 Au
atom 4.7049811500000001 13.1837626500000002 2.5250523299999998 Au
atom 8.9303963199999998 15.6273995100000000 2.4757304699999998 Au
atom 11.7015397599999993 15.6295881100000003 2.5008853300000000 Au
atom 14.5854293199999994 15.6053964300000008 2.5903728300000002 Au
atom 17.3821139199999983 15.6177658699999995 2.6770856200000002 Au
atom 20.2061379899999984 15.6483526699999995 2.6074102899999998 Au
atom 22.9772254899999986 15.6853385900000006 2.6117142599999998 Au
atom 25.8092677799999990 15.6485757400000001 2.6530119399999998 Au
atom 0.4481211000000000 15.6081526099999994 2.5837293600000000 Au
atom 3.2767864000000002 15.5994127099999993 2.6441340400000000 Au
atom 6.1014163300000002 15.6337980699999992 2.4549059400000002 Au
atom 7.5263860700000000 18.0869127799999987 2.6738922000000001 Au
atom 10.3031615700000003 18.0904929500000016 2.4711541499999998 Au
atom 13.1351766300000001 18.0451350999999995 2.6142308399999998 Au
atom 15.9353996999999996 18.0930892800000009 2.5451426700000002 Au
atom 18.7810666200000007 18.0818302600000003 2.6565637299999998 Au
atom 21.5995308699999988 18.1425574900000015 2.6293723700000000 Au
atom 24.4072588800000005 18.1240201399999989 2.7157229300000001 Au
atom 27.2440752699999997 18.1146063200000000 2.7243260500000002 Au
atom 1.8436193599999999 18.0735106899999991 2.7831296900000000 Au
atom 4.6831352300000004 18.0837870400000007 2.6266643400000000 Au
atom 8.9049726499999995 20.5837817600000008 2.6682685700000000 Au
atom 11.7462410199999994 20.5799774400000004 2.6670367499999998 Au
atom 14.5620641699999993 20.5753956000000002 2.5390431100000002 Au
atom 17.3441564200000009 20.5426326999999986 2.6609340000000001 Au
atom 20.1997204199999985 20.5802694099999997 2.6455601000000000 Au
atom 23.0209648599999994 20.6015024800000006 2.6711429799999999 Au
atom 25.8048395799999994 20.6098487800000001 2.6998148700000000 Au
atom 0.4468256200000000 20.5820751999999985 2.7429266000000001 Au
atom 3.3083592500000001 20.5325657200000009 2.7333810999999999 Au
atom 6.1172277399999997 20.5562472999999990 2.7689766800000002 Au
atom 7.4999487399999998 23.0731434899999996 2.7052382800000001 Au
atom 10.3396294199999996 23.0317790400000000 2.7458436200000000 Au
atom 13.1604931799999996 23.0350171500000016 2.6498101699999999 Au
atom 15.9507485100000004 23.0889221000000013 2.6590581300000000 Au
atom 18.7625761799999999 23.0679711199999993 2.5861033800000000 Au
atom 21.5561070999999984 23.0705737999999982 2.6530497199999998 Au
atom 24.3996423900000003 23.0637845299999995 2.6259030700000001 Au
atom 27.2319677800000015 23.0980561900000012 2.6720356199999999 Au
atom 1.9158016099999999 23.0700725999999996 2.6122036600000000 Au
atom 4.6839929700000003 23.0458086599999987 2.7256564100000000 Au
atom 8.9140123599999992 25.5351063200000006 2.7137481900000000 Au
atom 11.7749234800000000 25.4877651400000005 2.7035787400000002 Au
atom 14.5795181500000002 25.5414897100000005 2.6113108700000001 Au
atom 17.3887122000000005 25.5297179499999984 2.6659818899999999 Au
atom 20.1676145899999995 25.5661020900000011 2.7286751499999999 Au
atom 22.9939292299999991 25.5424928599999994 2.7433935200000001 Au
atom 25.8544063199999989 25.5371415100000014 2.6328481799999999 Au
atom 0.4566474500000000 25.5486066899999997 2.7059192200000002 Au
atom 3.2987117600000002 25.5620317499999992 2.6433350000000000 Au
atom 6.1102225700000004 25.5414299299999996 2.7670372900000002 Au
atom 7.5261838299999999 28.0390326999999999 2.6330507600000002 Au
atom 10.3106568799999998 27.9731282099999987 2.7056417900000000 Au
atom 13.1411418999999992 27.9650692200000002 2.6285225799999998 Au
atom 15.9850610700000004 27.9828311099999993 2.7573337300000000 Au
atom 18.7532549300000007 28.0397034599999984 2.5864989500000002 Au
atom 21.5569212999999991 27.9962764200000009 2.6985043499999999 Au
atom 24.3784405000000000 28.0117441199999995 2.6816560100000002 Au
atom 27.2217982700000007 28.0228877700000005 2.6871368800000002 Au
atom 1.8814966200000001 28.0306085699999983 2.6379610200000001 Au
atom 4.6966416400000002 28.0257757100000013 2.6098722699999999 Au
atom 8.8946423600000006 30.4877452399999989 2.6304287400000002 Au
atom 11.7118532099999992 30.4178135500000018 2.6441759600000001 Au
atom 14.5539288300000003 30.4385016899999989 2.6503995499999999 Au
atom 17.3751701999999995 30.5068100300000005 2.6770141999999999 Au
atom 20.1848828100000013 30.4974935400000007 2.5762237300000002 Au
atom 23.0111319499999993 30.4776837100000009 2.6579071900000000 Au
atom 25.8890278800000004 30.4456878000000017 2.5529205600000000 Au
atom 0.5021549300000000 30.4717350300000014 2.5193280800000002 Au
atom 3.3172549800000000 30.5164212100000007 2.6623031300000002 Au
atom 6.0650083700000001 30.5083714400000012 2.6009468600000001 Au
atom 7.4784177100000004 32.9544345199999995 2.5590600800000001 Au
atom 10.3161242600000005 32.8980183299999993 2.6524526700000002 Au
atom 13.1514131899999995 32.8917891800000035 2.5592483200000000 Au
atom 15.9843942800000001 32.9623824399999990 2.6514130400000000 Au
atom 18.7878753900000000 32.9680715000000006 2.5021658200000001 Au
atom 21.5791222699999992 32.9138299900000035 2.6180370300000000 Au
atom 24.4040566100000014 32.9258671999999990 2.6342322199999999 Au
atom 27.2749074299999990 32.9276781700000001 2.6994022700000002 Au
atom 1.8655654600000000 32.9310696699999994 2.5484569399999999 Au
atom 4.6988180799999997 32.9486955899999998 2.6301824599999999 Au
atom 8.9260009300000007 35.4022002000000029 2.6300119500000001 Au
atom 11.7659297600000006 35.3612889699999968 2.5624868300000001 Au
atom 14.5593665600000008 35.3575179600000027 2.5567929500000002 Au
atom 17.3713943399999984 35.4398375700000017 2.5759145200000000 Au
atom 20.2121493699999988 35.4231177200000005 2.6154502200000000 Au
atom 23.0416369000000003 35.3551386099999974 2.7025024300000000 Au
atom 25.8300239100000013 35.3904806299999990 2.6530834099999998 Au
atom 0.4815346900000000 35.4093402499999996 2.5889407900000001 Au
atom 3.2691124299999998 35.3716066499999968 2.6945458499999999 Au
atom 6.0640146499999998 35.4003334900000013 2.5649834299999998 Au
atom 7.5008999699999999 37.8353113900000011 2.6318005699999998 Au
atom 10.3742391200000004 37.8487082899999976 2.7006340000000000 Au
atom 13.1520324399999993 37.8296536799999998 2.6320653599999999 Au
atom 15.9531323399999998 37.8459282500000000 2.6700494099999998 Au
atom 18.7755060399999998 37.8512607099999983 2.6153950600000000 Au
atom 21.6036471100000007 37.8631889099999981 2.6423912700000001 Au
atom 24.3929002100000005 37.8711340500000020 2.6044280099999999 Au
atom 27.2086369499999989 37.8454893400000003 2.6821092200000001 Au
atom 1.8646419000000001 37.8627120199999965 2.6658225999999998 Au
atom 4.6707055899999999 37.8159671100000025 2.6890054700000001 Au
atom 8.9180319600000004 0.8524284200000000 2.7497610400000001 Au
atom 11.7285222299999994 0.8519216300000000 2.7288529300000000 Au
atom 14.5136718800000004 0.8401566400000000 2.7486491800000001 Au
atom 17.3822006500000015 0.8562772400000001 2.6911996199999999 Au
atom 20.1724425399999987 0.8675111400000000 2.7744173600000002 Au
atom 22.9707964900000015 0.9000736100000000 2.7236294700000001 Au
atom 25.8343393399999997 0.8371799800000000 2.7174785600000000 Au
atom 0.4637227900000000 0.8168863500000000 2.5669192500000002 Au
atom 3.2800301699999999 0.8568485000000000 2.6886143499999999 Au
atom 6.0968789100000000 0.8269083900000000 2.7097683199999998 Au
atom 7.5284236399999998 3.3007667299999999 2.6786114300000001 Au
atom 10.3408854899999998 3.3105663900000000 2.6782744699999999 Au
atom 13.1795279999999995 3.3170594599999998 2.7318416499999998 Au
atom 15.9931652599999996 3.3213787799999999 2.6165264399999999 Au
atom 18.7789658199999998 3.3665797700000000 2.6110905000000000 Au
atom 21.6091308099999999 3.3480731800000001 2.6844456000000001 Au
atom 24.4217687000000012 3.3231693000000000 2.7603141600000001 Au
atom 27.2568309599999985 3.2526304300000000 2.7140289100000001 Au
atom 1.9079614800000000 3.3120823100000001 2.6445788000000001 Au
atom 4.6963771799999998 3.2987609999999998 2.6676875500000001 Au
atom 8.9463647399999999 5.8075124200000001 2.6995185300000002 Au
atom 11.7323563699999998 5.7842064300000002 2.6227723500000000 Au
atom 14.5772941899999999 5.7962541600000002 2.7551762200000001 Au
atom 17.3716045200000018 5.8021850800000001 2.6953875900000002 Au
atom 20.2622315899999990 5.8659533799999997 2.7535579800000001 Au
atom 23.0513639499999989 5.8128868400000000 2.7308413900000001 Au
atom 25.8863082300000009 5.7722362699999996 2.7062274700000000 Au
atom 0.4978715800000000 5.7813627500000004 2.7536051000000001 Au
atom 3.3127017400000001 5.7981924600000001 2.6790082700000002 Au
atom 6.1375989600000000 5.7880710000000004 2.7367924100000001 Au
atom 7.5041988200000000 8.2467163600000006 2.7377156299999998 Au
atom 10.3177654699999994 8.2747417599999995 2.5526192999999999 Au
atom 13.1822969000000008 8.2530313399999997 2.6530642400000000 Au
atom 15.9423544100000001 8.2890858400000003 2.6658232800000001 Au
atom 18.7701460100000013 8.2720971399999996 2.6584724000000000 Au
atom 21.6663260700000002 8.2927965599999993 2.5649352200000002 Au
atom 24.4455907600000018 8.2278242800000001 2.8181087300000001 Au
atom 27.2480487999999994 8.2291865200000007 2.7066768200000002 Au
atom 1.8759116199999999 8.2769247600000000 2.7233155899999999 Au
atom 4.6818753500000003 8.2480720900000009 2.6851231000000002 Au
atom 8.9063425299999999 10.7322148899999998 2.6306029500000001 Au
atom 11.7217462700000006 10.6860862799999996 2.6159229499999999 Au
atom 14.5370351800000002 10.7447233400000002 2.6621554100000000 Au
atom 17.3573287200000017 10.7651311900000000 2.7124014800000000 Au
atom 20.1562521299999986 10.7378396899999995 2.6279588100000000 Au
atom 23.0001483100000002 10.7250811400000003 2.6860281700000002 Au
atom 25.8251130599999996 10.6872161899999991 2.6598333799999998 Au
atom 0.4536700800000000 10.7071120999999998 2.6347866999999998 Au
atom 3.2750821299999999 10.7577068800000006 2.5643093600000002 Au
atom 6.1116520699999999 10.6978077700000007 2.6331115100000000 Au
atom 7.4510499299999999 13.1470333099999994 5.7862311000000002 Cl
atom 7.5675284300000003 15.9217853300000005 8.6387768299999994 Cl
atom 7.4023261800000002 13.0249117600000002 8.4062116299999996 Na
atom 7.4827295700000001 15.8764329100000001 5.5488401100000004 Na
atom 7.1678370899999999 19.0202616499999984 5.5843119400000001 Cl
atom 7.5615854699999998 21.5129058600000000 8.5657617500000001 Cl
atom 7.4750741999999999 18.7604003199999987 8.1807103899999998 Na
atom 7.2799113999999996 21.7407311400000012 5.7716062600000004 Na
atom 7.3217147100000002 24.5846017600000017 5.7860950000000004 Cl
atom 7.5383661599999998 27.2743369199999997 8.6815437699999993 Cl
atom 7.4706066299999998 24.4216231199999996 8.4984909700000006 Na
atom 7.3824072000000003 27.3738967899999999 5.9312239299999998 Na
atom 7.4528794400000002 30.0997008199999989 5.7203344700000001 Cl
atom 7.4162171800000003 32.8520584199999988 8.6496809100000007 Cl
atom 7.5420357200000003 30.1192269099999983 8.4511867100000000 Na
atom 7.4820764999999998 32.9246792799999994 5.8762896199999997 Na
atom 7.4965916000000004 35.7508305400000026 5.7642528500000001 Cl
atom 7.5191528600000002 38.6029106200000030 8.6750688799999995 Cl
atom 7.4737479400000000 35.7435269200000008 8.4265046100000003 Na
atom 7.5238483000000000 38.6016009100000019 5.8247331700000000 Na
atom 7.4697490400000000 1.8940894800000001 5.8337099600000002 Cl
atom 7.4138919999999997 4.6255788600000001 8.6606993299999999 Cl
atom 7.4472630200000003 1.8304033200000001 8.5419100599999993 Na
atom 7.3819627199999998 4.6030447800000003 5.9700110700000000 Na
atom 7.4780957399999997 7.3315770899999997 5.8262075800000002 Cl
atom 7.5131638599999997 10.4256034700000004 8.4011833500000002 Cl
atom 7.4790060399999998 7.5896104600000003 8.4406730400000001 Na
atom 7.3698796399999997 10.2619353899999997 5.7261956999999999 Na
atom 10.2106404699999995 13.1640617700000000 5.9331332400000001 Na
atom 12.9847705199999996 13.0597048400000002 5.6421675300000000 Cl
atom 10.2166702399999991 16.1359877099999984 8.9277896499999994 Na
atom 13.3215839099999993 16.0032746199999991 8.4702356800000000 Cl
atom 13.2987425500000001 13.0773397899999999 8.3125638399999993 Na
atom 10.3611065999999994 12.9341594600000001 8.7246624799999992 Cl
atom 12.9890004000000001 15.8888171699999994 5.7068085399999999 Na
atom 10.1763084700000004 15.8835864999999998 5.5983849200000000 Cl
atom 10.1548055000000002 18.7139075599999991 5.4763722899999996 Na
atom 13.2571900899999999 18.7078406699999995 5.5771381299999998 Cl
atom 10.2784922900000009 21.6581848199999989 8.2765980999999993 Na
atom 13.1096829100000001 21.7137693899999995 8.2162711999999996 Cl
atom 13.1791142099999998 18.7750233500000014 8.1666983099999992 Na
atom 10.3131330299999995 18.7792171299999993 8.4569921899999994 Cl
atom 13.0854115600000007 21.7079270300000005 5.5238665200000003 Na
atom 10.1383764099999993 21.7037481300000010 5.6331294099999996 Cl
atom 10.1894314399999999 24.5720832800000011 5.8031728400000002 Na
atom 13.2209131499999994 24.6279526400000002 5.6395001100000002 Cl
atom 10.3270788400000004 27.2498074700000004 8.4491090399999997 Na
atom 13.2469977300000004 27.2334448900000012 8.6717481000000003 Cl
atom 13.1490592100000008 24.5120725499999992 8.4338237899999999 Na
atom 10.3790259000000002 24.3877279999999992 8.5429270099999997 Cl
atom 13.2192064699999996 27.4637096700000001 5.8406116499999996 Na
atom 10.2848262399999992 27.4471139800000010 5.8175419499999999 Cl
atom 10.2775126700000001 30.2231534099999983 5.8648028400000003 Na
atom 13.0802379000000002 30.1910984099999986 5.7679592800000004 Cl
atom 10.2880410199999996 33.0245057099999997 8.4296637000000008 Na
atom 13.1352787299999996 32.9917913600000006 8.6279149299999993 Cl
atom 13.1243844700000007 30.1371851399999997 8.4338382799999998 Na
atom 10.2612110300000001 30.2126472799999988 8.6106795700000003 Cl
atom 13.1317356800000002 32.9734711999999988 5.8525140300000000 Na
atom 10.3087565100000003 32.9685375399999998 5.7444721100000002 Cl
atom 10.2882977400000009 35.7653555600000033 5.7817598099999996 Na
atom 13.1116972199999999 35.8488847699999980 5.8095493400000002 Cl
atom 10.3431080200000007 38.5821893399999993 8.4794536800000007 Na
atom 13.0993467300000006 38.5832465200000030 8.6836992300000002 Cl
atom 13.0635422499999994 35.7817920399999991 8.4487098899999999 Na
atom 10.2227632199999992 35.7796520699999974 8.5723812600000002 Cl
atom 13.1155334000000003 38.6022506300000003 5.9499098100000003 Na
atom 10.3036382700000004 38.6295787500000003 5.8249695299999997 Cl
atom 10.2975078199999999 1.9185658100000000 5.9147569500000001 Na
atom 13.1352210100000004 1.8931089200000000 5.8382215400000002 Cl
atom 10.1889354000000001 4.6552117099999997 8.4556556300000008 Na
atom 13.1319151000000005 4.6190275700000001 8.7115090700000000 Cl
atom 13.1797853899999993 1.8683166400000000 8.5665231800000008 Na
atom 10.3420375599999996 1.9024536400000001 8.6611091800000004 Cl
atom 13.0801805800000004 4.6359321600000003 5.9750285200000004 Na
atom 10.2986043899999995 4.6025401099999996 5.8536976400000000 Cl
atom 10.2124777899999994 7.5450262800000001 5.7900124699999997 Na
atom 13.1821892599999995 7.4282290599999996 5.7641191000000003 Cl
atom 10.3651599900000004 10.3236687600000003 8.5348491200000005 Na
atom 13.1176733700000003 10.3784544400000005 8.5450829499999994 Cl
atom 13.1049462900000009 7.5431259300000004 8.4137330299999995 Na
atom 10.3597682399999993 7.5002269000000004 8.5551396900000007 Cl
atom 13.1325228400000000 10.2780751600000002 5.6641692800000003 Na
atom 10.3059839800000006 10.4136558200000007 5.7459715100000004 Cl
atom 16.0821164100000011 13.0543340899999993 5.5387199100000002 Na
atom 19.0115802900000013 12.9461455000000001 5.7021415700000002 Cl
atom 16.0881884299999989 15.9911215400000000 8.2228357600000006 Na
atom 18.8813991299999984 16.0217819599999984 8.4011771000000000 Cl
atom 18.7742201500000014 13.1001545600000000 8.2753839199999994 Na
atom 15.9958218199999997 13.1952211300000002 8.3151234899999995 Cl
atom 18.8701651199999993 15.9606082199999992 5.5568543300000002 Na
atom 15.8661831600000003 15.7642916199999998 5.5351442100000003 Cl
atom 16.1978760199999989 18.8062239200000008 5.4635471999999998 Na
atom 19.2042297399999988 18.8913647599999983 5.6390739500000002 Cl
atom 16.0191312199999985 21.5054074799999988 7.9915207700000002 Na
atom 18.7233128899999990 21.4710009200000016 8.3944016700000006 Cl
atom 18.8660479700000003 18.8014473100000004 8.2880005899999993 Na
atom 15.9828241299999991 18.6630831099999988 8.0595750899999992 Cl
atom 18.9433104599999993 21.6777843399999988 5.6449853200000000 Na
atom 16.2380331300000016 21.7868266700000000 5.4463409900000004 Cl
atom 15.9826927100000002 24.5025415600000009 5.7568395099999998 Na
atom 18.8059331299999997 24.5380007300000003 5.6121197299999999 Cl
atom 15.9118733100000007 27.3533468400000004 8.5349872999999992 Na
atom 18.6882454299999985 27.1393195200000008 8.6529036900000005 Cl
atom 18.8101221000000010 24.4912529799999987 8.4790314299999991 Na
atom 15.9072414599999998 24.3521641899999999 8.5318555899999993 Cl
atom 18.7358567100000002 27.2710302599999999 5.7673769300000002 Na
atom 15.9575241900000009 27.2707180499999993 5.8467573000000002 Cl
atom 15.9484604700000006 30.2008964300000002 5.8405275000000003 Na
atom 18.8599619099999991 30.0842939700000009 5.6878715700000004 Cl
atom 15.9844780899999996 33.0239203900000007 8.4152477399999999 Na
atom 18.8293186500000012 32.9521008899999970 8.6486777799999999 Cl
atom 18.7478889600000009 30.1745172400000001 8.4087468800000007 Na
atom 16.0083815600000001 30.1106039800000005 8.6375260600000008 Cl
atom 18.8669851299999998 33.0114858199999972 5.8273505800000001 Na
atom 15.9890786299999998 33.0130164600000029 5.8170717999999999 Cl
atom 15.9445790800000005 35.9076604999999986 5.8117668900000004 Na
atom 18.7065452299999997 35.7725644399999965 5.8113385600000003 Cl
atom 15.9450887699999999 38.5902565499999994 8.4148732499999994 Na
atom 18.8030950300000015 38.5467402900000025 8.6340008000000008 Cl
atom 18.7949999400000003 35.7394606499999981 8.4348019799999996 Na
atom 15.9898893399999995 35.8721474700000016 8.6242004300000001 Cl
atom 18.7774261600000010 38.6257080199999976 5.8704362699999999 Na
atom 15.9607077600000000 38.6545589199999995 5.8146729800000001 Cl