#===============================================================================
# Created using the Atomic Simulation Environment (ASE)

# Sat Nov  1 21:48:32 2025

#=======================================================
lattice_vector 28.1999999999999993 0.0000000000000000 0.0000000000000000 
lattice_vector 0.0000000000000000 39.4799999999999969 0.0000000000000000 
lattice_vector 0.0000000000000000 0.0000000000000000 62.3296083400000001 
atom 7.4962080000000002 14.8273398099999998 0.0408106800000000 Au
atom 10.3115014400000007 14.8379974400000005 -0.0260870100000000 Au
atom 13.1420051699999991 14.8231574800000008 0.0457323000000000 Au
atom 15.9689201700000005 14.8091699999999999 0.0172061200000000 Au
atom 18.7562982600000012 14.8357189799999993 0.1007796500000000 Au
atom 21.5961289200000017 14.8286534700000008 -0.0038328000000000 Au
atom 24.4057462200000010 14.8260206500000002 0.1088635100000000 Au
atom 27.2129394299999987 14.7707173500000000 -0.0682978400000000 Au
atom 1.8824097300000000 14.7818648100000001 0.1095536400000000 Au
atom 4.6839136200000002 14.8730782799999997 0.0016902700000000 Au
atom 8.9026431499999994 17.2827263699999989 0.0187561300000000 Au
atom 11.7348517000000001 17.2845821700000002 0.0338071300000000 Au
atom 14.5432703500000002 17.3079658599999995 0.0314162900000000 Au
atom 17.3849186200000005 17.2838054200000002 0.0502749900000000 Au
atom 20.1970868400000008 17.2963505099999999 0.0434593500000000 Au
atom 22.9908813899999984 17.2766016299999983 0.0562699400000000 Au
atom 25.8523512000000011 17.2197288700000009 0.0243844500000000 Au
atom 0.4757467600000000 17.2463531000000003 -0.2349955100000000 Au
atom 3.2459837999999999 17.2807807099999984 0.0380475400000000 Au
atom 6.1187435199999998 17.3035400499999987 0.0967171600000000 Au
atom 7.5152651800000001 19.7678167599999988 0.1067617900000000 Au
atom 10.3169421099999994 19.7295830999999993 0.0698191800000000 Au
atom 13.1629065000000001 19.7610973299999984 0.0756320000000000 Au
atom 15.9719548800000002 19.7622683399999985 0.0802331300000000 Au
atom 18.8131366799999995 19.7674653499999984 0.0893377300000000 Au
atom 21.5791787600000013 19.7421302700000005 0.1008416300000000 Au
atom 24.4312405999999989 19.7501700699999994 0.1126661500000000 Au
atom 27.2481601399999995 19.7309826000000008 -0.0418750200000000 Au
atom 1.8855793400000000 19.7240872699999983 0.1184276000000000 Au
atom 4.6811075200000003 19.7547309700000007 0.1124463700000000 Au
atom 8.9097244999999994 22.2148614500000008 0.0694627500000000 Au
atom 11.7609933499999997 22.2208155500000011 0.0930825800000000 Au
atom 14.5683152099999997 22.2155737799999997 0.0764983400000000 Au
atom 17.3716775900000009 22.2425672299999988 0.0632007300000000 Au
atom 20.2112231999999992 22.2223754699999994 0.0722768000000000 Au
atom 23.0525797600000004 22.2050702800000010 0.0581582100000000 Au
atom 25.8258922300000009 22.2193988699999991 0.1084109900000000 Au
atom 0.4496375100000000 22.3543418500000008 0.1032610200000000 Au
atom 3.2517428800000001 22.2542336799999987 0.0817921200000000 Au
atom 6.0739109200000003 22.2104626200000013 0.1080496800000000 Au
atom 7.5254376699999996 24.6735805100000007 0.1156981300000000 Au
atom 10.3382060700000000 24.7157709099999998 0.1244313700000000 Au
atom 13.1486394600000001 24.6819365099999999 0.0915821800000000 Au
atom 15.9797317499999991 24.7188027099999985 0.0703869300000000 Au
atom 18.8072495000000011 24.6725896899999988 0.1042586200000000 Au
atom 21.5911463300000008 24.6773459300000013 0.0886194000000000 Au
atom 24.4126187500000000 24.6746790300000001 0.1020291100000000 Au
atom 27.2336340800000016 24.6610287300000017 0.1362967600000000 Au
atom 1.8820810900000000 24.6918062599999999 0.1073338000000000 Au
atom 4.6961930100000000 24.6667900200000005 0.1076621900000000 Au
atom 8.9590790899999995 27.1763714599999986 0.0548473000000000 Au
atom 11.7318425899999994 27.1634415500000017 0.0764344900000000 Au
atom 14.5278426199999995 27.1640893299999995 0.0522127900000000 Au
atom 17.3691631000000015 27.1228221599999983 0.0820376900000000 Au
atom 20.1714306500000014 27.1615072799999986 0.0774150600000000 Au
atom 23.0384184199999993 27.1362054000000015 0.0225670900000000 Au
atom 25.8691489899999993 27.1138413699999994 0.1849631300000000 Au
atom 0.4248790600000000 27.1055083799999998 -0.0434609800000000 Au
atom 3.3233151699999999 27.1844519099999999 0.0674127400000000 Au
atom 6.0814144499999996 27.1317736300000014 0.0527158000000000 Au
atom 7.5205597099999997 29.6508614299999991 0.0063394000000000 Au
atom 10.3352069400000008 29.6243321500000008 0.0774369600000000 Au
atom 13.1481201100000007 29.6107388699999987 0.0235320000000000 Au
atom 15.9517987899999998 29.6499398300000010 0.0698859300000000 Au
atom 18.7737682399999990 29.6446073000000005 -0.0212694700000000 Au
atom 21.6184583199999985 29.6188342800000015 0.0758250000000000 Au
atom 24.4274970200000006 29.6402459200000017 0.0024012500000000 Au
atom 27.2559009900000007 29.5460931500000008 -0.0264288800000000 Au
atom 1.8704084100000000 29.6634559799999984 0.0586439600000000 Au
atom 4.6772227700000002 29.6164993599999988 0.0856040900000000 Au
atom 8.9576260100000002 32.0888728099999980 0.0067158500000000 Au
atom 11.7250454299999998 32.0795588699999996 0.0146942900000000 Au
atom 14.5274493000000007 32.1000913800000021 0.0252336000000000 Au
atom 17.3751232599999987 32.0831309699999991 0.0126267800000000 Au
atom 20.1983327499999987 32.0824689399999983 0.0216102800000000 Au
atom 23.0208777299999987 32.1031944100000004 0.0031453900000000 Au
atom 25.8373164799999984 32.0687838099999993 0.0978323000000000 Au
atom 0.4320034600000000 32.0442526200000017 0.0380409000000000 Au
atom 3.2792736599999999 32.0860080400000029 0.0005399400000000 Au
atom 6.0793780999999996 32.0733107100000012 0.0205945400000000 Au
atom 7.4802050299999996 34.5856292100000005 0.0125849300000000 Au
atom 10.3435261399999998 34.5673509599999988 0.0746162600000000 Au
atom 13.1404433800000007 34.5692201900000029 -0.0023992200000000 Au
atom 15.9334896399999995 34.5536062999999984 0.0496790700000000 Au
atom 18.7543490199999994 34.6276238299999974 -0.0059095100000000 Au
atom 21.6208952200000013 34.5535364999999999 0.0437969300000000 Au
atom 24.4152839800000017 34.5790761599999996 -0.0551935700000000 Au
atom 27.2363363199999995 34.5894726599999984 -0.0720976300000000 Au
atom 1.9013165299999999 34.5946672199999981 0.0031291900000000 Au
atom 4.6942088699999998 34.5573207300000007 0.0728791300000000 Au
atom 8.9875142199999996 37.0055884200000023 0.0260023400000000 Au
atom 11.8284442700000003 37.0215506600000026 0.0508075600000000 Au
atom 14.5387893699999999 37.0223633199999966 0.0877304700000000 Au
atom 17.1597344099999987 37.0032642199999984 -0.0160946400000000 Au
atom 20.0314952800000015 37.0415322699999976 -0.0055872500000000 Au
atom 22.9412358800000007 37.0450031700000011 0.0330024600000000 Au
atom 25.7829602899999983 37.0663892299999986 0.1053182300000000 Au
atom 0.4213171500000000 37.0307171400000001 -0.1465453200000000 Au
atom 3.2694059800000002 37.0228254499999991 0.1786065600000000 Au
atom 6.0772110200000000 37.0221068500000001 -0.0169076500000000 Au
atom 7.6479399199999998 0.0021481700000000 -0.0015603300000000 Au
atom 10.2536060199999994 0.0119890600000000 0.1286846000000000 Au
atom 12.9950628399999992 0.0416646800000000 -0.1210636300000000 Au
atom 16.1219265500000013 0.0159205300000000 0.1017250800000000 Au
atom 18.6960288400000003 0.0121130900000000 0.1743227000000000 Au
atom 21.5310041000000005 0.0453703700000000 0.2077454900000000 Au
atom 24.4255212999999998 -0.0076392800000000 0.3119751400000000 Au
atom 27.3207058099999998 0.0493630100000000 0.1935608100000000 Au
atom 1.9495273300000000 0.0549133600000000 0.2583203400000000 Au
atom 4.6269501699999998 0.0095532000000000 0.1230367600000000 Au
atom 8.9102787899999996 2.4547882500000000 0.0760524600000000 Au
atom 11.7059812200000000 2.4868496900000001 0.0926638900000000 Au
atom 14.5615210499999996 2.4824440800000001 0.0762264700000000 Au
atom 17.3740530299999989 2.5150512599999999 0.0600708700000000 Au
atom 20.1900003300000002 2.4977314300000000 0.0661715600000000 Au
atom 23.0160319599999994 2.4912442399999999 0.0977045400000000 Au
atom 25.8155590000000004 2.4996223999999998 0.1012749600000000 Au
atom 0.4754397700000000 2.5184636199999999 0.0460869600000000 Au
atom 3.2641827700000001 2.4779232400000000 0.1190418000000000 Au
atom 6.0664091400000002 2.5090146700000000 0.0971521300000000 Au
atom 7.4849176200000000 4.9672465299999997 0.0783435900000000 Au
atom 10.3541367900000001 4.9212414200000003 0.0921824800000000 Au
atom 13.1334646799999994 4.9887777099999999 0.1214921300000000 Au
atom 15.9519279600000008 4.9306150500000001 0.0837066200000000 Au
atom 18.7892214300000013 4.9282975000000002 0.1131390200000000 Au
atom 21.5999399700000012 4.9517198200000001 0.1308613000000000 Au
atom 24.4103907199999988 4.9376624199999997 0.1083034900000000 Au
atom 27.2396964699999984 4.9730885200000001 -0.0490389400000000 Au
atom 1.8501506400000001 4.7989601000000004 0.1653988900000000 Au
atom 4.6972364500000001 4.9636756300000000 0.0939128200000000 Au
atom 8.8920349000000005 7.4031882099999997 0.0709938100000000 Au
atom 11.7025792899999992 7.4375312400000002 0.0782616600000000 Au
atom 14.5223388199999999 7.4089649000000000 0.0691039500000000 Au
atom 17.3681458999999982 7.3974930399999996 0.0681136300000000 Au
atom 20.2280069000000005 7.3838803100000003 0.0730906600000000 Au
atom 23.0216050900000013 7.4157611499999998 0.0394765800000000 Au
atom 25.8357028699999987 7.3865688900000004 0.1112617200000000 Au
atom 0.4545469200000000 7.5024537000000002 -0.0158655300000000 Au
atom 3.2795962099999998 7.4147056400000002 0.0790978500000000 Au
atom 6.0851775799999999 7.4128176999999997 0.0678516800000000 Au
atom 7.5227101899999997 9.8747229399999998 0.0167442900000000 Au
atom 10.3300328199999996 9.8993688199999994 0.0447685700000000 Au
atom 13.1519791200000000 9.8649834999999992 0.0413901500000000 Au
atom 15.9796354600000008 9.8765250800000004 -0.0033708400000000 Au
atom 18.7838434099999994 9.8769589399999997 0.0748792700000000 Au
atom 21.5987941499999998 9.8749541500000007 0.0194142300000000 Au
atom 24.4294958499999986 9.8798658800000005 0.0692843800000000 Au
atom 27.2393042799999989 9.8451998599999992 -0.0316316100000000 Au
atom 1.8358611899999999 9.9066861999999993 -0.0084617100000000 Au
atom 4.6801839699999999 9.8518652400000004 -0.0036936200000000 Au
atom 8.8855233100000000 12.3567125699999991 0.0180659500000000 Au
atom 11.7304419200000005 12.3384580300000000 0.0202406900000000 Au
atom 14.5442392700000003 12.3277711700000001 0.0223350500000000 Au
atom 17.3827856300000008 12.3537858800000002 0.0236848200000000 Au
atom 20.2090125600000015 12.3295434499999992 -0.0069458400000000 Au
atom 22.9856740500000001 12.3571417100000005 0.0171496000000000 Au
atom 25.8400981600000001 12.3284388200000006 -0.0376462200000000 Au
atom 0.4436487600000000 12.3531118499999994 -0.0532244800000000 Au
atom 3.2577376899999999 12.3424670800000005 -0.0043171000000000 Au
atom 6.0791892799999996 12.3457197599999997 -0.0084715600000000 Au
atom 7.4682845899999997 13.1826024799999999 2.6638438500000001 Au
atom 10.3223042399999994 13.1629048300000004 2.5471096400000000 Au
atom 13.1387055499999992 13.2121150600000004 2.6709727900000000 Au
atom 16.0023429200000002 13.1814962999999992 2.5169091899999998 Au
atom 18.7779411399999994 13.2053505300000005 2.6851479399999998 Au
atom 21.6202989899999984 13.1630163600000003 2.5053049399999998 Au
atom 24.4161621099999984 13.1784448899999997 2.6736142500000000 Au
atom 27.2817949199999994 13.3044276499999992 2.4609239700000001 Au
atom 1.8663256900000000 13.2132154100000001 2.6285482000000000 Au
atom 4.6730068500000002 13.1838496099999993 2.5417547900000002 Au
atom 8.9047167799999993 15.6299873300000005 2.6339482900000002 Au
atom 11.7688831000000000 15.6363589199999993 2.6423325499999999 Au
atom 14.5209076699999997 15.6946900500000002 2.5967608900000001 Au
atom 17.3742961399999984 15.6363393199999994 2.6558090999999999 Au
atom 20.2013754500000005 15.6396555999999993 2.6267445199999999 Au
atom 23.0686760699999986 15.6286422399999996 2.6549867400000000 Au
atom 25.8334460899999989 15.6675207299999997 2.6281698300000000 Au
atom 0.4443394800000000 15.7391072699999999 2.5744832600000001 Au
atom 3.2557506799999998 15.6272218800000005 2.6042987000000002 Au
atom 6.1220370400000004 15.6191931499999992 2.6347071400000002 Au
atom 7.5040278300000001 18.1091319900000016 2.6998039299999999 Au
atom 10.3168889999999998 18.1154208200000006 2.5949206600000001 Au
atom 13.1437163100000003 18.0991752099999985 2.6959533499999999 Au
atom 15.9456806600000007 18.1145560900000007 2.6396520799999998 Au
atom 18.7955754400000004 18.0837338199999991 2.6928632900000000 Au
atom 21.6195691200000013 18.1110935300000016 2.6045663000000001 Au
atom 24.4159886899999989 18.0792819599999994 2.6836886999999998 Au
atom 27.2132963200000013 18.4295921500000013 2.8090601300000002 Au
atom 1.8472289799999999 18.0862821400000016 2.7443901099999999 Au
atom 4.7075492600000004 18.1069010100000014 2.6119496999999998 Au
atom 8.9332789100000003 20.5877271200000003 2.7135282200000002 Au
atom 11.7425290699999998 20.5739330000000002 2.6860748900000000 Au
atom 14.5386713600000004 20.5904746299999992 2.7283512800000000 Au
atom 17.3536933299999987 20.5725153899999995 2.7317473400000001 Au
atom 20.1925464999999988 20.5808684799999995 2.7065088500000001 Au
atom 23.0528490599999998 20.5673394999999992 2.7125299100000002 Au
atom 25.8233477899999997 20.5958809699999996 2.8737721199999999 Au
atom 0.4524988200000000 20.5578925999999989 2.6086095600000001 Au
atom 3.2320406099999999 20.6004153300000006 2.6862296799999998 Au
atom 6.0613075500000004 20.5608438199999988 2.7497809000000002 Au
atom 7.5129807399999997 23.0370411200000014 2.7056261300000002 Au
atom 10.3036668700000007 23.0929919900000016 2.6506450799999999 Au
atom 13.1459880899999995 23.0580531899999990 2.6735090300000000 Au
atom 15.9776653300000007 23.0259457400000009 2.7039046500000001 Au
atom 18.7790448199999993 23.0195836299999996 2.6438259300000002 Au
atom 21.5887058500000002 23.1093443200000017 2.7026916299999999 Au
atom 24.4238866100000003 23.0378688199999999 2.6887016600000000 Au
atom 27.2620033299999989 23.1295470700000010 2.6059712700000000 Au
atom 1.8737656899999999 23.0508751799999985 2.7546275800000002 Au
atom 4.6788778899999999 23.0840570900000017 2.6950494800000002 Au
atom 8.9050578199999997 25.5440939100000008 2.7113680400000000 Au
atom 11.7249026500000006 25.5235078699999995 2.7506401800000000 Au
atom 14.5567700500000008 25.4950254600000008 2.7038084800000002 Au
atom 17.3912266100000004 25.5496010200000008 2.7170441699999999 Au
atom 20.2015868000000012 25.5407654599999994 2.7551255399999999 Au
atom 22.9866583400000017 25.5157332500000003 2.6957986799999998 Au
atom 25.8422148599999986 25.5411237500000006 2.6814057199999999 Au
atom 0.4463781200000000 25.5002370999999997 2.6466620600000001 Au
atom 3.2627099899999998 25.5090536800000010 2.7372234700000000 Au
atom 6.1024925400000001 25.5232767500000008 2.7136252500000002 Au
atom 7.5025817699999999 27.9868857800000015 2.6523287600000001 Au
atom 10.3229277600000007 27.9980306600000013 2.7076985400000000 Au
atom 13.1468953099999997 27.9895609299999997 2.6309501800000001 Au
atom 15.9802654900000007 27.9775951300000010 2.6902427000000002 Au
atom 18.7950291699999994 27.9832250999999985 2.6324692700000001 Au
atom 21.6301776600000011 28.0039448399999991 2.6983910799999999 Au
atom 24.4160869600000012 27.9906869699999987 2.6292787199999998 Au
atom 27.2159940499999990 28.1135941400000000 2.6100318100000002 Au
atom 1.8351218100000000 27.9704751000000016 2.5969191500000002 Au
atom 4.6782860099999999 28.0030855999999986 2.6825648499999999 Au
atom 8.9039086600000008 30.4501614399999987 2.6895389000000001 Au
atom 11.7307730100000001 30.4697819299999999 2.6571885800000001 Au
atom 14.5208428499999993 30.4632973400000004 2.6816306600000002 Au
atom 17.3499841900000007 30.4573498399999991 2.6538539800000001 Au
atom 20.1604484900000003 30.4756515999999991 2.6486019399999998 Au
atom 23.0026046000000015 30.4630450099999983 2.6733195400000000 Au
atom 25.8316576799999993 30.4670293399999998 2.6048678900000000 Au
atom 0.4445811900000000 30.4584723900000007 2.7994925899999998 Au
atom 3.2637546199999998 30.4690209799999998 2.6535652500000002 Au
atom 6.1013748300000001 30.4583610200000017 2.6685685299999999 Au
atom 7.4878556800000000 32.9142153499999992 2.5431966600000000 Au
atom 10.3259858399999995 32.9358120099999994 2.6770568699999999 Au
atom 13.1515026499999994 32.9241281099999981 2.5830744900000000 Au
atom 15.9411254299999996 32.9477905299999989 2.6942053600000002 Au
atom 18.8172128000000001 32.9259347300000016 2.5746666500000002 Au
atom 21.6022127200000007 32.9100315299999977 2.6569084400000000 Au
atom 24.4025170799999991 32.9164601900000022 2.5569214800000002 Au
atom 27.2403004200000005 33.0312765400000004 2.5308311500000000 Au
atom 1.8558976700000001 32.9184068799999991 2.5735844399999999 Au
atom 4.6785706300000003 32.9265306300000020 2.6728880899999998 Au
atom 8.9230021100000005 35.3956572399999985 2.6341139099999999 Au
atom 11.7600431000000007 35.3729730200000034 2.6558560600000001 Au
atom 14.5306674000000005 35.3932744299999982 2.6634403199999999 Au
atom 17.3639711400000003 35.3988988799999973 2.6567865199999998 Au
atom 20.1498404499999992 35.4192114800000013 2.6554890000000002 Au
atom 23.0357740699999987 35.3543098099999966 2.6426266100000002 Au
atom 25.8493503599999990 35.3910183799999984 2.5765917200000001 Au
atom 0.4646699700000000 35.5476719500000016 2.7811965700000001 Au
atom 3.2898679600000000 35.3996773100000013 2.6327028800000001 Au
atom 6.1106396800000002 35.3904034600000017 2.6401549499999999 Au
atom 7.7108666599999998 37.8848290099999971 2.5997790799999998 Au
atom 10.3887168200000009 37.8542607500000017 2.4961599600000000 Au
atom 13.0983104400000006 37.8628314500000016 2.6609060499999999 Au
atom 15.8552000100000008 37.8457577799999996 2.5528315500000001 Au
atom 18.4715841999999988 37.8418132799999967 2.4908022900000000 Au
atom 21.4453153800000003 37.8165545499999993 2.6386811099999998 Au
atom 24.5487568600000010 37.8826905299999979 2.4234616700000000 Au
atom 27.1838681700000002 37.7879308699999967 2.5765935799999999 Au
atom 1.8291747100000000 37.8490264699999983 2.5245639199999999 Au
atom 4.8655147100000002 37.8343625600000024 2.4927363900000001 Au
atom 9.0207535900000000 0.8603351800000000 2.7230323900000002 Au
atom 11.6800114700000002 0.8457845500000000 2.8528093200000000 Au
atom 14.4743328000000009 0.8382709200000000 2.7209843100000000 Au
atom 17.4201890800000001 0.8163039600000001 2.6889471199999999 Au
atom 20.2480244999999996 0.8303731600000001 2.6698883000000002 Au
atom 22.9852772700000010 0.8532919200000000 2.7548060500000000 Au
atom 25.7466867899999983 0.8924482900000000 2.6630799100000000 Au
atom 0.3907203800000000 0.9772333800000000 2.7586325100000000 Au
atom 3.2502326699999999 0.8232085200000000 2.6351500899999998 Au
atom 6.1467059500000003 0.8347782200000000 2.7682443600000002 Au
atom 7.4949219999999999 3.3186853599999999 2.6891305399999998 Au
atom 10.2965284300000004 3.3172539099999998 2.6871754900000000 Au
atom 13.1276804800000004 3.3526009000000001 2.6739029400000001 Au
atom 15.9521290800000006 3.3173949199999999 2.6957211800000001 Au
atom 18.7364084099999992 3.3146472800000000 2.6649622900000001 Au
atom 21.6047722299999982 3.3090597800000001 2.6644350800000001 Au
atom 24.4376520600000013 3.3116025200000001 2.7001784500000001 Au
atom 27.2261293600000016 3.3778838800000002 2.6764152600000002 Au
atom 1.8677799399999999 3.3303103200000002 2.6983046700000002 Au
atom 4.6839446999999996 3.2966137600000001 2.6756994900000000 Au
atom 8.9210143199999994 5.7846436299999997 2.7129353500000000 Au
atom 11.7032826199999995 5.7598900300000002 2.7084960499999999 Au
atom 14.6237121200000004 5.7960863600000003 2.7364570700000002 Au
atom 17.3514806700000008 5.7768161300000003 2.7151556499999998 Au
atom 20.1899160799999997 5.7666915200000002 2.7209589400000000 Au
atom 23.0201687600000007 5.7906878199999996 2.7124089400000000 Au
atom 25.8417354400000008 5.7963941999999999 2.6707867300000001 Au
atom 0.4393018500000000 5.6670689999999997 2.7144784400000002 Au
atom 3.2684189899999998 5.7632057300000001 2.7382156700000002 Au
atom 6.1021812000000004 5.7655678699999999 2.7189024700000002 Au
atom 7.4957449499999997 8.2580312300000003 2.6897187400000000 Au
atom 10.2936931699999992 8.2486681500000003 2.5665211800000001 Au
atom 13.1423897899999993 8.2728947200000000 2.6964872199999999 Au
atom 15.9888490500000007 8.2501968399999992 2.6275656100000000 Au
atom 18.7776171900000008 8.2464433100000001 2.6912749499999999 Au
atom 21.6365920000000003 8.2536693099999994 2.6266207300000000 Au
atom 24.4285503800000008 8.2697941000000004 2.7342910100000002 Au
atom 27.2462211799999992 8.4246889800000009 2.7233266500000002 Au
atom 1.8715078199999999 8.2446035599999998 2.6725443499999999 Au
atom 4.6765545299999998 8.2804711500000003 2.6102023100000000 Au
atom 8.9190337999999993 10.7078233899999997 2.6302634199999999 Au
atom 11.7569359000000002 10.7192568200000000 2.6503076499999998 Au
atom 14.5716587600000000 10.7348712600000002 2.6353590200000001 Au
atom 17.4112042400000000 10.7485483899999998 2.6456338399999999 Au
atom 20.1997233600000001 10.7025184200000005 2.6600303799999998 Au
atom 23.0165731200000003 10.7161805000000001 2.6533861700000001 Au
atom 25.8206599899999993 10.8093344099999999 2.6425903599999998 Au
atom 0.4584661600000000 10.7408594199999996 2.5878495099999999 Au
atom 3.2837694399999999 10.7368603199999999 2.6402696799999998 Au
atom 6.0718907700000004 10.7020600600000009 2.6458451500000000 Au
atom 7.5080641000000004 13.1611420199999998 5.6840487199999998 Cl
atom 7.5134519500000003 15.9762004399999995 8.5439120000000006 Cl
atom 7.5125763299999999 13.1959558300000008 8.3628938000000002 Na
atom 7.5103910999999997 16.0093629300000018 5.7959177799999999 Na
atom 7.5120388100000000 18.8317185400000007 5.7293909899999997 Cl
atom 7.4936848200000004 21.6256726400000012 8.5768833999999998 Cl
atom 7.5024208000000003 18.8250281199999989 8.3724080399999998 Na
atom 7.5100763300000004 21.6400777799999986 5.8496793199999999 Na
atom 7.4865082799999998 24.4518027899999986 5.7838045999999999 Cl
atom 7.4956915000000004 27.2562566599999982 8.5905912600000001 Cl
atom 7.4959540200000001 24.4329437300000016 8.3513482099999994 Na
atom 7.5000717600000000 27.2495097100000017 5.8280406300000003 Na
atom 7.4975556499999998 30.0720284900000010 5.7434193899999997 Cl
atom 7.5135578000000001 32.9175314100000023 8.5685241899999998 Cl
atom 7.4588353900000000 30.0962452899999988 8.3665161300000008 Na
atom 7.4699010000000001 32.9041941500000021 5.8149936200000001 Na
atom 7.4780774699999997 35.7429518000000002 5.7602909300000000 Cl
atom 7.4429115499999998 38.5742003100000019 8.6491522500000002 Cl
atom 7.4943202299999996 35.7447693700000002 8.3820005000000002 Na
atom 7.5512802499999996 38.5693398900000020 5.8700858399999998 Na
atom 7.5150205300000001 1.8871318600000000 5.7987682999999999 Cl
atom 7.5267906399999998 4.7196140499999997 8.6131732099999994 Cl
atom 7.5881079800000002 1.9054392200000001 8.5176693199999995 Na
atom 7.5133019000000001 4.6596974600000003 5.8408802000000000 Na
atom 7.5048704400000004 7.5280192300000000 5.7116965500000001 Cl
atom 7.4960910199999997 10.3570401499999996 8.5747232899999997 Cl
atom 7.5095938100000001 7.5453396399999999 8.3780770300000000 Na
atom 7.4840920500000001 10.3271329000000005 5.7942882200000003 Na
atom 10.3317987599999999 13.1650899900000002 5.8113587100000004 Na
atom 13.1272409499999991 13.1651531199999994 5.7068037399999998 Cl
atom 10.3141260300000006 15.9795104699999992 8.3924500900000005 Na
atom 13.1551679299999993 15.9895359999999993 8.5556388400000003 Cl
atom 13.1412441199999996 13.1911310200000003 8.3908562799999995 Na
atom 10.3273907400000002 13.1781467200000009 8.5542960299999997 Cl
atom 13.1370815699999994 15.9623926100000002 5.8435547500000000 Na
atom 10.3220081500000003 16.0000624299999998 5.6908978299999999 Cl
atom 10.2890115699999996 18.8285790599999991 5.8574933199999997 Na
atom 13.1510146999999993 18.8103395199999994 5.7244373499999996 Cl
atom 10.3511561099999998 21.6528711399999985 8.3926308100000000 Na
atom 13.1546665600000008 21.6264272999999996 8.5796285300000008 Cl
atom 13.1550644200000004 18.7721264300000001 8.3496071000000001 Na
atom 10.3180086099999997 18.8098287800000001 8.5775918900000008 Cl
atom 13.1036436100000007 21.6373830799999993 5.7749808299999996 Na
atom 10.3177506300000008 21.6353319699999993 5.7231373600000000 Cl
atom 10.3026420699999992 24.4443990400000004 5.8155694100000002 Na
atom 13.1441613600000000 24.4419308499999985 5.7438842299999999 Cl
atom 10.3034737399999994 27.2655922100000012 8.3849235499999999 Na
atom 13.1474149300000001 27.2530122000000006 8.5789524700000008 Cl
atom 13.1608480199999995 24.4108720900000016 8.4038396300000002 Na
atom 10.3245690400000001 24.4479579600000001 8.5600049400000007 Cl
atom 13.1476158699999992 27.2565456799999986 5.8209576299999997 Na
atom 10.3084541200000004 27.2450060500000006 5.7278707600000001 Cl
atom 10.3062180399999992 30.0639097100000008 5.8272991799999998 Na
atom 13.1346890199999997 30.0614438499999999 5.7113470900000003 Cl
atom 10.3016458100000001 32.9225769700000015 8.3805264600000005 Na
atom 13.1290253200000002 32.8948745200000019 8.5665079300000002 Cl
atom 13.1523072499999998 30.0738680699999996 8.3894955299999996 Na
atom 10.3128754300000001 30.0865779899999986 8.5628940500000006 Cl
atom 13.1392541900000008 32.8991185300000026 5.8499260399999997 Na
atom 10.3185752100000006 32.8973429799999977 5.6896579699999998 Cl
atom 10.3201740199999996 35.7410624400000003 5.8036108400000002 Na
atom 13.1362666200000007 35.7398801100000014 5.7285163499999996 Cl
atom 10.4874555500000000 38.5329743100000002 8.4659464700000004 Na
atom 13.3281265100000006 38.5505148900000023 8.5182887899999997 Cl
atom 13.1392049800000006 35.7306742299999982 8.3945795499999996 Na
atom 10.3052986099999995 35.7260486300000011 8.5382312999999996 Cl
atom 13.0314929599999996 38.5656639199999987 5.8335315500000000 Na
atom 10.1666656100000008 38.5594980999999990 5.8053745699999997 Cl
atom 10.3169089799999991 1.9052518000000001 5.8585377200000002 Na
atom 12.9633989100000004 1.8933692799999999 5.7484815700000000 Cl
atom 10.3441364000000000 4.6727384499999998 8.3949748500000005 Na
atom 13.1660498300000004 4.7297909499999999 8.5820888600000007 Cl
atom 13.0184560000000005 1.9074391600000000 8.5079156000000005 Na
atom 10.4463466999999994 1.8847023000000001 8.5744655000000005 Cl
atom 13.1350176800000007 4.7129499299999997 5.8297592099999997 Na
atom 10.2868158300000001 4.7137719699999998 5.7363575200000003 Cl
atom 10.3072244699999995 7.4985348600000004 5.8380948000000004 Na
atom 13.1450291200000002 7.5209397899999999 5.7146223999999997 Cl
atom 10.3224050500000004 10.3415323699999995 8.3793648100000002 Na
atom 13.1262077999999995 10.3370934499999994 8.5539449199999993 Cl
atom 13.1189786099999992 7.5062821499999997 8.3467488799999998 Na
atom 10.3102985700000005 7.5287378399999998 8.5707437399999993 Cl
atom 13.1381369699999997 10.3315718899999993 5.8285281500000004 Na
atom 10.3176334900000004 10.3386013499999994 5.7310320399999997 Cl
atom 15.9698816299999997 13.1541031799999999 5.8182780000000003 Na
atom 18.7804470700000010 13.1668445700000003 5.7246400199999998 Cl
atom 15.9679155099999992 15.9627239000000003 8.3201246900000001 Na
atom 18.7854941300000000 15.9862494099999992 8.5215075799999997 Cl
atom 18.8131415599999983 13.1707795000000001 8.3882982199999994 Na
atom 15.9504588799999993 13.1614427200000002 8.5720868600000006 Cl
atom 18.7901821399999989 15.9575416099999998 5.8259373999999999 Na
atom 15.9732425399999993 16.0017278500000018 5.7273699200000001 Cl
atom 15.9895040799999997 18.8262875899999997 5.8104796299999997 Na
atom 18.7775031900000009 18.8223324900000009 5.7417963199999997 Cl
atom 15.9523096199999994 21.6248762700000015 8.3301946800000000 Na
atom 18.7758208400000015 21.6091771399999999 8.5664289900000004 Cl
atom 18.7662940700000007 18.8004734400000011 8.3528531600000004 Na
atom 15.9379225499999997 18.8130199400000002 8.5605505700000002 Cl
atom 18.8084182200000001 21.6186249299999993 5.7803954600000003 Na
atom 15.9747282800000008 21.6436676599999984 5.7546615699999997 Cl
atom 15.9643857199999992 24.4076868599999983 5.8422116900000001 Na
atom 18.7774854399999995 24.4479784799999997 5.7266077299999996 Cl
atom 15.9642235600000006 27.2574288600000010 8.4022109700000005 Na
atom 18.7714276700000013 27.2441472100000013 8.5917182800000003 Cl
atom 18.7489812499999999 24.4358307900000007 8.3734653600000009 Na
atom 15.9563479299999997 24.4489778000000015 8.5610022400000005 Cl
atom 18.7867888100000009 27.2359748599999989 5.8174624799999997 Na
atom 15.9660854800000003 27.2625770900000006 5.7504189600000002 Cl
atom 15.9649503199999998 30.0341301200000004 5.7886810799999999 Na
atom 18.7774721100000015 30.0603546799999997 5.7039332099999998 Cl
atom 15.9167077100000007 32.8923654600000006 8.3321826899999998 Na
atom 18.7692365000000017 32.8886414799999969 8.5704220600000003 Cl
atom 18.7678759900000003 30.1008578900000003 8.3847619400000006 Na
atom 15.9532782599999994 30.0818321500000003 8.5338519300000009 Cl
atom 18.7728568899999999 32.9059859400000008 5.8508443000000003 Na
atom 15.9501220600000000 32.8941760700000003 5.7026310000000002 Cl
atom 15.9285692900000004 35.7207444699999996 5.7882264299999999 Na
atom 18.7588011299999984 35.7286373199999971 5.6995228400000002 Cl
atom 15.9181862600000006 38.5413810299999966 8.2734837700000003 Na
atom 18.9473313899999987 38.5539613899999978 8.5168498600000007 Cl
atom 18.7671745500000000 35.7122962700000031 8.3750059799999992 Na
atom 15.9478964399999992 35.7276642899999999 8.5239176299999997 Cl
atom 18.9066074200000003 38.5775969900000035 5.9209408999999997 Na
atom 16.0852321499999995 38.5526221599999985 5.5892622699999999 Cl