#===============================================================================
# Created using the Atomic Simulation Environment (ASE)

# Tue Dec 23 21:42:15 2025

#=======================================================
lattice_vector 28.1999999999999993 0.0000000000000000 0.0000000000000000 
lattice_vector 0.0000000000000000 39.4799999999999969 0.0000000000000000 
lattice_vector 0.0000000000000000 0.0000000000000000 62.3296083400000001 
atom 7.5551917700000004 14.7190001600000002 -0.3609998700000000 Au
atom 10.3263848700000000 14.7569274600000000 -0.1979556300000000 Au
atom 13.2405200700000005 14.8380121200000001 -0.5090349500000000 Au
atom 16.0363020399999989 14.8690555500000006 -0.0798500400000000 Au
atom 18.7405397299999983 14.8466996299999998 0.0423931400000000 Au
atom 21.5439986099999992 14.8249422499999994 -0.1245738900000000 Au
atom 24.3650058899999991 14.8011295700000005 0.0704488800000000 Au
atom 27.2737188199999991 14.8220858500000006 -0.0051882800000000 Au
atom 1.8548748200000000 14.7512763000000007 -0.0234620000000000 Au
atom 4.6512596899999998 14.7586423700000005 -0.0661176900000000 Au
atom 9.0048627200000002 17.2435350700000001 -0.3676794000000000 Au
atom 11.8310417999999995 17.3265996199999996 -0.3706805400000000 Au
atom 14.6215731899999994 17.3468613699999992 -0.2593267500000000 Au
atom 17.4203428299999992 17.3552539000000010 -0.2340640500000000 Au
atom 20.2358999900000001 17.3111948600000005 0.0272934000000000 Au
atom 23.1289727200000002 17.3394185400000005 -0.0872607000000000 Au
atom 25.8190295200000008 17.2879135899999987 0.1019062500000000 Au
atom 0.4949268000000000 17.3114083200000017 0.1000860700000000 Au
atom 3.2590866799999998 17.2881843999999987 0.0394565000000000 Au
atom 6.1133381299999998 17.1900116099999991 -0.1284186600000000 Au
atom 7.5715188099999997 19.7505089100000006 -0.1547476100000000 Au
atom 10.3815579499999995 19.7908792200000008 0.0277457600000000 Au
atom 13.1964388899999996 19.7826981500000016 0.0652529200000000 Au
atom 15.9607177700000005 19.8599031100000012 0.0282240500000000 Au
atom 18.8316033099999984 19.7726527499999989 0.0324228800000000 Au
atom 21.6321642099999991 19.8361992399999991 -0.0908085800000000 Au
atom 24.4761536000000000 19.8377778800000009 0.0679240800000000 Au
atom 27.3242632500000013 19.7438661400000015 -0.0400502600000000 Au
atom 1.9385739399999999 19.7208749200000000 0.0616312100000000 Au
atom 4.6958298000000003 19.7021036400000007 0.0403074300000000 Au
atom 8.8990029100000001 22.1811412099999998 -0.1124692000000000 Au
atom 11.7938340499999992 22.1967890899999993 0.1712269300000000 Au
atom 14.5450070399999998 22.3334459900000013 0.0499040700000000 Au
atom 17.3450580000000016 22.2422103900000003 -0.0477449700000000 Au
atom 20.2372039599999987 22.2462056699999984 -0.0639301000000000 Au
atom 23.0728534500000002 22.2370553099999988 -0.0182022800000000 Au
atom 25.9322875999999987 22.2287795899999985 -0.0160271700000000 Au
atom 0.4892417400000000 22.2155377999999999 -0.0420255100000000 Au
atom 3.2633407600000002 22.1961762200000017 0.1275623100000000 Au
atom 6.0912713500000004 22.1743433100000011 -0.0039097700000000 Au
atom 7.5099679000000004 24.6547700899999995 0.2438493700000000 Au
atom 10.3262780599999999 24.7169356100000002 0.0295199000000000 Au
atom 13.1429364300000007 24.7257478500000012 0.0522183800000000 Au
atom 15.9629727300000006 24.7174296700000014 -0.0646302100000000 Au
atom 18.7412354900000011 24.6223803100000005 0.0698585400000000 Au
atom 21.6527636000000001 24.7172241700000015 0.1155486900000000 Au
atom 24.4899342299999994 24.6764006800000004 0.2731049500000000 Au
atom 27.2791174100000013 24.7531583799999986 0.1379826100000000 Au
atom 1.8355540200000000 24.7110555400000003 -0.0172899100000000 Au
atom 4.7018793900000002 24.6035922900000017 -0.1050319700000000 Au
atom 8.9014328299999992 27.1140511800000006 0.0367834200000000 Au
atom 11.7316209400000009 27.1804728699999991 -0.1084656100000000 Au
atom 14.6222140899999999 27.2731347500000005 0.0385834000000000 Au
atom 17.5005030200000000 27.0953774600000017 0.1169951400000000 Au
atom 20.2445846699999983 27.1590957499999988 0.2099964500000000 Au
atom 23.0123438299999989 27.1099559200000009 0.2329751400000000 Au
atom 25.8345260400000001 27.1630804700000006 0.0635495700000000 Au
atom 0.5198580500000000 27.2282657599999993 -0.2564698900000000 Au
atom 3.3142674300000001 27.0588244600000003 -0.1560437800000000 Au
atom 6.0498460900000000 27.0775663199999990 -0.0319104200000000 Au
atom 7.4816356800000001 29.5461160999999990 -0.0452150800000000 Au
atom 10.2850375300000003 29.6228560700000010 0.0070785500000000 Au
atom 13.2140692400000006 29.5922823999999984 -0.0766247600000000 Au
atom 16.1398870999999993 29.6492744500000001 0.1947957900000000 Au
atom 18.8402891299999986 29.6672339399999991 0.2475318500000000 Au
atom 21.6364753999999984 29.6484961200000008 0.3013843900000000 Au
atom 24.4740641399999994 29.6383361399999998 0.2022703400000000 Au
atom 27.2520734699999991 29.6423454399999997 -0.0354943200000000 Au
atom 1.8611599700000001 29.6686282199999987 -0.0655005600000000 Au
atom 4.6517587899999997 29.6452028600000013 -0.3256597500000000 Au
atom 8.8812541399999994 32.1187746200000035 -0.0099133100000000 Au
atom 11.7694017199999994 32.1000309200000018 -0.1438109300000000 Au
atom 14.6356387399999992 32.0660073900000029 -0.1806249700000000 Au
atom 17.4664889700000003 32.0795162699999992 -0.0914368400000000 Au
atom 20.2546106700000017 32.1243663400000017 0.1081271000000000 Au
atom 23.0522584299999984 32.1408842399999983 0.1450359900000000 Au
atom 25.8423771500000008 32.1200052900000017 0.2134373600000000 Au
atom 0.4795847100000000 32.1107426599999997 -0.0317319100000000 Au
atom 3.2696238399999999 32.1399769300000031 0.0631765200000000 Au
atom 6.0904006199999996 32.0844403899999975 -0.1069982600000000 Au
atom 7.5465296200000003 34.5066562599999997 0.0365893200000000 Au
atom 10.3563122100000005 34.5040059700000015 -0.1735917000000000 Au
atom 13.2020345599999995 34.5572624400000024 -0.0475795400000000 Au
atom 15.9449217900000004 34.6149059399999999 -0.2550928400000000 Au
atom 18.7409429500000009 34.6685659400000006 0.0280648400000000 Au
atom 21.6269956000000008 34.5065639700000020 0.0342683200000000 Au
atom 24.4143947099999998 34.5709259300000014 0.0423639900000000 Au
atom 27.2914944099999985 34.5519033400000026 0.0281030800000000 Au
atom 1.8928176200000000 34.6405595499999990 -0.1580089400000000 Au
atom 4.7543233000000003 34.5301102099999966 0.1796589700000000 Au
atom 8.9353895500000000 37.0216690800000023 0.0876482600000000 Au
atom 11.7734123299999993 37.0053646900000004 0.1574377500000000 Au
atom 14.5657203299999995 37.0537936599999966 0.0272031800000000 Au
atom 17.3975184700000014 37.0598457099999976 0.0350707700000000 Au
atom 20.1927577700000001 37.0921948299999968 0.0786612400000000 Au
atom 22.9647922700000002 37.0917740699999996 0.2923199900000000 Au
atom 25.7397926300000002 37.0149431099999973 0.1168600300000000 Au
atom 0.3622802600000000 37.0550218999999998 0.0237493900000000 Au
atom 3.2716523999999998 36.9994283899999985 0.1026657200000000 Au
atom 6.0725183999999999 36.8824308599999995 0.0870127400000000 Au
atom 7.4988698200000004 -0.0899346600000000 0.2065246500000000 Au
atom 10.2508819599999992 0.0503253600000000 0.3077353200000000 Au
atom 13.1351607999999995 -0.0163965900000000 0.1081491100000000 Au
atom 15.9966169199999992 0.0074876300000000 -0.0079863500000000 Au
atom 18.8000496000000012 0.0735768700000000 0.0988532000000000 Au
atom 21.5493380499999994 -0.0160275700000000 0.3411355100000000 Au
atom 24.4118580899999991 0.0029881400000000 0.1161030300000000 Au
atom 27.2453172200000004 -0.0031220900000000 0.3025879200000000 Au
atom 1.8943664899999999 -0.0014377800000000 0.1819868500000000 Au
atom 4.6942697300000003 -0.0610174200000000 0.1852736700000000 Au
atom 8.8296633900000003 2.4499198700000000 0.1722355000000000 Au
atom 11.6569188799999992 2.4563788600000001 0.2771486900000000 Au
atom 14.4817183699999994 2.4712096200000002 0.0451610800000000 Au
atom 17.3560486500000017 2.5037409799999999 0.0701443500000000 Au
atom 20.2406630700000001 2.4885218899999999 0.2086441700000000 Au
atom 23.0595556200000011 2.4824116900000002 0.1453820300000000 Au
atom 25.9107414100000000 2.5252939300000001 0.0377951700000000 Au
atom 0.4452931400000000 2.5150681800000001 -0.1105484200000000 Au
atom 3.2585521399999999 2.5420511399999999 0.0291989500000000 Au
atom 6.0437604800000004 2.3977147900000002 0.1440078800000000 Au
atom 7.4647446300000002 4.9850110699999997 0.1649125500000000 Au
atom 10.3530617100000004 4.9330335800000000 0.2162646600000000 Au
atom 13.1170737200000005 4.8915801900000000 0.2497975300000000 Au
atom 16.0236486900000017 4.9408769699999997 0.1981013900000000 Au
atom 18.7596772600000001 4.9211102599999998 0.0530814900000000 Au
atom 21.5723701100000014 4.9457584900000002 0.2190532700000000 Au
atom 24.4296355900000002 4.9461927899999996 0.2764509500000000 Au
atom 27.2268610700000018 5.0066762000000002 0.0699958700000000 Au
atom 1.8974170400000001 4.9332362800000000 0.0564210900000000 Au
atom 4.6701029600000004 4.9932621199999998 0.0181039000000000 Au
atom 8.9627751199999999 7.4288602399999997 0.1428524000000000 Au
atom 11.8926431499999996 7.3754451100000002 0.1554430800000000 Au
atom 14.6484049299999999 7.4226824899999997 0.1682499800000000 Au
atom 17.4857583800000000 7.4040811000000000 0.2259799200000000 Au
atom 20.2281905199999983 7.4921803200000001 0.0136209800000000 Au
atom 22.9580780799999999 7.3564432899999996 0.1811389300000000 Au
atom 25.8336646600000002 7.3457593100000000 0.2350864900000000 Au
atom 0.3355575300000000 7.3918297099999997 -0.0117129700000000 Au
atom 3.2285938500000002 7.4585388600000000 0.1013389200000000 Au
atom 6.1681253800000002 7.4448818200000000 0.0909456300000000 Au
atom 7.5636412599999998 9.8375825500000005 0.0375005900000000 Au
atom 10.4299804199999997 9.8812422800000004 0.0128816000000000 Au
atom 13.2214007400000000 9.8570752200000005 0.0217646400000000 Au
atom 16.0187513099999990 9.8425097200000007 0.0453772300000000 Au
atom 18.7524277499999990 9.9039737700000003 0.2420078200000000 Au
atom 21.5547151600000007 9.9363033200000004 0.0695162500000000 Au
atom 24.4364273200000000 9.8390845799999997 0.2773055600000000 Au
atom 27.2217247600000007 9.8296586799999996 0.1973442400000000 Au
atom 1.7931006599999999 9.8506921100000007 0.1199960400000000 Au
atom 4.6789876000000001 9.8791574099999995 0.0626886800000000 Au
atom 8.9944563399999993 12.2865803099999997 -0.2679090700000000 Au
atom 11.8530786500000005 12.3679342699999992 -0.1376796500000000 Au
atom 14.5958133100000005 12.3835607099999994 -0.1011983000000000 Au
atom 17.3376071100000004 12.4029890700000003 0.0900279700000000 Au
atom 20.1517757599999996 12.3199257499999995 0.1464780000000000 Au
atom 22.9376250800000001 12.3109515700000003 0.0538508700000000 Au
atom 25.7656472699999988 12.3145113199999994 0.1303760900000000 Au
atom 0.4077022300000000 12.3332649199999995 -0.1106037500000000 Au
atom 3.2409271199999998 12.3000588400000002 -0.1058580700000000 Au
atom 6.0900320399999996 12.2718586700000003 -0.1163451400000000 Au
atom 7.5186168300000000 13.2213504000000004 2.4120399400000001 Au
atom 10.3158518400000005 13.2168383100000000 2.3404771400000000 Au
atom 13.1621626000000003 13.2596225499999996 2.3434205499999998 Au
atom 15.9758475400000002 13.2144860899999994 2.5961355199999998 Au
atom 18.7973409599999997 13.1673836499999997 2.8063965299999998 Au
atom 21.6037114300000006 13.2296494899999999 2.5583863500000001 Au
atom 24.4389103699999986 13.1634114499999999 2.7070148700000001 Au
atom 27.2363481000000007 13.2439975899999993 2.5873953900000002 Au
atom 1.8028576000000001 13.2008813000000007 2.5630559800000001 Au
atom 4.6617144499999998 13.1852994999999993 2.5002201999999998 Au
atom 8.9353083699999996 15.6182912700000003 2.2517963000000001 Au
atom 11.7513286000000008 15.6670240100000004 2.2448787200000000 Au
atom 14.5191557000000007 15.7059059800000007 2.3342219300000000 Au
atom 17.3881516400000002 15.6217152600000002 2.5039784900000002 Au
atom 20.1900337100000016 15.6461825200000000 2.6354932999999998 Au
atom 22.9857582299999983 15.6278322000000003 2.5781585200000001 Au
atom 25.8469481700000010 15.6023736999999993 2.7144932000000002 Au
atom 0.3642934100000000 15.6221425699999994 2.6112155900000000 Au
atom 3.2895870299999999 15.6660595600000008 2.5077913199999999 Au
atom 6.1832299199999996 15.5638307099999995 2.3578949699999998 Au
atom 7.5755528400000003 18.0934287299999994 2.2528756300000001 Au
atom 10.3305133700000003 17.9843064199999993 2.4419376000000002 Au
atom 13.1225771000000009 18.1190160099999993 2.3759847000000001 Au
atom 15.9082072199999995 18.0532393099999986 2.3979096400000000 Au
atom 18.7540103100000017 18.1035853399999986 2.5380608499999999 Au
atom 21.6134781899999986 18.1815376899999990 2.4655907099999999 Au
atom 24.4435624900000015 18.0693629300000005 2.6306724500000001 Au
atom 27.1936666299999992 18.1031885800000012 2.6488271800000001 Au
atom 1.7792350400000001 18.0603987299999993 2.7971776199999998 Au
atom 4.7260739500000000 18.0648962299999987 2.4963825700000002 Au
atom 8.9230380599999997 20.5464451600000011 2.7071780500000000 Au
atom 11.7198665799999997 20.5405900499999987 2.7727933800000000 Au
atom 14.5139388700000005 20.6361663200000010 2.5952508000000001 Au
atom 17.2744947000000018 20.5212961599999986 2.6251013799999998 Au
atom 20.2083726699999993 20.6443094699999996 2.6675392599999999 Au
atom 23.0235675800000017 20.6137742800000012 2.6069695700000000 Au
atom 25.8678958299999984 20.5763178700000005 2.6881898799999999 Au
atom 0.3754324200000000 20.6201456299999997 2.7234723900000000 Au
atom 3.2424074100000002 20.5388361999999987 2.6237600300000001 Au
atom 6.1101258200000004 20.5009467299999990 2.5990118099999999 Au
atom 7.5313145300000004 22.9889669999999988 2.7030150900000001 Au
atom 10.2276482000000009 23.0306138400000009 2.5147266899999998 Au
atom 13.1401059199999999 23.0352400800000012 2.7381491300000000 Au
atom 15.8747583799999994 23.1972860300000008 2.6500573599999999 Au
atom 18.6867699599999995 23.0209119599999994 2.5402720599999999 Au
atom 21.6499372500000007 23.0786360299999984 2.6311068400000002 Au
atom 24.4574688299999998 22.9918254500000003 2.7874507700000000 Au
atom 27.2317288600000005 23.0664930999999989 2.5962204299999998 Au
atom 1.8723322600000001 23.0354672200000010 2.5720930599999998 Au
atom 4.7517829699999998 23.0619653299999996 2.6121178600000001 Au
atom 8.9419855800000008 25.5881530599999998 2.6741237999999998 Au
atom 11.7517648200000000 25.4730734900000009 2.5827603099999998 Au
atom 14.5707478100000003 25.5645741800000010 2.5605622399999999 Au
atom 17.3345285900000015 25.5806232199999997 2.6879081299999998 Au
atom 20.1470104499999998 25.4655637500000012 2.7314150599999998 Au
atom 23.0586465300000008 25.5125406800000007 2.7928762499999999 Au
atom 25.8611606499999986 25.5380023099999995 2.8488485400000001 Au
atom 0.5560598500000000 25.4878600999999989 2.5267862999999999 Au
atom 3.3498390499999999 25.4897163199999994 2.5216105299999998 Au
atom 6.1021419600000000 25.6183337800000004 2.6223951799999998 Au
atom 7.5282359300000001 28.0302688599999996 2.5867807500000000 Au
atom 10.4053745099999997 27.9798866799999999 2.7036009100000000 Au
atom 13.1761344699999992 27.9826393700000011 2.5312081399999999 Au
atom 15.9370113799999995 28.0894790699999994 2.7218353799999999 Au
atom 18.7619134199999991 28.0371862100000016 2.5912343799999999 Au
atom 21.5939472399999985 27.9790616599999993 2.8579995899999999 Au
atom 24.5183177299999997 28.0431227199999995 2.8050819699999998 Au
atom 27.2810327199999989 27.9983661999999995 2.4378495999999998 Au
atom 1.8342285800000000 28.0101260799999991 2.4404795699999999 Au
atom 4.6777332400000002 28.0150042900000003 2.5137561599999998 Au
atom 8.9401404800000002 30.4578420200000011 2.6693927700000000 Au
atom 11.7184617899999992 30.4378743500000013 2.4066370799999999 Au
atom 14.4716062799999996 30.4842463799999983 2.5741052799999999 Au
atom 17.3020515400000008 30.5006725400000001 2.8342699300000000 Au
atom 20.1947034400000014 30.4450811200000011 2.8451765400000002 Au
atom 22.9723826699999982 30.4988993700000002 2.7949375600000002 Au
atom 25.8659154700000009 30.5303468500000008 2.7491623900000000 Au
atom 0.5318655300000000 30.4793313599999998 2.6090636300000001 Au
atom 3.3205358399999998 30.4420619099999996 2.5268678900000001 Au
atom 6.1496891700000003 30.5231757399999992 2.4304108499999999 Au
atom 7.4934861599999998 32.9698789600000026 2.6250230700000001 Au
atom 10.3668045400000004 32.9027987799999977 2.6900112300000001 Au
atom 13.1854551200000003 32.9182185000000018 2.5409113900000002 Au
atom 15.9361736799999996 32.9719539199999971 2.4111253399999999 Au
atom 18.6910879899999998 32.8999091299999975 2.6140409000000000 Au
atom 21.5795646400000010 32.9286694199999985 2.7549486399999998 Au
atom 24.4004134199999996 32.9264426599999993 2.8010412599999999 Au
atom 27.3112340099999997 32.9874801500000032 2.6672324600000001 Au
atom 1.9138718100000001 33.0191040500000028 2.5384629200000002 Au
atom 4.6795504699999997 32.9211601800000011 2.7883353700000000 Au
atom 8.9925108700000003 35.3656016199999996 2.5790484000000000 Au
atom 11.8223697399999992 35.3390550000000019 2.4761125100000001 Au
atom 14.6115019900000007 35.3936326500000007 2.4442218599999999 Au
atom 17.3789563300000012 35.4063264799999970 2.4855938000000002 Au
atom 20.1630448300000005 35.3682262499999993 2.7183916500000000 Au
atom 23.0240407800000000 35.3349590999999990 2.6053310399999998 Au
atom 25.8013923200000015 35.4365457000000035 2.6084237899999998 Au
atom 0.4423922300000000 35.4722836700000030 2.5695687600000001 Au
atom 3.3121015300000001 35.3693300799999975 2.5726732800000001 Au
atom 6.1164432800000004 35.4248215400000035 2.6189802300000000 Au
atom 7.5236156300000001 37.8093131299999996 2.8362959900000000 Au
atom 10.3929244000000001 37.7703816599999982 2.8072736500000000 Au
atom 13.1850688999999992 37.8046811999999974 2.8300921500000000 Au
atom 15.9784172200000008 37.8546145299999992 2.6393272600000000 Au
atom 18.8241866100000017 37.8677467899999982 2.6331527200000000 Au
atom 21.6224286100000000 37.7886621000000034 2.9529106899999999 Au
atom 24.4364195100000003 37.8866573600000009 2.7401123400000000 Au
atom 27.2162840899999985 37.8789778399999975 2.8612913500000001 Au
atom 1.8766644400000001 37.8830646999999985 2.6542315400000001 Au
atom 4.7069638400000002 37.8234002299999972 2.7111471100000002 Au
atom 8.9042413299999996 0.7966163800000000 2.9419197700000002 Au
atom 11.7261620499999992 0.7531886100000000 2.9283353200000000 Au
atom 14.5390346800000003 0.8039181000000000 2.6443527699999998 Au
atom 17.3655843899999986 0.8928666500000000 2.6735437599999998 Au
atom 20.2025321499999997 0.8416814900000000 2.9877545099999998 Au
atom 23.0516018799999998 0.8650772000000000 2.7782571400000000 Au
atom 25.8407735699999996 0.7901932400000000 2.8317797200000001 Au
atom 0.4702897500000000 0.8768431200000000 2.7995686100000001 Au
atom 3.3196071699999998 0.8104776500000000 2.6695726600000000 Au
atom 6.1155392500000003 0.8253748300000000 2.9012284600000000 Au
atom 7.5395568600000002 3.3055795300000002 2.7087860300000002 Au
atom 10.2675415900000004 3.2769178800000001 2.8129585700000002 Au
atom 13.1685158999999992 3.2745246099999998 2.8366079900000001 Au
atom 15.9589967900000005 3.3096888999999998 2.6969730799999998 Au
atom 18.7416777000000003 3.3774913700000000 2.7791220100000000 Au
atom 21.5877508599999999 3.2984321599999999 2.7742058300000001 Au
atom 24.5480929000000003 3.2828486099999998 2.7337951000000000 Au
atom 27.2668826300000013 3.2461574500000001 2.6226117699999998 Au
atom 1.8054876300000000 3.3615045399999999 2.6035239899999998 Au
atom 4.5981139600000001 3.3129931400000001 2.5982357500000002 Au
atom 8.9439673899999992 5.8822031199999998 2.8042228800000002 Au
atom 11.7063268100000002 5.7785422999999998 2.7768944400000000 Au
atom 14.5473662099999999 5.7993820899999999 2.8471775199999998 Au
atom 17.3823219199999990 5.8036921699999997 2.9189443700000002 Au
atom 20.2125075800000005 5.8150416399999996 2.6854374999999999 Au
atom 23.0531176699999989 5.7766811200000001 2.7981842299999999 Au
atom 25.8796210100000010 5.6965871200000002 2.9121724000000002 Au
atom 0.4693729700000000 5.7940322399999999 2.6192351899999999 Au
atom 3.2938190700000001 5.8129875400000000 2.6898890999999998 Au
atom 6.1028790600000002 5.7454890599999997 2.6462559899999998 Au
atom 7.5491923400000003 8.3819060000000007 2.8050555300000002 Au
atom 10.3992875700000003 8.3533251899999996 2.5846256500000000 Au
atom 13.1632644400000007 8.3208858899999996 2.7900018599999998 Au
atom 16.1066083499999984 8.2975664400000007 2.6573929900000000 Au
atom 18.9124771000000003 8.3056463500000000 2.9050363699999999 Au
atom 21.5899072600000004 8.3292856799999999 2.6213639500000001 Au
atom 24.4346804199999994 8.1835726300000005 2.7169864399999999 Au
atom 27.2537212199999992 8.2476046699999994 2.7321886599999998 Au
atom 1.8721515000000000 8.3332241600000003 2.6750698700000002 Au
atom 4.7197636699999999 8.2712342299999992 2.6913245899999998 Au
atom 8.8579506699999992 10.8295415899999998 2.5971223000000001 Au
atom 11.7355477799999992 10.8155156399999992 2.6135710599999999 Au
atom 14.5388446299999998 10.7685606200000006 2.5353659099999999 Au
atom 17.3557440400000011 10.7892423900000001 2.6554115899999999 Au
atom 20.1977807700000014 10.7337456299999996 2.7775093800000001 Au
atom 23.0005225899999992 10.7224992599999993 2.7308692500000000 Au
atom 25.8638996600000013 10.7704830900000008 2.9076202800000002 Au
atom 0.4067983000000000 10.7819883900000004 2.5769544999999998 Au
atom 3.3246635699999998 10.8676834699999993 2.6020631399999998 Au
atom 6.1146948200000004 10.8134014599999997 2.5668977499999999 Au
atom 7.1099426899999996 13.0928395299999991 5.3200011500000004 Cl
atom 7.1986805399999998 15.8787630199999992 8.3288148199999998 Cl
atom 7.2492503199999998 13.0410104499999999 8.0074080799999994 Na
atom 7.3006180599999997 15.8310559499999997 5.4632041600000001 Na
atom 7.2493684500000004 18.6894155099999999 5.4922551600000000 Cl
atom 7.4735765100000000 21.5379175899999993 8.3030648399999993 Cl
atom 7.3854752200000000 18.5630239500000016 8.2689253399999991 Na
atom 7.3356623499999998 21.6812258900000003 5.5910774300000003 Na
atom 7.3445849299999999 24.5299251399999996 5.6686646200000004 Cl
atom 7.4746127099999997 27.2297671200000018 8.5466493900000007 Cl
atom 7.5122468199999997 24.4263170299999999 8.3516242799999993 Na
atom 7.4157012000000000 27.2510133400000001 5.8468974100000004 Na
atom 7.4452482499999997 30.0436049700000005 5.7043277600000000 Cl
atom 7.3755282500000003 32.9865848800000023 8.6084138299999999 Cl
atom 7.4785005499999997 30.1755436400000008 8.3081297900000006 Na
atom 7.3562522399999999 33.1238208500000013 5.9185379999999999 Na
atom 7.3580967599999996 35.9151989699999987 5.6826578999999997 Cl
atom 7.3371378399999996 38.5938039700000033 8.8378327399999996 Cl
atom 7.3999240300000002 35.7474895900000007 8.3104881000000006 Na
atom 7.2816797700000002 38.6413769600000023 6.0428614300000003 Na
atom 7.2637919499999999 1.9425245400000000 5.8560685000000001 Cl
atom 7.3702457499999996 4.7847758599999999 8.4062206600000007 Cl
atom 7.3356526600000000 1.8853256300000001 8.5521022099999993 Na
atom 7.4584681399999999 4.6493245999999999 5.8784470000000004 Na
atom 7.4356475299999998 7.5811691999999997 5.7059742199999999 Cl
atom 7.2828467400000001 10.4133195999999995 8.5612968499999997 Cl
atom 7.3124657199999996 7.5710935700000004 8.3154339099999994 Na
atom 7.4241255500000003 10.2871126600000000 5.7433126400000001 Na
atom 9.9807605800000001 12.9980956200000008 5.3278688299999999 Na
atom 13.0391449099999992 13.1023714899999995 5.7890315699999997 Cl
atom 10.0640754999999995 15.8740671300000002 8.0812414500000003 Na
atom 13.0046638899999998 15.9874161400000006 8.3813131900000002 Cl
atom 13.0218944400000005 13.0894976199999995 8.4199839399999998 Na
atom 9.9497325199999995 13.1129251900000003 7.9781303100000001 Cl
atom 13.0423012499999995 15.7157201000000004 5.5211019200000004 Na
atom 10.2197306200000000 16.0453253499999988 5.3203056300000000 Cl
atom 10.0763717400000008 18.7480673899999992 5.5575884300000000 Na
atom 12.8332548299999996 18.7903021599999995 5.3282664700000000 Cl
atom 10.2783241600000004 21.6061248600000013 8.1643455500000002 Na
atom 13.1190739599999997 21.5135742599999986 8.2115627599999996 Cl
atom 12.9993979999999993 18.6210094599999998 7.9725664700000003 Na
atom 10.2046392600000004 18.7023908299999988 8.3299606399999995 Cl
atom 12.8951559400000004 21.6014963500000015 5.5562206800000000 Na
atom 10.2311622700000004 21.6396836199999996 5.5526985599999996 Cl
atom 10.1315636799999993 24.5368391899999985 5.7036810200000003 Na
atom 12.9752940399999996 24.4414506299999985 5.5663306900000000 Cl
atom 10.3346246399999995 27.1730704299999992 8.2394836799999993 Na
atom 12.9543131799999998 27.2422936699999987 8.4060572199999992 Cl
atom 13.2037064399999995 24.4529419799999985 8.2652773300000000 Na
atom 10.3156327599999997 24.4423830799999990 8.5001124899999994 Cl
atom 12.9910731300000002 27.2363373099999997 5.6770837700000003 Na
atom 10.1016582800000005 27.3030289699999997 5.6277431900000003 Cl
atom 10.1903010799999993 30.1994803599999990 5.5860689700000004 Na
atom 12.8109865799999998 30.0421922499999994 5.5075632600000004 Cl
atom 10.3127303599999998 32.8730754899999980 8.3597922699999998 Na
atom 13.0630704000000009 32.8826048000000029 8.3746270900000006 Cl
atom 12.9974483599999999 29.9723517900000012 8.2440764099999999 Na
atom 10.2078938499999996 30.1267022400000002 8.4547304200000006 Cl
atom 13.0129876800000002 32.8760377500000018 5.7437284899999996 Na
atom 10.2445272400000000 32.9790421599999988 5.6589980600000001 Cl
atom 10.2093542799999994 35.7886583900000019 5.7114597199999997 Na
atom 12.9205632799999997 35.8039774100000017 5.5792554100000000 Cl
atom 10.1858734900000005 38.5903081700000001 8.6034950600000002 Na
atom 13.0630117200000004 38.3789442200000011 8.6694891599999995 Cl
atom 13.1077192900000004 35.6527842100000001 8.3075957400000000 Na
atom 10.1615757799999997 35.7719548199999977 8.5165828099999992 Cl
atom 12.9186762399999999 38.4563818900000030 5.9083596800000002 Na
atom 10.1640436399999992 38.6462389900000005 5.8864317899999996 Cl
atom 10.1394289400000002 1.9598777300000001 6.0588290599999999 Na
atom 13.1197242799999998 1.8341816399999999 5.8823206299999997 Cl
atom 10.1789779100000004 4.6731490800000000 8.5199161100000005 Na
atom 13.1185741900000004 4.6734293200000003 8.6461753500000000 Cl
atom 13.1142831700000002 1.7416235000000000 8.4612201500000008 Na
atom 10.2639850999999993 1.8881892700000000 8.7893481599999994 Cl
atom 13.0635678100000003 4.6170318100000003 5.8335969499999996 Na
atom 10.3510642700000002 4.6424938300000003 5.8946823600000000 Cl
atom 10.2172800400000003 7.5571318500000002 5.8460362100000003 Na
atom 13.0499542900000005 7.4227341899999999 5.9037610200000001 Cl
atom 10.1638321400000002 10.3671214599999999 8.3388422700000007 Na
atom 12.9987642500000007 10.3650590400000002 8.5081572699999999 Cl
atom 13.1308720000000001 7.4709595400000000 8.4028715999999992 Na
atom 10.1951783599999999 7.6499297899999998 8.7130088600000004 Cl
atom 13.1692291099999998 10.4364626499999993 5.7538275499999996 Na
atom 10.2339093200000004 10.2053424899999996 5.5930498699999998 Cl
atom 15.7922036800000001 13.0008395399999994 5.7442849799999998 Na
atom 18.6620260400000006 13.0853322199999997 5.5938819799999999 Cl
atom 15.8150110500000007 15.9170002799999999 8.1167278199999995 Na
atom 18.6021048100000002 15.9869274299999997 8.4353769599999993 Cl
atom 18.7157115599999990 13.2960820700000006 8.2449071000000007 Na
atom 15.9581489100000002 13.3002792200000002 8.4652571699999992 Cl
atom 18.6542876100000008 15.9760830499999997 5.5276918400000001 Na
atom 15.8106198100000004 15.8922155099999998 5.5198843100000001 Cl
atom 15.8072207299999992 18.7840464800000007 5.3309213800000004 Na
atom 18.5662671500000016 18.9088257700000000 5.4024392900000002 Cl
atom 15.8715806799999992 21.5147388799999995 8.0522814300000007 Na
atom 18.7349328700000015 21.5684712699999999 8.5087131500000002 Cl
atom 18.7432720400000008 18.8576393499999995 8.0039359999999995 Na
atom 15.9128735799999994 18.6359886900000014 8.0824494199999997 Cl
atom 18.7957794000000007 21.7907133500000008 5.4920084300000003 Na
atom 15.8847350200000008 21.6909837000000003 5.5844329500000001 Cl
atom 15.7944540199999999 24.5863043499999989 5.5529702800000003 Na
atom 18.9134774300000004 24.6165999199999987 5.5699139600000001 Cl
atom 15.8029184800000007 27.2910813499999989 8.4932170300000003 Na
atom 18.6749085599999987 27.2023550400000005 8.4743999599999995 Cl
atom 18.6230991500000016 24.3943532199999993 8.3013544600000007 Na
atom 15.9157501799999999 24.4376726099999999 8.3899547900000009 Cl
atom 18.7762141000000007 27.2831609300000011 5.6596167299999998 Na
atom 15.8410478900000005 27.3012506200000011 5.6900589500000001 Cl
atom 15.7726308599999996 30.0687521199999992 5.6298971299999998 Na
atom 18.6177005599999994 29.9538731100000000 5.6174149199999999 Cl
atom 15.9024254799999998 32.7488323600000015 8.2021868100000006 Na
atom 18.6502316000000015 32.7631896700000027 8.5034288500000006 Cl
atom 18.7988378500000017 29.9194971299999999 8.4112786699999997 Na
atom 15.7851109399999991 29.9679833100000010 8.3910145200000006 Cl
atom 18.6703106000000005 32.6654153300000019 5.7775730400000000 Na
atom 15.8084976699999995 32.8183245099999965 5.5273048500000002 Cl
atom 15.8353229800000008 35.5570170900000022 5.6624743100000003 Na
atom 18.8460744200000008 35.6391081299999968 5.6079948999999996 Cl
atom 15.8704766900000003 38.3351746000000020 8.3344239499999997 Na
atom 18.7037987500000007 38.4483668100000031 8.6202846300000004 Cl
atom 18.7729173100000004 35.5664152200000032 8.2566773999999992 Na
atom 15.8578167400000005 35.5847327099999973 8.2697448500000004 Cl
atom 18.6100505900000002 38.4403461599999972 5.8080710900000003 Na