#===============================================================================
# Created using the Atomic Simulation Environment (ASE)

# Tue Dec 23 21:42:39 2025

#=======================================================
lattice_vector 28.1999999999999993 0.0000000000000000 0.0000000000000000 
lattice_vector 0.0000000000000000 39.4799999999999969 0.0000000000000000 
lattice_vector 0.0000000000000000 0.0000000000000000 62.3296083400000001 
atom 7.6249911700000004 14.7691232499999998 -0.0791753000000000 Au
atom 10.4266748800000002 14.7808561500000000 -0.1273006700000000 Au
atom 13.2934849499999999 14.7978886700000007 -0.3412675200000000 Au
atom 16.0099125700000009 14.8399216400000000 -0.5764284900000000 Au
atom 18.7946850099999985 14.8325849800000000 -0.2118363600000000 Au
atom 21.6119289799999983 14.8574367299999999 -0.1956024100000000 Au
atom 24.4343682499999986 14.8175388100000003 -0.2170386800000000 Au
atom 27.1828099099999996 14.8530903399999996 0.0687781400000000 Au
atom 1.8870229599999999 14.7946855799999994 0.1112195800000000 Au
atom 4.7287092900000003 14.7265382900000006 0.1511864300000000 Au
atom 9.0231566200000000 17.2445485100000013 -0.0465402000000000 Au
atom 11.7476071900000001 17.2454627900000013 -0.1764112900000000 Au
atom 14.5958088900000007 17.3428999300000015 -0.3985602100000000 Au
atom 17.3926433500000002 17.3362226200000009 0.1819776100000000 Au
atom 20.3105283599999993 17.4049269299999985 -0.0854163600000000 Au
atom 22.9674161599999991 17.3577388900000003 -0.0095087500000000 Au
atom 25.8506043199999986 17.2768508800000014 -0.0146356700000000 Au
atom 0.4957478800000000 17.1996637899999989 0.1172260700000000 Au
atom 3.2688554000000001 17.1925824600000006 0.0276913900000000 Au
atom 6.1521012500000003 17.0692985499999992 0.0796517700000000 Au
atom 7.5150216800000003 19.6391368100000001 0.0472094700000000 Au
atom 10.3474101399999991 19.7801666300000001 0.0679534000000000 Au
atom 13.1804352399999996 19.7345345099999996 0.1177348900000000 Au
atom 15.9788751700000002 19.8407544300000005 0.2527036500000000 Au
atom 18.7824973499999999 19.8119680500000008 -0.0401451800000000 Au
atom 21.6800656600000003 19.8141280399999999 0.1281383800000000 Au
atom 24.4457302699999985 19.7758654299999996 0.2004936800000000 Au
atom 27.3447422200000005 19.7054238099999992 0.0726633100000000 Au
atom 2.0117661700000000 19.5576072500000002 0.3200208400000000 Au
atom 4.7331365500000002 19.6043008400000005 -0.0383562000000000 Au
atom 8.9213511000000008 22.2146550299999994 0.0856645200000000 Au
atom 11.8247691600000007 22.1660170600000015 0.1312718200000000 Au
atom 14.5971482899999998 22.2380051600000002 0.3288742900000000 Au
atom 17.4585015699999992 22.2866248499999990 0.3722505100000000 Au
atom 20.2622808300000017 22.3567822800000009 0.2680574100000000 Au
atom 23.1219196999999994 22.3247932999999996 0.0896990900000000 Au
atom 26.0042138899999991 22.1130748900000000 0.3021816600000000 Au
atom 0.5683879500000000 22.1932764899999988 0.1950331900000000 Au
atom 3.3700831800000000 22.0948384500000010 0.2923741600000000 Au
atom 6.0448219900000000 22.1889010999999989 0.0464921700000000 Au
atom 7.6335507500000004 24.5889445699999989 0.3091688000000000 Au
atom 10.3894288400000008 24.6019466099999988 0.1025030800000000 Au
atom 13.2436803699999999 24.7059914099999993 -0.0075657400000000 Au
atom 16.0679821099999991 24.6032861199999999 0.0916514300000000 Au
atom 18.8372864600000014 24.7764262399999993 0.0526222500000000 Au
atom 21.7069608400000007 24.7610629600000003 -0.0298083000000000 Au
atom 24.4649688699999999 24.7096694200000009 0.2092543200000000 Au
atom 27.2278064899999990 24.6687539499999993 0.0640449300000000 Au
atom 1.9103422400000001 24.5542070300000006 0.4673377900000000 Au
atom 4.7874514699999997 24.6012168899999999 0.0727158600000000 Au
atom 8.9876405199999994 27.1190324400000016 0.1274196700000000 Au
atom 11.7817807999999999 27.1445008299999984 0.0270729400000000 Au
atom 14.6086094099999997 27.1331279400000014 0.1230440700000000 Au
atom 17.4550723300000001 27.1617457999999985 0.0635112600000000 Au
atom 20.2996802599999988 27.2517232800000002 0.0167711700000000 Au
atom 23.0800604999999983 27.1535091299999998 -0.0273044300000000 Au
atom 25.9063041699999985 27.2375334299999992 -0.1452391100000000 Au
atom 0.5656831100000000 27.0281270400000011 -0.0792763900000000 Au
atom 3.3978490099999998 27.0262169199999995 0.2939997000000000 Au
atom 6.1802919200000002 27.1219345599999997 -0.0604845600000000 Au
atom 7.5556298899999996 29.6049146000000007 -0.1341519400000000 Au
atom 10.3337030399999996 29.6264468299999990 -0.1882045800000000 Au
atom 13.1472170399999992 29.5986543500000003 -0.1059841600000000 Au
atom 15.9889302299999994 29.6183487399999983 -0.0892220400000000 Au
atom 18.7382268799999991 29.6201519399999995 -0.2290261500000000 Au
atom 21.6360741999999995 29.6931412100000003 -0.1232778300000000 Au
atom 24.5178219999999989 29.6514672399999988 0.0326260900000000 Au
atom 27.2546633199999988 29.6614813599999998 -0.1143214200000000 Au
atom 1.9246605900000000 29.4434814200000012 0.0166088300000000 Au
atom 4.7389951500000000 29.5556728100000008 -0.1530288300000000 Au
atom 8.9625360999999995 32.0076596299999991 0.0463121500000000 Au
atom 11.8369653600000007 32.0717356700000025 -0.1978014500000000 Au
atom 14.6531349500000001 32.0524016999999972 -0.2075616200000000 Au
atom 17.4777124599999993 32.0614618500000006 -0.0702481400000000 Au
atom 20.2809832999999990 32.1823549499999970 -0.0835674900000000 Au
atom 23.0141646900000012 32.2286626499999969 0.0100259500000000 Au
atom 25.8271591799999989 32.1564553400000008 0.0888190000000000 Au
atom 0.5852878000000000 32.0050541700000011 -0.0457992200000000 Au
atom 3.3463575500000000 32.0052290799999994 0.0433648400000000 Au
atom 6.1421852000000001 32.0073649799999984 -0.1678042000000000 Au
atom 7.6048620299999996 34.5547744799999990 0.0718790100000000 Au
atom 10.3426800199999995 34.5528157199999981 -0.3352250200000000 Au
atom 13.2160831699999992 34.4213260399999967 -0.2998442000000000 Au
atom 16.0019884400000016 34.4765392799999972 -0.3423918300000000 Au
atom 18.7414200800000010 34.5238693100000020 0.0296771800000000 Au
atom 21.6315509800000001 34.6703361000000001 0.1425767500000000 Au
atom 24.5515965499999993 34.5745991599999982 -0.0493139500000000 Au
atom 27.5341673200000017 34.5182682700000001 0.0342854900000000 Au
atom 2.0445471199999998 34.5730981700000015 -0.1419654100000000 Au
atom 4.8321354200000002 34.5351443899999992 0.0330053000000000 Au
atom 8.9627106100000002 37.1049074100000027 -0.1813968800000000 Au
atom 11.7538221600000004 37.0830037400000023 -0.2315802500000000 Au
atom 14.5294069300000004 36.9766030400000005 -0.2146385000000000 Au
atom 17.3366730900000015 36.9749049899999989 -0.0889276200000000 Au
atom 20.0843179899999988 37.0889866699999970 0.1092339300000000 Au
atom 23.0281405600000006 36.9867613999999989 -0.0045243200000000 Au
atom 25.8579405899999983 37.1542656800000017 -0.1474792300000000 Au
atom 0.4470815000000000 37.1427995700000011 0.0305396000000000 Au
atom 3.3230006900000002 37.0918826600000031 0.0323315000000000 Au
atom 6.1462055600000003 36.9701043999999968 -0.0599160300000000 Au
atom 7.5239761500000002 0.0577005700000000 -0.0799436300000000 Au
atom 10.4769936399999999 0.0751526400000000 -0.1605984900000000 Au
atom 13.3116194399999994 0.0483587600000000 -0.0643240400000000 Au
atom 16.0691703500000003 -0.0594819600000000 0.1729318900000000 Au
atom 18.9082321200000010 0.0469610300000000 0.1050338900000000 Au
atom 21.6818601599999994 -0.0264566900000000 0.1814667400000000 Au
atom 24.5652332300000005 0.0476311900000000 0.0287195000000000 Au
atom 27.3592016899999990 0.1119091600000000 0.2249879800000000 Au
atom 2.0152482799999998 0.0980604500000000 -0.0798818800000000 Au
atom 4.7553891100000003 0.0510082900000000 -0.1924794300000000 Au
atom 8.9532926800000006 2.5494652400000000 -0.0687218000000000 Au
atom 11.8922626200000003 2.4496170400000001 0.0219728900000000 Au
atom 14.7022097499999997 2.5190963700000002 0.2300075300000000 Au
atom 17.4617263499999993 2.4879835300000002 0.1915950400000000 Au
atom 20.2646123899999999 2.4959448100000001 0.1656269700000000 Au
atom 23.0218576000000006 2.4508831799999999 0.3118768700000000 Au
atom 25.9424080600000018 2.4903250699999999 0.2704786000000000 Au
atom 0.5306085900000000 2.5421277199999999 -0.0946702800000000 Au
atom 3.3512813200000000 2.5409838100000002 0.0029726300000000 Au
atom 6.1183747200000003 2.5033005400000001 0.1391229400000000 Au
atom 7.5481316100000004 4.9204482799999996 0.1957864200000000 Au
atom 10.3165717899999994 5.0077420699999999 0.0540067200000000 Au
atom 13.1199892800000004 4.9830844399999998 0.0660307000000000 Au
atom 15.8628544100000006 4.9126896799999997 0.1470865000000000 Au
atom 18.8357288199999999 4.9718822500000002 0.1173079400000000 Au
atom 21.7133480900000002 4.8589116299999997 0.2509449300000000 Au
atom 24.4888688200000004 4.9752171599999997 0.2481975900000000 Au
atom 27.1785513300000012 5.0126496300000003 -0.0484849600000000 Au
atom 1.8549829300000000 4.9378981299999998 0.0321668600000000 Au
atom 4.7016465099999998 5.0433499099999999 0.1635285800000000 Au
atom 8.9182413199999999 7.3959776799999997 0.2606921000000000 Au
atom 11.7349402299999994 7.4090664899999998 0.1601769600000000 Au
atom 14.5423289499999999 7.3722669800000000 0.0671417000000000 Au
atom 17.4112961400000010 7.3542121700000003 -0.0812450500000000 Au
atom 20.2688689000000011 7.4025535099999997 -0.0625432900000000 Au
atom 23.0596972200000003 7.4592085499999996 0.1979947000000000 Au
atom 25.9012495800000018 7.5127129600000000 -0.0417511200000000 Au
atom 0.5022201100000000 7.4789131099999997 -0.1318734600000000 Au
atom 3.3717439100000002 7.3592239900000003 0.0674307100000000 Au
atom 6.1575576700000001 7.4152208799999997 0.0600282200000000 Au
atom 7.6424330800000000 9.9788638400000007 0.3066269200000000 Au
atom 10.3368865599999999 9.8170394400000003 -0.0502740000000000 Au
atom 13.1593799100000002 9.9101217199999994 -0.2335782500000000 Au
atom 15.9588280699999991 9.9163960800000002 -0.2106989000000000 Au
atom 18.7163364200000011 9.7444562999999995 -0.1438275900000000 Au
atom 21.5821659699999984 9.9011493000000002 0.1378280300000000 Au
atom 24.5349246299999990 9.8879725700000005 0.0488830900000000 Au
atom 27.2746836700000017 9.9520107800000002 -0.3845677400000000 Au
atom 1.9260830700000000 9.9171998299999995 -0.2133948400000000 Au
atom 4.7070173500000001 9.9473659600000008 -0.0040678700000000 Au
atom 9.0106487000000008 12.3245813099999992 0.0018602400000000 Au
atom 11.8098708000000006 12.3079666200000002 -0.2229888100000000 Au
atom 14.6396508300000008 12.3855944900000008 -0.4479769000000000 Au
atom 17.4171581400000015 12.3335556499999992 -0.4386838000000000 Au
atom 20.2681895499999989 12.4094850700000006 -0.4458658900000000 Au
atom 23.0862133800000002 12.2553739200000003 -0.3349593200000000 Au
atom 25.9099958699999995 12.3235748899999997 -0.3016087300000000 Au
atom 0.4496370200000000 12.4618120099999992 -0.3712264900000000 Au
atom 3.2342615499999998 12.3994059500000002 -0.0228875100000000 Au
atom 6.1933010199999998 12.3951167400000006 0.0131409900000000 Au
atom 7.5952994499999997 13.1770389300000001 2.5471711300000002 Au
atom 10.4366728500000008 13.1786269699999998 2.4763572100000002 Au
atom 13.3494086299999992 13.2250936800000005 2.4371219200000001 Au
atom 16.0691580099999989 13.2147287599999999 2.1871618700000002 Au
atom 18.8154379499999997 13.1522372999999995 2.1321504299999998 Au
atom 21.6052765399999984 13.1695311299999993 2.2474401199999998 Au
atom 24.3779710600000001 13.1598136900000000 2.2191541500000000 Au
atom 27.2076165699999990 13.1407168599999995 2.5017578399999998 Au
atom 1.7943782699999999 13.1807765200000002 2.5613036999999998 Au
atom 4.7027594500000003 13.1510609600000006 2.6675677900000001 Au
atom 8.9851083700000007 15.5644410600000000 2.6322760399999998 Au
atom 11.8731717200000002 15.5710351399999993 2.5378257400000002 Au
atom 14.7374101999999993 15.6003081899999998 2.0310481000000000 Au
atom 17.4917864099999996 15.5666683500000005 2.6197592300000001 Au
atom 20.2628248900000010 15.6869336300000004 2.4762495900000001 Au
atom 23.0525949099999998 15.6550502500000004 2.5508234200000000 Au
atom 25.7618291200000016 15.5514797399999996 2.6086494000000000 Au
atom 0.3573053100000000 15.6043294100000001 2.7327873399999998 Au
atom 3.2731957299999999 15.6286872300000006 2.7592701599999998 Au
atom 6.1117373600000002 15.6655303000000004 2.7884766999999999 Au
atom 7.5585724900000004 18.0393867199999995 2.6909013599999998 Au
atom 10.4468260900000001 17.9841846799999985 2.5634190900000000 Au
atom 13.2413273799999995 17.9538854000000008 2.5409374400000000 Au
atom 15.9732229599999993 17.9814636800000009 2.7678444299999998 Au
atom 18.8847319700000007 18.1632814200000006 2.5614778600000001 Au
atom 21.7028309200000002 18.1758364400000012 2.6877404999999999 Au
atom 24.4767258100000014 18.0639201100000015 2.5345054700000000 Au
atom 27.2696186400000009 18.0700710800000017 2.5471739499999999 Au
atom 1.8602587799999999 18.0326978400000009 2.7965733799999999 Au
atom 4.6705371700000002 18.0388334000000015 2.5381899200000002 Au
atom 9.0394315899999995 20.4872488200000014 2.7184386699999998 Au
atom 11.8398083199999995 20.4731262500000000 2.8596955899999998 Au
atom 14.5806273500000003 20.6174506899999983 2.8857769000000002 Au
atom 17.3736024899999997 20.5895871799999988 2.8070724899999999 Au
atom 20.2020353899999989 20.6642609300000011 2.7494909999999999 Au
atom 23.0961129599999992 20.6296825800000008 2.6434853500000002 Au
atom 25.9982956200000004 20.5289011700000010 3.1268186899999999 Au
atom 0.5523757600000000 20.4990168100000005 2.6094259399999999 Au
atom 3.3668683300000000 20.5169808600000003 2.7408583499999999 Au
atom 6.1943474199999997 20.4509179799999998 2.6725656700000000 Au
atom 7.5011345000000000 22.8919217400000008 2.8018133000000001 Au
atom 10.2579928299999992 23.0565935099999990 2.6616114400000002 Au
atom 13.1380175999999995 23.0873789000000009 2.8091353899999998 Au
atom 16.0672753700000008 23.0747423800000000 2.8746706299999998 Au
atom 18.8980685500000014 23.0827172999999988 3.1137532200000000 Au
atom 21.7863430200000003 23.0672907999999985 2.6790992899999999 Au
atom 24.5367397300000007 23.0658273099999995 2.7888726199999998 Au
atom 27.4191621499999982 23.0996616199999991 2.7451040899999999 Au
atom 2.0035971699999999 23.0160119999999999 2.9791917799999998 Au
atom 4.6702121700000001 22.9356147200000002 2.6761826000000002 Au
atom 8.8540838700000002 25.5485437799999993 2.8286186400000002 Au
atom 11.8045652099999998 25.5543513500000010 2.5913792299999998 Au
atom 14.6611850700000002 25.5388008299999996 2.6808743700000002 Au
atom 17.5030256000000008 25.4968691599999993 2.6363799499999998 Au
atom 20.2835367799999986 25.5222418399999995 2.5527764400000001 Au
atom 23.0347072100000005 25.6597008899999999 2.6855109800000001 Au
atom 25.8696577599999991 25.5760305300000006 2.6714812100000001 Au
atom 0.4652797400000000 25.6120195600000002 2.7448541999999998 Au
atom 3.3488361400000000 25.5695784400000008 3.0417396800000001 Au
atom 6.0538587899999996 25.4538662500000008 2.5193842900000001 Au
atom 7.6261660600000001 27.9582325199999993 2.7025545700000002 Au
atom 10.5029280899999993 28.0493942199999999 2.5899054300000000 Au
atom 13.2390678299999998 27.9863969200000007 2.6244990399999999 Au
atom 16.0588280999999995 28.0204411200000010 2.8109872500000002 Au
atom 18.9139937399999987 27.9996771399999993 2.5920550499999999 Au
atom 21.7282981900000003 28.1297520799999994 2.5274920800000000 Au
atom 24.4131989099999984 28.0357260400000001 2.6169292000000000 Au
atom 27.3212730400000012 28.0588042999999985 2.4589257000000000 Au
atom 1.8695247900000000 27.9969231399999998 2.7131360999999998 Au
atom 4.7697634000000004 28.1239583899999985 2.4602863300000002 Au
atom 9.0594580300000001 30.4975299799999995 2.5569826600000001 Au
atom 11.8565696400000000 30.6084884700000011 2.4551432399999999 Au
atom 14.5516109300000007 30.4373175499999995 2.5181428700000001 Au
atom 17.3937276300000008 30.5561349500000006 2.5167944200000001 Au
atom 20.1592939099999988 30.4235062999999997 2.3377622400000000 Au
atom 23.0552086100000011 30.5486374900000008 2.6153792500000002 Au
atom 25.8381396599999995 30.4910488599999994 2.4828144800000000 Au
atom 0.5131412300000000 30.5075798300000010 2.7042510100000001 Au
atom 3.2899512999999998 30.3933435500000009 2.7050404600000002 Au
atom 6.1374511399999996 30.5199980800000006 2.4856699000000000 Au
atom 7.5636053399999996 32.9823583599999992 2.4619652900000002 Au
atom 10.4577356300000002 33.0307418900000016 2.4126861599999998 Au
atom 13.2559093000000008 33.0412962699999966 2.4175228000000000 Au
atom 16.0594230899999992 32.9686455499999980 2.4820910600000001 Au
atom 18.9024320299999999 32.9987733600000013 2.5195596700000000 Au
atom 21.6957094800000014 32.9656314300000020 2.6097427999999998 Au
atom 24.4683416999999999 32.9902573399999994 2.5091188000000000 Au
atom 27.2840991799999983 32.9830745300000032 2.6748742800000000 Au
atom 1.8525476100000000 32.9570516499999968 2.5064978700000000 Au
atom 4.7456934000000004 32.8581039700000019 2.6387147899999999 Au
atom 8.9534923499999994 35.4960404799999978 2.4417496000000001 Au
atom 11.8520114900000006 35.4659953000000030 2.3193116200000001 Au
atom 14.6557416099999998 35.4441168700000020 2.3218529100000000 Au
atom 17.4602025599999990 35.3709521899999970 2.4367837799999998 Au
atom 20.2920913600000006 35.3758405600000003 2.5845661199999999 Au
atom 23.0466193799999992 35.4245365499999991 2.6876013200000002 Au
atom 25.9547149399999988 35.4966299499999991 2.5072822499999998 Au
atom 0.5738903800000000 35.3799285200000000 2.7645714600000000 Au
atom 3.3358937900000001 35.4499472500000010 2.4425187300000002 Au
atom 6.1451627699999998 35.3613071700000035 2.6683523800000000 Au
atom 7.5605950300000000 37.8342547700000011 2.5969151600000000 Au
atom 10.3334366899999992 37.9057161400000027 2.5851389500000002 Au
atom 13.0623281900000006 37.9258942900000022 2.4568728700000002 Au
atom 15.9242028799999993 37.8264945299999980 2.6556135599999999 Au
atom 18.6690590699999994 37.8306206399999994 2.6911163500000002 Au
atom 21.7037890500000010 37.8801433000000003 2.5359348100000001 Au
atom 24.4942019100000010 37.8204997799999987 2.5225630500000000 Au
atom 27.3129781899999990 37.9484057000000021 2.5958202300000002 Au
atom 1.9595770699999999 37.9175293899999986 2.6210705700000001 Au
atom 4.7993742599999996 37.8407219600000033 2.6394544999999998 Au
atom 9.0273576000000002 0.8824446600000000 2.3435804700000000 Au
atom 11.7826376699999997 0.9155271900000000 2.7034170799999999 Au
atom 14.5857848600000004 0.8643988500000001 2.6986561600000001 Au
atom 17.3580457499999987 0.8739672500000000 2.7841707200000001 Au
atom 20.2831264299999994 0.8117354500000000 2.8453579599999999 Au
atom 23.1073847800000003 0.9092773000000000 2.8026313900000002 Au
atom 25.9465454700000002 0.8517870100000000 2.7907701500000002 Au
atom 0.5763677000000000 0.8604282200000000 2.6726471500000000 Au
atom 3.3957575100000001 0.8974363400000001 2.4799253299999999 Au
atom 6.1766946100000002 0.8106629900000000 2.7649784700000000 Au
atom 7.6186419000000001 3.3139898900000002 2.8328982200000001 Au
atom 10.4128779500000004 3.3833965400000001 2.5420845000000001 Au
atom 13.3087170599999993 3.4113961399999999 2.6599198700000000 Au
atom 16.1061696699999999 3.3597488599999998 2.9641258499999998 Au
atom 18.7953751300000000 3.4476644099999998 2.7514490700000001 Au
atom 21.5936686599999987 3.3391166800000001 2.8713477400000000 Au
atom 24.4971281800000007 3.4378759799999998 2.8428602600000001 Au
atom 27.3441738799999996 3.3715419199999999 2.6443161700000002 Au
atom 1.9457859500000001 3.3243141199999999 2.6108072299999998 Au
atom 4.7761027900000004 3.2634658399999998 2.6711579300000001 Au
atom 8.9648538099999993 5.8503843599999996 2.8419705799999999 Au
atom 11.7270978600000007 5.8110005400000002 2.8205821200000001 Au
atom 14.5140764600000001 5.9036275199999997 2.7455647500000002 Au
atom 17.3856077900000017 5.7888166300000004 2.5082184600000001 Au
atom 20.2499062700000003 5.8524850099999997 2.6318221700000000 Au
atom 23.0656394899999988 5.9139539699999997 2.8410441099999999 Au
atom 25.9108345200000016 5.9430238800000001 2.7081288300000002 Au
atom 0.5165102600000000 5.8751399500000003 2.5765300999999998 Au
atom 3.2609337400000000 5.7173909800000002 2.6539834999999998 Au
atom 6.0862774999999996 5.8788760599999996 2.8666214700000001 Au
atom 7.4990169499999997 8.2788718699999997 2.8416841100000001 Au
atom 10.3621436399999993 8.2777399200000001 2.7530545599999998 Au
atom 13.1402499899999992 8.3491178300000009 2.5640857499999998 Au
atom 15.9333015200000006 8.2902212800000008 2.3934204499999998 Au
atom 18.8214460199999998 8.2686535699999997 2.4903217500000001 Au
atom 21.5664149700000003 8.3406305599999992 2.8233518800000001 Au
atom 24.4336550300000006 8.3860513900000004 2.6730857900000000 Au
atom 27.2945714300000013 8.3677513599999997 2.5562606300000001 Au
atom 1.8619376700000001 8.3483933900000000 2.4252603599999998 Au
atom 4.5914155599999997 8.1967076199999997 2.5709278499999999 Au
atom 8.9031806200000005 10.7412827400000008 3.0421978300000001 Au
atom 11.7434947800000007 10.7957388900000009 2.3924839000000002 Au
atom 14.5837195400000006 10.7875895100000001 2.3945811099999998 Au
atom 17.3971891300000010 10.6737417299999997 2.4261981200000000 Au
atom 20.0971682800000018 10.7793653999999997 2.6571073599999999 Au
atom 22.9388252199999982 10.7694677599999995 2.5509586099999999 Au
atom 25.8449635099999995 10.7667145099999999 2.4379560400000000 Au
atom 0.4696354000000000 10.7725042599999998 2.2657379299999998 Au
atom 3.3095912500000000 10.7286340899999999 2.6242058699999999 Au
atom 6.0482739399999996 10.6680099500000001 2.7038106000000002 Au
atom 6.9851141600000002 12.7263122099999997 5.5036718100000002 Cl
atom 7.0871827200000004 15.8620061000000003 8.5526137599999998 Cl
atom 6.9913769500000003 13.0279997099999996 8.0977215299999994 Na
atom 7.0638026800000002 15.7514767599999992 5.8010866700000001 Na
atom 7.0725775999999998 18.6727817800000011 5.6465571600000004 Cl
atom 7.0630091300000002 21.3018299099999986 8.7157920099999995 Cl
atom 7.0555513699999999 18.6055315300000004 8.3132939199999996 Na
atom 7.0401197499999997 21.4105118300000008 5.7329961300000001 Na
atom 6.9736818800000000 24.2740612300000009 5.5857288299999999 Cl
atom 7.1387212900000003 27.1462297399999990 8.4886780399999999 Cl
atom 7.1899631800000003 24.2410221399999983 8.2749546899999995 Na
atom 6.9161831800000000 26.9424202800000003 5.7770566600000004 Na
atom 6.8169564300000003 29.7710333799999987 5.7369390700000000 Cl
atom 7.0925649599999998 32.6830586600000004 8.3661893599999999 Cl
atom 7.0768885800000003 29.9347332299999991 8.3625691500000006 Na
atom 6.9602276200000004 32.5971614700000032 5.4619545699999996 Na
atom 6.9033050500000002 35.3988906000000014 5.5721423100000003 Cl
atom 6.9865018299999999 38.2741867299999967 8.4847697800000006 Cl
atom 6.9237438300000003 35.5328101500000031 8.0963951499999993 Na
atom 7.0493413499999997 38.3213015500000012 5.6346356699999998 Na
atom 7.1193039999999996 1.5495173600000001 5.7390241000000000 Cl
atom 7.0918977700000001 4.4573585099999997 8.6528634400000008 Cl
atom 6.9890688299999999 1.5230345999999999 8.3741081699999995 Na
atom 7.0485054900000002 4.2962267299999999 5.9250252100000003 Na
atom 7.0232741599999997 7.0876206200000000 5.8015532099999998 Cl
atom 7.1341641300000003 9.9204102699999996 8.4619061299999991 Cl
atom 7.1660939099999998 7.2040984400000001 8.2983295699999999 Na
atom 7.0614305799999997 9.9755345900000005 5.7886948000000000 Na
atom 9.7895545300000002 12.8212101399999998 5.5422114200000001 Na
atom 12.7403860699999996 12.6163945999999996 5.2869658599999996 Cl
atom 9.9989506400000003 15.5019981599999994 8.2753842800000008 Na
atom 12.7333003599999994 15.5694137000000001 7.8939943200000000 Cl
atom 12.7182444500000003 12.7689011899999993 7.9941477799999996 Na
atom 9.8673786999999997 12.9226952599999994 8.0968895900000000 Cl
atom 12.9131982799999996 15.6881002899999995 5.3180804300000002 Na
atom 9.7394083200000008 15.7210187200000000 5.7433763600000001 Cl
atom 9.9480486199999998 18.5813354299999993 5.5798219800000002 Na
atom 12.8431619999999995 18.5976675799999995 5.6224020000000001 Cl
atom 9.8668671400000001 21.3133294999999983 8.1392643499999995 Na
atom 12.7530524700000001 21.3236740599999983 8.4324079500000000 Cl
atom 12.8371446400000000 18.5061978200000006 8.3646553299999997 Na
atom 10.0195579800000001 18.6287643600000017 8.4477765100000006 Cl
atom 12.8812462100000005 21.3669808699999990 5.5856851900000004 Na
atom 9.8296221300000006 21.3234698099999989 5.5748071100000001 Cl
atom 9.9009678399999999 24.2721544099999988 5.8682240500000002 Na
atom 12.6749124299999991 24.2708859100000005 5.7198839799999996 Cl
atom 10.0673870799999996 26.9352027300000003 8.3429789099999994 Na
atom 12.9044279199999998 26.9546868800000006 8.5543113700000006 Cl
atom 12.7558778700000008 24.1567116599999991 8.3156559800000007 Na
atom 10.0479579700000006 23.9516609500000008 8.4562252800000000 Cl
atom 12.8622532100000004 27.0541893000000009 5.7724989200000003 Na
atom 9.9263201100000007 27.0423068300000011 5.7440093000000001 Cl
atom 9.8001982499999993 29.6739300999999998 5.6763177499999999 Na
atom 12.7343759999999993 29.8023279800000012 5.3873636100000004 Cl
atom 9.8920573899999997 32.8034250299999997 8.1141448500000006 Na
atom 12.6315705400000002 32.5946013599999986 8.2597379400000008 Cl
atom 12.7660271299999994 29.8768482599999992 8.1288485399999999 Na
atom 10.0476042600000000 29.9413128999999998 8.4564746900000003 Cl
atom 12.7649948400000000 32.5714149699999993 5.4632184099999996 Na
atom 9.8538445299999999 32.5207034900000025 5.5385064000000002 Cl
atom 9.8666415999999995 35.4824120899999969 5.4487687999999999 Na
atom 12.7773785400000008 35.5683946700000035 5.3674753500000003 Cl
atom 9.9368224999999999 38.2271892600000029 8.3004970100000008 Na
atom 12.7365712500000008 38.1364137799999980 8.5201619399999995 Cl
atom 12.7253117200000005 35.4244707800000000 8.1156488600000003 Na
atom 9.9997246600000000 35.4952389199999985 8.2173019699999994 Cl
atom 12.7517512600000007 38.2880261600000011 5.8036664299999998 Na
atom 9.9427685500000003 38.2713777900000025 5.5719385399999997 Cl
atom 9.8755517000000008 1.5317585400000000 5.7369413399999996 Na
atom 12.5697097499999995 1.6270923399999999 5.5704664199999998 Cl
atom 9.9335169899999993 4.1581407300000004 8.4921789000000008 Na
atom 12.8563289699999999 4.4233708900000002 8.5362862400000008 Cl
atom 12.8136855900000004 1.5444940000000000 8.1843304799999999 Na
atom 10.0242619299999998 1.4827740599999999 8.4336314399999992 Cl
atom 12.7913288999999999 4.2769816499999997 5.8078848699999996 Na
atom 9.7984652400000005 4.2776685099999998 5.8247209900000003 Cl
atom 10.0269619399999996 7.1142986800000001 5.7713211199999996 Na
atom 12.6939570300000000 6.9620808900000002 5.5280747300000002 Cl
atom 9.8728898399999991 9.9139467099999994 8.3285203699999997 Na
atom 12.7290811399999999 10.1082405299999998 8.2910927200000000 Cl
atom 12.5824359000000001 7.1499548600000002 8.2000904400000003 Na
atom 9.9370190899999997 7.2268432000000002 8.5738442599999996 Cl
atom 12.6642776000000001 9.8334586000000002 5.4755520799999999 Na
atom 9.9204766699999993 9.8424266800000009 5.7705793300000003 Cl
atom 15.5300587300000004 12.7864648899999995 5.5574902300000000 Na
atom 18.3389483400000017 12.9290131200000005 5.4442384900000000 Cl
atom 15.5140112899999991 15.7213707300000003 8.1190002799999998 Na
atom 18.3212308700000008 15.7824406400000008 8.2044532199999995 Cl
atom 18.4134183500000006 12.8829841199999997 8.1614564400000003 Na
atom 15.5591570600000004 12.9268238400000008 8.2869764400000001 Cl
atom 18.4844291399999996 15.8334552700000000 5.6345069199999998 Na
atom 15.7221361599999998 15.7656480200000004 5.3719355000000002 Cl
atom 15.4900324400000002 18.6463201199999986 5.6531770899999998 Na
atom 18.5222582100000004 18.7585071899999996 5.5800937299999998 Cl
atom 15.7102816099999991 21.4730224300000003 8.4219696600000002 Na
atom 18.4268294099999999 21.4901803899999990 8.7159188400000005 Cl
atom 18.4886507699999996 18.5430285700000006 8.2032083700000005 Na
atom 15.8032978300000000 18.8532309299999987 8.2196729200000007 Cl
atom 18.5625800400000003 21.3862881999999992 5.8274332199999996 Na
atom 15.6562987000000007 21.6639619600000017 5.6824744799999998 Cl
atom 15.7390703599999995 24.2127400900000005 5.8726807699999997 Na
atom 18.3774181699999986 24.1468795299999996 5.7809728399999996 Cl
atom 15.6828171199999993 26.9560115799999984 8.5543187500000002 Na
atom 18.5563925000000012 27.1578518699999982 8.6560723599999996 Cl
atom 18.4440530900000006 24.2665468699999991 8.3925219900000005 Na
atom 15.5451892100000002 24.2344276000000001 8.6937833999999992 Cl
atom 18.4252635799999993 26.9978940300000012 5.7808985300000000 Na
atom 15.7060816800000005 26.9757927500000001 5.6848847999999998 Cl
atom 15.5675209700000003 29.7368884599999994 5.8519884900000001 Na
atom 18.4065958800000011 29.7314900299999998 5.6467100400000003 Cl
atom 15.5405415399999995 32.5357180600000007 8.1921971899999999 Na
atom 18.4460624799999984 32.6641091400000008 8.4446173499999997 Cl
atom 18.3811310699999986 29.8745705000000008 8.3000700399999996 Na
atom 15.4578155400000004 29.8120627300000010 8.4884424599999999 Cl
atom 18.3472212600000013 32.5733863800000023 5.4787815899999996 Na
atom 15.4663702199999999 32.5068735700000033 5.4128264000000001 Cl
atom 15.5095317900000005 35.5135742800000003 5.6300673799999998 Na
atom 18.0957239700000017 35.7082874899999965 5.4833217300000001 Cl
atom 15.5785809600000000 38.4353113499999992 8.3840048800000009 Na
atom 18.4410103200000002 38.2465863299999995 8.4592513199999999 Cl
atom 18.2881680200000005 35.4024650200000011 8.1443294500000007 Na
atom 15.4268359000000004 35.4003029300000023 8.2866248999999996 Cl
atom 18.3444331600000012 38.3237806200000009 5.6787819800000001 Na
atom 15.4769001500000005 38.3560486699999998 5.6141694099999997 Cl