#===============================================================================
# Created using the Atomic Simulation Environment (ASE)

# Tue Dec 23 22:26:14 2025

#=======================================================
lattice_vector 28.1999999999999993 0.0000000000000000 0.0000000000000000 
lattice_vector 0.0000000000000000 39.4799999999999969 0.0000000000000000 
lattice_vector 0.0000000000000000 0.0000000000000000 62.3296083400000001 
atom 7.5461104800000003 14.8813151599999998 -0.1474607700000000 Au
atom 10.3294929199999999 14.8973874300000002 -0.0305465000000000 Au
atom 13.1921764800000005 14.8016094799999998 0.0424903300000000 Au
atom 16.0686716599999997 14.8659822599999991 -0.0108248500000000 Au
atom 18.8201304699999987 14.9255774100000007 0.0253049700000000 Au
atom 21.6383039500000010 14.8922406600000006 -0.0090777000000000 Au
atom 24.5498738900000006 14.8736876799999997 -0.0823204500000000 Au
atom 27.3586173799999983 14.8861805700000005 0.1207288300000000 Au
atom 1.9644269700000001 15.0204538500000009 -0.2252825700000000 Au
atom 4.7184251200000000 14.7700220200000008 -0.1894256000000000 Au
atom 8.9318705299999994 17.3891286399999991 -0.1013832500000000 Au
atom 11.6544439700000009 17.1591704299999996 -0.2043339200000000 Au
atom 14.6393237999999997 17.4017880399999996 -0.1248083700000000 Au
atom 17.4142644199999985 17.3546974100000000 0.0083578800000000 Au
atom 20.2437124500000003 17.3657888100000015 -0.0123948900000000 Au
atom 23.0011825899999991 17.4071828300000000 -0.1387340700000000 Au
atom 25.8470101300000010 17.4129409499999994 0.0544689000000000 Au
atom 0.4348850400000000 17.5533079799999996 0.0900433600000000 Au
atom 3.3735693300000000 17.4525072200000011 0.0782349100000000 Au
atom 6.0928195100000000 17.4445250700000010 -0.1288121400000000 Au
atom 7.5211990799999997 19.8281419899999989 -0.3034261000000000 Au
atom 10.3943277500000004 19.8563766900000012 -0.0916030400000000 Au
atom 13.1383528300000005 19.7757621999999991 -0.2440674700000000 Au
atom 16.0296584399999986 19.8211445399999988 0.0806429100000000 Au
atom 18.8480603100000010 19.8500206000000006 0.0158371800000000 Au
atom 21.6270977299999991 19.9098812800000005 0.0159661800000000 Au
atom 24.4598542499999994 19.8097366500000014 0.0833521100000000 Au
atom 27.2442147900000009 20.0233153100000010 -0.0249598000000000 Au
atom 1.8722135700000000 19.9880462399999992 0.1322682700000000 Au
atom 4.6283919800000000 20.0094840299999994 0.1037094400000000 Au
atom 8.9325344799999993 22.1650802400000018 0.3904176600000000 Au
atom 11.7221206500000008 22.2679929700000017 0.0653504100000000 Au
atom 14.6200579000000008 22.2407798700000008 0.1512168400000000 Au
atom 17.4563787200000000 22.2953998599999998 0.2559912900000000 Au
atom 20.2100468699999993 22.3419500199999987 0.0247807300000000 Au
atom 23.1774196299999993 22.3081573099999986 -0.1755912800000000 Au
atom 25.8483155700000005 22.3448989100000013 0.2791567700000000 Au
atom 0.4263889300000000 22.4604134699999989 0.1988946800000000 Au
atom 3.1659995500000000 22.4545152700000017 0.0213468900000000 Au
atom 6.0973537200000001 22.2863187099999998 -0.0643823300000000 Au
atom 7.5855415300000004 24.7786841299999985 0.1014331100000000 Au
atom 10.4968543099999998 24.7546876599999983 -0.0067451300000000 Au
atom 13.2731914900000003 24.7319081199999999 0.1004222700000000 Au
atom 16.0523021700000008 24.7029064500000004 0.2239919100000000 Au
atom 18.8028186899999987 24.7226880999999992 0.4587313700000000 Au
atom 21.5926709199999998 24.8350824000000010 -0.0875871400000000 Au
atom 24.5214349399999989 24.8622438199999998 0.1232017600000000 Au
atom 27.3311385999999992 24.9157287899999993 0.3748995800000000 Au
atom 1.9617714300000000 24.8226849399999985 0.1980301400000000 Au
atom 4.7622189800000001 24.8117087199999986 0.1918541800000000 Au
atom 8.9876738500000002 27.1840486599999984 0.1552093700000000 Au
atom 11.7813695099999993 27.2607610300000012 0.1869355700000000 Au
atom 14.6326579199999998 27.1156651800000006 -0.1337889200000000 Au
atom 17.3938103599999998 27.1368473200000011 0.3629824100000000 Au
atom 20.1316689400000008 27.1892828500000014 0.3187460400000000 Au
atom 22.9370452200000017 27.2269995499999986 -0.0516437700000000 Au
atom 25.9079914100000011 27.3314564100000013 0.0804307500000000 Au
atom 0.5263748700000001 27.4126225999999988 -0.0217098900000000 Au
atom 3.3528465299999999 27.2514910800000010 -0.2466439000000000 Au
atom 6.1402211500000003 27.2068147399999987 -0.0604233100000000 Au
atom 7.6216401899999999 29.6256820900000015 -0.1967212600000000 Au
atom 10.4603177100000000 29.7437242899999994 -0.0044471500000000 Au
atom 13.2131051799999995 29.7163159199999996 0.1240343300000000 Au
atom 16.0312215299999998 29.6615615599999991 0.2787205200000000 Au
atom 18.6975373800000000 29.5949667800000000 0.1708077600000000 Au
atom 21.5573208299999983 29.5998971500000003 -0.0548825400000000 Au
atom 24.4296102799999986 29.6498617300000014 -0.2025820500000000 Au
atom 27.2761286500000004 29.6430925199999997 0.0080152000000000 Au
atom 1.9224327299999999 29.7302264899999997 -0.0098639800000000 Au
atom 4.7458883700000003 29.6832926199999996 -0.1723070000000000 Au
atom 9.1528351000000008 32.1882053300000024 -0.0600897100000000 Au
atom 11.7686715399999997 32.1523367899999997 -0.1872315900000000 Au
atom 14.6887106799999998 32.2146747500000004 0.3058536800000000 Au
atom 17.3774098099999996 32.1885899700000024 -0.0695104400000000 Au
atom 20.1775752299999986 32.0901025200000021 0.0140036300000000 Au
atom 22.9891472199999995 32.0569219500000031 0.0513393000000000 Au
atom 25.9412243199999999 32.1377850100000018 -0.4093110000000000 Au
atom 0.5668593300000000 32.0982430600000015 -0.1061612600000000 Au
atom 3.4250536199999999 32.1692559099999968 -0.2454067400000000 Au
atom 6.3153483399999999 32.1377772600000000 -0.3172123100000000 Au
atom 7.6562581300000003 34.6442773200000005 0.0250260000000000 Au
atom 10.4722950200000007 34.6609354200000013 0.1452609000000000 Au
atom 13.2133070499999992 34.5892122400000019 -0.0426920200000000 Au
atom 16.0410734300000009 34.5710176600000025 0.1470266700000000 Au
atom 18.8504609800000011 34.5192396099999996 -0.1824803700000000 Au
atom 21.6937535699999984 34.5279326599999976 -0.3634811400000000 Au
atom 24.5258894299999994 34.4362698300000005 -0.3548532500000000 Au
atom 27.3183642400000011 34.6248076199999986 -0.3029768800000000 Au
atom 2.0271505200000002 34.5634951199999989 -0.2086231700000000 Au
atom 4.8557638399999998 34.5800256200000007 -0.4410544500000000 Au
atom 9.1176167899999996 37.1999992800000001 -0.0687549800000000 Au
atom 11.8505380400000000 37.1978399600000031 -0.4081384700000000 Au
atom 14.6481455900000004 37.0645903799999985 0.2540107200000000 Au
atom 17.3834863099999986 37.0604320300000012 0.0753592500000000 Au
atom 20.3284137600000001 37.0129854799999976 -0.2965759300000000 Au
atom 23.1949509099999993 36.9792723199999998 -0.2374884400000000 Au
atom 26.0909485399999994 37.0754978000000008 -0.0835654000000000 Au
atom 0.5000181299999999 37.2338322100000028 -0.1019209400000000 Au
atom 3.3700869600000001 37.1879171200000016 -0.1410297100000000 Au
atom 6.2857651700000003 37.2381499000000034 -0.1714351800000000 Au
atom 7.7813885699999998 0.2801807000000000 0.1234839000000000 Au
atom 10.3722857299999998 0.1208662300000000 -0.4590213100000000 Au
atom 13.1810658400000005 0.1785780800000000 0.1137721200000000 Au
atom 16.2068830199999994 0.0628255700000000 0.0791374800000000 Au
atom 18.8605260000000001 0.0742969100000000 -0.1836512300000000 Au
atom 21.6875589399999988 -0.0343530200000000 -0.0753576000000000 Au
atom 24.4561502500000003 0.0340644900000000 -0.3594837100000000 Au
atom 27.2827652699999987 0.1451693200000000 -0.1012080500000000 Au
atom 1.9506314700000000 0.0863917800000000 -0.2363459100000000 Au
atom 4.7913797699999998 0.1097016700000000 0.1687189600000000 Au
atom 8.9575647800000002 2.7757538700000000 -0.0295177600000000 Au
atom 11.7400225099999993 2.6399129499999998 0.1297752000000000 Au
atom 14.5654261599999995 2.5998244300000000 0.1824543400000000 Au
atom 17.4755289400000002 2.4149752400000000 0.1871167700000000 Au
atom 20.3684587999999991 2.6187554500000001 0.0330906600000000 Au
atom 23.0487427300000007 2.4225661800000000 -0.0151437100000000 Au
atom 25.8491685900000014 2.5888885799999999 0.0151976000000000 Au
atom 0.3620545100000000 2.6260832900000000 -0.1266568100000000 Au
atom 3.3357991500000002 2.6007826900000000 -0.0117291300000000 Au
atom 6.0958634500000004 2.5972329099999998 0.1090091200000000 Au
atom 7.5542121299999998 5.0802608500000002 0.0058049700000000 Au
atom 10.3715440799999996 5.0549959700000002 0.1133315000000000 Au
atom 13.1737671299999999 4.9958877099999999 0.0614078900000000 Au
atom 16.0514645700000003 4.8727135800000001 0.1838332400000000 Au
atom 18.8189846600000017 4.9172520899999999 -0.2213101900000000 Au
atom 21.6292347599999992 4.8748373699999998 0.0350916500000000 Au
atom 24.4539936000000004 4.9364493400000002 -0.1885900600000000 Au
atom 27.3174137700000017 5.0540491100000002 0.1642827000000000 Au
atom 1.8809181600000000 5.0228334600000002 -0.2933019100000000 Au
atom 4.7153569099999997 4.9637348100000001 -0.0693134900000000 Au
atom 9.0324383800000003 7.5463846500000002 0.0979924200000000 Au
atom 11.8311669599999991 7.5519723399999998 0.2924710500000000 Au
atom 14.6975226699999997 7.4314272800000003 0.2989471900000000 Au
atom 17.5492131899999997 7.4278795000000004 0.1518461800000000 Au
atom 20.2365117300000001 7.3820281500000000 0.0737500800000000 Au
atom 23.1817862900000016 7.4737894400000000 0.0946138000000000 Au
atom 25.9945342100000012 7.5230913900000003 -0.1255799800000000 Au
atom 0.5664269600000000 7.5326735800000000 0.1052262100000000 Au
atom 3.3238692500000000 7.4855557800000003 -0.2522321600000000 Au
atom 6.1456401800000000 7.5484176200000004 -0.0843897000000000 Au
atom 7.5985522899999998 9.9923607299999997 -0.0895125000000000 Au
atom 10.4454277799999993 9.9998895399999999 0.1309498100000000 Au
atom 13.4068622099999999 9.9121575800000006 0.2158356500000000 Au
atom 16.0780505600000012 9.8757041500000007 0.0977956900000000 Au
atom 18.8869103100000011 9.8804317099999999 0.1802636800000000 Au
atom 21.7764649100000014 9.8917477500000004 -0.0667079700000000 Au
atom 24.5385060700000004 10.0037850899999992 -0.0558436600000000 Au
atom 27.3135145399999999 9.8977099200000005 -0.1104735600000000 Au
atom 1.9024463199999999 9.9200897500000007 0.2539321800000000 Au
atom 4.7575545500000000 9.9819299200000007 -0.1512980600000000 Au
atom 9.0032529700000001 12.4777012500000009 -0.0388130100000000 Au
atom 11.9460582199999994 12.4564592199999993 0.0238997000000000 Au
atom 14.8053522700000002 12.3717320900000001 0.4065395500000000 Au
atom 17.4864880900000017 12.3978134900000008 -0.1748432200000000 Au
atom 20.2677778599999989 12.4382938500000009 -0.0858137700000000 Au
atom 23.1021965800000011 12.4271087100000006 -0.2499969100000000 Au
atom 25.9923228199999983 12.4332459300000000 -0.1101519800000000 Au
atom 0.4675424200000000 12.5369468800000003 -0.0399789600000000 Au
atom 3.3136467900000000 12.3530858400000003 0.1355043900000000 Au
atom 6.1899150799999996 12.4198184099999995 -0.2990192000000000 Au
atom 7.4732264800000001 13.3268074999999993 2.4427384600000002 Au
atom 10.3228068099999994 13.2581002300000002 2.6609675600000000 Au
atom 13.2118301299999992 13.1647236500000009 2.9039928499999998 Au
atom 16.1096236399999988 13.2755264499999992 2.7926956900000000 Au
atom 18.8266946500000003 13.2354549699999993 2.5098171900000001 Au
atom 21.6449351900000018 13.2164905400000006 2.4754668500000001 Au
atom 24.5439447900000012 13.1222299699999994 2.4621170800000001 Au
atom 27.3482366200000016 13.1498663600000008 2.7817596400000002 Au
atom 2.0136774599999998 13.3992094099999992 2.8019676800000002 Au
atom 4.7762985100000002 13.2420722000000008 2.5193495200000000 Au
atom 9.0141776300000007 15.6811625699999997 2.6214114799999999 Au
atom 11.8391239899999992 15.6739731899999999 2.5625646600000000 Au
atom 14.5690431599999997 15.7773329600000007 2.4093757000000000 Au
atom 17.4762889000000001 15.7438732899999998 2.7219636999999999 Au
atom 20.3843060700000009 15.6589624900000004 2.6823897400000001 Au
atom 23.1752875399999994 15.6640107200000003 2.5337527700000000 Au
atom 25.9418345700000010 15.6708485000000000 2.5516119700000002 Au
atom 0.6470481400000000 15.9058583500000008 2.4049456100000000 Au
atom 3.3924353200000001 15.8408369499999999 2.3885097900000001 Au
atom 6.0644055300000002 15.8264224400000000 2.4239894700000000 Au
atom 7.5740914799999999 18.1900600300000015 2.4811079199999999 Au
atom 10.4570056900000008 18.1166953900000003 2.3610323599999998 Au
atom 13.2320596699999999 18.1723809199999984 2.2843083300000000 Au
atom 16.0797349899999986 18.1323518800000016 2.5781158700000000 Au
atom 18.9191857500000005 18.1613092899999984 2.5026330600000000 Au
atom 21.8138737200000001 18.1696730899999999 2.5770310900000002 Au
atom 24.6379316199999998 18.1416280599999986 2.4873019699999999 Au
atom 27.3418912499999998 18.1982520600000015 2.6465631400000000 Au
atom 1.9202350699999999 18.2311410199999990 2.7023467499999998 Au
atom 4.7493511399999999 18.2933815499999994 2.6421527100000000 Au
atom 9.0982676199999997 20.5904367800000010 2.7065451500000002 Au
atom 11.9594589399999993 20.6087504999999993 2.4710286699999999 Au
atom 14.6995009200000002 20.6764456199999991 2.7758635200000001 Au
atom 17.3859104299999991 20.5696570299999983 2.7249424100000001 Au
atom 20.2897933500000001 20.6505792200000009 2.6466801599999998 Au
atom 23.1096444299999995 20.6939971699999994 2.6169277700000002 Au
atom 25.9312583699999983 20.7269851600000017 2.8053550600000001 Au
atom 0.5378109500000000 21.0548698899999991 2.6799759700000001 Au
atom 3.3586713800000001 20.7544304599999982 2.8050445499999999 Au
atom 6.2282139100000000 20.6577403900000007 2.4924275200000001 Au
atom 7.4779837100000002 23.1112983800000009 2.8094642500000000 Au
atom 10.3843611399999993 23.1576972300000001 2.6572782199999998 Au
atom 13.1198526399999995 23.0843790700000007 2.7717095899999999 Au
atom 16.0229792899999985 23.0680724999999995 2.8007629199999999 Au
atom 18.9652950400000009 23.0622444000000009 3.0136004199999999 Au
atom 21.7290160599999993 23.2457941099999985 2.3714528499999998 Au
atom 24.4892536700000001 23.2694132700000011 2.7348221800000001 Au
atom 27.2642147799999996 23.0328469300000016 2.8004080299999998 Au
atom 1.8162153900000000 23.2146666099999983 2.9823893799999999 Au
atom 4.6864837499999998 23.1135742200000003 2.6331345100000001 Au
atom 8.9054005699999994 25.6068857899999998 2.7092154399999999 Au
atom 11.7993483700000006 25.6448390699999997 2.6336694299999999 Au
atom 14.5408220400000001 25.6369090300000018 2.8383390799999999 Au
atom 17.3204356699999984 25.4564723899999983 3.0115978200000000 Au
atom 20.2031230499999985 25.6430536099999991 2.9214234800000001 Au
atom 22.9456959800000000 25.7165269499999987 2.5627744200000002 Au
atom 25.8151901200000005 25.6525712400000003 2.8035698700000000 Au
atom 0.5334359200000000 25.5964698599999991 2.8106949999999999 Au
atom 3.3108150900000002 25.6553651199999990 2.6971359300000000 Au
atom 6.0302647100000000 25.5493681799999983 2.7674458199999998 Au
atom 7.4155359499999998 28.1714903999999997 2.7110852400000001 Au
atom 10.2490239299999999 28.0006906600000001 2.6561413800000002 Au
atom 13.2383008100000001 28.1560762400000009 2.8315540200000000 Au
atom 16.0323964799999992 28.1809890100000011 2.6352746900000001 Au
atom 18.9020479100000003 28.0371443400000011 2.8131811899999999 Au
atom 21.5462800799999989 28.0767757099999997 2.7235806299999998 Au
atom 24.3991445300000009 28.0577048500000004 2.6470061899999999 Au
atom 27.3149824899999984 27.8943119700000004 2.6281166200000001 Au
atom 1.8635217799999999 28.0652794999999990 2.5806791300000000 Au
atom 4.6003565300000000 28.1377604800000007 2.4017571900000001 Au
atom 8.8951020500000002 30.4711193800000011 2.5732607000000001 Au
atom 11.7107001900000007 30.4418295100000016 2.5326780699999998 Au
atom 14.6354901599999998 30.5675528199999995 3.0734297800000001 Au
atom 17.3990254299999982 30.6077819499999997 2.8936757300000000 Au
atom 20.2238076900000010 30.5719995699999991 2.5222419899999999 Au
atom 22.9677808299999988 30.4364843100000009 2.5439978000000001 Au
atom 25.7876565800000002 30.3815256500000004 2.4608857199999998 Au
atom 0.5655354800000000 30.5827289100000002 2.4938137600000001 Au
atom 3.3222793799999999 30.6951129599999994 2.4062324700000000 Au
atom 6.1144977000000003 30.5981379900000015 2.5016595499999998 Au
atom 7.5491519100000000 33.0463310399999983 2.4544690100000000 Au
atom 10.4466618499999999 33.0605969000000002 2.6704075399999998 Au
atom 13.1705672099999997 32.9779257799999996 2.6172646899999998 Au
atom 16.0257975899999998 33.0477900200000008 2.9987406299999999 Au
atom 18.7806536699999995 32.9634082299999989 2.5716541700000000 Au
atom 21.6276028700000005 33.0365044200000000 2.6869765299999999 Au
atom 24.5369065500000012 32.9458484600000006 2.3238135600000001 Au
atom 27.2993163800000005 32.9374756200000007 2.3248673300000000 Au
atom 1.9372314799999999 33.0672707599999995 2.4478804900000002 Au
atom 4.8071872500000001 33.0468197799999999 2.2731569600000001 Au
atom 8.9308870900000006 35.4780367500000011 2.5708039999999999 Au
atom 11.8176039599999996 35.5079904099999979 2.6068024599999999 Au
atom 14.6753727999999999 35.4511761099999987 2.7271302199999998 Au
atom 17.4205751199999987 35.4083067700000029 2.6206267099999998 Au
atom 20.2917422099999989 35.3772698300000030 2.2507758600000001 Au
atom 23.1375553099999998 35.2829848000000013 2.3350335200000001 Au
atom 25.9207277400000002 35.3751825100000019 2.3265110999999998 Au
atom 0.4319896800000000 35.4921305399999980 2.0822994700000002 Au
atom 3.3209112599999999 35.5129635400000012 2.3566354299999999 Au
atom 6.0724124000000002 35.4865714900000029 2.4533507800000001 Au
atom 7.3018211600000003 37.8529568000000012 2.4745797399999998 Au
atom 10.4958270900000006 37.9702548699999980 2.3820040699999998 Au
atom 12.8754017800000007 37.9171158799999972 2.3103030400000000 Au
atom 15.7461783700000009 37.8950517299999987 2.6539811599999998 Au
atom 18.7134013000000010 37.7784661600000007 2.4906561599999999 Au
atom 21.7792529799999990 37.7748757499999996 2.3993933400000000 Au
atom 24.3534625899999995 37.9792957399999977 2.4963070900000002 Au
atom 27.2030832499999988 37.7245696499999994 2.4816166100000001 Au
atom 2.0413846200000001 37.8055678899999990 2.9019040800000000 Au
atom 4.6033428900000004 37.9447304700000032 2.8167614900000002 Au
atom 8.7713173500000003 0.8787839700000000 2.6345056100000002 Au
atom 11.7285675099999995 0.8945545700000000 2.6711827900000000 Au
atom 14.7223193200000004 0.8275361300000000 2.6661098999999999 Au
atom 17.5028001800000013 0.8068771900000000 2.5701019199999999 Au
atom 20.3427185299999991 0.7381028300000000 2.5218165300000002 Au
atom 23.0855208400000009 0.8592821000000000 2.5681868699999999 Au
atom 25.7438456600000016 0.8728993000000000 2.3437989699999999 Au
atom 0.3103200900000000 0.9390797200000000 2.1334229900000001 Au
atom 3.2834664600000001 0.9586523200000000 2.6866169499999999 Au
atom 6.0287009600000001 0.8925878699999999 2.7562778500000000 Au
atom 7.5408393299999998 3.3486609199999999 2.6664276099999999 Au
atom 10.3409805800000001 3.3741742299999999 2.7127486900000002 Au
atom 13.2015223400000004 3.3439925300000000 2.7869228499999998 Au
atom 16.0567500299999999 3.3722950699999998 2.9348086800000002 Au
atom 18.9600855999999993 3.3440634500000002 2.5429154299999999 Au
atom 21.6997549800000016 3.2634039000000001 2.6549814000000000 Au
atom 24.6220841399999983 3.4114393100000000 2.5941954699999998 Au
atom 27.3016444599999986 3.2409049099999998 2.8477823199999999 Au
atom 1.8818981699999999 3.3231966499999999 2.3785515099999999 Au
atom 4.6404095900000000 3.4089573000000000 2.7740959699999999 Au
atom 8.8779769799999997 5.8673140300000002 2.6656164699999998 Au
atom 11.7861880100000000 5.8225039900000004 2.6219997400000001 Au
atom 14.5832614199999995 5.7259536100000004 2.6968258800000000 Au
atom 17.4697216200000014 5.8514958300000002 2.5367871100000001 Au
atom 20.3203920999999994 5.7715444400000004 2.5557621799999999 Au
atom 23.1082875799999989 5.8657341299999999 2.6683864399999999 Au
atom 25.9016552900000008 5.8922714400000000 2.5338865099999999 Au
atom 0.4326943300000000 5.8289553300000003 2.6727447000000000 Au
atom 3.2675955900000000 5.8097322000000000 2.4365954099999998 Au
atom 6.0534279199999999 5.7827925000000002 2.7070813899999999 Au
atom 7.5757636499999998 8.3403922500000007 2.7153535299999998 Au
atom 10.4837206700000003 8.2397124300000009 2.7825955900000001 Au
atom 13.3018380599999997 8.3278950300000005 2.9896900300000002 Au
atom 16.0662245299999995 8.2927104800000002 2.6894355299999999 Au
atom 18.8399933399999995 8.2719542100000005 2.8922794199999999 Au
atom 21.5913235899999982 8.3400796600000007 2.4506859699999999 Au
atom 24.4829703599999995 8.3463456899999997 2.6634687800000001 Au
atom 27.3306440799999990 8.2686934000000001 2.5126963600000001 Au
atom 2.0388460899999998 8.2920271200000002 2.8457673400000001 Au
atom 4.8136046099999996 8.2134756200000005 2.4862595999999999 Au
atom 9.0035624500000004 10.7178070099999996 2.6518067200000002 Au
atom 11.8159415200000009 10.7552145299999999 2.6427311499999999 Au
atom 14.7054560399999996 10.7504149099999999 3.1708848500000002 Au
atom 17.4487993400000008 10.8318334299999997 2.7020166200000002 Au
atom 20.2543317499999986 10.9144077500000005 2.5920268599999998 Au
atom 23.0123948399999989 10.7174000599999992 2.5279900600000000 Au
atom 25.9211867799999993 10.7133455499999997 2.5921508800000002 Au
atom 0.4231273700000000 10.8550214999999994 2.7534410899999999 Au
atom 3.2620835900000000 10.8340309000000001 2.6784939099999998 Au
atom 6.1073302199999997 10.7437526400000003 2.4647284599999999 Au
atom 7.1607066599999998 12.6580368700000001 5.8299646799999998 Cl
atom 7.1386863399999996 15.4330235099999999 8.5209281600000004 Cl
atom 7.1214379900000004 12.5837780200000005 8.3297220999999997 Na
atom 7.2978287399999999 15.4447921099999999 5.7071337399999997 Na
atom 7.2446977700000001 18.1795470899999998 5.5377447200000001 Cl
atom 7.0870095700000002 21.0657755500000015 8.6007840800000004 Cl
atom 7.1974715099999997 18.3336217499999989 8.1888511800000003 Na
atom 7.1422289399999999 20.8909474000000017 5.7758533099999996 Na
atom 6.8564813700000000 24.0071384999999999 5.7494181299999996 Cl
atom 7.0333593600000004 26.6680347699999984 8.5524056000000002 Cl
atom 7.2384914000000000 23.8651189300000013 8.3199756899999997 Na
atom 7.0652783499999998 26.9077379100000016 5.8715727700000002 Na
atom 6.8839026600000004 29.6404795300000004 5.7628944100000004 Cl
atom 7.0836939299999999 32.4090938699999995 8.5431298000000009 Cl
atom 6.8568277000000002 29.6673512200000005 8.4008047099999992 Na
atom 7.1145559499999997 32.3970323599999972 5.6687729400000002 Na
atom 6.9592151099999997 35.0795600000000007 5.6323218199999996 Cl
atom 7.0893092299999996 37.9343490999999986 8.5710045200000007 Cl
atom 6.9424914299999996 35.0826624700000025 8.1977789699999999 Na
atom 7.1170613200000004 38.0332960000000000 5.8664860599999997 Na
atom 7.0220396400000000 1.3113986799999999 5.8193981900000002 Cl
atom 6.9350430599999999 4.2341211100000002 8.7047426800000007 Cl
atom 7.2600888100000001 1.4003408700000000 8.3474747399999991 Na
atom 6.9306656200000001 4.0033291400000000 5.8800948200000001 Na
atom 7.2737581300000000 7.0361699000000000 5.7832979699999996 Cl
atom 7.0095569199999996 9.8422992899999997 8.5017337099999999 Cl
atom 7.0636760599999997 7.1572100799999996 8.4618535500000007 Na
atom 7.3143085299999999 9.8237703799999991 5.8096123000000004 Na
atom 10.1091375600000006 12.5343998600000006 5.9199628999999998 Na
atom 12.7644612700000000 12.7694970899999998 5.7709341199999997 Cl
atom 9.9454275100000000 15.5949599200000009 8.3566147500000003 Na
atom 12.8838273599999997 15.4583329900000006 8.5249183199999994 Cl
atom 12.8282456600000003 12.5694379800000000 8.4909771200000002 Na
atom 9.9656815499999993 12.7733195700000000 8.6460674199999996 Cl
atom 12.9100507899999997 15.4738735799999994 5.8020189499999999 Na
atom 10.0514934700000005 15.5334616499999996 5.5998084600000002 Cl
atom 10.1572940700000007 18.3233628300000007 5.8111276099999998 Na
atom 12.8531930800000005 18.1958214799999993 5.8643556300000004 Cl
atom 9.9175181699999992 21.1907759899999988 8.3455096900000001 Na
atom 12.7193404200000000 21.1270021800000016 8.5443516000000006 Cl
atom 13.0911998100000009 18.2480836099999983 8.5715795099999994 Na
atom 9.9890376700000001 18.2941770800000008 8.5203991499999994 Cl
atom 12.8417362199999996 21.2256256299999997 5.8602948499999998 Na
atom 9.9410649800000002 21.2315961199999990 5.8076027600000000 Cl
atom 9.7594787299999997 24.0909498999999983 5.7574298400000004 Na
atom 12.8872201900000007 23.9409523100000001 5.6520798900000004 Cl
atom 9.7554004400000007 26.8165651700000005 8.5627586400000002 Na
atom 12.5582132699999995 26.7770408099999990 8.7626896500000004 Cl
atom 12.6811987199999994 24.0394088000000004 8.3675036699999996 Na
atom 9.9840706800000003 24.0781793399999984 8.6959108199999999 Cl
atom 12.7347440400000007 26.7654714399999989 6.0207556000000002 Na
atom 10.0723313300000008 26.9292827099999990 5.6817328199999997 Cl
atom 9.7746492499999995 29.5408871600000005 5.9693482099999997 Na
atom 12.5743005199999995 29.5209560999999994 6.0250782000000003 Cl
atom 9.8680545199999994 32.4234239199999976 8.3661540700000003 Na
atom 12.5320629399999994 32.5895566700000003 8.5547858899999998 Cl
atom 12.5972924099999997 29.7043434200000007 8.5118323100000008 Na
atom 9.7056169699999995 29.5464296399999995 8.6127371400000001 Cl
atom 12.7031153000000003 32.5267783899999969 5.8202103200000002 Na
atom 9.9263457299999995 32.2899830699999981 5.6175809299999999 Cl
atom 9.7476679700000002 35.2914280299999987 5.5652749300000002 Na
atom 12.5860817699999998 35.1719147299999975 5.7693263100000003 Cl
atom 9.7861160799999993 38.1353702600000020 8.2878757200000006 Na
atom 12.6668567799999998 38.0543616200000017 8.4474489199999994 Cl
atom 12.6760038399999999 35.3153192700000034 8.3484251000000000 Na
atom 9.7299044099999996 35.2312647600000020 8.4004142000000002 Cl
atom 12.5546745400000006 38.2714538700000020 5.6210069200000001 Na
atom 9.9088372099999997 38.2107730700000019 5.7560989300000003 Cl
atom 10.1152923300000008 1.5476977500000000 5.6509239700000000 Na
atom 12.8084426699999998 1.7185475500000000 5.6806530200000003 Cl
atom 9.7769997899999996 4.2987280400000003 8.3685516700000004 Na
atom 12.6361905399999994 4.3087467899999998 8.6151925600000006 Cl
atom 12.6737207000000005 1.5191011600000000 8.2703856899999995 Na
atom 9.7078474000000003 1.3828918400000001 8.4699539999999995 Cl
atom 12.6984938799999991 4.4822721200000002 5.7635669199999997 Na
atom 9.8195770899999992 4.3525969599999996 5.7227432399999998 Cl
atom 9.9142780699999999 7.0955328000000000 6.0010624799999999 Na
atom 12.5634848899999998 7.1722476100000003 5.9751978399999999 Cl
atom 9.8890237200000008 9.8204401800000003 8.6377745099999999 Na
atom 12.7688073899999992 9.7068832100000009 8.6053665299999995 Cl
atom 12.7672456099999998 7.0545521500000001 8.5170576600000008 Na
atom 9.8617714500000009 7.1875632400000002 8.8087119499999993 Cl
atom 12.8555897500000000 9.8379006100000002 5.9191458099999998 Na
atom 10.0319413799999992 9.8279305299999997 5.8955695500000003 Cl
atom 15.6033855700000004 12.5435337499999999 5.9072348799999999 Na
atom 18.3431026700000004 12.5912741500000003 5.7767954899999996 Cl
atom 15.6310538200000000 15.5206640799999995 8.4908620799999994 Na
atom 18.3965107100000012 15.3272987399999998 8.4935896900000003 Cl
atom 18.4347899200000001 12.5357889300000007 8.3178543099999995 Na
atom 15.6110531500000000 12.3848119800000003 8.8389248800000004 Cl
atom 18.3652231300000004 15.2808088400000006 5.7013905800000000 Na
atom 15.4683474099999998 15.3946492599999996 5.9394550500000003 Cl
atom 15.7242277200000000 18.3767106099999999 5.7460627500000001 Na
atom 18.4259301200000003 18.2040568399999998 5.5312281099999998 Cl
atom 15.5637613899999998 20.9955654600000017 8.4274287300000008 Na
atom 18.6242051800000006 20.8309776800000002 8.3037144000000005 Cl
atom 18.6681368200000009 18.1012794799999988 8.1596641900000009 Na
atom 15.8663869500000008 18.2007211700000013 8.5395703699999999 Cl
atom 18.3452703300000017 21.1355913099999988 5.7726216199999998 Na
atom 15.5769326499999998 21.1427914399999999 5.8506408800000003 Cl
atom 15.6837247200000007 23.9912426799999992 5.8236079600000004 Na
atom 18.3858070100000006 23.9172561299999984 6.0062379200000002 Cl
atom 15.6161840400000003 26.7991855600000015 8.6653589499999999 Na
atom 18.4536847900000005 26.7618238300000009 8.6010481300000006 Cl
atom 18.5777333999999996 23.9586012599999982 8.6419526900000001 Na
atom 15.3839717900000004 24.0728225299999998 8.4652203900000007 Cl
atom 18.3321652300000011 26.7570549699999987 5.9697048500000003 Na
atom 15.4314333599999998 26.9079450899999983 5.8389478500000003 Cl
atom 15.5072526600000007 29.4522234599999990 6.1344463400000002 Na
atom 18.3361669099999993 29.6063292999999987 5.8405492800000003 Cl
atom 15.5292358499999992 32.4298320500000017 8.4984386399999998 Na
atom 18.5232692599999993 32.3666434499999980 8.6421335599999995 Cl
atom 18.4887836199999995 29.7000199100000017 8.6703253000000000 Na
atom 15.5505668799999999 29.8497278799999997 8.8446710100000008 Cl
atom 18.3080046699999990 32.3886873499999979 5.8634320500000001 Na
atom 15.4096643300000000 32.2511389800000003 5.8658752999999999 Cl
atom 15.4815003600000001 35.2698556599999975 5.7293513599999999 Na
atom 18.4129636499999982 35.2889810900000001 5.9775977700000000 Cl
atom 15.6679222100000004 38.0474141299999999 8.4198581499999996 Na
atom 18.7430659800000008 38.1083000499999969 8.7489991800000002 Cl
atom 18.5348819899999988 35.3822277900000017 8.5581323400000002 Na
atom 15.5133692700000001 35.2336153199999984 8.4524505300000001 Cl
atom 18.5083807900000004 38.0654786699999974 5.7609214599999996 Na