#===============================================================================
# Created using the Atomic Simulation Environment (ASE)

# Tue Dec 23 21:42:13 2025

#=======================================================
lattice_vector 28.1999999999999993 0.0000000000000000 0.0000000000000000 
lattice_vector 0.0000000000000000 39.4799999999999969 0.0000000000000000 
lattice_vector 0.0000000000000000 0.0000000000000000 62.3296083400000001 
atom 7.4701750799999997 14.7587077999999998 -0.1415236800000000 Au
atom 10.2548077099999997 14.8388304699999996 -0.5462100900000000 Au
atom 13.0969736999999995 14.8495595900000001 -0.2368030300000000 Au
atom 16.0217601700000003 14.8170757999999996 -0.2460925300000000 Au
atom 18.8416071400000007 14.8425963900000006 -0.3508444700000000 Au
atom 21.6905144099999987 14.7876143599999992 -0.1216209100000000 Au
atom 24.4078242199999984 14.6976169100000007 -0.2725403000000000 Au
atom 27.2082640200000014 14.8248435799999996 -0.4583698600000000 Au
atom 1.7843255899999999 14.7603178899999996 -0.1288955100000000 Au
atom 4.6284230700000002 14.8123461699999996 -0.4715870900000000 Au
atom 8.9728892899999995 17.3134001300000016 -0.0994147300000000 Au
atom 11.7039711200000003 17.2654826399999983 -0.2944096900000000 Au
atom 14.5037695899999992 17.2727779499999983 -0.1985010400000000 Au
atom 17.4601108399999987 17.2962052799999988 -0.3915289200000000 Au
atom 20.2822896099999994 17.2404837300000011 -0.1332846000000000 Au
atom 23.1328771899999985 17.1517270199999992 0.0532484800000000 Au
atom 25.9061951199999996 17.2120702899999998 -0.2392587000000000 Au
atom 0.5636979000000000 17.3022643999999985 -0.1624857300000000 Au
atom 3.3108997599999999 17.1986259399999994 0.1656254400000000 Au
atom 6.0955017399999996 17.3445197200000010 -0.0611688400000000 Au
atom 7.5291634900000002 19.7654255799999987 0.0766960300000000 Au
atom 10.3537553800000008 19.7729460300000000 -0.2370247800000000 Au
atom 13.2548170400000007 19.7539815700000005 -0.2843684600000000 Au
atom 16.0808110800000001 19.7796783000000005 -0.1351520900000000 Au
atom 18.8583846699999995 19.8085006099999994 0.1012892600000000 Au
atom 21.7370471199999997 19.6315821399999990 -0.1251211400000000 Au
atom 24.5683808699999986 19.7383721799999989 0.2447344400000000 Au
atom 27.3506288899999994 19.7588588399999985 0.0063248800000000 Au
atom 2.0149210000000002 19.7003791200000009 0.1332639500000000 Au
atom 4.7164195500000003 19.8404582599999983 0.1613169900000000 Au
atom 8.9665322300000003 22.2374356999999989 0.1594320100000000 Au
atom 11.7378934600000004 22.2613567500000009 -0.3613852400000000 Au
atom 14.5718296400000007 22.2217285900000014 -0.2972558700000000 Au
atom 17.4567249699999998 22.1889105300000011 -0.1915764000000000 Au
atom 20.3225002500000009 22.1402531200000006 0.0952653600000000 Au
atom 23.0507158300000015 22.1151820699999995 0.2571424500000000 Au
atom 25.9496080400000011 22.1750682999999995 0.0808163500000000 Au
atom 0.5445959700000000 22.2263313099999991 0.2164202800000000 Au
atom 3.2406723400000002 22.2885230099999987 0.0340858000000000 Au
atom 6.0767915500000003 22.2701816400000006 0.0331383500000000 Au
atom 7.4866129900000002 24.6040665999999995 0.0914150700000000 Au
atom 10.3569588299999999 24.6640094199999993 0.0576940300000000 Au
atom 13.2242011099999992 24.7180029800000014 -0.0678542400000000 Au
atom 16.0512249999999987 24.7335343899999991 0.1068456700000000 Au
atom 18.7772097000000002 24.6201338800000009 0.1457961900000000 Au
atom 21.6195341200000009 24.5705369599999983 0.3754441200000000 Au
atom 24.5435002799999999 24.5767840100000008 0.2722552800000000 Au
atom 27.2957081399999986 24.7001813000000006 0.3427438100000000 Au
atom 1.8824832300000001 24.7767050900000001 -0.1459681300000000 Au
atom 4.7400674199999999 24.6942158599999999 -0.0538620700000000 Au
atom 8.9566996099999994 27.1415865200000006 0.0339814000000000 Au
atom 11.7853273099999996 27.1489678400000010 0.0132315200000000 Au
atom 14.6121176599999991 27.1364343400000010 -0.0547853300000000 Au
atom 17.4448812900000014 27.1457427899999999 0.1314000800000000 Au
atom 20.2359142799999994 27.0471207199999988 0.0532998100000000 Au
atom 23.0800669099999993 27.0704674499999989 0.2090994100000000 Au
atom 25.8986550199999996 27.1026492599999997 0.2771327900000000 Au
atom 0.5497704200000000 27.1381560999999998 0.2613886600000000 Au
atom 3.3937748600000002 27.1127498200000012 -0.1080598200000000 Au
atom 6.2122129599999996 27.2075929199999997 0.0809680600000000 Au
atom 7.5297031499999996 29.6771618199999985 -0.2046747600000000 Au
atom 10.3645971400000008 29.6338079299999997 0.0850397600000000 Au
atom 13.2001074900000006 29.6105603899999998 -0.0196450600000000 Au
atom 16.0371348699999992 29.5834285900000005 -0.0275330700000000 Au
atom 18.9004341599999997 29.6171730500000017 0.0984469100000000 Au
atom 21.6324254399999987 29.5363701899999995 0.2371206500000000 Au
atom 24.4457083200000014 29.5497510000000005 -0.0069010400000000 Au
atom 27.3800479999999986 29.5585919399999995 0.1990028300000000 Au
atom 1.9219977399999999 29.6614935399999986 -0.2781620300000000 Au
atom 4.7217032799999998 29.6602677999999997 -0.0336593900000000 Au
atom 8.9624300500000000 32.1409303000000008 -0.2261097300000000 Au
atom 11.8817941000000005 32.0809558999999993 -0.2163062300000000 Au
atom 14.7115991099999999 32.0815833099999992 -0.3182117400000000 Au
atom 17.5398369199999991 32.0936364399999974 -0.0605877200000000 Au
atom 20.3004360499999983 32.0477974200000020 0.1329016600000000 Au
atom 23.1158416799999991 31.9999893899999996 -0.0668681300000000 Au
atom 25.8562356499999986 31.9599917699999985 -0.1897482500000000 Au
atom 0.4961382500000000 32.0648883400000031 -0.0524373600000000 Au
atom 3.3746474700000002 32.1902732699999987 -0.1592970600000000 Au
atom 6.1471966399999998 32.0911836800000003 -0.1072923100000000 Au
atom 7.5943950899999999 34.6580102599999975 -0.0783818000000000 Au
atom 10.3949874300000005 34.5974297799999988 -0.1317252300000000 Au
atom 13.2436391699999998 34.5591717200000019 -0.2500649700000000 Au
atom 16.0966383800000017 34.5234830200000005 -0.0811832400000000 Au
atom 18.8556771599999990 34.5394790300000025 -0.0829399300000000 Au
atom 21.6487265800000017 34.4949494000000030 -0.0270757800000000 Au
atom 24.5067731699999989 34.4987321400000013 -0.2086915100000000 Au
atom 27.2186552199999987 34.4788837600000022 -0.2004735000000000 Au
atom 1.8819118800000001 34.6310869599999975 -0.1051706300000000 Au
atom 4.8031033900000004 34.5398530300000033 0.0856511400000000 Au
atom 8.9946404599999994 37.0786351300000021 -0.0463962500000000 Au
atom 11.8085144199999998 37.0209154200000015 0.0576315000000000 Au
atom 14.5882651699999997 37.0409831699999970 -0.0543470600000000 Au
atom 17.3956006199999997 37.0218389300000013 0.1223241600000000 Au
atom 20.2218992600000007 37.0449268599999968 0.0610322700000000 Au
atom 23.0796914400000013 36.9279770400000018 -0.0963368900000000 Au
atom 25.8924987500000015 36.9363243299999979 0.0224596900000000 Au
atom 0.5057104200000000 36.9768955300000002 -0.0601368300000000 Au
atom 3.3650743099999998 36.9452110300000029 0.1091259100000000 Au
atom 6.1180867599999997 37.0591709699999967 0.1854100500000000 Au
atom 7.5712860900000001 0.0534016600000000 0.2328456900000000 Au
atom 10.4342825200000000 0.0478608600000000 0.2329838500000000 Au
atom 13.2041033599999995 0.0295108100000000 0.0999561500000000 Au
atom 15.9728514300000004 0.0756919700000000 0.1313671200000000 Au
atom 18.8189675399999992 0.0600631400000000 0.0843281000000000 Au
atom 21.6817998600000017 -0.0350127100000000 0.2014937900000000 Au
atom 24.3826383299999989 -0.0756617900000000 -0.0754116200000000 Au
atom 27.2263541400000015 -0.0531082400000000 -0.1300557600000000 Au
atom 1.8436002300000001 -0.0344448000000000 -0.0744498700000000 Au
atom 4.6667387199999997 0.0273819000000000 0.2936359100000000 Au
atom 8.9532758900000005 2.4562330800000001 0.2911396000000000 Au
atom 11.8257954600000001 2.4701142599999999 0.0641923200000000 Au
atom 14.6081178699999992 2.5017997500000000 0.0280639600000000 Au
atom 17.3925360600000012 2.5967378299999999 0.0500804700000000 Au
atom 20.2113965299999983 2.5213010800000002 0.1642562100000000 Au
atom 23.0575603300000012 2.4265015100000000 0.0609307400000000 Au
atom 25.8090710100000003 2.4061029700000001 -0.1146759400000000 Au
atom 0.4636504600000000 2.4123048499999999 0.1767262100000000 Au
atom 3.2489846899999999 2.5303353400000002 0.1910531300000000 Au
atom 6.0687372499999999 2.4707801400000000 0.2285843700000000 Au
atom 7.4778013600000000 4.9784114500000003 -0.0553635700000000 Au
atom 10.3857873900000008 4.8224178400000000 0.2335059500000000 Au
atom 13.1907913499999996 4.9515002499999996 -0.0706057900000000 Au
atom 16.0927703499999986 5.1032417800000003 0.0272968200000000 Au
atom 18.8370772799999990 5.0365560800000004 0.3766808700000000 Au
atom 21.5784568899999982 5.0680934999999998 0.1733839500000000 Au
atom 24.3991669000000009 5.0191579400000004 0.0545996300000000 Au
atom 27.2723837799999984 4.7923606699999999 0.1269031600000000 Au
atom 1.8988362500000000 4.8832283800000003 -0.0524419500000000 Au
atom 4.7243039700000002 4.9226024300000004 0.0838649100000000 Au
atom 8.8887736799999999 7.4087886300000001 0.0216601900000000 Au
atom 11.7538749300000003 7.3549818900000004 -0.1302588200000000 Au
atom 14.6345345499999997 7.5214508999999996 -0.0521729900000000 Au
atom 17.4239117199999995 7.5283350000000002 0.1647324400000000 Au
atom 20.1844736000000005 7.4904855000000001 0.1091694100000000 Au
atom 23.0028170400000000 7.4500252500000004 -0.1040333100000000 Au
atom 25.8860512800000002 7.4071929499999998 -0.2038439600000000 Au
atom 0.4818472900000000 7.3409085100000002 0.0352322600000000 Au
atom 3.3505517000000000 7.3876625799999998 0.0346208300000000 Au
atom 6.1761669899999996 7.4930226299999996 0.1244614100000000 Au
atom 7.5164156499999999 9.8783381600000002 -0.1276885800000000 Au
atom 10.3519479600000004 9.8997304499999998 -0.0152492300000000 Au
atom 13.1139495299999993 9.9581964999999997 -0.0144337500000000 Au
atom 15.9686595100000002 10.0327855600000007 0.0350758300000000 Au
atom 18.8209821300000009 9.9262572900000006 0.1467379300000000 Au
atom 21.6460893299999988 9.8962133300000001 -0.1152028700000000 Au
atom 24.4130852800000007 9.8912323200000003 -0.1377094700000000 Au
atom 27.3124518899999984 9.8506392100000006 -0.1754744300000000 Au
atom 1.8566281400000000 9.7556811299999993 -0.0475583200000000 Au
atom 4.6485709499999999 9.9328740599999996 0.0487589600000000 Au
atom 8.9418297599999992 12.3618832100000002 -0.1767746100000000 Au
atom 11.7407963899999999 12.4713545299999993 -0.1417679000000000 Au
atom 14.5800492599999991 12.4015283600000004 -0.3244316300000000 Au
atom 17.4399795200000014 12.4094417000000004 -0.4357269000000000 Au
atom 20.1902826399999995 12.3141489100000001 -0.1541795500000000 Au
atom 23.0174029900000008 12.3676423199999999 0.0896215400000000 Au
atom 25.8377152400000014 12.2324098200000009 -0.3281451400000000 Au
atom 0.5043925400000000 12.2629011699999992 -0.1536102800000000 Au
atom 3.3019498500000002 12.3263575799999998 -0.1758891500000000 Au
atom 6.0929244000000002 12.2624827599999993 -0.2009136100000000 Au
atom 7.4466102599999999 13.1822322900000000 2.4731488200000000 Au
atom 10.3034202100000005 13.2783518500000000 2.2320653799999999 Au
atom 13.1168497399999993 13.2122233399999995 2.2847719000000000 Au
atom 15.9837035000000007 13.1378983900000001 2.1660159200000000 Au
atom 18.7947582299999993 13.2199535000000008 2.2707619999999999 Au
atom 21.5638516699999983 13.2493564100000007 2.5369374200000001 Au
atom 24.4761147799999996 13.0768618399999994 2.6805882500000000 Au
atom 27.2347923099999996 13.2158832400000001 2.2030752499999999 Au
atom 1.8777058099999999 13.2033619800000004 2.4892601000000001 Au
atom 4.6130353399999997 13.2387283300000007 2.2512346800000000 Au
atom 8.8636765000000004 15.5953205900000000 2.3129166600000000 Au
atom 11.6429151700000002 15.6751748299999996 2.1868044200000001 Au
atom 14.4783331400000002 15.5845686899999993 2.5112248600000000 Au
atom 17.3150167500000016 15.6895818899999995 2.1256578699999999 Au
atom 20.1962532800000005 15.6916027200000006 2.3324986499999998 Au
atom 23.0253753500000009 15.5088239600000009 2.6503812600000001 Au
atom 25.7260861100000007 15.5653207499999997 2.3378505100000000 Au
atom 0.3348677500000000 15.7162178899999994 2.4076942500000000 Au
atom 3.2019256500000002 15.6545769999999997 2.5894806799999999 Au
atom 6.0551777099999997 15.6346688100000009 2.2562928400000000 Au
atom 7.5203260800000002 18.0455628099999998 2.6350973799999999 Au
atom 10.3234246800000005 18.1291973300000002 2.4758388600000001 Au
atom 13.1169886200000008 18.0738446500000016 2.2079740399999999 Au
atom 15.8603692200000008 18.1364311799999989 2.2905536999999998 Au
atom 18.6935523600000018 18.0652959899999992 2.5978004100000001 Au
atom 21.6077324699999984 18.1165880199999982 2.4608479999999999 Au
atom 24.3822903400000008 18.0113038100000011 2.6585266299999999 Au
atom 27.2444646599999984 18.1398552700000018 2.4962639100000001 Au
atom 1.8301756300000001 18.1352841600000012 2.6960796500000002 Au
atom 4.6596907300000003 18.0774010599999997 2.7053490199999999 Au
atom 8.9891463999999992 20.5667855700000004 2.5440589500000002 Au
atom 11.7428912099999998 20.5951693099999993 2.1180599400000002 Au
atom 14.5149371800000004 20.6121227199999986 2.4080118000000001 Au
atom 17.3336888599999988 20.6170753900000001 2.4893428100000001 Au
atom 20.1457401400000009 20.4951584400000009 2.7105234299999998 Au
atom 23.0128244299999984 20.4206626699999987 2.8809188300000002 Au
atom 25.8355489399999989 20.5584620899999990 2.7545909100000001 Au
atom 0.4382976100000000 20.6074924000000017 2.7138953300000002 Au
atom 3.3096653699999998 20.5878785300000011 2.7407778600000001 Au
atom 6.1967224500000002 20.5045894599999983 2.6772812899999998 Au
atom 7.4930117999999997 23.0334607799999986 2.6707979700000002 Au
atom 10.4163882999999995 23.0893590599999996 2.6068658600000001 Au
atom 13.1728475599999992 23.1123793100000015 2.1757400400000000 Au
atom 15.9360813500000003 23.0628065199999988 2.2880685199999999 Au
atom 18.8984123900000007 23.0194614699999995 2.6120607499999999 Au
atom 21.6538213299999995 22.9568398800000004 2.8787105300000002 Au
atom 24.4662869100000009 22.9567724599999998 2.6911410800000000 Au
atom 27.3079334500000002 23.1240676100000009 2.9599049300000000 Au
atom 1.9481266300000000 23.0922711099999987 2.7364251600000000 Au
atom 4.6980332599999999 23.1192668200000000 2.7328639300000002 Au
atom 8.9156773600000001 25.5244570099999990 2.6113942799999998 Au
atom 11.7880588799999995 25.5821257399999986 2.7476981600000001 Au
atom 14.6419567799999992 25.5462367899999983 2.6823216599999999 Au
atom 17.4187489500000012 25.4571921000000003 2.8646786500000001 Au
atom 20.2004989200000011 25.5298210800000014 2.7501702500000000 Au
atom 23.0117806800000011 25.3833363600000013 2.9119774199999999 Au
atom 25.8189780499999983 25.5372160900000011 2.8847801700000000 Au
atom 0.5019401700000000 25.5308327300000002 2.8949503800000000 Au
atom 3.3183268799999999 25.5606171800000013 2.6305577800000002 Au
atom 6.1380113800000000 25.6446830199999987 2.7976070200000001 Au
atom 7.6538822700000004 28.0663115800000007 2.6308053400000002 Au
atom 10.4307288400000004 28.0659800699999984 2.6851617800000001 Au
atom 13.2392910900000000 28.0906439799999994 2.6491271500000000 Au
atom 15.9913766699999993 28.0067310999999997 2.6592828200000000 Au
atom 18.8867219199999994 27.9821875400000017 2.6730613600000002 Au
atom 21.7017373700000000 27.8701356099999984 2.8657173000000000 Au
atom 24.4539705500000011 27.9209817700000009 2.7383623099999999 Au
atom 27.3555346300000011 28.0217691799999997 2.9444027099999999 Au
atom 2.0307189700000001 28.0299589500000010 2.4704848500000001 Au
atom 4.7274736800000001 28.0404224000000006 2.6758312100000001 Au
atom 8.9697956100000003 30.5882062400000017 2.4551374099999999 Au
atom 11.7865684399999999 30.4814860699999990 2.6555849600000001 Au
atom 14.6238420399999995 30.5611882199999982 2.5166851299999999 Au
atom 17.4267319299999990 30.3705400499999989 2.6347567800000000 Au
atom 20.2867026499999987 30.4611423399999985 2.8523467400000002 Au
atom 23.0580300600000001 30.3608684300000000 2.6617630499999998 Au
atom 25.9539808799999996 30.3263845900000000 2.5304372100000001 Au
atom 0.5486105300000000 30.4260676100000005 2.7018488999999999 Au
atom 3.2781291600000002 30.5718031100000012 2.3170236800000001 Au
atom 6.1529294099999996 30.4467608900000002 2.5863518600000002 Au
atom 7.6082041699999996 32.9427617400000017 2.3643212999999998 Au
atom 10.4954856099999994 32.9964052699999968 2.3219502599999999 Au
atom 13.3107445599999998 32.9077994700000005 2.1985637800000002 Au
atom 16.1251338500000010 32.8863762800000003 2.3883299600000001 Au
atom 18.9388624000000014 32.8827992000000009 2.6293148700000000 Au
atom 21.8123923399999988 32.9053045900000001 2.6446037100000002 Au
atom 24.5066519700000001 32.7805561500000024 2.5006412199999999 Au
atom 27.2825791100000004 32.8168356600000024 2.3369907699999999 Au
atom 1.9075089000000001 32.9370809799999975 2.5416233099999999 Au
atom 4.6635980899999998 32.9314687000000035 2.5955489100000002 Au
atom 8.9810873400000002 35.4716855100000004 2.5380109100000001 Au
atom 11.8416210999999993 35.3844374299999984 2.5863810800000002 Au
atom 14.7233643399999998 35.2502572100000009 2.5271890400000001 Au
atom 17.5605621300000010 35.3610234200000022 2.7540525800000002 Au
atom 20.4444355599999987 35.3427502400000009 2.6037394300000001 Au
atom 23.1974326499999997 35.3724989700000023 2.5344340600000002 Au
atom 25.8950651500000006 35.2364298099999971 2.5103625599999999 Au
atom 0.4416318400000000 35.4280260199999972 2.5755727899999998 Au
atom 3.2831663500000001 35.4071416499999998 2.6137482099999998 Au
atom 6.0989685500000004 35.3254218200000025 2.7828915900000002 Au
atom 7.5627598599999999 37.8678547000000023 2.7803022199999998 Au
atom 10.3735426099999994 37.8105069499999971 2.6899402399999999 Au
atom 13.2723777399999996 37.8374831799999995 2.6202286899999998 Au
atom 15.9923402899999996 37.7434157799999994 2.7252587500000001 Au
atom 18.8933151600000002 37.8324410900000032 2.6797360600000002 Au
atom 21.7333487299999994 37.7704575699999978 2.6384132899999999 Au
atom 24.5310634900000011 37.7752049099999994 2.7129072200000000 Au
atom 27.2529052000000007 37.7932763399999985 2.6096408300000000 Au
atom 1.8885000100000000 37.8784690800000021 2.5433485100000000 Au
atom 4.7086968599999999 37.8519917599999971 2.8362440599999998 Au
atom 9.0060759099999999 0.7618849400000000 2.8049426300000002 Au
atom 11.8493239100000007 0.7237587900000000 2.7829076200000000 Au
atom 14.6307656200000000 0.8544678300000000 2.6486414699999998 Au
atom 17.4887802800000003 0.7761471599999999 2.7082926899999999 Au
atom 20.2667409300000010 0.7645131700000000 2.7410451800000000 Au
atom 23.1166466600000007 0.6828097700000000 2.6452684500000001 Au
atom 25.9089066499999987 0.8066787900000000 2.4528633399999999 Au
atom 0.5233771500000000 0.7863846900000000 2.6996616100000002 Au
atom 3.3200617100000001 0.8288332300000000 2.7958572700000000 Au
atom 6.1973439800000003 0.8253290200000000 2.9324857700000000 Au
atom 7.5357997699999997 3.2853136100000002 2.6847852799999998 Au
atom 10.4017791899999992 3.2876320300000001 2.8155130700000002 Au
atom 13.1989329400000006 3.3519975299999998 2.5965227099999999 Au
atom 16.0514894999999989 3.3463980200000001 2.6510587800000001 Au
atom 18.8682577599999988 3.1602370799999999 2.7810363300000001 Au
atom 21.7201517399999986 3.3100176499999998 2.6667135000000002 Au
atom 24.5146681199999996 3.2518050900000000 2.6350772999999998 Au
atom 27.2567776100000003 3.2869370299999998 2.7838043600000000 Au
atom 1.8331482400000001 3.2331844099999998 2.6957140599999998 Au
atom 4.7384403199999996 3.2552822199999998 2.6993233600000002 Au
atom 8.9027881799999999 5.7264795099999999 2.6508674200000000 Au
atom 11.7482045300000006 5.8792566300000004 2.7047356200000001 Au
atom 14.5889730699999998 5.8351016600000003 2.6912554499999999 Au
atom 17.4356001300000010 5.7655371400000002 2.7964210600000001 Au
atom 20.2316353900000010 5.7075795200000004 2.8455626700000001 Au
atom 23.0021032800000000 5.8276497899999997 2.5840215400000002 Au
atom 25.8443789799999983 5.7762219799999999 2.7076936800000002 Au
atom 0.4974707600000000 5.7706312799999999 2.7671319699999999 Au
atom 3.2206144100000000 5.6781193600000002 2.5737711999999999 Au
atom 6.0369878500000000 5.8094175000000003 2.6402789300000000 Au
atom 7.5735161599999996 8.2913658500000000 2.6616928500000001 Au
atom 10.3809087899999994 8.2427808500000008 2.4748682400000002 Au
atom 13.1439704000000006 8.2808677599999996 2.4994366800000001 Au
atom 15.9608622800000006 8.2738882500000006 2.6705439399999999 Au
atom 18.8388919100000010 8.2486075200000002 2.8586672499999999 Au
atom 21.6594922200000006 8.1990573799999993 2.6542892000000000 Au
atom 24.4993749200000011 8.2451296299999992 2.4180039299999998 Au
atom 27.2527875100000010 8.2482586199999997 2.4766246000000001 Au
atom 1.8872353300000000 8.3040957399999993 2.5268792599999998 Au
atom 4.7035957200000000 8.2766868799999997 2.8056322900000001 Au
atom 8.9633640799999998 10.7651235599999993 2.5607211300000001 Au
atom 11.7169150799999997 10.7587845899999994 2.6115280799999998 Au
atom 14.5276107600000000 10.8633170099999994 2.5341605999999999 Au
atom 17.3621093199999983 10.7411574499999993 2.5736252999999998 Au
atom 20.2643430400000000 10.7410389800000008 2.5945448299999998 Au
atom 23.0336420299999993 10.6837765499999993 2.5544901100000001 Au
atom 25.8114364899999984 10.7223347199999992 2.2737001100000001 Au
atom 0.4715078100000000 10.7660112699999999 2.5817157100000001 Au
atom 3.2951546899999999 10.8010566299999997 2.6296770100000000 Au
atom 6.0930263800000004 10.7666302999999992 2.3863132399999998 Au
atom 7.1216363400000002 12.9902997199999994 5.7322437800000001 Cl
atom 7.2068259799999996 15.9717228700000007 8.6768225500000007 Cl
atom 7.2083165600000001 13.1367747099999992 8.2770642900000002 Na
atom 7.3455356500000004 15.8123452699999998 5.8780221700000004 Na
atom 7.2938769600000004 18.8041043499999994 5.5963642499999997 Cl
atom 7.2494869099999999 21.5018417399999997 8.6878220099999997 Cl
atom 7.0856460200000004 18.7193575099999983 8.2530726399999992 Na
atom 7.1938490699999997 21.6149646900000008 5.7928298199999997 Na
atom 7.3470942900000002 24.3071947900000005 5.7842404900000002 Cl
atom 7.0825918899999998 27.2639658300000001 8.4475756900000007 Cl
atom 7.3066534499999998 24.3774849099999997 8.4880635400000006 Na
atom 7.3370003400000003 27.1661893399999990 5.6768187000000001 Na
atom 7.0396752600000001 30.0708540800000002 5.5453866100000004 Cl
atom 7.1518548300000004 32.8897265000000019 8.4805499700000002 Cl
atom 7.2469615000000003 29.9479912800000001 8.2806099999999994 Na
atom 7.0980585999999999 32.8649701300000032 5.6565472000000003 Na
atom 7.1575959200000003 35.7525886499999999 5.6060895200000003 Cl
atom 7.1430942499999999 38.4161277299999995 8.6868970000000001 Cl
atom 7.1504645199999999 35.5844588799999997 8.2930701199999994 Na
atom 7.1743733499999998 38.4496696300000025 5.8385057600000003 Na
atom 7.2270377699999999 1.7110694000000000 5.9899945700000004 Cl
atom 7.1970361900000004 4.6188954100000004 8.7305291599999997 Cl
atom 7.0233261400000000 1.7716536000000001 8.5409442999999996 Na
atom 7.1007375499999998 4.5515008400000001 5.9119279799999997 Na
atom 7.2852044899999999 7.3255573800000002 5.7225966599999998 Cl
atom 7.1859712599999996 10.1859834500000002 8.7258142500000009 Cl
atom 7.1994950199999996 7.4047486800000000 8.5824657000000002 Na
atom 7.3385264399999999 10.1487652599999993 5.8643661800000002 Na
atom 10.1184262799999996 13.0885068699999998 6.0019850500000000 Na
atom 12.7756028500000003 13.2681007199999996 5.7601789800000001 Cl
atom 10.0402432800000003 16.1490340400000001 8.5416857499999992 Na
atom 12.8826289999999997 15.9224309999999996 8.7114212099999992 Cl
atom 12.7595734699999994 13.0488105700000006 8.4451228900000004 Na
atom 10.0425961600000004 13.1068555599999996 8.6222343600000002 Cl
atom 12.7501121200000007 15.9581403900000005 5.8889995600000002 Na
atom 9.9395074799999996 16.0101959899999997 5.9728909300000002 Cl
atom 9.9745189300000003 18.9137351900000006 5.7493489400000000 Na
atom 12.6754350500000008 18.7730191200000007 5.6768914700000002 Cl
atom 10.0447453099999997 21.5555258599999995 8.4563638599999997 Na
atom 12.8226920199999999 21.4939933100000005 8.7981799299999999 Cl
atom 12.9475078299999993 18.6853548799999984 8.4318381700000007 Na
atom 10.0790664499999991 18.8814426799999993 8.5261831499999996 Cl
atom 12.9568005100000008 21.5345559000000009 5.9315366599999999 Na
atom 10.1025495500000009 21.5713728099999997 5.7341299699999997 Cl
atom 10.0814104400000009 24.3525309800000009 5.8976249500000000 Na
atom 12.8388687699999995 24.4148938099999988 5.8672762699999996 Cl
atom 9.9744543500000002 27.2382095699999986 8.3146047900000006 Na
atom 12.8334229999999998 27.2224744299999983 8.8651496900000009 Cl
atom 12.8507838499999991 24.4792491000000005 8.6626924800000005 Na
atom 10.0627499500000006 24.3886336300000011 8.5348171199999996 Cl
atom 12.9201145499999992 27.1832091600000005 5.9909609499999998 Na
atom 10.1537668199999995 27.3080767999999985 5.7582382200000000 Cl
atom 9.9102543000000001 30.0038755700000017 5.5869559100000004 Na
atom 12.7786851200000005 30.0431354500000012 5.7531098600000004 Cl
atom 10.0319544900000004 32.8557727299999982 8.3246878500000001 Na
atom 12.9971803500000007 32.8716897199999991 8.7616543799999995 Cl
atom 12.7981413400000008 29.9966207199999992 8.3854706199999995 Na
atom 10.0358623599999994 29.9815760900000008 8.2971612599999993 Cl
atom 12.8752109400000005 32.8458742999999984 5.9561427000000000 Na
atom 10.0741399000000005 32.8214281699999972 5.7038985699999998 Cl
atom 10.0779782800000000 35.5550644799999986 5.6741920900000000 Na
atom 13.0375681500000002 35.5616485800000035 5.6014163999999997 Cl
atom 9.9843984900000002 38.5028930900000006 8.4961939900000001 Na
atom 12.9574591699999999 38.3252738199999996 8.5879956899999996 Cl
atom 12.9134875999999998 35.6349897400000017 8.3721153699999995 Na
atom 10.0185597400000006 35.6058696400000017 8.3676202800000006 Cl
atom 12.7905593300000007 38.5355435299999982 5.9747710600000001 Na
atom 9.9779915999999993 38.4585860199999985 5.8184685299999996 Cl
atom 9.9253319799999993 1.8183667299999999 6.0455106599999997 Na
atom 12.8073466699999994 1.9265948100000001 5.8815953399999996 Cl
atom 9.9371951400000000 4.6068955200000001 8.4929888800000004 Na
atom 12.9618260299999992 4.6793263700000001 8.7027903099999993 Cl
atom 12.9331370900000007 1.7064031500000001 8.6150942399999995 Na
atom 10.0891037899999993 1.8454759599999999 8.7037928499999992 Cl
atom 12.9889384999999997 4.5851232900000003 5.9689522699999999 Na
atom 9.9914897299999996 4.6359871500000001 5.8349056199999998 Cl
atom 9.9802031600000003 7.3248746699999998 5.8839218300000002 Na
atom 12.8189217099999997 7.4990314500000004 5.7331254600000001 Cl
atom 10.0569712800000008 10.0753146400000002 8.5048739900000001 Na
atom 12.8625140699999996 10.3462498099999998 8.7722747900000009 Cl
atom 12.8596788699999998 7.4218061400000002 8.4172178899999999 Na
atom 10.0882228999999999 7.3657774900000001 8.6616326899999994 Cl
atom 12.9821203799999996 10.1370752000000000 5.6692320299999999 Na
atom 10.0435125200000002 10.3634380299999993 5.9532674999999999 Cl
atom 15.4933122399999998 13.1423573299999994 5.7782143000000001 Na
atom 18.1789533900000002 13.0889433299999993 5.7982608000000004 Cl
atom 15.6544455700000000 15.8743718999999999 8.4896698500000003 Na
atom 18.3347031800000018 15.9014793099999991 8.5710759700000008 Cl
atom 18.3893779399999993 13.2815693199999991 8.4879412199999997 Na
atom 15.5707332600000008 13.1185396300000008 8.5265943300000000 Cl
atom 18.4269012399999994 15.9817757000000000 5.7734289700000003 Na
atom 15.6819379399999992 15.9630145599999995 5.7344380399999997 Cl
atom 15.6326243999999992 18.7134903799999996 5.6963912399999996 Na
atom 18.3795139700000014 18.7901138799999998 5.6444563499999996 Cl
atom 15.7254004399999996 21.6748674799999996 8.3445777299999992 Na
atom 18.5161794399999984 21.5210844399999992 8.5694074800000006 Cl
atom 18.4099367399999991 18.7064477999999994 8.3703591999999993 Na
atom 15.6231939499999992 18.8635240000000017 8.3323474199999996 Cl
atom 18.5709143400000016 21.6702225999999989 5.7113353699999996 Na
atom 15.7406108000000007 21.6353689399999993 5.6087919499999996 Cl
atom 15.7216380000000004 24.3887718199999988 6.0296263899999998 Na
atom 18.5534866500000000 24.4285254300000005 5.9519879099999997 Cl
atom 15.6551718199999996 27.2310358599999986 8.9426245699999996 Na
atom 18.6687254399999993 27.2705452999999984 8.8520064900000008 Cl
atom 18.4419326099999985 24.3466335700000016 8.6920449899999994 Na
atom 15.7147344800000006 24.4336255800000011 8.8380477299999995 Cl
atom 18.6247567200000006 27.3696243199999998 5.9873100900000003 Na
atom 16.0125068599999985 27.3560077399999990 6.1742146699999996 Cl
atom 15.6696808700000005 30.1132061899999997 6.0727605300000000 Na
atom 18.3778624800000010 30.0315514099999987 5.8216483600000002 Cl
atom 15.7949748900000007 32.9448652299999978 8.5761558400000002 Na
atom 18.5189400400000004 32.8331672200000000 8.7413285399999996 Cl
atom 18.2255940599999988 30.0568879699999982 8.5724917400000002 Na
atom 15.5213135300000005 30.1347849600000011 8.8066560400000000 Cl
atom 18.5504591800000007 32.8140540699999974 5.8498129800000003 Na
atom 15.7679704399999991 32.8201772999999974 5.7714550800000000 Cl
atom 15.7705796500000002 35.8146434800000009 5.8575176700000000 Na
atom 18.6051486799999992 35.7362543799999983 5.8397810200000002 Cl
atom 15.8473180700000000 38.2458945699999973 8.5321661700000000 Na
atom 18.8732984200000011 38.4050877700000015 8.5688340600000004 Cl
atom 18.6253677000000017 35.5498129799999987 8.5592772000000004 Na
atom 15.8510980999999997 35.5219201399999989 8.5738850600000003 Cl
atom 18.7690851300000006 38.4660210600000028 5.8789295099999999 Na