#===============================================================================
# Created using the Atomic Simulation Environment (ASE)

# Tue Dec 23 21:42:21 2025

#=======================================================
lattice_vector 28.1999999999999993 0.0000000000000000 0.0000000000000000 
lattice_vector 0.0000000000000000 39.4799999999999969 0.0000000000000000 
lattice_vector 0.0000000000000000 0.0000000000000000 62.3296083400000001 
atom 7.5269605799999999 14.7590850400000004 -0.0808881900000000 Au
atom 10.2896641800000008 14.7007993900000002 -0.3010347900000000 Au
atom 13.1448376899999992 14.7199422700000007 -0.3084608900000000 Au
atom 15.9776040300000002 14.7979069699999997 -0.2618180800000000 Au
atom 18.8459339999999997 14.8376350600000002 -0.1315277300000000 Au
atom 21.6288649200000016 14.6891958799999998 0.0452757600000000 Au
atom 24.4558331299999985 14.7113314800000001 0.2419706900000000 Au
atom 27.3161951199999997 14.8612024999999992 0.0613536900000000 Au
atom 1.8434441100000001 14.8531632699999996 -0.0018811500000000 Au
atom 4.6934476900000002 14.8533498799999997 0.1120819500000000 Au
atom 8.9085158599999996 17.2155593799999984 -0.3476319000000000 Au
atom 11.7832432600000008 17.2475237700000008 -0.4474926300000000 Au
atom 14.5466788000000005 17.3049141800000008 -0.2135819400000000 Au
atom 17.3871468100000008 17.2500192299999995 -0.1412042200000000 Au
atom 20.2367073300000015 17.1880825699999988 -0.1231927400000000 Au
atom 23.0104174099999987 17.1572358999999999 0.0273622300000000 Au
atom 25.8506620399999996 17.2100123099999998 0.2631893700000000 Au
atom 0.4867718400000000 17.3521958400000003 -0.0655788600000000 Au
atom 3.2778257900000001 17.2776496600000016 0.0491597900000000 Au
atom 6.1265490600000003 17.3096570199999995 0.0518970400000000 Au
atom 7.6048479100000002 19.6766449799999990 0.2033440900000000 Au
atom 10.3725528899999997 19.8051898500000014 -0.1521459900000000 Au
atom 13.1613113599999991 19.7550228600000004 -0.0456860800000000 Au
atom 15.9515699000000009 19.7674935500000011 -0.1668097100000000 Au
atom 18.8357264800000017 19.6514085600000001 0.0670419800000000 Au
atom 21.6208398399999986 19.6408765099999982 0.0982456600000000 Au
atom 24.3983796499999990 19.6955203200000000 0.3533495800000000 Au
atom 27.1830933899999998 19.7940229899999984 0.1027934600000000 Au
atom 1.8683878599999999 19.7928291899999991 0.1938163500000000 Au
atom 4.7482857500000000 19.7471509400000009 0.0673125200000000 Au
atom 8.9398443200000006 22.2014251199999997 0.0214026700000000 Au
atom 11.7141384300000002 22.2598890900000015 -0.0608670600000000 Au
atom 14.5364554699999999 22.2470665899999993 -0.0317808900000000 Au
atom 17.3924145599999989 22.2300154499999998 -0.0940067400000000 Au
atom 20.1788925900000002 22.0962825699999996 0.0625007500000000 Au
atom 22.9502748899999993 22.1851074900000000 0.0753329100000000 Au
atom 25.8053236999999989 22.1692952800000000 0.1785363900000000 Au
atom 0.4037579800000000 22.1204868300000008 0.3116398400000000 Au
atom 3.3004067099999999 22.2282669400000010 0.1684290900000000 Au
atom 6.1916883399999998 22.1516446599999988 0.0947542700000000 Au
atom 7.4715825899999997 24.6477184399999985 0.0490203300000000 Au
atom 10.3125523200000000 24.6929154599999983 0.0276502700000000 Au
atom 13.1797753600000007 24.6420738999999998 0.0439801600000000 Au
atom 15.9150570099999999 24.6895948599999997 0.0279742700000000 Au
atom 18.7769198000000017 24.6227852899999995 0.0128685600000000 Au
atom 21.5572879800000017 24.6411097599999991 0.1474102300000000 Au
atom 24.3725407700000005 24.6171389800000000 0.2017621100000000 Au
atom 27.1972282300000003 24.6747570399999994 0.3287865800000000 Au
atom 1.7951420300000001 24.6834931200000014 0.2688587300000000 Au
atom 4.6550750200000000 24.6726288999999994 0.1211358600000000 Au
atom 8.8767684899999999 27.1042374099999996 -0.0259462300000000 Au
atom 11.7078501100000008 27.1574421500000014 0.0296424600000000 Au
atom 14.4526249399999998 27.1649427099999983 0.0648746100000000 Au
atom 17.3308857100000004 27.1169137000000013 -0.1325099300000000 Au
atom 20.1437685799999997 27.0577976699999994 0.1089007300000000 Au
atom 23.0272409600000003 27.1137435199999999 0.0428431500000000 Au
atom 25.8222095399999994 27.1475721800000009 0.2401449400000000 Au
atom 0.4115570300000000 27.0960156699999999 0.2593890300000000 Au
atom 3.3089082799999998 27.1448624800000005 0.0793394800000000 Au
atom 6.0352260900000001 27.0995774599999990 -0.0042126300000000 Au
atom 7.4420722599999998 29.6139059300000014 -0.0774621000000000 Au
atom 10.2602123699999996 29.5495504699999998 -0.2609357500000000 Au
atom 13.1279902100000001 29.6450405799999999 -0.2017152000000000 Au
atom 15.9728099599999993 29.6382128999999992 -0.1021239600000000 Au
atom 18.7062336100000017 29.5390157299999991 0.1533460200000000 Au
atom 21.5773536399999983 29.5065204399999992 0.0185426900000000 Au
atom 24.3392250399999988 29.5922956200000016 -0.0543611200000000 Au
atom 27.2323555800000001 29.5682899699999986 -0.0566941600000000 Au
atom 1.8697502900000000 29.5672251700000004 0.1065750900000000 Au
atom 4.6501497100000000 29.6273923299999993 -0.0851612200000000 Au
atom 8.8604200800000008 32.0414929900000018 -0.3420702700000000 Au
atom 11.7313185900000008 32.1136620999999991 -0.2684429500000000 Au
atom 14.5744913700000005 32.1433749600000027 -0.1998419000000000 Au
atom 17.3372642600000013 32.0767873200000011 0.0781817800000000 Au
atom 20.1462764599999993 32.0357584699999975 -0.0880020800000000 Au
atom 22.9426642899999997 32.0898380300000028 -0.0597153500000000 Au
atom 25.7384899199999992 32.0045836600000015 -0.2171237600000000 Au
atom 0.3707539300000000 32.0743183100000024 -0.0181316800000000 Au
atom 3.2161501200000000 32.1075097399999976 -0.1043017900000000 Au
atom 6.0695620200000002 32.0636535800000004 -0.1318491200000000 Au
atom 7.5749033099999998 34.5692704800000001 -0.1263456400000000 Au
atom 10.4119229700000009 34.5457097700000020 -0.1707336300000000 Au
atom 13.1880772900000007 34.6161528499999989 -0.1991512400000000 Au
atom 15.9658209000000006 34.5298835800000035 0.0930426800000000 Au
atom 18.8058849300000013 34.5347139100000007 -0.0850553100000000 Au
atom 21.6116784799999984 34.5295517699999976 -0.0894763000000000 Au
atom 24.4130430300000008 34.5152350799999965 0.0719979600000000 Au
atom 27.2466389999999983 34.5201866399999986 0.0365877400000000 Au
atom 1.8773257000000001 34.5748048399999988 -0.0787845700000000 Au
atom 4.7485749700000000 34.6679526899999999 -0.2195500400000000 Au
atom 8.9705741799999998 36.9791597600000017 0.0060577000000000 Au
atom 11.8038193899999992 37.0574162599999966 -0.0446434800000000 Au
atom 14.6180692099999998 37.0076648800000001 0.0402342300000000 Au
atom 17.3444318700000011 36.9921811899999966 0.1579527400000000 Au
atom 20.1220782400000004 37.0711039999999983 0.0101222100000000 Au
atom 22.9072560100000011 37.0198614700000022 0.0386887100000000 Au
atom 25.8218285799999983 36.9471616000000012 0.0867713400000000 Au
atom 0.4330456100000000 37.0190561499999973 -0.1082265400000000 Au
atom 3.3053095099999998 37.0992819599999990 -0.0250221100000000 Au
atom 6.1733806299999996 37.0577533700000004 0.2056355600000000 Au
atom 7.5723048200000003 -0.0252842000000000 0.1827895900000000 Au
atom 10.4181303700000001 -0.0076906600000000 0.0457993200000000 Au
atom 13.1687322099999999 0.0104797600000000 -0.0585426100000000 Au
atom 15.9587608200000002 0.0022778800000000 0.3275500900000000 Au
atom 18.7711082599999983 -0.0257243800000000 0.1358476000000000 Au
atom 21.6948867400000012 0.0985656000000000 0.2574297900000000 Au
atom 24.4875210599999988 -0.0041882400000000 0.1128521300000000 Au
atom 27.2527884600000014 0.0027320100000000 0.1372328400000000 Au
atom 1.8455150800000000 0.0042283100000000 -0.0456847700000000 Au
atom 4.6897237000000001 0.0366088000000000 0.2398432700000000 Au
atom 8.9722822000000004 2.4356083900000001 0.1588365400000000 Au
atom 11.7198466200000002 2.4936587900000000 0.0850142200000000 Au
atom 14.5323419600000001 2.4402357200000000 -0.0378872300000000 Au
atom 17.3938426100000001 2.5170610000000000 0.0483696000000000 Au
atom 20.2219053200000012 2.4247843900000001 -0.0674831200000000 Au
atom 23.0995884099999991 2.4824360599999999 0.0418138700000000 Au
atom 25.8613837500000017 2.4755509899999999 -0.0680989800000000 Au
atom 0.4724146800000000 2.4320414499999998 0.0508322600000000 Au
atom 3.3525404499999998 2.4747858300000001 -0.0296346800000000 Au
atom 6.2049108400000001 2.4020073900000001 -0.0883569500000000 Au
atom 7.6218119399999997 4.9693317300000004 0.1504916900000000 Au
atom 10.3851995099999996 4.9908473500000001 0.2312243000000000 Au
atom 13.1645288300000001 4.9460046200000001 0.0419507100000000 Au
atom 15.9815237400000001 4.9037230999999997 0.1355961500000000 Au
atom 18.7701362799999991 4.9213239599999996 0.1042569400000000 Au
atom 21.6618674899999988 4.9189218199999996 0.1495174300000000 Au
atom 24.4738792300000014 4.9766521399999997 0.1378517500000000 Au
atom 27.2478773200000006 4.9031154800000003 0.0706800300000000 Au
atom 1.8946261000000000 4.9039082199999999 -0.0871940500000000 Au
atom 4.7506772100000001 4.9143640499999997 -0.0364315500000000 Au
atom 8.9165065099999996 7.4182263900000001 0.2451026000000000 Au
atom 11.7921116700000006 7.4323036599999996 0.1164704000000000 Au
atom 14.5919560100000005 7.4241509499999996 0.1428521800000000 Au
atom 17.3667399499999995 7.3852084800000002 -0.0083820400000000 Au
atom 20.1722946000000007 7.3341582299999999 0.0216386600000000 Au
atom 23.0574824700000001 7.3861819300000002 -0.0880966200000000 Au
atom 25.9047159799999989 7.4103526100000003 0.0386856000000000 Au
atom 0.5388350700000000 7.4198508800000003 0.0936051100000000 Au
atom 3.3405804300000002 7.3520465100000001 -0.0392942900000000 Au
atom 6.2002176400000000 7.3314820899999997 0.1142120500000000 Au
atom 7.5125672200000002 9.8471530299999994 0.2547647500000000 Au
atom 10.3000269000000007 9.8276078099999999 0.1842195900000000 Au
atom 13.1724840000000007 9.8807639999999992 0.2108254500000000 Au
atom 15.9523472200000000 9.8665798799999997 0.2205114600000000 Au
atom 18.6958309299999996 9.8432446900000006 0.1637706200000000 Au
atom 21.5583183900000002 9.8409904200000007 -0.0117381000000000 Au
atom 24.3938828000000001 9.8309301199999997 -0.0350117400000000 Au
atom 27.2675741299999999 9.8704415099999991 0.0336760600000000 Au
atom 1.9370476200000000 9.8713586699999993 0.0154353800000000 Au
atom 4.7182546800000003 9.8181140599999992 0.0290604800000000 Au
atom 8.9150867399999996 12.2727132900000004 0.0245856800000000 Au
atom 11.6762121000000008 12.2384275999999996 -0.1612810800000000 Au
atom 14.5274548600000006 12.3120388700000003 -0.3222595400000000 Au
atom 17.3306555700000011 12.3462573300000003 -0.0860340400000000 Au
atom 20.1364175299999992 12.2826459400000001 -0.2609274000000000 Au
atom 22.9616138899999989 12.3111333900000002 -0.1044022000000000 Au
atom 25.8089094699999997 12.3244038000000007 0.0659628300000000 Au
atom 0.4138327100000000 12.3097248599999993 0.0871997600000000 Au
atom 3.2614178699999998 12.3596528100000000 -0.0603112500000000 Au
atom 6.1029086699999997 12.2781378399999994 0.1637676100000000 Au
atom 7.5200643200000004 13.1657289800000008 2.6736870399999999 Au
atom 10.3180541600000009 13.2080859799999999 2.4829463399999998 Au
atom 13.0696538600000007 13.2227925800000001 2.3408842000000001 Au
atom 15.9832728500000005 13.2228629800000004 2.4176313100000000 Au
atom 18.8108150999999992 13.1728114900000008 2.4038011899999998 Au
atom 21.6001630499999990 13.1315136900000002 2.6386135300000002 Au
atom 24.3372962400000006 13.1053135300000001 2.7761309999999999 Au
atom 27.1574917499999984 13.2588488899999994 2.6941443199999999 Au
atom 1.8388328599999999 13.2860859399999995 2.5984735500000000 Au
atom 4.6372054800000004 13.2027803400000003 2.7485440400000001 Au
atom 8.8796860199999994 15.6345902300000006 2.4777101600000000 Au
atom 11.6647114199999997 15.6342018300000003 2.3020165000000001 Au
atom 14.5594590999999998 15.6288380300000007 2.3795367999999999 Au
atom 17.4528436199999994 15.6416816500000007 2.3228430100000002 Au
atom 20.1441662699999995 15.6317268100000000 2.4953678799999999 Au
atom 22.9814729900000003 15.5679629300000002 2.7388828500000000 Au
atom 25.7139800200000010 15.6573179699999994 2.8225309300000001 Au
atom 0.3803459000000000 15.7933344400000006 2.6550885200000001 Au
atom 3.2218562700000000 15.7052010200000005 2.7439017500000000 Au
atom 6.1231769099999998 15.6660451500000004 2.6499236499999999 Au
atom 7.5046101700000003 18.1302416899999983 2.6963143600000001 Au
atom 10.2365078100000009 18.0994878300000011 2.2887500400000000 Au
atom 13.1290106699999995 18.0468647299999994 2.4737236100000000 Au
atom 15.9771775799999993 18.0329624899999992 2.4076898000000000 Au
atom 18.7488036499999993 18.1264165199999994 2.5388796100000000 Au
atom 21.4985769900000001 18.0327313700000005 2.7060827199999999 Au
atom 24.3036220100000016 18.1106518200000011 2.8663420300000002 Au
atom 27.1606530100000008 18.1540381900000014 2.7109426200000000 Au
atom 1.8922259600000000 18.0903810199999988 2.7112652599999998 Au
atom 4.7187249500000004 18.1313544600000007 2.7168570700000001 Au
atom 8.9192022099999999 20.5657662099999996 2.6655795200000001 Au
atom 11.6756016000000002 20.5871339999999989 2.5436419300000002 Au
atom 14.5227182199999998 20.5072135899999992 2.4421933000000000 Au
atom 17.3804446800000001 20.5780955699999986 2.7224916900000000 Au
atom 20.1235190199999998 20.5763284400000011 2.7188648500000001 Au
atom 22.9844775100000014 20.5294048199999999 2.8133302300000000 Au
atom 25.7822802899999992 20.5334242200000006 2.8500836399999998 Au
atom 0.4315897400000000 20.5681593199999995 2.8490242499999998 Au
atom 3.3040381999999999 20.5618071700000016 2.7801232300000001 Au
atom 6.0888061799999997 20.5844109999999993 2.7888339100000001 Au
atom 7.5668113300000002 23.0355976499999997 2.7158882000000002 Au
atom 10.3207579599999999 23.0559583100000012 2.6034734500000001 Au
atom 13.1152627400000004 23.0237942599999990 2.4965474799999998 Au
atom 15.9122689499999996 23.0531772799999999 2.5937107600000000 Au
atom 18.7301839000000001 23.0402647199999997 2.5990236000000002 Au
atom 21.6035309300000016 23.0131844299999990 2.6409779400000000 Au
atom 24.4206265199999990 23.0606784299999994 2.8209193799999999 Au
atom 27.2294630700000013 23.1202891100000016 2.8310804799999998 Au
atom 1.8922985500000000 23.0290092299999998 2.8091983500000000 Au
atom 4.7559026900000001 23.1624910200000009 2.6896533400000000 Au
atom 8.9430548900000009 25.5152242899999990 2.5727377800000002 Au
atom 11.7180499600000001 25.5015125299999994 2.6264081799999999 Au
atom 14.5408818800000006 25.5608607200000009 2.8153034799999999 Au
atom 17.3826323100000018 25.4931252000000015 2.6535238500000000 Au
atom 20.1290713600000011 25.4538904600000002 2.6709809899999999 Au
atom 22.9522684499999983 25.5380827100000012 2.7310318200000001 Au
atom 25.7920550099999986 25.4866822999999982 2.8454875099999999 Au
atom 0.4377222100000000 25.5506249099999998 2.8249385400000002 Au
atom 3.2989982300000000 25.5602850000000004 2.7594532400000000 Au
atom 6.2020343200000001 25.5756857699999998 2.7726859500000001 Au
atom 7.5306665199999996 27.9967027199999983 2.4880894900000001 Au
atom 10.3252944600000003 28.0173888600000005 2.4899045399999999 Au
atom 13.1549824999999991 27.9907800299999998 2.6601922099999999 Au
atom 16.0779976200000014 28.0030690600000014 2.2992912599999999 Au
atom 18.8118375100000002 28.0287341099999985 2.6772595799999999 Au
atom 21.6063671600000013 28.0375425000000007 2.6305316500000000 Au
atom 24.3645267700000012 27.9999172999999999 2.6980875900000001 Au
atom 27.2314611000000006 28.0815678700000007 2.7639447900000000 Au
atom 1.9262619500000000 27.9985652300000005 2.6708688999999999 Au
atom 4.7104305899999996 28.0135040300000000 2.6593763799999999 Au
atom 8.9261435200000001 30.3860168500000007 2.4190482900000001 Au
atom 11.6960554699999992 30.4371632900000009 2.4108294899999998 Au
atom 14.5644099100000002 30.4165272699999996 2.4839666000000000 Au
atom 17.3671571699999987 30.4294947499999999 2.7243968299999999 Au
atom 20.2726396300000005 30.4411864799999989 2.7105146400000000 Au
atom 23.0127077900000003 30.4565789900000006 2.5474343400000001 Au
atom 25.8021880400000008 30.4740725099999992 2.4372441600000001 Au
atom 0.4692843100000000 30.5085764399999988 2.5608473100000002 Au
atom 3.2911508899999999 30.4591629700000013 2.6335772600000000 Au
atom 6.0862636900000000 30.4627239699999990 2.5500801200000001 Au
atom 7.5855647800000003 32.9114787999999976 2.4637619100000001 Au
atom 10.2984785900000002 32.8589856099999977 2.3074681400000001 Au
atom 13.1057311399999996 32.8267257299999997 2.3801451899999999 Au
atom 15.9096183999999994 32.8418077099999977 2.6455094799999999 Au
atom 18.7970861300000003 32.8895575499999993 2.6501819000000002 Au
atom 21.5555786699999992 32.9693358299999986 2.4488426599999999 Au
atom 24.3666759299999995 32.8428738100000004 2.4924373800000001 Au
atom 27.2306802999999995 32.9253695800000017 2.4776849500000000 Au
atom 1.9319783500000001 32.9688481900000028 2.5727613699999998 Au
atom 4.6880096800000004 32.8878107199999974 2.3686421599999998 Au
atom 8.9721521899999992 35.3424857299999999 2.5448152600000000 Au
atom 11.7425535599999993 35.2516212000000024 2.4050946700000000 Au
atom 14.5418930500000005 35.3622585999999970 2.6471090700000000 Au
atom 17.3637921000000013 35.3204529300000019 2.7158557100000000 Au
atom 20.1030966500000012 35.4187733899999984 2.4414447600000000 Au
atom 22.9377943600000016 35.4401878700000026 2.6388555199999999 Au
atom 25.8118385799999999 35.3395350099999987 2.6735892200000002 Au
atom 0.4402778800000000 35.3882798500000035 2.5873569100000000 Au
atom 3.2678686799999999 35.3647977199999985 2.4767937500000001 Au
atom 6.0834503399999997 35.3219687699999980 2.6841925000000000 Au
atom 7.4820448099999997 37.8348027999999985 2.7135100599999999 Au
atom 10.4078559399999993 37.8070154099999982 2.6087682100000000 Au
atom 13.2056750399999991 37.8262775700000020 2.5735433300000001 Au
atom 15.9312862299999995 37.8129840699999988 2.8378424299999998 Au
atom 18.6869491600000011 37.8763573499999993 2.7078224799999999 Au
atom 21.5421308200000006 37.8402381200000022 2.5775430799999999 Au
atom 24.4007894100000016 37.8298918899999990 2.6767532300000001 Au
atom 27.2327005100000008 37.7628995199999977 2.8533734900000001 Au
atom 1.8891294400000000 37.8265137300000021 2.5074714800000000 Au
atom 4.6915114400000002 37.7754251599999975 2.8054376400000001 Au
atom 8.9508467199999995 0.7782717400000000 2.7699233699999999 Au
atom 11.7794377800000003 0.7911820800000000 2.6693720399999998 Au
atom 14.5536904699999994 0.8415977400000000 2.7559221500000000 Au
atom 17.4263953100000002 0.8752818100000000 2.7615931100000002 Au
atom 20.1841130100000008 0.8694019400000000 2.7893852500000000 Au
atom 23.0453954199999984 0.7795523200000000 2.8035910799999999 Au
atom 25.8519124100000006 0.8806463400000000 2.7402996000000002 Au
atom 0.4787707100000000 0.7418997800000000 2.7800655100000000 Au
atom 3.2180966299999998 0.8341294500000001 2.7233515800000001 Au
atom 6.1157498800000001 0.8243158000000000 2.7655246600000001 Au
atom 7.5523945599999998 3.2998552600000002 2.6462554599999999 Au
atom 10.3860604700000003 3.2700217000000000 2.8103734100000000 Au
atom 13.1655319599999991 3.3532263000000002 2.5666775700000000 Au
atom 15.9828858700000005 3.2224070899999999 2.6848459600000001 Au
atom 18.8842024600000009 3.3264806199999999 2.6789978699999999 Au
atom 21.6831159900000010 3.2374718699999998 2.4879722599999998 Au
atom 24.4268342700000005 3.3338098600000001 2.6353555800000001 Au
atom 27.2505332500000002 3.3076874400000000 2.6044259699999999 Au
atom 1.8504001400000001 3.3098029499999999 2.6984197499999998 Au
atom 4.7119334799999999 3.2148893099999998 2.5303268999999999 Au
atom 8.9499289199999996 5.8153582100000003 2.7985545599999999 Au
atom 11.8182933699999992 5.8724333900000003 2.7655119400000001 Au
atom 14.5582920199999997 5.8135147399999996 2.6534899200000002 Au
atom 17.3794713300000012 5.7814514299999997 2.7317372199999999 Au
atom 20.2320372800000001 5.8358945400000000 2.6913055199999998 Au
atom 23.0367342400000013 5.7658525000000003 2.6423975199999998 Au
atom 25.9073256399999998 5.7846272000000001 2.7227182399999998 Au
atom 0.5782725300000000 5.7794063099999997 2.6778508799999998 Au
atom 3.4324148800000001 5.7224676099999998 2.6597406200000000 Au
atom 6.1509404900000000 5.7928369399999999 2.7283805399999999 Au
atom 7.5791899300000001 8.2885385199999995 3.0362640100000000 Au
atom 10.4282266299999993 8.2607183000000006 2.6593577800000001 Au
atom 13.2128454000000009 8.4096084999999992 2.7545254699999999 Au
atom 15.9329510899999995 8.2389352200000001 2.7909688899999998 Au
atom 18.8002137000000005 8.2300255399999998 2.7189779600000001 Au
atom 21.6275814199999985 8.2395543500000006 2.5983105599999998 Au
atom 24.4575020000000016 8.2073997599999995 2.6685072000000001 Au
atom 27.3088595900000008 8.2927362999999996 2.6359106699999999 Au
atom 1.9416328700000001 8.2907999799999992 2.6491370700000001 Au
atom 4.7017854400000001 8.2841348200000002 2.5701105900000001 Au
atom 8.9442998100000004 10.7059902800000000 2.8277882800000000 Au
atom 11.7392977399999996 10.8327687499999996 2.7204495500000001 Au
atom 14.5645044000000006 10.7949823499999997 2.7605824800000001 Au
atom 17.4471174100000006 10.6847338399999998 2.7054903600000002 Au
atom 20.2411905099999991 10.7547641200000008 2.6238228100000001 Au
atom 22.9908851500000004 10.7008345699999996 2.5076242899999999 Au
atom 25.7789868499999990 10.6538490600000006 2.6213329600000002 Au
atom 0.4261104500000000 10.7651190799999998 2.6467887100000000 Au
atom 3.2721370300000001 10.7652708199999996 2.6242236900000000 Au
atom 6.1483347699999999 10.6851410999999992 2.7581178099999999 Au
atom 7.5656807700000002 13.4708426400000008 5.7255007400000002 Cl
atom 7.5522118999999996 16.1049134900000013 8.5796897500000000 Cl
atom 7.4819536099999997 13.4296103400000000 8.3779518799999995 Na
atom 7.4901441499999999 16.2395774300000006 5.7776717099999999 Na
atom 7.4049842100000003 18.9071426199999983 5.6299179900000000 Cl
atom 7.3941218800000001 21.7210897199999984 8.5912397200000008 Cl
atom 7.5190292999999997 18.9596390799999988 8.3106168700000005 Na
atom 7.4492452699999996 21.7746042499999994 5.7455102499999997 Na
atom 7.5256813899999999 24.5508829199999994 5.7807200400000003 Cl
atom 7.4678551700000000 27.3988360700000015 8.5985792700000001 Cl
atom 7.4109543300000000 24.5764009899999998 8.4305110299999999 Na
atom 7.4610443699999998 27.3853273799999997 5.8278734200000004 Na
atom 7.4266893400000003 30.3028807100000002 5.7090397099999999 Cl
atom 7.3465306400000001 33.0356791600000008 8.5228537200000005 Cl
atom 7.3448736700000001 30.1382239299999988 8.2807279099999995 Na
atom 7.3913769699999996 33.0511235299999981 5.8140252300000004 Na
atom 7.4242965200000004 35.7029597699999997 5.6261141500000003 Cl
atom 7.3142876000000001 38.7804934299999999 8.4537724599999997 Cl
atom 7.3607606900000002 35.8012005699999989 8.3474318000000007 Na
atom 7.5655527999999999 38.6538347700000031 5.8964126400000003 Na
atom 7.4029866599999998 2.1576336100000000 5.6579492599999996 Cl
atom 7.4166989000000001 4.7989114900000001 8.4760009499999995 Cl
atom 7.5285476700000000 2.0107023000000002 8.3316632399999992 Na
atom 7.3527821099999997 4.8937441200000000 5.8123001199999997 Na
atom 7.4646745599999997 7.7705294699999996 5.8196526999999998 Cl
atom 7.4033782900000000 10.4260386199999999 8.5312120500000006 Cl
atom 7.4658313900000000 7.6330126099999998 8.5001512899999998 Na
atom 7.5731834100000004 10.6388006300000004 5.7916198600000000 Na
atom 10.3901261500000004 13.4820707899999999 5.7027653400000000 Na
atom 13.1640005999999996 13.4337423299999994 5.7894782100000004 Cl
atom 10.3349492800000000 16.2201533500000004 8.0836016100000005 Na
atom 13.1225845000000003 16.1860067500000007 8.4894685200000009 Cl
atom 13.1815753600000001 13.4608921299999995 8.4993831199999992 Na
atom 10.2658098899999999 13.3525811399999998 8.3531925999999999 Cl
atom 12.9956444300000005 16.2985792899999993 5.6790825399999996 Na
atom 10.2240421700000006 16.2379084200000001 5.5138287999999998 Cl
atom 10.2480576600000006 18.9635708700000016 5.5877819799999999 Na
atom 13.0377163899999999 18.9462554800000014 5.5538282900000002 Cl
atom 10.2331114200000002 21.7549342299999999 8.2899708299999997 Na
atom 13.1464774900000005 21.7371574800000005 8.3481172200000007 Cl
atom 13.1787130599999998 19.0200172899999984 8.1402377099999992 Na
atom 10.3416047800000008 18.9694252900000002 8.4231531200000003 Cl
atom 12.9320554800000007 21.7596431899999985 5.5639630599999998 Na
atom 10.2148692699999994 21.6739237500000002 5.6296052599999999 Cl
atom 10.1769690799999992 24.5122882400000002 5.5924889000000002 Na
atom 13.0367454299999999 24.4900313199999999 5.6050478600000000 Cl
atom 10.2338789999999999 27.3613713899999986 8.2210548200000009 Na
atom 13.0083794699999995 27.2954213199999991 8.4082304400000005 Cl
atom 13.1043862200000003 24.3264654100000008 8.1511157000000001 Na
atom 10.0808201299999993 24.5096059199999985 8.4421530600000008 Cl
atom 13.0351552999999996 27.2865390599999991 5.8259157699999999 Na
atom 10.1187299900000003 27.5333888500000015 5.6575117700000002 Cl
atom 10.3299254999999999 30.2268910499999990 5.6675538699999999 Na
atom 13.1164186899999997 30.1925694299999989 5.5997753899999996 Cl
atom 10.2200243299999993 32.9374096199999968 8.3348480699999996 Na
atom 12.9098191300000007 33.0933710899999980 8.5623821600000003 Cl
atom 13.1298774500000004 30.1504137300000004 8.2921168800000000 Na
atom 10.4435120799999996 30.2859160199999984 8.4855275900000002 Cl
atom 13.1236837099999999 32.9153972599999989 5.8347122699999998 Na
atom 10.2992698600000008 33.0940742100000023 5.5726662899999999 Cl
atom 10.2546616600000000 35.8253466900000035 5.8761528399999996 Na
atom 13.1121366199999994 35.8811906899999968 5.7526406899999998 Cl
atom 10.1975963099999998 38.6221203200000005 8.3457695199999993 Na
atom 13.0511102200000000 38.6767147199999997 8.6008486499999997 Cl
atom 13.0135694300000004 35.8681068900000000 8.3602410999999996 Na
atom 10.1000267600000004 35.7710177399999978 8.5898839500000008 Cl
atom 13.2230998100000008 38.7193428499999968 5.8588342500000001 Na
atom 10.2372208800000006 38.6302979299999976 5.6826307500000004 Cl
atom 10.2779605099999998 1.9642408700000000 5.6949139300000002 Na
atom 13.1157184900000008 1.9709488799999999 5.7381278499999997 Cl
atom 10.2293339099999994 4.7665730899999996 8.2563993199999999 Na
atom 13.0878177000000004 4.7937103099999998 8.5271601199999996 Cl
atom 12.9937158099999994 1.9442720499999999 8.3587402199999996 Na
atom 10.2099221199999999 1.9109408100000000 8.4655212399999993 Cl
atom 13.0695472699999993 4.8558785300000000 5.7229590500000000 Na
atom 10.3590939800000008 4.9772603499999999 5.6945427200000003 Cl
atom 10.3089609899999992 7.7706722099999999 5.7870096699999998 Na
atom 13.0384434999999996 7.7187013699999998 5.9052355700000003 Cl
atom 10.3701597799999998 10.5331464599999993 8.4320175099999997 Na
atom 13.1884953800000009 10.4919115000000005 8.6799721200000004 Cl
atom 13.1782552200000005 7.5882654299999999 8.4592430499999995 Na
atom 10.2537185999999991 7.6317076799999999 8.5581125799999995 Cl
atom 13.1584760500000009 10.5670235199999993 5.8850235599999996 Na
atom 10.3837458799999993 10.7013665400000004 5.7220480900000004 Cl
atom 16.0677775499999989 13.3458401900000005 5.6800614999999999 Na
atom 18.9397797099999998 13.4183473299999996 5.7396938200000003 Cl
atom 15.9010408200000004 16.2739210999999990 8.1026092199999997 Na
atom 18.7866456299999989 16.1811780700000014 8.4232479100000006 Cl
atom 18.7463847000000001 13.3308982900000004 8.3591841799999997 Na
atom 16.0230749800000005 13.4963444300000006 8.5385202899999992 Cl
atom 18.8815350799999990 16.1410281600000012 5.7830743199999999 Na
atom 16.0426406399999983 16.1059421600000015 5.6131081900000002 Cl
atom 16.0091928500000016 18.8753566299999989 5.6125221700000001 Na
atom 18.8086610999999984 19.0356579000000004 5.6729514300000004 Cl
atom 15.9929152600000002 21.7609827299999985 8.1048667299999995 Na
atom 18.6843439300000007 21.7432443699999993 8.5686357999999991 Cl
atom 18.7712359999999983 18.9853646900000008 8.3172302800000004 Na
atom 15.9579063800000007 19.0273418200000002 8.3493089000000005 Cl
atom 19.0101513299999993 21.6908066099999992 5.8102622400000001 Na
atom 16.0576064000000009 21.6786246300000016 5.4788969999999999 Cl
atom 16.0812919000000001 24.4811611300000003 5.4775105000000002 Na
atom 18.8919880499999984 24.4318129900000010 5.6072106300000000 Cl
atom 15.8980283999999994 27.1708811899999993 8.5245949599999999 Na
atom 18.7315500800000017 27.2976454799999999 8.5555329300000000 Cl
atom 18.7540045199999987 24.4758386600000009 8.4163514999999993 Na
atom 15.8305398099999994 24.4181543099999985 8.1255588299999992 Cl
atom 18.7075572299999990 27.2238111300000014 5.8857441599999998 Na
atom 16.0419676100000004 27.3538124700000012 5.7889058300000000 Cl
atom 15.9209730199999999 30.1316978800000008 5.9076263999999998 Na
atom 18.7425684500000003 30.0972988999999984 5.7834682199999996 Cl
atom 15.7834053500000007 32.9869217000000035 8.3897664800000005 Na
atom 18.7356153200000008 32.9335467100000017 8.5663524199999994 Cl
atom 18.7646518899999997 30.1939773000000002 8.4938206300000001 Na
atom 15.8576131599999997 30.1724323400000003 8.6105462399999997 Cl
atom 18.8046756100000003 32.9743589899999989 5.8788344300000004 Na
atom 15.9582823800000000 33.0013387699999967 5.7196281999999998 Cl
atom 15.8780109500000002 35.8448412799999971 5.9103890200000002 Na
atom 18.7395860799999987 35.8440979399999975 5.8711568099999996 Cl
atom 15.9248866000000007 38.5768695499999978 8.4916345700000004 Na
atom 18.8285012599999995 38.6674195599999990 8.7100016500000006 Cl
atom 18.6573624299999992 35.7722876999999997 8.4402960199999999 Na
atom 15.8928439800000003 35.6973299499999968 8.6248591999999995 Cl
atom 18.7821727100000011 38.6128248500000026 5.9725452800000003 Na