#===============================================================================
# Created using the Atomic Simulation Environment (ASE)

# Tue Dec 23 22:26:11 2025

#=======================================================
lattice_vector 28.1999999999999993 0.0000000000000000 0.0000000000000000 
lattice_vector 0.0000000000000000 39.4799999999999969 0.0000000000000000 
lattice_vector 0.0000000000000000 0.0000000000000000 62.3296083400000001 
atom 7.4637181999999997 14.8887179500000002 -0.3138889700000000 Au
atom 10.1926554300000003 14.8153325299999992 -0.3115558900000000 Au
atom 12.9526866599999995 14.8724838300000002 -0.5386277500000000 Au
atom 15.9509377800000003 14.9241846700000007 -0.3935013400000000 Au
atom 18.8128371200000011 14.8262204799999999 -0.3943552200000000 Au
atom 21.6086625599999991 14.8616245199999994 -0.3446537100000000 Au
atom 24.4015483999999994 14.8220695800000009 -0.2404025000000000 Au
atom 27.2500712000000007 14.7939972199999996 -0.0746840600000000 Au
atom 1.8435693900000001 14.7189225599999993 -0.1846275900000000 Au
atom 4.6184435800000001 14.8238499899999994 -0.2039591400000000 Au
atom 8.8675005500000008 17.3460688300000001 -0.1394968300000000 Au
atom 11.7251846700000009 17.3954039300000005 -0.6071423600000000 Au
atom 14.5507940999999992 17.2747865699999998 -0.5370851100000000 Au
atom 17.4327244300000004 17.3499007700000014 -0.2795883500000000 Au
atom 20.2106066200000001 17.3893223200000016 -0.3689770900000000 Au
atom 23.0058176000000003 17.3495865800000004 -0.0952381900000000 Au
atom 25.7494947299999986 17.2991006399999989 -0.1987409200000000 Au
atom 0.4034441200000000 17.2511473299999984 -0.2951978100000000 Au
atom 3.2324433500000000 17.2484520600000018 -0.1837302100000000 Au
atom 6.0180508200000000 17.2943382600000000 -0.1224434100000000 Au
atom 7.4264055100000004 19.8133164199999996 0.1827522800000000 Au
atom 10.2365871800000008 19.7468554300000001 -0.2943660500000000 Au
atom 13.0589344199999999 19.8418708899999992 -0.1923177100000000 Au
atom 15.8096851199999993 19.8553784299999982 -0.3228214200000000 Au
atom 18.6724924500000000 19.7720796700000001 -0.2584699600000000 Au
atom 21.5340657499999999 19.8114459700000012 -0.2001870200000000 Au
atom 24.2973329299999996 19.7660888300000011 -0.1031021100000000 Au
atom 27.1494731300000005 19.7898398299999982 -0.0194041200000000 Au
atom 1.7931234100000000 19.8287225599999992 -0.2405718900000000 Au
atom 4.6121312100000003 19.7892844100000005 -0.0749080500000000 Au
atom 8.7773176100000008 22.2223878299999988 -0.0193022300000000 Au
atom 11.6572880100000003 22.2813231700000003 -0.2224701400000000 Au
atom 14.4143042099999992 22.3137642000000014 -0.2421550700000000 Au
atom 17.2788519200000010 22.1818119100000004 -0.1330812200000000 Au
atom 20.0178932600000010 22.3087650800000006 -0.3302483700000000 Au
atom 22.7345320999999991 22.5454085800000001 0.0128546900000000 Au
atom 25.6994649600000002 22.1801351599999990 0.1478860400000000 Au
atom 0.3352781600000000 22.2285828599999995 0.1203517000000000 Au
atom 3.2062404400000002 22.2431421000000000 0.3081580800000000 Au
atom 5.9569850000000004 22.2144681300000002 0.1895270900000000 Au
atom 7.3535886799999997 24.7044042600000004 0.3191420500000000 Au
atom 10.1865853400000006 24.6844004800000008 0.0934604700000000 Au
atom 12.9828844300000004 24.8574484899999995 0.0104718700000000 Au
atom 16.0206941600000015 24.7128601100000012 0.0192641700000000 Au
atom 18.7704764399999995 24.7682704499999993 0.0940992000000000 Au
atom 21.6882167499999987 24.4452754399999996 -0.0633129500000000 Au
atom 24.4228537699999997 24.6950508199999987 -0.1075377200000000 Au
atom 27.1856304999999985 24.6942668699999999 0.3563904000000000 Au
atom 1.6988675200000001 24.7129677600000015 0.0365219700000000 Au
atom 4.5186639000000000 24.8050848600000009 0.1946509000000000 Au
atom 8.9539480699999991 27.1298293100000016 0.1751391500000000 Au
atom 11.8413567499999992 27.0165724900000015 0.1136993800000000 Au
atom 14.5980043500000001 27.2217988200000001 0.0638335100000000 Au
atom 17.3640267900000005 27.2672754099999999 -0.1497079800000000 Au
atom 20.1759677699999997 27.2439644100000002 0.0265033700000000 Au
atom 22.9672377800000014 27.1060151800000000 -0.0376757400000000 Au
atom 25.7376833599999983 27.1237312999999993 0.2288473700000000 Au
atom 0.3830743000000000 27.1876508500000007 0.1852251500000000 Au
atom 3.2030827400000002 27.2264945099999984 -0.0630564100000000 Au
atom 6.1254730899999998 27.2074975399999985 0.0243341000000000 Au
atom 7.5189620899999996 29.6032540399999995 -0.1036002800000000 Au
atom 10.3647000800000004 29.5581859099999988 0.0968191200000000 Au
atom 13.1814670599999992 29.6238443199999999 -0.1580136600000000 Au
atom 16.0139735399999985 29.6790167300000007 0.0043877500000000 Au
atom 18.8070358599999992 29.7590383799999998 -0.1991997100000000 Au
atom 21.5290447200000017 29.6652496600000006 0.1291731100000000 Au
atom 24.3427801300000013 29.6016706800000016 0.2733504800000000 Au
atom 26.9192665799999986 30.0132242299999987 0.2647841200000000 Au
atom 1.7943207000000001 29.6151085999999992 0.0889793800000000 Au
atom 4.7422845400000000 29.6196284299999988 -0.1447638200000000 Au
atom 8.9438212400000001 32.0062817299999978 -0.0068341100000000 Au
atom 11.7859695000000002 32.0277705000000026 0.0032173900000000 Au
atom 14.6394932499999992 32.1664708500000032 0.0260181200000000 Au
atom 17.4232468000000011 32.1843694299999967 -0.0185546700000000 Au
atom 20.1999746599999987 32.1984947600000027 -0.1537073900000000 Au
atom 23.0159161700000006 32.1567106800000033 -0.0261695800000000 Au
atom 25.9722908200000013 31.7278768900000010 0.0611719900000000 Au
atom 0.4101997800000000 32.1033175900000032 -0.1081047300000000 Au
atom 3.2324080500000001 32.1167641600000024 -0.1218442800000000 Au
atom 6.1586967399999999 32.0671156399999973 0.0482726000000000 Au
atom 7.4721820000000001 34.5293502299999986 -0.1625943700000000 Au
atom 10.2289705299999998 34.4291262500000030 -0.0378294300000000 Au
atom 13.1120846100000001 34.5424049399999973 -0.0052705600000000 Au
atom 15.9754190600000001 34.6515542799999992 -0.0122523000000000 Au
atom 18.8255228599999995 34.6887342300000014 -0.0642237300000000 Au
atom 21.5778639800000001 34.6427426199999999 0.2443947800000000 Au
atom 24.4181186699999984 34.5565441800000031 0.2902639400000000 Au
atom 27.2281506600000007 34.4975578499999997 -0.0682984000000000 Au
atom 1.9290607900000001 34.4833247500000013 -0.0670408300000000 Au
atom 4.7209308900000000 34.3829297500000024 -0.0324390300000000 Au
atom 9.0266705199999997 37.0461728300000033 -0.1088737100000000 Au
atom 11.7878488299999997 36.9921623899999972 -0.0682720300000000 Au
atom 14.5417570900000008 37.0188618600000012 0.0042824900000000 Au
atom 17.4109227599999983 37.0815039700000000 -0.2054196000000000 Au
atom 20.1706442999999993 37.1254514199999974 0.0503327400000000 Au
atom 22.9527792400000017 37.0672661700000035 0.0947173800000000 Au
atom 25.9778886399999998 34.3091755499999991 -0.0785763200000000 Au
atom 0.5560420700000001 36.9368425199999990 -0.0351245800000000 Au
atom 3.3811649600000000 36.9895159100000015 -0.0024931500000000 Au
atom 6.1579981100000003 37.0082593099999997 -0.1219234400000000 Au
atom 7.4903704299999996 0.0182155400000000 -0.0676264000000000 Au
atom 10.4029378399999999 0.0105604400000000 -0.0910229600000000 Au
atom 13.1330218199999997 0.0205264100000000 0.1060202500000000 Au
atom 15.9645268700000003 0.0440919500000000 0.0528852600000000 Au
atom 18.8365328199999986 0.1518368300000000 -0.1084567300000000 Au
atom 21.6259640100000006 0.0802077500000000 0.1884375500000000 Au
atom 24.3486119199999997 0.0057603500000000 -0.1165835500000000 Au
atom 27.0353957899999990 2.6261693600000000 0.1179604000000000 Au
atom 1.8650609400000000 0.0016194100000000 0.1173000000000000 Au
atom 4.6471409899999996 0.0115564800000000 0.1631431600000000 Au
atom 8.8816091799999999 2.5588287099999998 0.0370477000000000 Au
atom 11.7708556400000006 2.5372476700000002 -0.0537972900000000 Au
atom 14.5391542699999992 2.4936506899999999 0.0300643700000000 Au
atom 17.3528534199999989 2.5744691700000000 0.0787179400000000 Au
atom 20.2369331400000014 2.4992200800000002 -0.0619735400000000 Au
atom 23.0942812699999998 2.5701836299999998 0.1689968600000000 Au
atom 24.2364736500000006 2.4410074200000000 0.2819894200000000 Au
atom 2.0692976900000000 2.3827314799999999 0.1506051900000000 Au
atom 3.2054483999999999 2.4735102100000002 0.0561586600000000 Au
atom 6.0303533600000003 2.5255414200000001 -0.0156666100000000 Au
atom 7.4395404500000000 4.9797093800000001 0.2462884200000000 Au
atom 10.3461058500000007 4.9674190600000001 0.0079841900000000 Au
atom 13.1804236199999991 5.0352614300000003 0.0674657100000000 Au
atom 15.9277109100000001 4.9111392299999999 0.1028902700000000 Au
atom 18.7811129100000009 4.9745217000000004 0.1189851300000000 Au
atom 21.6475767099999992 5.0252172799999997 0.0665651000000000 Au
atom 24.5157110299999985 4.9333580299999999 0.0873435900000000 Au
atom 27.2619180800000009 4.9398513900000003 0.2878151700000000 Au
atom 1.8103736399999999 4.9360521000000004 0.0677227900000000 Au
atom 4.6156231500000002 4.9826493899999997 -0.0548397400000000 Au
atom 8.8692533499999993 7.4047635700000001 -0.0494831000000000 Au
atom 11.6872075899999999 7.4730800300000002 0.0157953300000000 Au
atom 14.4895327599999995 7.4698747100000000 0.0345777500000000 Au
atom 17.3081553300000017 7.3677380100000001 0.1328805200000000 Au
atom 20.1943253600000006 7.4517969300000004 0.1252806100000000 Au
atom 22.9936845400000003 7.4631832500000002 0.1410208900000000 Au
atom 25.8504125900000012 7.3739463000000001 0.2633057900000000 Au
atom 0.4539392800000000 7.4039716999999996 0.0097644300000000 Au
atom 3.2181455200000002 7.4915609500000002 0.0487213500000000 Au
atom 6.0415078700000002 7.4455434900000004 0.3039875800000000 Au
atom 7.4595897999999998 9.8880855699999994 0.1086293000000000 Au
atom 10.1800939800000005 9.8523966000000005 -0.0412410500000000 Au
atom 13.0336558700000005 9.9016186099999999 -0.0204990200000000 Au
atom 15.9622397100000004 9.8489575400000007 0.0012508500000000 Au
atom 18.7207148399999994 9.8574428100000002 -0.0537055300000000 Au
atom 21.4826835900000006 9.8776177300000008 -0.2993460100000000 Au
atom 24.3858764900000011 9.9364917100000003 -0.2284631200000000 Au
atom 27.2633374699999997 9.8205328000000005 0.0987558700000000 Au
atom 1.8492182399999999 9.8668881699999993 -0.0548865900000000 Au
atom 4.6870503899999996 9.9166597900000006 -0.1218047500000000 Au
atom 8.7769355800000000 12.3417660100000006 -0.1324199000000000 Au
atom 11.5903936000000005 12.3103342100000006 -0.1253385700000000 Au
atom 14.4769906499999994 12.3412196200000004 -0.3343769800000000 Au
atom 17.3721474600000008 12.2983929300000003 -0.3479256800000000 Au
atom 20.1568653799999993 12.3659603199999992 -0.2418530700000000 Au
atom 22.9800832200000009 12.3496889999999997 -0.2569137600000000 Au
atom 25.8517491399999990 12.3059906300000002 -0.1199937300000000 Au
atom 0.4228409100000000 12.3309205800000008 -0.3852887800000000 Au
atom 3.2707591300000001 12.2861741700000007 -0.2355161000000000 Au
atom 6.0361232800000000 12.3985075899999995 -0.1075355000000000 Au
atom 7.5001933899999997 13.2242936800000006 2.5157438800000000 Au
atom 10.2396642500000006 13.3246592199999991 2.2957097599999998 Au
atom 13.1205499700000008 13.3556760699999995 2.1674050800000000 Au
atom 15.9525721899999997 13.2432331500000000 2.2022612600000002 Au
atom 18.7396501700000009 13.2623525699999991 2.2742958500000001 Au
atom 21.5685704899999990 13.2796669499999993 2.2395082899999998 Au
atom 24.3854750699999983 13.2878318100000001 2.2512645000000000 Au
atom 27.1142225299999993 13.2559076900000008 2.5369504400000000 Au
atom 1.8171163400000001 13.1929175300000008 2.2417152800000002 Au
atom 4.6299463000000003 13.2361425799999992 2.3676288900000002 Au
atom 8.8446724200000002 15.6726863800000000 2.3008101399999998 Au
atom 11.8475685899999998 15.5518806699999992 2.0333359400000002 Au
atom 14.4879040799999999 15.7658614799999999 2.0617637300000000 Au
atom 17.2724533600000001 15.7010781200000000 2.3127613700000000 Au
atom 20.1216547100000014 15.6809026300000003 2.3148090600000000 Au
atom 22.8877842300000012 15.6782372999999993 2.5198477600000002 Au
atom 25.7048970399999988 15.6938336300000003 2.3079525799999998 Au
atom 0.3813406600000000 15.6638392199999998 2.4443937800000000 Au
atom 3.2232595200000000 15.6447117299999992 2.5797563399999999 Au
atom 5.9798756800000001 15.6469498199999997 2.4463330000000001 Au
atom 7.4220085999999998 18.0812819000000005 2.6393233500000002 Au
atom 10.0940896200000001 18.4293070999999991 2.3234757500000001 Au
atom 13.1006066600000004 18.1661024500000003 2.1748694400000002 Au
atom 15.9430321399999997 18.2168762300000004 2.2339471600000000 Au
atom 18.7823828100000014 18.0877288599999986 2.5204160700000000 Au
atom 21.5817435000000017 18.1241014599999986 2.3292949599999999 Au
atom 24.3921866799999982 18.0916525899999989 2.5435788499999998 Au
atom 27.2250853100000008 18.0338361899999988 2.4255048800000001 Au
atom 1.7800459099999999 18.0750744400000016 2.2626195099999999 Au
atom 4.6114518300000000 18.1442428900000010 2.4845037400000001 Au
atom 8.8261444299999994 20.5602786900000005 2.6734957399999999 Au
atom 11.6721917600000005 20.5235327000000005 2.5079193200000001 Au
atom 14.4793779800000006 20.6523135999999994 2.4537097000000001 Au
atom 17.3705153999999986 20.5447794700000017 2.5405438000000000 Au
atom 20.1326299900000016 20.5849996900000001 2.3850870999999998 Au
atom 22.9622582400000006 20.5508418900000009 2.4627881299999999 Au
atom 25.7583501900000016 20.5093427000000013 2.6747819300000000 Au
atom 0.4162588500000000 20.5085007799999985 2.5812260500000002 Au
atom 3.2533109300000000 20.5643326199999983 2.6956972399999999 Au
atom 6.0467408100000002 20.5696093200000014 2.7654129900000002 Au
atom 7.3796711500000001 23.0464541899999986 2.8005433700000002 Au
atom 10.2275726599999999 23.0398701400000014 2.5976948900000001 Au
atom 13.0072571200000002 23.0460677999999994 2.6016834800000002 Au
atom 15.8671222699999994 23.0488256400000004 2.4261551600000000 Au
atom 18.8169610700000014 22.9832250400000007 2.6301950299999999 Au
atom 21.5696952300000007 22.9811811100000014 2.4429480799999999 Au
atom 24.3291323499999983 22.9785022400000010 2.6960241900000002 Au
atom 27.0797419499999990 23.0443956199999995 2.8670124200000000 Au
atom 1.6715129900000001 23.0308081000000016 2.8894828000000001 Au
atom 4.5427786499999998 23.0867843000000015 2.8263706900000001 Au
atom 8.7203474599999993 25.5039156499999997 2.8978280600000001 Au
atom 11.6428084999999992 25.5530070299999998 2.6357813100000000 Au
atom 14.4538356799999992 25.4482210100000010 2.6107299799999999 Au
atom 17.3771198700000014 25.5839802200000008 2.6247650199999999 Au
atom 20.1834010399999997 25.4796909499999984 2.7389702200000001 Au
atom 23.1160067200000015 25.4038936900000003 2.5535565099999999 Au
atom 25.5790399499999985 25.5109281999999986 2.7324789100000002 Au
atom 0.3234720700000000 25.6117302100000011 2.8817315099999998 Au
atom 3.1118718500000000 25.4899692599999987 2.7523908900000000 Au
atom 5.9398411500000003 25.5059984899999996 2.9254610599999999 Au
atom 7.3361409999999996 27.9754993799999987 2.6373018400000001 Au
atom 10.1134685100000006 28.0214948200000009 2.8895406000000001 Au
atom 13.0759824200000008 28.0303521400000015 2.6150813400000001 Au
atom 15.8918215200000006 28.0799217299999988 2.8195171700000001 Au
atom 18.6906087999999997 28.0948456100000001 2.4567606299999998 Au
atom 21.4681075700000008 27.9087253900000007 2.7261447099999998 Au
atom 24.2385525699999995 27.9770350500000013 2.6791413700000000 Au
atom 27.1257162700000016 28.0440904499999988 2.6977271699999998 Au
atom 1.7332111699999999 27.9340061999999989 2.7112083500000002 Au
atom 4.5715182700000003 28.0010067000000014 2.4390019500000002 Au
atom 8.5203048300000006 30.4941191899999993 2.5398565999999998 Au
atom 11.6108717600000002 30.3723945099999995 2.6783799500000001 Au
atom 14.4906048700000003 30.4587560599999989 2.5514580200000001 Au
atom 17.3609129399999986 30.5262624699999989 2.5142136900000001 Au
atom 20.1075961899999989 30.4529956800000008 2.5747627600000000 Au
atom 22.8695299399999996 30.5703241699999992 2.6740059100000000 Au
atom 25.7562910199999990 30.4878067000000001 2.9886242900000002 Au
atom -1.3935409000000001 30.3448543000000015 2.7832937699999998 Au
atom 3.2503231600000002 30.4846185399999996 2.6220057699999999 Au
atom 6.2458103899999999 30.4722104499999986 2.5924175400000000 Au
atom 7.5073385999999998 32.9498672200000016 2.5396484500000001 Au
atom 10.2647348699999998 32.8777006999999983 2.6017508999999999 Au
atom 13.0818188299999996 32.8523797699999989 2.5099044400000001 Au
atom 15.9222028099999999 32.9616235700000004 2.5912754499999999 Au
atom 18.7250177499999992 33.0477931699999985 2.5309295700000001 Au
atom 21.5338679699999993 32.7732655800000003 2.6041036399999999 Au
atom 24.4132382800000016 32.9686356699999976 2.7807862299999999 Au
atom 29.1279427800000015 32.9832507799999988 2.5796805100000002 Au
atom 1.9310302600000000 32.9503147900000002 2.5731385000000002 Au
atom 4.7375655600000002 32.9403415399999986 2.7061034300000002 Au
atom 8.8623786800000008 35.4060634599999986 2.4414402000000002 Au
atom 11.6237128999999992 35.4319426400000026 2.4726927800000000 Au
atom 14.4473948900000000 35.4172797700000004 2.6230055299999999 Au
atom 17.2975631000000014 35.4407025000000004 2.4429756800000000 Au
atom 20.1869266900000000 35.3714229699999976 2.6509883599999999 Au
atom 23.0081132000000004 35.3949895800000007 2.8610468500000001 Au
atom 28.2529679199999997 35.3001387199999996 2.7386560400000000 Au
atom -1.9606436300000001 35.3427998200000033 2.5306436600000000 Au
atom 3.3304718599999998 35.3847230399999972 2.5623431000000001 Au
atom 6.0624670399999996 35.3550230199999973 2.3235948400000002 Au
atom 7.5536228599999999 37.9564725099999976 2.4451136600000001 Au
atom 10.3144910999999997 37.9118242699999968 2.6653995600000000 Au
atom 13.1588100600000004 37.8308560700000029 2.6834193200000001 Au
atom 15.9651734500000000 37.8756626699999970 2.6396993399999999 Au
atom 18.7720991400000017 37.9219421000000025 2.4901618999999999 Au
atom 21.5853719599999998 37.8650948499999984 2.7301993300000000 Au
atom 24.5096728100000014 37.8001855400000011 2.3977579000000002 Au
atom 27.3009604800000005 37.8233686100000028 2.5963796100000001 Au
atom 1.8199336100000001 37.8472047899999993 2.7073522699999999 Au
atom 4.6356612699999999 37.8815020700000034 2.5468999499999998 Au
atom 8.9819661300000000 0.9389847000000000 2.4936840000000000 Au
atom 11.7549910099999995 0.9946453800000000 2.6269472399999998 Au
atom 14.6780546899999997 0.9196009900000000 2.6445712700000001 Au
atom 17.3686128699999998 0.8675922700000001 2.6585344800000001 Au
atom 20.1981020200000003 0.8996705800000000 2.7763011400000002 Au
atom 23.0209058499999983 0.7721794100000000 2.8259990899999998 Au
atom 25.7990679699999994 0.7549213000000000 2.8230442199999999 Au
atom 0.4218206400000000 0.8052977600000000 2.6345131500000001 Au
atom 3.2051826499999998 0.7756523800000000 2.8685507200000000 Au
atom 6.0916198799999997 0.9010710300000000 2.6185325100000001 Au
atom 7.4449613799999996 3.3908502600000001 2.6704254399999998 Au
atom 10.3699725100000002 3.4248155200000001 2.5657743700000002 Au
atom 13.2561591300000003 3.3514688200000000 2.5203973899999998 Au
atom 16.1517170999999990 3.3733841800000000 2.6816103800000000 Au
atom 18.5672545199999988 3.3902568000000000 2.5517479800000000 Au
atom 21.6773272800000001 3.3355802899999998 2.6285870700000000 Au
atom 24.4874309699999984 3.3323366700000001 2.9037748200000002 Au
atom 27.2860181500000003 3.3309082000000001 2.9618041300000000 Au
atom 1.8176315100000000 3.3725421500000001 2.6710515500000001 Au
atom 4.6373653700000004 3.3669586400000000 2.6651581300000000 Au
atom 8.9058504900000006 5.9253787500000001 2.7444156300000002 Au
atom 11.7119427500000004 5.8807301900000004 2.8099899499999998 Au
atom 14.4681210599999996 5.9064735099999996 2.6109032399999998 Au
atom 17.2828164599999994 5.9123111699999997 2.7789879200000001 Au
atom 20.1779258800000001 5.7835332399999997 2.5901763700000000 Au
atom 23.0582773299999992 5.7957650000000003 2.7074639199999999 Au
atom 25.7911018799999994 5.8017569900000003 2.9348660000000000 Au
atom 0.4110295100000000 5.8389039900000004 2.7974366399999999 Au
atom 3.2540659800000000 5.8579549200000001 2.5026909499999999 Au
atom 6.0542384199999999 5.7705007699999999 2.7101788299999998 Au
atom 7.4425305899999996 8.3319715300000006 2.8992869500000000 Au
atom 10.2508376400000003 8.3254391999999999 2.5865098500000001 Au
atom 13.1268628100000004 8.4832777099999994 2.6213405200000000 Au
atom 15.9094115699999996 8.4350898799999996 2.6315072800000001 Au
atom 18.7342832000000001 8.3370093500000007 2.7019711700000002 Au
atom 21.5620620900000013 8.2757954399999996 2.6612829699999998 Au
atom 24.3382329599999991 8.3507533600000006 2.6378877799999998 Au
atom 27.1750333200000007 8.2148244399999992 2.7376860199999999 Au
atom 1.8235946000000001 8.3007553099999996 2.7763293999999998 Au
atom 4.6132518400000002 8.3354213599999998 2.6721752099999998 Au
atom 8.9329619000000005 10.8239410100000004 2.7195521399999998 Au
atom 11.7261058100000000 10.8602756899999999 2.6199678799999999 Au
atom 14.4817896400000006 10.8737251100000005 2.3363208200000001 Au
atom 17.3710087999999985 10.8110263500000006 2.4739881399999999 Au
atom 20.2542474299999995 10.7498691399999995 2.3423045100000000 Au
atom 23.3099698400000008 10.7880048100000003 2.2923247899999999 Au
atom 25.3403509000000007 10.7677823400000001 2.4326550199999999 Au
atom 0.3986827000000000 10.7998464399999996 2.4385881700000001 Au
atom 3.2294237500000000 10.7691172099999992 2.5092599500000001 Au
atom 6.0971574000000004 10.8023146400000005 2.5095472200000000 Au
atom 7.6817417499999996 12.9233300500000006 5.6954550900000003 Cl
atom 7.8129982299999998 15.8300743799999992 8.4961813599999996 Cl
atom 7.8961188800000004 12.8821204100000006 8.7318775199999994 Na
atom 7.6701551600000002 15.8752885399999997 5.7756260199999998 Na
atom 7.5905284399999999 18.7211320699999995 5.6124394899999999 Cl
atom 7.8009620699999997 21.5104249699999990 8.7516358200000006 Cl
atom 7.7283367500000004 18.7816119700000002 8.3942715900000007 Na
atom 7.9054135900000002 21.5953654700000008 5.9175108999999999 Na
atom 7.7330987899999997 24.3853357200000005 6.2256549200000002 Cl
atom 7.6398545200000001 27.3061338300000003 8.6027264100000007 Cl
atom 7.8576453400000004 24.4472915499999992 8.4456864700000001 Na
atom 7.8065273499999996 27.1722236399999986 5.8592268000000001 Na
atom 7.8252668200000004 30.0970687199999993 5.6518339099999997 Cl
atom 7.7650835100000002 32.7789817199999973 8.6859045699999999 Cl
atom 7.7699542599999996 30.0487709500000015 8.5143673000000000 Na
atom 7.5881683700000000 32.9417617599999986 6.0420926599999998 Na
atom 7.7227434700000002 35.7688981800000008 6.2319160299999998 Cl
atom 7.6494606400000000 38.5721385399999974 8.5941015499999995 Cl
atom 7.6582606699999998 35.7449793899999975 8.1977619100000005 Na
atom 7.4640212899999998 38.4874170699999993 5.7410451900000004 Na
atom 7.6259759000000003 1.8221397200000000 5.5838687599999997 Cl
atom 7.7517193500000001 4.6358209700000002 8.4680302100000002 Cl
atom 7.7108608800000003 1.8033735700000000 8.3772886700000004 Na
atom 7.5212341599999997 4.5673043599999996 5.7703176200000001 Na
atom 7.5648954499999999 7.3378269999999999 5.7214846699999997 Cl
atom 7.4644872500000004 9.9980009299999999 8.7120094399999992 Cl
atom 7.7675413700000000 7.2818983499999996 8.4700763899999991 Na
atom 7.7376192799999997 10.2063354099999994 5.4107175200000004 Na
atom 10.3538381800000003 12.7892643300000000 5.2132131800000003 Na
atom 13.2950201000000003 13.0130608599999995 5.1644702599999999 Cl
atom 10.6035983300000005 15.8651614999999993 7.8456394700000001 Na
atom 13.3592991199999993 15.7902595600000009 8.1737868999999996 Cl
atom 12.9849054899999992 12.9535804399999996 8.0665270200000005 Na
atom 11.2269445700000006 13.1224068599999999 8.3549962699999991 Cl
atom 13.2860951899999993 15.8883159599999999 5.4629987499999997 Na
atom 10.5222557200000004 15.8762217099999994 5.3230855500000001 Cl
atom 10.4774728300000000 18.6957598900000015 5.6475607300000004 Na
atom 13.7456458099999992 18.8069802499999987 5.6001867399999998 Cl
atom 10.6603459699999998 21.6893646000000011 8.4453147200000007 Na
atom 13.5552188400000002 21.5599428599999996 8.2701351200000008 Cl
atom 13.3435527599999997 18.6502109900000015 7.9476674799999998 Na
atom 10.5862037600000001 18.6814182600000009 8.4722873500000002 Cl
atom 13.4064371300000005 21.7501015600000009 5.6081364999999996 Na
atom 10.4209788799999998 21.4379898900000008 5.6360444300000001 Cl
atom 10.5343576300000006 24.3471383699999997 5.8504722100000004 Na
atom 13.4048648200000002 24.6067737599999994 5.6585615000000002 Cl
atom 10.7391600399999998 27.2136836799999990 8.6640067900000002 Na
atom 13.5324851600000002 27.3303660899999983 8.3799530799999999 Cl
atom 13.5281040299999997 24.4021687199999988 8.4993129300000003 Na
atom 10.6424297200000009 24.4252704999999999 8.7559290399999998 Cl
atom 13.2976927000000007 27.3509438399999993 5.8408698000000001 Na
atom 10.4698466900000007 27.1623347099999997 5.6099322100000002 Cl
atom 10.6249243599999996 30.1353342300000016 5.8665387999999998 Na
atom 13.4251201699999996 30.0874621299999987 5.5947839500000001 Cl
atom 10.5374596999999994 32.9661393000000018 8.3309813399999992 Na
atom 13.2922963099999993 32.8964858200000023 8.5589502300000007 Cl
atom 13.4029535699999993 30.0195444500000015 8.3060419700000008 Na
atom 10.5786496400000001 30.1004550600000016 8.6501620500000005 Cl
atom 13.2478510499999995 32.8982914500000021 5.7960776500000000 Na
atom 10.3248285299999996 32.8914096800000024 5.6583386899999999 Cl
atom 10.4140272800000009 35.5883412800000016 5.8729039399999996 Na
atom 13.3172432100000009 35.7659056500000005 5.6426381399999999 Cl
atom 10.5997513899999998 38.4452162099999981 8.3857138599999992 Na
atom 13.4685202499999992 38.7491407999999993 8.7218315099999995 Cl
atom 13.4351601400000007 35.2834526600000018 8.1312582100000004 Na
atom 10.5005072500000001 35.6921174599999986 8.7269955100000001 Cl
atom 13.3327307200000007 38.5514919700000007 5.8515212099999996 Na
atom 10.5014382200000007 38.5626995300000033 5.6299645199999997 Cl
atom 10.5135234999999998 1.9005274999999999 5.7118660200000004 Na
atom 13.3101076299999992 1.7800232499999999 5.7361107400000000 Cl
atom 10.5937140999999997 4.7531568899999996 8.0963110399999998 Na
atom 13.3985649999999996 5.0843197699999996 8.5001906900000002 Cl
atom 13.3650262699999995 1.8989181200000000 8.3793840799999995 Na
atom 10.5887908700000004 1.5257359399999999 8.5462438200000008 Cl
atom 13.4828715599999995 4.6216270300000000 5.7938085900000003 Na
atom 10.4837669000000009 4.6105391899999999 6.0836604000000003 Cl
atom 10.4272852700000005 7.4151996200000001 5.8498239800000000 Na
atom 13.4639505899999996 7.4240874999999997 5.6631069900000002 Cl
atom 10.3304641400000001 10.3588468799999998 8.6364675299999991 Na
atom 13.3017738300000001 10.0790964100000000 8.2923806199999994 Cl
atom 13.3819847700000008 6.9163626499999999 8.3684291099999992 Na
atom 10.5013373800000007 7.4706125400000003 8.5368493999999995 Cl
atom 13.5916189000000003 9.9270598900000007 5.4827240699999997 Na
atom 10.6041867599999993 10.1346162799999995 5.7248322500000004 Cl
atom 16.0978755400000004 12.9947309700000009 5.2486923900000004 Na
atom 19.1456866099999985 12.9236640299999994 5.2708031999999996 Cl
atom 16.1515892699999988 15.7831634199999993 8.1259378800000004 Na
atom 19.1749545499999989 15.7216429600000005 8.4670235900000002 Cl
atom 19.1050374900000008 13.0289684099999992 7.9533181099999997 Na
atom 16.1249111399999983 12.9353561300000006 8.5390068400000008 Cl
atom 19.0348810200000003 15.8276606100000006 5.4321073599999998 Na
atom 16.2465874600000006 15.9790194799999998 5.4047671099999999 Cl
atom 15.8842413499999999 18.8870169399999988 5.6670249999999998 Na
atom 19.1991587700000004 18.6511893399999984 5.7969803999999998 Cl
atom 16.1518146899999984 21.5171820199999999 8.3661059600000005 Na
atom 18.9512515499999985 21.2631396300000013 8.6812664900000005 Cl
atom 19.1924579000000008 18.4838634599999985 8.1795431500000007 Na
atom 16.1883395700000001 18.5086529300000002 8.5278331200000004 Cl
atom 19.0184371900000002 21.2478337900000014 5.9962004300000000 Na
atom 16.2712685599999993 21.2219589500000012 5.6022248599999998 Cl
atom 15.8590204799999999 24.3722996300000005 5.8404251000000000 Na
atom 19.1602076399999994 24.3255711800000007 6.3353939600000002 Cl
atom 16.3506244400000007 27.2455062699999999 8.2968058899999999 Na
atom 18.8828208199999992 27.1291191800000000 8.6533920599999998 Cl
atom 18.9811082099999986 24.2875680299999992 8.1433194600000007 Na
atom 16.0991892599999993 24.3215187399999984 8.4006695899999997 Cl
atom 18.9343792700000009 26.8640388100000003 5.8551177799999996 Na
atom 16.2218094099999988 27.1663955399999999 5.5642446200000002 Cl
atom 16.1790732999999989 29.9779971600000010 5.7263916600000000 Na
atom 18.9157333299999983 30.0477665700000003 5.6563823400000004 Cl
atom 16.0261925699999992 32.9242457499999972 8.2289639700000006 Na
atom 18.9626063500000015 32.7147679099999991 8.5924027800000005 Cl
atom 19.1770776299999994 29.8432986900000010 8.3149833300000004 Na
atom 16.2799501999999983 30.0091891299999993 8.4872900999999992 Cl
atom 18.9417512499999994 32.8517245099999968 5.3877601000000004 Na
atom 16.0663168499999998 33.0562951499999969 5.7268702300000003 Cl
atom 16.1900330200000013 35.6098558500000024 5.6637214199999999 Na
atom 19.1288675400000017 35.5990066900000031 5.6994908000000004 Cl
atom 16.2252141899999991 38.5271345700000012 8.2599587299999992 Na
atom 18.9464273100000007 38.3466488099999978 8.5926438500000000 Cl
atom 18.8914605800000004 35.5618680400000002 8.2791447500000004 Na
atom 16.0101059100000001 35.6246645800000010 8.5056808999999998 Cl
atom 19.0333230700000016 38.5787130800000000 5.7446867099999999 Na