#===============================================================================
# Created using the Atomic Simulation Environment (ASE)

# Tue Dec 23 22:27:03 2025

#=======================================================
lattice_vector 28.1999999999999993 0.0000000000000000 0.0000000000000000 
lattice_vector 0.0000000000000000 39.4799999999999969 0.0000000000000000 
lattice_vector 0.0000000000000000 0.0000000000000000 62.3296083400000001 
atom 7.4582830299999996 14.7891339800000008 0.0046199800000000 Au
atom 10.2897425699999996 14.8126230299999992 0.0043079200000000 Au
atom 13.1146469200000002 14.7919017200000003 0.0511413200000000 Au
atom 15.9644276499999993 14.8251117299999997 -0.0077983300000000 Au
atom 18.7951943499999992 14.8547969799999997 -0.0119418300000000 Au
atom 21.5729006699999992 14.8219174000000002 0.0142628400000000 Au
atom 24.3830738899999986 14.8199644999999993 0.1010698100000000 Au
atom 27.2423242200000004 14.8245192699999997 -0.0033384100000000 Au
atom 1.8457064400000001 14.7865233800000002 0.0167904800000000 Au
atom 4.6604934399999998 14.8017887199999993 -0.0205365700000000 Au
atom 8.8768435900000000 17.2457626399999988 0.0242638200000000 Au
atom 11.7062377299999998 17.2728914399999987 0.0289890700000000 Au
atom 14.5356535800000000 17.2631365400000014 0.0309283100000000 Au
atom 17.3654032700000016 17.2757997699999990 -0.0451946600000000 Au
atom 20.2122035900000014 17.2880490199999990 0.0603251300000000 Au
atom 23.0201530800000000 17.2928979200000015 0.0034047800000000 Au
atom 25.8227268400000014 17.2670509199999991 0.0889417500000000 Au
atom 0.4536692100000000 17.2914628199999996 0.0108672700000000 Au
atom 3.2976857599999998 17.2845004899999992 0.0078204700000000 Au
atom 6.0925455800000003 17.3098947199999991 0.0069591500000000 Au
atom 7.5036296900000004 19.7458377499999997 0.1390414000000000 Au
atom 10.3018225300000008 19.7548519300000009 0.0353833000000000 Au
atom 13.1298849200000003 19.7194139799999988 0.1296473400000000 Au
atom 15.9677415699999994 19.7494109400000006 0.0358985200000000 Au
atom 18.8090143500000018 19.7180625499999991 0.0746319000000000 Au
atom 21.6037988699999985 19.7756903400000006 0.0227533400000000 Au
atom 24.4481977400000012 19.7290234200000008 0.1666835400000000 Au
atom 27.2482739699999996 19.7580811700000005 0.0394260400000000 Au
atom 1.8496836800000001 19.7200029800000003 0.0905321200000000 Au
atom 4.6795508200000002 19.7678723599999984 0.0781347900000000 Au
atom 8.8812438700000005 22.2055757800000002 0.0758715200000000 Au
atom 11.6895892299999993 22.1753945899999998 0.0599045100000000 Au
atom 14.5313926400000000 22.1769195699999990 0.0498441700000000 Au
atom 17.3519207400000006 22.2076301399999991 0.1001920300000000 Au
atom 20.1941329200000013 22.2570594899999996 0.0947505700000000 Au
atom 23.0267900099999991 22.1915332700000008 0.0917625000000000 Au
atom 25.8410860199999988 22.2148935700000010 0.0969021900000000 Au
atom 0.4477320900000000 22.2103573400000016 0.0924860300000000 Au
atom 3.2854264400000002 22.1992175200000013 0.0635377500000000 Au
atom 6.1079634100000000 22.2165114700000004 0.0825818400000000 Au
atom 7.5050535399999996 24.6858598100000002 0.1050966700000000 Au
atom 10.3146113699999997 24.6497747499999988 0.1084284600000000 Au
atom 13.1518578700000006 24.6571611699999984 0.1269052500000000 Au
atom 15.9337035000000000 24.6561413999999992 0.0781082000000000 Au
atom 18.7625970500000001 24.7051314399999988 0.1319500800000000 Au
atom 21.6029706600000004 24.7085102300000017 0.0433243300000000 Au
atom 24.4478344599999993 24.6805348100000010 0.1165848300000000 Au
atom 27.2488698800000009 24.6950118600000010 0.0492754300000000 Au
atom 1.8725452100000000 24.6683749699999986 0.1465689500000000 Au
atom 4.6965240100000001 24.6567517599999988 0.1468116300000000 Au
atom 8.9517104500000002 27.0944301400000001 0.0608191700000000 Au
atom 11.7596038699999994 27.1149117299999993 0.0442558300000000 Au
atom 14.5554165999999991 27.1329382099999989 0.1106507100000000 Au
atom 17.3576014200000017 27.1797207999999983 0.0113000800000000 Au
atom 20.1929291299999996 27.1531496600000004 0.1174626000000000 Au
atom 23.0196197100000006 27.1621734600000018 0.1391791700000000 Au
atom 25.8600808700000009 27.1303123399999997 0.0235532600000000 Au
atom 0.4705279900000000 27.1531183600000006 0.0369135400000000 Au
atom 3.2996034700000001 27.1306878900000008 0.0765635800000000 Au
atom 6.1092024299999999 27.1437300899999983 0.0516712400000000 Au
atom 7.5158999299999998 29.5885791100000013 0.0445075900000000 Au
atom 10.3466621500000002 29.6092225999999989 0.0131412600000000 Au
atom 13.1439151800000005 29.6190578100000010 0.0712740800000000 Au
atom 15.9421678700000005 29.6246754699999997 0.0665053700000000 Au
atom 18.7816258000000005 29.6371778699999986 0.0421024100000000 Au
atom 21.5670106799999992 29.6108031099999991 0.0101302500000000 Au
atom 24.4334981300000003 29.6127672500000010 -0.0226517000000000 Au
atom 27.2243492700000012 29.6076346100000016 0.0809144800000000 Au
atom 1.8520857600000000 29.5838884200000010 -0.0275877800000000 Au
atom 4.7028693300000004 29.5916336400000013 0.0317734900000000 Au
atom 8.9305327099999996 32.0825444399999995 -0.0532414700000000 Au
atom 11.7217137800000000 32.0786566700000009 -0.0100288300000000 Au
atom 14.5664133600000003 32.0857438299999984 0.0623068000000000 Au
atom 17.3544115699999999 32.0998604500000013 0.0218362100000000 Au
atom 20.1747450899999983 32.0947072199999965 -0.0183637900000000 Au
atom 22.9671385500000014 32.0706450500000031 0.0097721600000000 Au
atom 25.8225560600000001 32.0809691199999989 0.0378348100000000 Au
atom 0.4597996800000000 32.0821942099999973 0.0145606500000000 Au
atom 3.2853012000000001 32.0645020799999969 -0.0229842400000000 Au
atom 6.1134744799999998 32.0497466799999984 0.0199036700000000 Au
atom 7.5237374700000004 34.5681523299999967 -0.0660149100000000 Au
atom 10.3044442099999998 34.5761523500000010 0.0086459400000000 Au
atom 13.1156874600000002 34.5328020199999983 -0.0783679100000000 Au
atom 15.9352072200000006 34.5522108999999986 0.0221808700000000 Au
atom 18.7591930799999993 34.5969219600000031 -0.0596119200000000 Au
atom 21.6056006600000003 34.5106481700000032 0.0656349000000000 Au
atom 24.4318784600000001 34.5731375499999984 0.0051660600000000 Au
atom 27.2523823100000016 34.5440948999999975 0.0525388000000000 Au
atom 1.8537895300000000 34.5496157899999972 -0.0253617300000000 Au
atom 4.7135434099999998 34.5084466899999995 0.1100359400000000 Au
atom 8.9100951599999991 37.0477420699999982 -0.0190058500000000 Au
atom 11.7157956300000006 37.0229602400000033 0.0174219000000000 Au
atom 14.5464503799999996 36.9941569300000026 -0.0121700100000000 Au
atom 17.3788156200000010 37.0458073300000024 0.0129016500000000 Au
atom 20.2188346999999986 37.0054335000000023 -0.0060906200000000 Au
atom 23.0394992499999987 37.0166484699999998 0.0674054300000000 Au
atom 25.8432405600000017 37.0193006100000019 0.0375618900000000 Au
atom 0.4760075300000000 37.0141152899999994 -0.0082405700000000 Au
atom 3.2793600700000001 37.0087176199999988 0.0092819600000000 Au
atom 6.0970358700000000 37.0251706299999981 0.0228785200000000 Au
atom 7.5180076299999996 0.0516380700000000 0.0598328900000000 Au
atom 10.3032037400000007 0.0262671300000000 0.1088114000000000 Au
atom 13.1554922699999999 0.0054436200000000 0.0734471600000000 Au
atom 15.9615919200000000 0.0322176100000000 0.1067375700000000 Au
atom 18.7949017299999994 0.0447733500000000 0.0927744100000000 Au
atom 21.6272559999999991 -0.0024237700000000 0.0858689700000000 Au
atom 24.4792497199999985 0.0327094900000000 0.0154914100000000 Au
atom 27.2892390899999988 0.0265885100000000 0.1525573500000000 Au
atom 1.8973834700000001 0.0685632700000000 0.0944601900000000 Au
atom 4.7216477100000001 0.0234163900000000 0.1207606400000000 Au
atom 8.9321868000000002 2.5149960199999999 0.1023658300000000 Au
atom 11.7383320500000004 2.4323811300000000 0.0655296900000000 Au
atom 14.5605990900000002 2.4674371800000001 0.0957653000000000 Au
atom 17.3679749399999999 2.4798750100000002 0.0885372000000000 Au
atom 20.1974881999999987 2.4644274099999999 0.0812162200000000 Au
atom 23.0143163599999987 2.4707592799999998 0.0575176000000000 Au
atom 25.8430476599999999 2.4856738900000002 0.0563117500000000 Au
atom 0.4664039700000000 2.4911553799999999 0.0279567600000000 Au
atom 3.3004773799999998 2.5021654500000001 0.0746342300000000 Au
atom 6.0842777000000003 2.5094328400000001 0.0970603500000000 Au
atom 7.5358523399999999 4.9493629099999996 0.0615280700000000 Au
atom 10.3301368000000000 4.9636300200000001 0.1100990700000000 Au
atom 13.1340337700000003 4.9061793099999997 0.0705223700000000 Au
atom 15.9580445100000006 4.9219938299999999 0.0601291300000000 Au
atom 18.7682890299999983 4.9441291300000003 0.0704890200000000 Au
atom 21.5855834500000014 4.9500470800000000 0.1261203900000000 Au
atom 24.4235223099999992 4.9302320100000001 0.1044502000000000 Au
atom 27.2811579100000010 4.9518820400000001 0.1486610000000000 Au
atom 1.8810274700000000 4.9474305400000000 0.0971535200000000 Au
atom 4.7262025400000001 4.9644039400000004 0.1234083200000000 Au
atom 8.9421891299999992 7.4131268900000000 0.0784411700000000 Au
atom 11.7723708800000004 7.3912294000000003 0.0094808400000000 Au
atom 14.5731957600000008 7.3877744200000004 0.0496035400000000 Au
atom 17.3999088099999994 7.4335508099999998 0.0177638900000000 Au
atom 20.2112634900000003 7.4429538400000004 0.1049400700000000 Au
atom 22.9811221299999993 7.4220519700000001 0.0369243500000000 Au
atom 25.8135202100000001 7.3652704199999999 0.0355253400000000 Au
atom 0.4585787300000000 7.4141288100000002 0.0777298000000000 Au
atom 3.2768666700000000 7.4093625999999997 0.0221099500000000 Au
atom 6.1196266100000001 7.4120957299999999 0.0737000700000000 Au
atom 7.5542943999999999 9.8767166700000004 0.0483590500000000 Au
atom 10.3589808199999993 9.8554547800000005 -0.0017702900000000 Au
atom 13.1810086500000008 9.8724149000000008 0.0848495400000000 Au
atom 15.9715119699999999 9.8797340100000000 0.0275366700000000 Au
atom 18.8001210999999984 9.8924828799999993 0.0483389100000000 Au
atom 21.5961262599999984 9.8969071300000007 0.0074446300000000 Au
atom 24.4142680299999988 9.8671052199999991 0.0897237800000000 Au
atom 27.2214215099999990 9.8425647400000003 0.0055873600000000 Au
atom 1.8828885900000001 9.8997274900000001 0.0303562300000000 Au
atom 4.7380202400000000 9.8381326900000001 0.0041822200000000 Au
atom 8.8902850000000004 12.3393790299999999 0.0422971900000000 Au
atom 11.6880749399999999 12.3629673199999992 0.0276353700000000 Au
atom 14.5263811199999999 12.3273054999999996 -0.0269828400000000 Au
atom 17.3759582200000011 12.3671042500000006 -0.0396303700000000 Au
atom 20.1874585700000004 12.3808615900000003 0.0133703000000000 Au
atom 23.0297639200000006 12.3439653200000006 0.0129205600000000 Au
atom 25.8224134800000016 12.3467627499999999 0.0548410300000000 Au
atom 0.4270493700000000 12.3298373899999998 -0.0371670000000000 Au
atom 3.2629854100000002 12.3368639000000009 -0.0061494400000000 Au
atom 6.0912763900000000 12.3242954600000001 -0.0096142600000000 Au
atom 7.5220703999999996 13.1859754900000006 2.6632791800000000 Au
atom 10.3521602099999992 13.2302182899999998 2.5848085099999998 Au
atom 13.2009503899999991 13.2189284499999999 2.5353771699999998 Au
atom 16.0249829400000010 13.1689676799999997 2.5100911500000000 Au
atom 18.8113210700000018 13.1726184300000000 2.6321991900000001 Au
atom 21.6008076799999991 13.1868303000000004 2.6002771099999999 Au
atom 24.4115210599999983 13.2024208099999996 2.6708139700000002 Au
atom 27.2114622900000001 13.1717920700000004 2.5904021199999998 Au
atom 1.8637831400000000 13.1480039299999998 2.7069651000000001 Au
atom 4.6945195200000001 13.2065243300000006 2.5842144899999999 Au
atom 8.9309047199999991 15.6346309100000003 2.6460024400000002 Au
atom 11.7347251600000000 15.6492897699999993 2.6507179199999999 Au
atom 14.5658778200000008 15.6281154600000001 2.6342829000000001 Au
atom 17.4063753000000005 15.6753802600000007 2.6471640800000000 Au
atom 20.1847074800000001 15.6549887099999996 2.6443155900000002 Au
atom 22.9993014799999997 15.6610207799999994 2.6292568699999999 Au
atom 25.8253355599999992 15.6425754000000001 2.6850160100000000 Au
atom 0.4504178100000000 15.6274759799999998 2.6325070300000002 Au
atom 3.3050963699999998 15.6357844200000002 2.6070792900000002 Au
atom 6.1426868700000004 15.6336217200000007 2.6087391400000000 Au
atom 7.5254987299999998 18.0998215000000009 2.7613002999999998 Au
atom 10.3261028400000008 18.1194457799999995 2.5851713200000002 Au
atom 13.1568090800000004 18.0817192899999988 2.6853048199999998 Au
atom 15.9545002599999997 18.0885109499999999 2.5279480599999999 Au
atom 18.7845783699999984 18.1050590500000013 2.6897408600000001 Au
atom 21.5763902700000010 18.1250878799999988 2.6399241700000000 Au
atom 24.4067853600000007 18.1060146700000004 2.7332358499999998 Au
atom 27.2567303999999986 18.1238701300000002 2.6397180499999999 Au
atom 1.9072957900000000 18.0890499700000014 2.7175857799999998 Au
atom 4.7356023699999996 18.1097041599999997 2.6647843899999999 Au
atom 8.9232356500000005 20.5858368600000006 2.7526436900000002 Au
atom 11.7341280300000008 20.5805758499999989 2.6696616600000000 Au
atom 14.5619239700000005 20.5783204200000007 2.6824637299999998 Au
atom 17.3855647799999993 20.5781800100000005 2.6905287699999998 Au
atom 20.2003297500000016 20.5823764500000017 2.7289563600000002 Au
atom 23.0236571199999993 20.5629149600000005 2.7209965999999999 Au
atom 25.8160816699999991 20.5910366499999995 2.7020697500000002 Au
atom 0.4610219100000000 20.6071118700000007 2.6890611600000001 Au
atom 3.2564486300000000 20.5777375900000017 2.6589823500000001 Au
atom 6.1216385400000002 20.5922185300000002 2.6962948799999999 Au
atom 7.4979223800000003 23.0447534999999988 2.7236854899999998 Au
atom 10.3152702499999993 23.0665242200000016 2.6229208499999999 Au
atom 13.1576727499999997 23.0301475199999999 2.6748422299999999 Au
atom 15.9696645200000003 23.0752521199999983 2.7087744800000002 Au
atom 18.7803669299999996 23.0186077000000004 2.6812675399999999 Au
atom 21.6029552699999989 23.0506239499999985 2.6295334700000002 Au
atom 24.4370794199999999 23.0738222899999990 2.7042169899999999 Au
atom 27.2450827599999990 23.0803332800000014 2.6701255900000000 Au
atom 1.8938041100000000 23.0773157799999993 2.7353659200000000 Au
atom 4.6869809099999999 23.0529134400000011 2.6833930700000002 Au
atom 8.9130086399999993 25.5416632099999994 2.7132910699999999 Au
atom 11.7424018500000003 25.5405741999999982 2.6102811699999999 Au
atom 14.5530923500000000 25.5553837100000010 2.7778541099999998 Au
atom 17.3651700200000008 25.5436017799999995 2.6883827199999999 Au
atom 20.2082778699999999 25.5331443500000006 2.7338384699999998 Au
atom 23.0234232399999996 25.5337944999999991 2.6611391499999999 Au
atom 25.8602090099999984 25.5597077100000014 2.7249598599999998 Au
atom 0.4646435700000000 25.5123849400000005 2.7239627799999999 Au
atom 3.2938996999999999 25.5116777500000005 2.7518896499999999 Au
atom 6.1021273400000000 25.5086908100000009 2.7358416600000002 Au
atom 7.4984720500000002 27.9815099200000006 2.5898219299999998 Au
atom 10.3021250200000001 28.0455215399999993 2.6840261700000001 Au
atom 13.1249973799999999 28.0197619600000003 2.6220118800000001 Au
atom 15.9778221899999995 28.0250105800000000 2.6939913500000001 Au
atom 18.7783675199999998 27.9920864199999997 2.6248042400000000 Au
atom 21.5890574199999996 28.0272827100000015 2.7006572300000000 Au
atom 24.4333985499999997 28.0108369999999987 2.6138067700000001 Au
atom 27.2500503000000016 28.0087040800000011 2.7483106899999998 Au
atom 1.8468664299999999 27.9567384300000015 2.6493165200000002 Au
atom 4.6745384400000001 27.9905064099999983 2.7016204099999999 Au
atom 8.8884566399999994 30.4674710900000001 2.5793491099999999 Au
atom 11.7011205999999994 30.5035313499999994 2.6468651799999998 Au
atom 14.5530713600000006 30.4917566899999990 2.6498845900000001 Au
atom 17.3792261900000007 30.4631421700000011 2.7120176200000001 Au
atom 20.1962274300000004 30.4458568000000014 2.6369219400000001 Au
atom 23.0139516999999998 30.4760270899999988 2.6817211099999998 Au
atom 25.8516387600000002 30.4809290200000014 2.6371760700000002 Au
atom 0.4428749200000000 30.4726958000000003 2.6501042899999998 Au
atom 3.2699572600000000 30.4444859000000001 2.6173722000000001 Au
atom 6.0865441799999997 30.4509042600000015 2.6475668799999998 Au
atom 7.4869578099999998 32.9285762100000028 2.5542132799999999 Au
atom 10.2820771400000002 32.9199714700000001 2.6850782999999998 Au
atom 13.1320491300000004 32.9430480799999970 2.5528944400000002 Au
atom 16.0071738600000018 32.9363480800000019 2.7033480000000001 Au
atom 18.7704098500000001 32.8988468299999965 2.5785357900000001 Au
atom 21.5826743699999994 32.8983421599999986 2.6836702300000002 Au
atom 24.3946010499999986 32.9407141300000035 2.5711448699999999 Au
atom 27.2401773600000006 32.9286482600000028 2.6717594600000001 Au
atom 1.8698163400000001 32.9173542999999995 2.6308347900000002 Au
atom 4.7073695400000002 32.9139434100000017 2.6887297200000000 Au
atom 8.9393266899999997 35.3766878699999978 2.6009016699999998 Au
atom 11.7486533000000009 35.3800613800000008 2.6426389100000001 Au
atom 14.5291302400000006 35.3860973900000033 2.6424052400000000 Au
atom 17.3846917099999985 35.3901375399999978 2.6198288500000002 Au
atom 20.1858495699999985 35.3649124399999977 2.6184944699999999 Au
atom 23.0110538200000008 35.4030273600000029 2.6807742800000001 Au
atom 25.8357861100000008 35.4009431599999971 2.6512142500000002 Au
atom 0.4385918200000000 35.3516998899999990 2.6340497200000001 Au
atom 3.2620285099999999 35.3807162000000019 2.6587240500000000 Au
atom 6.1099769300000002 35.4208597800000007 2.6716311899999998 Au
atom 7.5082985500000001 37.8760896300000027 2.5604161400000001 Au
atom 10.3583397300000009 37.8418412300000000 2.6819588799999998 Au
atom 13.1751775599999998 37.8434570599999986 2.5917628900000000 Au
atom 15.9711350299999992 37.8400190899999984 2.6996481600000002 Au
atom 18.8108977599999996 37.8310513400000019 2.6418421799999998 Au
atom 21.6195672200000004 37.8106429600000027 2.6958970000000000 Au
atom 24.4706595900000003 37.9025905600000002 2.5940662699999999 Au
atom 27.2991821700000017 37.8625195999999988 2.7126088300000002 Au
atom 1.8594857499999999 37.8636760899999985 2.5668276400000001 Au
atom 4.6766423699999997 37.8045801399999988 2.6781613000000002 Au
atom 8.9410686199999994 0.8633674300000000 2.7451789000000000 Au
atom 11.7311232800000003 0.8264565300000000 2.6932924400000000 Au
atom 14.5562888400000006 0.8633654600000000 2.7039888099999998 Au
atom 17.3950478299999993 0.8264612500000000 2.7524655400000002 Au
atom 20.2120124200000006 0.8276007500000000 2.6681930199999999 Au
atom 23.0025065300000016 0.8648893800000000 2.7343985700000002 Au
atom 25.8372350100000006 0.8557326000000000 2.7272064700000000 Au
atom 0.4654782700000000 0.8753774300000000 2.7731434099999999 Au
atom 3.2914603599999999 0.8108017800000000 2.6913758600000000 Au
atom 6.0840632000000001 0.8193600300000000 2.7201806799999999 Au
atom 7.5172813800000000 3.3000638100000002 2.6558493500000000 Au
atom 10.3200930199999998 3.3039197400000000 2.6889005799999999 Au
atom 13.1155994899999992 3.3354741600000000 2.6635257100000000 Au
atom 15.9263065800000003 3.2998218200000000 2.7409013999999998 Au
atom 18.7531090599999999 3.3011641799999998 2.6887571499999998 Au
atom 21.5716272300000007 3.3100462199999998 2.6883582200000000 Au
atom 24.4095857299999999 3.3635508800000000 2.6726027499999998 Au
atom 27.2522508499999994 3.3344882000000000 2.6816386799999998 Au
atom 1.8711146500000000 3.3184376900000001 2.6737291900000000 Au
atom 4.6561761900000000 3.3143941699999999 2.7104569399999998 Au
atom 8.9224396699999993 5.8100836899999999 2.7476534500000001 Au
atom 11.7425325300000001 5.8114377099999999 2.6587447599999998 Au
atom 14.5490020900000001 5.8204437300000000 2.6812762200000000 Au
atom 17.3938172599999987 5.7940907800000003 2.7094430699999998 Au
atom 20.1964666199999989 5.8114992699999997 2.7174719600000001 Au
atom 23.0154887200000005 5.8238523400000002 2.6807131499999999 Au
atom 25.8348088199999992 5.8128244799999997 2.7320073499999999 Au
atom 0.4499965600000000 5.7583588800000003 2.7552941000000000 Au
atom 3.2683213400000000 5.8058880700000000 2.6784020399999999 Au
atom 6.0922389499999996 5.7605645699999997 2.7724797699999999 Au
atom 7.5017824199999996 8.2675333500000008 2.7305366000000002 Au
atom 10.3590280299999993 8.2919821500000008 2.6243541600000002 Au
atom 13.1468723999999995 8.2815800700000004 2.6717433700000002 Au
atom 15.9390857599999993 8.2805948899999997 2.6388353599999999 Au
atom 18.7701853400000012 8.2880361100000002 2.6765943299999999 Au
atom 21.6204571600000008 8.2636500799999997 2.6403592699999998 Au
atom 24.4237722200000000 8.2489757699999995 2.6868355199999998 Au
atom 27.2423104000000009 8.2216701899999993 2.6530469100000000 Au
atom 1.8574624799999999 8.2628370899999997 2.7184359800000002 Au
atom 4.6838187299999996 8.2410885100000009 2.6273344700000001 Au
atom 8.9247952599999998 10.7315717700000004 2.6617514700000000 Au
atom 11.7450166399999993 10.7651382200000008 2.6047523899999998 Au
atom 14.5349240599999998 10.7246171100000005 2.6613633000000001 Au
atom 17.3927529300000003 10.7386063800000002 2.6512780500000002 Au
atom 20.2100025000000016 10.7054016599999997 2.6293608399999999 Au
atom 23.0151054700000017 10.7088173300000005 2.6443468800000001 Au
atom 25.8147791600000005 10.6941838100000002 2.6398240199999998 Au
atom 0.4629918300000000 10.7145822400000004 2.5802440700000000 Au
atom 3.2870942699999999 10.7373566300000007 2.6510571600000001 Au
atom 6.1007052699999997 10.7264325100000004 2.5506207700000001 Au
atom 7.3713867600000000 13.1072001999999994 5.7771846900000003 Cl
atom 7.5323670399999996 15.9608613399999992 8.4944357400000001 Cl
atom 7.5976517599999998 13.1570207799999999 8.1812482099999997 Na
atom 7.4445190400000003 15.9904651500000003 5.7818575299999999 Na
atom 7.4238620700000002 18.7917083900000002 5.6597924300000004 Cl
atom 7.3539085300000000 21.6320850100000008 8.5540738899999997 Cl
atom 7.4966277400000001 18.7843890199999990 8.3439529799999992 Na
atom 7.4056986199999999 21.6610567200000013 5.7784355900000000 Na
atom 7.4122472799999999 24.5126539100000009 5.8769869500000000 Cl
atom 7.4636805700000002 27.3623987100000008 8.5820604800000009 Cl
atom 7.4000625700000002 24.4702926800000000 8.3291855199999993 Na
atom 7.5036214799999996 27.2952570500000000 5.7613641700000002 Na
atom 7.4567957399999996 30.1057162100000006 5.5591540300000002 Cl
atom 7.3827150000000001 32.9421610899999990 8.5099119800000000 Cl
atom 7.4545458499999997 30.1577536100000003 8.5471326199999993 Na
atom 7.4852561399999997 32.9482811700000013 5.7931451100000002 Na
atom 7.4435468199999999 35.7441571000000025 5.5518854800000002 Cl
atom 7.4772643700000003 38.5408097099999978 8.5796251399999992 Cl
atom 7.4299857100000004 35.7249409200000017 8.5486278799999997 Na
atom 7.5085508599999997 38.6019630600000028 5.8354991600000004 Na
atom 7.4925841100000001 1.9432513400000000 5.7829543299999999 Cl
atom 7.4592369700000001 4.6871573599999996 8.6369008600000008 Cl
atom 7.4821248400000000 1.8426184000000001 8.3981460099999996 Na
atom 7.4650298900000003 4.6593106200000003 5.8681603400000002 Na
atom 7.4526675300000003 7.4365050799999999 5.7115959099999998 Cl
atom 7.4349230200000003 10.3290850800000005 8.5872980600000002 Cl
atom 7.4209479399999996 7.4810539499999997 8.4275507500000000 Na
atom 7.4321227399999996 10.2238025799999992 5.8662696900000002 Na
atom 10.3926675399999997 13.1464446299999995 5.6494008600000001 Na
atom 13.1756308499999992 12.8455687199999993 5.5203214300000001 Cl
atom 10.4339215799999998 16.0153895800000008 8.0402036500000005 Na
atom 13.0584429800000006 15.7324813599999995 7.9813859000000003 Cl
atom 13.4811343400000005 13.5191322599999992 8.2231996200000008 Na
atom 10.5503803999999999 13.1714718000000008 8.3724784200000002 Cl
atom 13.1202473299999998 15.9907665100000003 5.6755736499999996 Na
atom 10.1181806000000005 16.0169090599999997 5.4244596800000000 Cl
atom 10.2336488699999997 18.9184359300000011 5.6367311800000000 Na
atom 13.0650311400000003 19.3616950500000016 5.0218655400000003 Cl
atom 10.1922352600000004 21.7066369200000011 8.3390783400000004 Na
atom 13.1666963900000002 21.8530829400000002 8.4127730399999994 Cl
atom 13.2200941499999995 18.7973678000000000 8.2472590799999992 Na
atom 10.2495353399999996 18.9147350199999984 8.4167764500000004 Cl
atom 13.0734113099999991 21.6615459000000001 5.6585979799999997 Na
atom 10.2051782000000006 21.6427993900000004 5.7663385500000004 Cl
atom 10.3540124099999993 24.5053929100000012 5.8048433099999999 Na
atom 12.4605769599999991 24.5615996099999983 5.4590613899999996 Cl
atom 10.1718173200000006 27.3274109100000011 8.3717729999999992 Na
atom 12.9148579500000000 27.3864463700000016 8.5591504500000006 Cl
atom 13.0840697899999991 24.5676243099999994 8.1104887199999993 Na
atom 10.1857645300000001 24.4924584400000001 8.5554965700000007 Cl
atom 13.0331276799999998 27.3354448800000007 5.7641180299999997 Na
atom 10.3046453099999997 27.3222404899999987 5.6850451499999997 Cl
atom 10.3257664400000007 30.1383850299999985 5.8030042899999996 Na
atom 13.0944369300000005 30.1338535999999984 5.6855282200000001 Cl
atom 10.2638475299999996 32.9786354900000021 8.4137400200000005 Na
atom 13.0684752900000003 32.9422575899999970 8.5816283400000000 Cl
atom 13.0586082500000007 30.1766218399999993 8.5103947299999998 Na
atom 10.1733781600000004 30.2341743899999997 8.5184841000000002 Cl
atom 13.1098922699999996 32.9798950500000032 5.8610089900000002 Na
atom 10.2930734899999994 32.9569471499999977 5.7028591100000003 Cl
atom 10.3024504900000000 35.7707692399999999 5.7574427000000004 Na
atom 13.1379769500000005 35.7717051699999971 5.7564978299999998 Cl
atom 10.3420995900000001 38.5702643300000005 8.6019038999999999 Na
atom 13.1005465000000001 38.5320827600000015 8.5964151700000002 Cl
atom 13.0599935400000007 35.7065592800000005 8.4587359200000005 Na
atom 10.2558564000000008 35.7215524300000027 8.6240787799999996 Cl
atom 13.1529474799999999 38.5908922200000006 5.9107637999999998 Na
atom 10.3390876200000008 38.6252312700000004 5.5248111000000000 Cl
atom 10.3634587600000003 1.9593621800000001 5.8471893000000001 Na
atom 13.1914184100000007 1.9491532199999999 5.8598301599999996 Cl
atom 10.2959227799999997 4.7088680199999997 8.4153248400000003 Na
atom 13.0858100000000004 4.7499345799999997 8.6162715300000006 Cl
atom 13.1324812400000006 1.9202425800000000 8.3818405899999995 Na
atom 10.3102563899999993 1.9106769600000000 8.6193390700000005 Cl
atom 13.1676301400000000 4.6794861599999997 5.8686480999999997 Na
atom 10.3556588499999993 4.7137592499999998 5.8912572599999997 Cl
atom 10.2822578700000005 7.4725749900000000 5.8421013100000003 Na
atom 13.1079213499999998 7.4193122699999998 5.6269818100000002 Cl
atom 10.3191159300000006 10.4015888099999998 8.1808726800000002 Na
atom 13.0675416799999997 10.2284403200000007 8.5000084900000008 Cl
atom 13.0825821399999995 7.5491265700000003 8.2785938500000000 Na
atom 10.2230681600000004 7.4693548999999999 8.5603958000000002 Cl
atom 13.0827741300000007 10.4396807700000007 5.7274770300000002 Na
atom 10.2378844099999995 10.3157746499999998 5.8871437499999999 Cl
atom 15.9594460100000006 13.1026899500000003 5.6013321400000002 Na
atom 18.8521986599999991 13.1438592900000000 6.0554560200000003 Cl
atom 15.8503396100000007 16.0549768399999984 8.1374385000000000 Na
atom 18.7888822600000012 15.9913901700000007 8.5546930999999997 Cl
atom 18.7926830400000000 13.1419276800000002 8.0426170199999998 Na
atom 15.5999294000000006 13.2268974700000008 8.3294951099999999 Cl
atom 18.8843839399999993 15.8721435500000005 5.7921943699999998 Na
atom 16.2163371299999994 15.9562001200000001 5.3276726600000002 Cl
atom 15.9674971600000006 18.8800565200000001 5.5351436700000001 Na
atom 18.8874220800000003 18.5982899699999997 5.4423500799999998 Cl
atom 16.0685800299999997 21.8083016100000009 8.1038344400000000 Na
atom 18.7672389899999992 21.5072445399999985 8.3999598700000000 Cl
atom 18.8148635300000002 18.8285759599999984 8.2930524999999999 Na
atom 15.9657391799999999 18.8885604100000002 8.2370682300000002 Cl
atom 18.8900089099999988 21.5512241700000011 5.5839845800000001 Na
atom 15.9987673099999999 21.6831692099999991 5.2804903400000001 Cl
atom 15.9684395600000002 24.5809626100000003 5.6589902199999997 Na
atom 18.9389450100000012 24.4700795800000002 5.5397882999999997 Cl
atom 15.9270872099999998 27.3342155600000005 8.2587492299999994 Na
atom 18.7467232499999987 27.2459586700000003 8.4652813800000004 Cl
atom 18.6202989499999987 24.6185435199999993 8.2911782600000006 Na
atom 16.1277624000000017 24.3645802899999993 8.2543773599999994 Cl
atom 18.8281614099999999 27.2617327200000013 5.6972581299999998 Na
atom 15.8569807199999993 27.6051799799999991 5.3222893800000000 Cl
atom 15.8715900699999999 30.2949226699999983 5.8056181200000001 Na
atom 18.7865576300000008 30.2754134599999993 5.1469709300000002 Cl
atom 15.9286694400000002 32.9478700200000034 8.4756352400000008 Na
atom 18.7376387099999988 32.9257272400000005 8.5777812699999991 Cl
atom 18.7215197999999994 30.0210960200000017 8.9616761399999998 Na
atom 15.9016578699999993 30.1753775299999987 8.6209733899999996 Cl
atom 18.8010927000000017 32.9609026999999983 5.8125113300000004 Na
atom 15.8696845599999996 32.9892118300000021 5.6510546699999997 Cl
atom 15.9395882800000006 35.7594143900000034 5.8614237500000002 Na
atom 18.7900500599999987 35.7844969699999993 6.1187196000000004 Cl
atom 15.9487873400000009 38.5371738699999966 8.4279597699999993 Na
atom 18.8830484500000004 38.5549717399999992 8.6166761100000002 Cl
atom 18.7253412399999988 35.7380379900000023 8.0392460600000000 Na
atom 15.9081121599999999 35.6706770199999994 8.5997868799999999 Cl
atom 18.8079824299999991 38.5765601800000013 5.8955372300000004 Na
atom 15.9818677099999995 38.5770158199999997 5.8180251800000002 Cl