#===============================================================================
# Created using the Atomic Simulation Environment (ASE)

# Tue Dec 23 21:42:26 2025

#=======================================================
lattice_vector 28.1999999999999993 0.0000000000000000 0.0000000000000000 
lattice_vector 0.0000000000000000 39.4799999999999969 0.0000000000000000 
lattice_vector 0.0000000000000000 0.0000000000000000 62.3296083400000001 
atom 7.5473204500000000 14.7518343800000000 -0.2400927000000000 Au
atom 10.3451010599999993 14.7803200599999993 -0.2339771900000000 Au
atom 13.1616731799999993 14.8754673299999993 -0.3417390800000000 Au
atom 15.9854084099999998 14.7874122000000003 -0.2878201000000000 Au
atom 18.8480488500000014 14.7842327299999994 -0.2294656900000000 Au
atom 21.6413430300000016 14.8466101399999992 -0.1584326600000000 Au
atom 24.4522223399999987 14.7831953299999999 0.0369258000000000 Au
atom 27.2408710999999997 14.8121873700000002 -0.1287798600000000 Au
atom 1.9008162900000001 14.8232963899999994 -0.0374414200000000 Au
atom 4.7481778500000003 14.7896915799999995 -0.2067439500000000 Au
atom 8.9937591300000008 17.2623630400000003 -0.1738070300000000 Au
atom 11.7337121999999994 17.3221855699999985 -0.3684933500000000 Au
atom 14.5848211499999998 17.2661812700000006 -0.3171284500000000 Au
atom 17.3446065500000017 17.3217215300000014 -0.2771381800000000 Au
atom 20.1575853299999999 17.3094906299999991 -0.0961321300000000 Au
atom 22.9621132299999999 17.2592036600000007 -0.0681035200000000 Au
atom 25.8255361999999984 17.2552858899999997 -0.0880790600000000 Au
atom 0.4497278200000000 17.2316445199999997 -0.0465378400000000 Au
atom 3.3810481000000001 17.2968698100000005 -0.0045354700000000 Au
atom 6.1411096599999997 17.3335594600000000 -0.0973162300000000 Au
atom 7.6018837300000000 19.7395021100000001 -0.0074669700000000 Au
atom 10.3625619899999997 19.7924404600000017 -0.2560808500000000 Au
atom 13.2126874599999997 19.7768595500000011 -0.1342311000000000 Au
atom 15.9983408300000001 19.7930925199999983 -0.1355827400000000 Au
atom 18.7953776800000014 19.8123064699999993 0.0510571700000000 Au
atom 21.6972135399999999 19.8126090899999987 -0.1517358900000000 Au
atom 24.4348190500000015 19.7285424599999999 -0.0803724700000000 Au
atom 27.2437432400000006 19.7764160400000009 0.0550139100000000 Au
atom 1.8525184100000001 19.7126671100000017 0.1995145200000000 Au
atom 4.6925926400000000 19.7752771600000017 0.0726809400000000 Au
atom 8.8971612499999999 22.2209236799999985 -0.0696226000000000 Au
atom 11.7664720000000003 22.2167129199999991 -0.1907238600000000 Au
atom 14.6654016200000008 22.2253538699999993 -0.2458524900000000 Au
atom 17.4367463799999989 22.2634160200000011 0.0337911800000000 Au
atom 20.2692333299999987 22.2906727099999991 -0.0628881400000000 Au
atom 23.1024969300000009 22.2387732199999988 0.0168767800000000 Au
atom 25.8568628899999986 22.1674471599999983 0.0994482700000000 Au
atom 0.5016723100000000 22.1696303300000004 0.2030615900000000 Au
atom 3.3333280599999999 22.1695864200000017 -0.0569714900000000 Au
atom 6.0832506200000003 22.1500303699999996 -0.0357613600000000 Au
atom 7.4894347400000001 24.6925428499999988 0.0592767800000000 Au
atom 10.3580841899999996 24.6710265299999989 0.0221227100000000 Au
atom 13.1765664600000001 24.6399375099999993 -0.2216148500000000 Au
atom 15.9918925699999992 24.7251702100000017 -0.0544780900000000 Au
atom 18.8505839600000016 24.6973002699999995 0.0314931800000000 Au
atom 21.5947437700000009 24.7386957999999986 -0.0258716100000000 Au
atom 24.4611245299999993 24.7056184099999996 0.0641840700000000 Au
atom 27.2408795599999998 24.6187026600000003 0.1099197500000000 Au
atom 1.8910919600000000 24.6042850900000012 -0.0211879600000000 Au
atom 4.6933249400000001 24.6781191799999995 0.0040841600000000 Au
atom 8.9524768100000003 27.1214237900000015 0.1379289500000000 Au
atom 11.7544469899999999 27.0965058499999998 0.0194754700000000 Au
atom 14.5976096700000006 27.2183411699999986 0.1331070100000000 Au
atom 17.4231762500000009 27.1637951800000010 -0.1389594600000000 Au
atom 20.2363766299999988 27.1913742099999993 0.1156147100000000 Au
atom 23.0449654099999997 27.1679705399999989 -0.0035417200000000 Au
atom 25.9082700400000014 27.1571696500000002 -0.0404618800000000 Au
atom 0.4710580900000000 27.1200866199999986 0.0084327300000000 Au
atom 3.2854760500000002 27.1229135399999990 -0.0586852100000000 Au
atom 6.1087081300000001 27.1215396099999992 0.0685506600000000 Au
atom 7.5283245499999998 29.5380562799999993 -0.0689845000000000 Au
atom 10.4146638599999992 29.5423303799999992 0.0870027300000000 Au
atom 13.2037845699999998 29.6150354799999995 0.1106703000000000 Au
atom 16.0349403200000005 29.5624701300000012 -0.1041407600000000 Au
atom 18.8801182599999997 29.6429313599999986 -0.1944032300000000 Au
atom 21.6918702299999993 29.6271872700000003 0.2509059900000000 Au
atom 24.4215392199999997 29.6382972400000000 -0.0530179000000000 Au
atom 27.2552611899999988 29.6082833000000001 0.0207987400000000 Au
atom 1.8659417899999999 29.6422979200000007 -0.1983535700000000 Au
atom 4.6745445400000003 29.5900020400000017 -0.0330102300000000 Au
atom 8.9399035300000005 31.9848455999999999 -0.1110117400000000 Au
atom 11.7509509800000007 32.0364326600000027 0.1092216000000000 Au
atom 14.5859605899999991 32.1031588999999968 -0.0676058700000000 Au
atom 17.3135106599999986 32.0528266600000009 -0.0705952100000000 Au
atom 20.1787760799999987 32.0626672499999970 0.0146242200000000 Au
atom 23.0237832299999994 32.1885059100000035 -0.0416944700000000 Au
atom 25.8550826299999983 32.1492702899999969 0.1271591500000000 Au
atom 0.4294523600000000 32.0947279800000018 -0.1351222500000000 Au
atom 3.2326977800000001 32.0671599100000009 0.0298508600000000 Au
atom 6.1418313700000002 32.0470579699999973 0.0090373300000000 Au
atom 7.4794460999999997 34.5037020400000003 -0.1516012400000000 Au
atom 10.3130293700000006 34.5005206800000011 -0.0567582000000000 Au
atom 13.0989717999999993 34.5110158399999989 -0.0331848300000000 Au
atom 15.9617789600000002 34.5424197700000022 -0.1104226600000000 Au
atom 18.7008607699999985 34.5841781199999971 -0.0270772200000000 Au
atom 21.5595010400000007 34.5677921600000033 -0.0064507200000000 Au
atom 24.4706774200000012 34.6345249900000027 -0.0172347900000000 Au
atom 27.2568669800000016 34.6044731200000015 0.1562648400000000 Au
atom 1.8366483300000001 34.5524542699999984 0.0410148600000000 Au
atom 4.5910045200000003 34.5094716199999993 -0.0197247800000000 Au
atom 8.9053503599999999 36.9509748099999982 0.0265203900000000 Au
atom 11.7584217500000001 36.9576130100000029 0.0091718300000000 Au
atom 14.5450301999999994 36.9671837499999967 -0.0193910400000000 Au
atom 17.3705248099999991 37.0007609399999993 0.0306609500000000 Au
atom 20.2265876800000015 37.0116531899999970 0.0031886800000000 Au
atom 23.0544269600000007 37.0420345499999968 0.0240979400000000 Au
atom 25.8881428199999988 37.0349604199999973 0.1907681000000000 Au
atom 0.4307105900000000 37.0352614099999968 0.0383127200000000 Au
atom 3.2480905099999999 36.9491202900000033 0.1021378000000000 Au
atom 6.1202726399999996 36.9744242499999984 -0.0782120300000000 Au
atom 7.5218671600000002 -0.0228107300000000 -0.0009603800000000 Au
atom 10.2971504599999992 -0.0578805500000000 0.0574280000000000 Au
atom 13.1224351800000001 -0.0597032200000000 0.0145996700000000 Au
atom 16.0018779199999983 -0.0083624900000000 0.1357802100000000 Au
atom 18.7665322500000009 0.0357495900000000 -0.0035058300000000 Au
atom 21.5543033000000008 0.0468335800000000 0.2254660500000000 Au
atom 24.3832491900000008 -0.0201926100000000 -0.0146137600000000 Au
atom 27.1805750500000016 0.0279860000000000 0.1267439000000000 Au
atom 1.8377654400000001 -0.0481860600000000 0.0073434100000000 Au
atom 4.6788617900000000 -0.0706981500000000 0.1417133800000000 Au
atom 8.9270734600000008 2.4870165700000002 0.0264703200000000 Au
atom 11.7640743000000008 2.4918311499999999 -0.0108033900000000 Au
atom 14.5337444599999994 2.4188146100000001 0.1524986600000000 Au
atom 17.3311591199999988 2.4438429500000001 0.1600842300000000 Au
atom 20.1786999400000013 2.5315734999999999 0.2689567400000000 Au
atom 22.9719266399999995 2.3977088800000002 0.1676326500000000 Au
atom 25.7935294800000001 2.4363097599999999 0.0924889400000000 Au
atom 0.4404434800000000 2.5044480600000001 0.1085821600000000 Au
atom 3.2856376500000000 2.4468348500000001 0.0925300800000000 Au
atom 6.0821353399999998 2.4062688400000001 0.1469841100000000 Au
atom 7.4939380599999996 4.9598358999999999 0.1565459400000000 Au
atom 10.3242745500000002 4.9621750599999999 0.2125813000000000 Au
atom 13.1334005999999999 4.8905252499999996 0.1461126300000000 Au
atom 15.9243911399999991 4.9348331700000001 0.2282460200000000 Au
atom 18.7243169800000011 4.9821366899999999 0.1100775600000000 Au
atom 21.6024065900000011 4.9161306500000004 0.1596936200000000 Au
atom 24.4615742900000015 4.9092319699999996 0.1348554300000000 Au
atom 27.2712403600000002 4.9014043699999998 0.1619873200000000 Au
atom 1.8652530000000000 4.9187655599999998 0.1573754500000000 Au
atom 4.6832000799999998 4.9754412400000003 0.1701123300000000 Au
atom 8.9525218599999992 7.4239145200000003 0.2066970900000000 Au
atom 11.7786409200000008 7.3775694400000003 0.2047381800000000 Au
atom 14.5736210800000006 7.3755989199999998 0.2611561600000000 Au
atom 17.3345710699999991 7.3919195599999998 0.1057483400000000 Au
atom 20.1621495300000007 7.3717475500000003 0.1980319600000000 Au
atom 23.0064691799999999 7.3368645199999998 0.1289901400000000 Au
atom 25.8477530299999998 7.4107296900000001 0.0880822600000000 Au
atom 0.4793376300000000 7.3706499699999997 0.1635105800000000 Au
atom 3.3328034999999998 7.3697576299999996 0.1049847800000000 Au
atom 6.1420585000000001 7.3911098800000001 0.1846974000000000 Au
atom 7.4698535499999998 9.8354469400000006 0.1560510700000000 Au
atom 10.3240491900000002 9.8631881000000003 0.1868308100000000 Au
atom 13.1552045399999997 9.8175467399999992 0.1469278000000000 Au
atom 15.9476224400000000 9.8268456000000004 0.2501479700000000 Au
atom 18.7489682699999989 9.8559841600000002 0.0625245500000000 Au
atom 21.5602694300000017 9.8492795500000003 -0.0380210200000000 Au
atom 24.3838695299999983 9.8562347900000002 0.0778980800000000 Au
atom 27.2287177299999996 9.8665281999999994 -0.0482080600000000 Au
atom 1.8917551800000001 9.8333677599999998 -0.0237094700000000 Au
atom 4.6872915400000004 9.8600821199999995 0.1712365300000000 Au
atom 8.8684417100000008 12.2493008299999993 -0.0272889400000000 Au
atom 11.7245947800000003 12.3159316899999993 -0.0782268000000000 Au
atom 14.5174588700000005 12.2929610599999997 -0.0837464500000000 Au
atom 17.3682568999999987 12.4006223200000001 -0.0839120900000000 Au
atom 20.2413803799999990 12.3483490499999995 0.0347999500000000 Au
atom 23.0370514300000018 12.3403440599999996 -0.0388854000000000 Au
atom 25.8514389300000005 12.2928944300000005 -0.0365870900000000 Au
atom 0.4699941300000000 12.3427485499999996 -0.0789977000000000 Au
atom 3.3194573799999998 12.3163410800000008 -0.0317701000000000 Au
atom 6.0961976299999998 12.2639908399999999 -0.0513845900000000 Au
atom 7.5286186700000002 13.2646958500000007 2.4766546900000002 Au
atom 10.3326318900000000 13.2808414599999995 2.5166491899999999 Au
atom 13.1236714800000005 13.2837196100000003 2.3943036499999999 Au
atom 15.9453797099999992 13.2589312800000005 2.5016832899999999 Au
atom 18.7980652399999997 13.2311818799999994 2.5721419999999999 Au
atom 21.6728012200000002 13.2040679099999991 2.6457868200000001 Au
atom 24.4323804299999985 13.2087449299999999 2.5937314400000000 Au
atom 27.2293919799999991 13.2029481099999995 2.6673124900000000 Au
atom 1.8767570499999999 13.1633029500000003 2.5896682000000002 Au
atom 4.7303738400000004 13.2108754200000007 2.5707799200000001 Au
atom 8.8456520300000001 15.7360594299999992 2.4740072299999998 Au
atom 11.7121742700000002 15.7584397400000000 2.2075315799999999 Au
atom 14.5506196600000006 15.7128019600000002 2.3692293000000002 Au
atom 17.4436375800000008 15.6767193200000001 2.4374139399999999 Au
atom 20.2385390100000002 15.6638361600000007 2.4405757499999998 Au
atom 23.0292818399999994 15.6958713999999997 2.5313142599999998 Au
atom 25.8367149199999986 15.6646916600000008 2.5586630200000000 Au
atom 0.4710956000000000 15.6042732900000001 2.4593685600000001 Au
atom 3.3128365600000000 15.6183295900000001 2.5248136200000002 Au
atom 6.0819867500000004 15.6840412499999999 2.4444850400000000 Au
atom 7.5026340600000001 18.1584980099999989 2.5549150100000002 Au
atom 10.3263582300000003 18.1734168599999997 2.3194163400000001 Au
atom 13.1718748699999999 18.1554792499999991 2.3613395200000000 Au
atom 15.9913323399999996 18.1041517499999998 2.4337118900000001 Au
atom 18.8043176099999982 18.1478903500000008 2.4903028800000002 Au
atom 21.6814784500000002 18.2668624599999987 2.4212838400000001 Au
atom 24.4678746800000013 18.1518618899999993 2.5372242699999998 Au
atom 27.2868050800000006 18.1178486099999994 2.5900264800000001 Au
atom 1.8507741499999999 18.0386730700000015 2.6785657100000000 Au
atom 4.6782981899999996 18.1747682399999988 2.5535925399999999 Au
atom 8.9941006699999999 20.5405973099999990 2.6217010100000002 Au
atom 11.8128172700000000 20.5816686900000008 2.4510597100000000 Au
atom 14.6370550000000001 20.5755756800000000 2.4421834100000002 Au
atom 17.4551654499999991 20.5651513500000007 2.6521997300000000 Au
atom 20.2781602599999999 20.6944308899999996 2.5073558600000001 Au
atom 23.0994674300000007 20.6792178200000016 2.6431580200000000 Au
atom 25.8205783900000014 20.5600608600000001 2.6992667899999998 Au
atom 0.4874790800000000 20.5501683300000018 2.7805372899999998 Au
atom 3.3237783500000000 20.6483211900000008 2.6991410600000001 Au
atom 6.1331783199999999 20.6408178800000002 2.7723111199999999 Au
atom 7.5994253599999997 22.9996592100000008 2.5550910500000001 Au
atom 10.4112086399999999 22.9987488000000013 2.4848856900000000 Au
atom 13.2378407500000002 23.0274980499999984 2.3471314200000002 Au
atom 16.0261400999999992 23.0568657700000017 2.5861094800000002 Au
atom 18.7936326099999995 23.1101951099999994 2.6431266099999999 Au
atom 21.5904196500000012 23.1507098499999984 2.5860218100000001 Au
atom 24.3912751099999987 23.1583156800000012 2.7369606800000001 Au
atom 27.2751392000000017 23.0280426499999997 2.7413826100000001 Au
atom 1.9198374199999999 23.0418709300000017 2.6110264700000001 Au
atom 4.7383130099999997 23.0881637499999997 2.5785016999999999 Au
atom 9.0029201099999998 25.4607847199999995 2.6191691200000000 Au
atom 11.8410575500000004 25.4536761399999989 2.5709811199999999 Au
atom 14.6418172999999996 25.4803659899999992 2.6351737499999999 Au
atom 17.3973281299999982 25.6230457399999985 2.4629370599999998 Au
atom 20.1868125999999997 25.5501146400000003 2.6422134499999999 Au
atom 22.9680631300000009 25.6193854099999996 2.6006103700000001 Au
atom 25.8618506100000012 25.5796847099999987 2.6533503899999999 Au
atom 0.4891971700000000 25.4601353300000000 2.6106263900000002 Au
atom 3.3131465499999999 25.5768505600000005 2.6645067000000000 Au
atom 6.1753553400000003 25.4640918099999993 2.6938011899999998 Au
atom 7.5294109100000002 27.9401823699999987 2.6659674299999998 Au
atom 10.3523577800000002 27.9699658800000002 2.6739464800000001 Au
atom 13.1303552000000003 27.9770002399999989 2.6897986800000000 Au
atom 15.9320587499999995 28.0274707399999983 2.6852836099999999 Au
atom 18.8396263399999988 27.9900242100000014 2.4521625199999999 Au
atom 21.6237710499999984 28.0423782800000012 2.8091252899999999 Au
atom 24.4596646799999995 28.0337493699999989 2.5339785500000001 Au
atom 27.2819520799999999 28.0295897399999987 2.6072162699999999 Au
atom 1.9121182400000001 27.9707902600000011 2.4810113299999998 Au
atom 4.7638074499999998 27.9984813099999990 2.6057085500000001 Au
atom 8.9045347300000000 30.4346148599999999 2.5436654299999999 Au
atom 11.6771052199999996 30.4789462399999991 2.8995221199999999 Au
atom 14.5549756800000001 30.4886830899999985 2.6161308200000000 Au
atom 17.3869121000000000 30.4849066899999990 2.4574461900000002 Au
atom 20.1804498899999984 30.5374605700000004 2.6866419100000001 Au
atom 23.0576933199999985 30.5466508899999987 2.6699858600000002 Au
atom 25.8557375900000004 30.4792702700000007 2.6053200099999998 Au
atom 0.4415631800000000 30.4632899299999984 2.5548401799999998 Au
atom 3.3013615700000001 30.4761519499999984 2.6527638499999999 Au
atom 6.1568718799999997 30.4243042099999990 2.6806442100000001 Au
atom 7.4453650500000004 32.9360168999999985 2.4578901200000001 Au
atom 10.2773748999999999 32.9770958800000002 2.6205784200000002 Au
atom 13.1305791500000009 32.9175793499999969 2.6253272800000000 Au
atom 15.9609293500000007 32.9448111600000004 2.6511636799999998 Au
atom 18.7770265199999997 32.9756899099999998 2.4990180899999999 Au
atom 21.6394772099999990 32.9591193099999984 2.6653310299999999 Au
atom 24.4257845499999995 32.9855491400000034 2.6110039600000001 Au
atom 27.2566952700000016 32.8793390900000020 2.7654155600000001 Au
atom 1.8874871799999999 32.9327762300000018 2.5765903300000002 Au
atom 4.7057665200000001 32.8835652799999991 2.6922070699999998 Au
atom 8.8895537099999995 35.3994164100000006 2.5604025199999998 Au
atom 11.7412839699999996 35.4341943299999969 2.6525095799999998 Au
atom 14.5737253599999992 35.3921866600000001 2.5575741000000001 Au
atom 17.3872578400000002 35.3955904700000019 2.6909458100000001 Au
atom 20.1711414500000004 35.4612673600000008 2.5504280900000000 Au
atom 23.0337094100000002 35.4172501800000035 2.5575359899999999 Au
atom 25.8073238799999984 35.3929766899999976 2.9019386500000000 Au
atom 0.4330465500000000 35.4231803200000002 2.7271913600000000 Au
atom 3.3030649500000000 35.3439374200000032 2.6490473400000001 Au
atom 6.0929153300000003 35.4022119799999970 2.5091590199999998 Au
atom 7.4518108300000003 37.8534051800000029 2.5748359900000000 Au
atom 10.3096131500000006 37.8574429900000027 2.6476292400000001 Au
atom 13.1326719199999999 37.8791385700000021 2.5841205100000000 Au
atom 15.9893844099999995 37.8449191500000026 2.6312018500000001 Au
atom 18.8159684100000000 37.9138360999999975 2.4987939699999999 Au
atom 21.6325077599999993 37.8405430600000017 2.7672587300000000 Au
atom 24.4182425099999989 37.8385033100000001 2.7921861799999999 Au
atom 27.2271008700000010 37.8727186300000014 2.7071332699999999 Au
atom 1.8605022700000000 37.8176781199999965 2.6507339299999999 Au
atom 4.7098607899999996 37.8226283899999984 2.6782943700000001 Au
atom 8.9147809400000000 0.7830989300000000 2.7170080099999998 Au
atom 11.7265374599999994 0.8454996800000000 2.6679639100000001 Au
atom 14.5658776999999997 0.8069372000000000 2.7450856600000000 Au
atom 17.4045922399999995 0.8259399300000000 2.8403540299999999 Au
atom 20.1569862399999984 0.8339661800000000 2.7353180899999998 Au
atom 22.9851657200000012 0.8446781900000000 2.7721260600000002 Au
atom 25.7718123500000011 0.8164107300000000 2.7393050500000000 Au
atom 0.4269483100000000 0.7770338500000000 2.7048048200000001 Au
atom 3.2576019100000000 0.8520623800000000 2.7021569500000000 Au
atom 6.0484542100000001 0.8380879600000000 2.7602362399999998 Au
atom 7.5515735700000004 3.3261198400000000 2.6427714600000001 Au
atom 10.2741926400000008 3.3383561199999998 2.6315444000000001 Au
atom 13.0865659399999998 3.3413674699999998 2.7269457199999998 Au
atom 15.9098253799999991 3.2952937400000000 2.8019224000000000 Au
atom 18.7397574800000015 3.3392321900000002 2.7987595000000001 Au
atom 21.5891546900000009 3.3406448700000002 2.8281033999999998 Au
atom 24.3883950399999989 3.3489090400000001 2.6674668100000001 Au
atom 27.2321740599999984 3.2370614600000001 2.8176299600000001 Au
atom 1.9175251400000000 3.3108609599999999 2.6317164599999998 Au
atom 4.6706416700000002 3.3189728500000002 2.7990935399999999 Au
atom 8.8716332500000004 5.8159971600000002 2.7723409999999999 Au
atom 11.6974711700000000 5.8482159700000000 2.8441809400000002 Au
atom 14.4720681599999992 5.8131531200000000 2.8821068799999998 Au
atom 17.3176080399999996 5.7444287999999997 2.8791627100000001 Au
atom 20.1925541799999984 5.7932713500000004 2.7836957099999999 Au
atom 23.0301307500000014 5.8459996500000004 2.8136448000000001 Au
atom 25.7851124100000000 5.7810235199999997 2.7771184299999998 Au
atom 0.4630397700000000 5.7580384599999999 2.8285309800000000 Au
atom 3.2136817400000002 5.7899978799999996 2.8701959499999998 Au
atom 6.0741630899999999 5.7768866100000000 2.9174659200000002 Au
atom 7.4811826100000003 8.2674055699999993 2.8353840899999998 Au
atom 10.2715213300000006 8.2671177399999998 2.8068924599999998 Au
atom 13.1362447600000003 8.3755631200000007 2.8437870500000000 Au
atom 15.9823748200000004 8.3350967399999991 2.8380182899999999 Au
atom 18.7746724399999998 8.2886702499999991 2.8187455500000000 Au
atom 21.6107556500000015 8.2555803999999995 2.6641409299999999 Au
atom 24.4318067399999990 8.3247873099999996 2.7377989000000000 Au
atom 27.2426586700000009 8.3056552700000008 2.6705660999999998 Au
atom 1.8785513500000000 8.2576187999999995 2.6136151900000000 Au
atom 4.6887676300000001 8.2650796300000007 2.6666841500000000 Au
atom 8.9083409099999997 10.7881025800000003 2.7294103800000000 Au
atom 11.7174575900000004 10.8301943600000001 2.6935658099999999 Au
atom 14.5404582500000004 10.8503272299999995 2.9001982700000002 Au
atom 17.3535424300000010 10.8366224199999994 2.5723980399999999 Au
atom 20.1687160299999988 10.7422628000000007 2.5757113700000001 Au
atom 22.9633211199999998 10.8095322300000003 2.6371096999999999 Au
atom 25.8101635400000013 10.7875457600000004 2.6636024400000000 Au
atom 0.3645488900000000 10.7468448999999993 2.5800121200000001 Au
atom 3.2055078400000001 10.7453211599999996 2.6149638300000002 Au
atom 6.0773625899999999 10.7501157299999992 2.7310077900000000 Au
atom 7.3066313200000002 13.1884221200000002 5.8911052899999996 Cl
atom 7.5985734200000001 15.9993895500000001 8.4550510800000005 Cl
atom 7.5576152600000004 13.1846826299999993 8.5623090600000005 Na
atom 7.5069593399999999 16.0377071600000001 5.7875380900000000 Na
atom 7.4252469999999997 18.8966335699999988 5.8547899599999997 Cl
atom 7.3396343000000002 21.6083905099999996 8.6688386699999995 Cl
atom 7.3796844600000000 18.7590381999999991 8.5306470099999991 Na
atom 7.4501099200000001 21.5501572400000008 5.8586220700000000 Na
atom 7.4632947800000000 24.5186056800000003 5.8056399399999998 Cl
atom 7.4612525600000001 27.2443508399999992 8.5194769600000004 Cl
atom 7.4487040499999999 24.3672290400000016 8.5453973899999998 Na
atom 7.4065852999999997 27.2999944499999998 5.7779246200000003 Na
atom 7.4978559499999999 30.1747783299999988 5.7520395300000002 Cl
atom 7.6140016800000003 32.9148751000000033 8.4934916299999994 Cl
atom 7.5668470200000000 30.1184541599999989 8.3976938000000008 Na
atom 7.5820445799999998 33.0217238199999983 5.8084909299999996 Na
atom 7.5381004200000001 35.9731963899999982 5.8151473800000000 Cl
atom 7.5773501799999998 38.4784830299999996 8.6674529499999995 Cl
atom 7.4754576100000003 35.7120715399999966 8.3616838500000004 Na
atom 7.4710831899999999 38.6213594800000024 5.9551862299999998 Na
atom 7.5035532500000004 1.8740932299999999 5.9265405199999996 Cl
atom 7.5489559899999996 4.7533503200000000 8.6606332600000009 Cl
atom 7.5346586899999997 1.9126706700000000 8.4719899800000000 Na
atom 7.4339529999999998 4.7134455400000004 5.8755081899999997 Na
atom 7.3764482700000000 7.5848540299999998 5.7703595400000003 Cl
atom 7.5537458199999996 10.3180247800000000 8.6911829699999998 Cl
atom 7.4587919200000004 7.5320710300000000 8.4365387700000003 Na
atom 7.5446358199999999 10.3413565799999994 5.9442614400000000 Na
atom 10.0645085800000000 13.1059805899999997 5.6992846100000003 Na
atom 13.1110192399999992 13.2623606499999998 5.4342458300000001 Cl
atom 10.3840685300000004 16.0454546499999999 8.1889003500000008 Na
atom 13.1243371799999995 16.0370462399999987 8.7442002100000007 Cl
atom 13.0136927500000006 13.1892390499999994 8.3889717000000008 Na
atom 10.3151435800000009 13.3294622100000009 8.3089988800000008 Cl
atom 13.1313988800000008 15.9784132600000000 5.7060825399999997 Na
atom 10.2041663200000006 16.2035886799999993 5.4450451299999996 Cl
atom 10.2819161500000007 18.9750221199999984 5.8655747500000004 Na
atom 13.0692625400000004 18.8591771100000010 6.0531432299999999 Cl
atom 10.2320810800000004 21.5727619399999995 8.5079692999999992 Na
atom 13.1050908600000007 21.6040580899999988 8.7439513499999997 Cl
atom 13.1979274899999997 18.7742493800000005 8.6357008499999992 Na
atom 10.2261406200000007 18.7334918299999984 8.7022708400000006 Cl
atom 13.1223091499999995 21.6581374400000009 5.8322374100000003 Na
atom 10.2123188599999999 21.7407097500000006 5.9554495899999997 Cl
atom 10.2017691799999994 24.5484289999999987 6.0421690600000000 Na
atom 12.9530798500000000 24.3666272900000003 5.9747595400000000 Cl
atom 10.2617015800000004 27.3745740399999988 8.5203269400000003 Na
atom 13.0134489900000005 27.2771162400000016 8.7416185599999991 Cl
atom 13.0549505499999992 24.3110184300000007 8.6343609800000003 Na
atom 10.2020485399999998 24.4735021500000016 8.8938290999999996 Cl
atom 13.1998592400000003 27.1904660000000007 6.1092405200000002 Na
atom 10.2833684299999994 27.2633836299999999 5.9205959799999999 Cl
atom 10.3138876400000008 30.0170777300000005 5.8550401000000001 Na
atom 13.0050562999999997 30.1486046200000004 5.8783899399999999 Cl
atom 10.3566901799999993 32.8776454999999999 8.4076324099999997 Na
atom 13.2046454400000002 33.0449517300000011 8.7419255200000006 Cl
atom 13.1522485000000007 30.0595685099999983 8.5743619199999994 Na
atom 10.3722547200000008 29.9764016300000016 8.7273383300000003 Cl
atom 13.1451107000000000 32.9679919599999991 5.9851628699999999 Na
atom 10.2975280300000005 32.9967886399999983 5.8452507499999999 Cl
atom 10.3925989399999992 35.8285545299999981 5.8119995500000003 Na
atom 13.1376179600000000 35.7373078000000035 5.6422908700000001 Cl
atom 10.3505138199999998 38.5167099499999992 8.4225738000000003 Na
atom 13.2170314199999996 38.4766923399999996 8.6566038699999996 Cl
atom 13.2068118000000005 35.7662122699999969 8.4226343799999999 Na
atom 10.3108422399999995 35.7193026699999976 8.6700738600000005 Cl
atom 13.2126357900000002 38.5434800499999994 5.9363759399999996 Na
atom 10.3183320399999996 38.5966378000000034 5.7245980300000001 Cl
atom 10.2881356400000001 1.9371849100000000 5.9198309399999998 Na
atom 13.0554097000000002 1.8382569799999999 5.8629068000000002 Cl
atom 10.2258751399999994 4.6826269299999996 8.5235152500000009 Na
atom 13.0424759399999992 4.6308117400000004 8.6978854400000003 Cl
atom 13.0849760499999999 1.8039997299999999 8.5308212300000008 Na
atom 10.3358042399999999 1.7504218700000000 8.7129852000000003 Cl
atom 13.0699240900000007 4.6814436400000004 5.9143562799999998 Na
atom 10.2349953500000002 4.7337088700000001 5.8731782700000004 Cl
atom 10.2915816200000005 7.4592329399999997 5.9140111400000004 Na
atom 13.1895582600000001 7.5301570699999996 5.7797753700000003 Cl
atom 10.3265558100000003 10.4958046899999999 8.6563369300000002 Na
atom 13.0684816000000001 10.5107504299999999 8.5920666099999998 Cl
atom 13.0431608200000007 7.3923849600000002 8.5334149299999993 Na
atom 10.2717591499999994 7.5662269799999997 8.7324984000000008 Cl
atom 13.0618102700000005 10.2533262399999998 5.8750884499999998 Na
atom 10.3307471500000005 10.2774774999999998 5.8063740499999996 Cl
atom 15.7925931399999993 13.1258140399999998 5.7847627399999997 Na
atom 18.6118394699999996 13.1963011100000003 5.7864950799999999 Cl
atom 15.8790517599999994 15.9176794800000003 8.4255929399999996 Na
atom 18.6472278799999991 16.0253230100000010 8.7245809600000008 Cl
atom 18.6845263499999987 13.1355457300000005 8.3709098700000002 Na
atom 15.7737031400000003 13.1487651900000007 8.5437241299999993 Cl
atom 18.7000512699999994 16.0120833599999983 5.8377680600000001 Na
atom 15.8841374700000006 15.9966178600000006 5.7747899699999996 Cl
atom 15.9099567299999993 18.9021019800000012 6.0046669100000001 Na
atom 18.6952679699999997 18.7954055099999984 5.7937050399999999 Cl
atom 15.9487586700000001 21.5434806999999999 8.4608297199999996 Na
atom 18.7317167399999995 21.5296923500000013 8.6996704499999993 Cl
atom 18.7881750099999998 18.7555658299999983 8.6374374799999991 Na
atom 15.8648520600000005 18.7196061699999987 8.9265412000000008 Cl
atom 18.6752532299999991 21.5865100000000005 5.8031738199999996 Na
atom 16.0411490699999995 21.6491270799999995 5.8455071800000002 Cl
atom 15.9055726199999992 24.5301108100000000 6.0952277800000001 Na
atom 18.6330919199999983 24.5138365299999990 5.6451789300000002 Cl
atom 16.0687406700000004 27.2113610600000015 8.9656903999999997 Na
atom 18.6787451000000004 27.2159153799999984 8.6290593999999992 Cl
atom 18.6306156999999999 24.3070291500000017 8.3296011599999993 Na
atom 16.0501724000000010 24.2013567099999989 8.8981055399999995 Cl
atom 18.6708332800000001 27.3172201299999990 5.9287965700000003 Na
atom 15.9556773399999994 27.2259703799999997 5.8641967399999997 Cl
atom 15.7939126000000005 30.0650685799999984 5.9655461299999999 Na
atom 18.5437488500000001 30.0760728700000008 5.8803893199999999 Cl
atom 15.8616294700000005 33.0924090199999981 8.5575355000000002 Na
atom 18.8639686200000014 32.9840177399999988 8.7350763899999997 Cl
atom 18.7016607300000004 30.2623485599999995 8.4722764799999997 Na
atom 15.8840688300000004 30.1189884799999987 8.7085198300000002 Cl
atom 18.7440889499999983 32.8611655999999996 5.8906585099999997 Na
atom 15.9562571299999991 33.0023974899999999 5.9284095299999997 Cl
atom 16.0338840800000000 35.7988221299999978 5.7867124299999997 Na
atom 18.8288082900000013 35.7953951699999990 5.8365420900000000 Cl
atom 15.9924053399999995 38.5541604599999985 8.3754657600000009 Na
atom 18.7831509099999998 38.5843634200000025 8.6268861300000008 Cl
atom 18.8397213800000003 35.6764635099999978 8.4041130299999995 Na
atom 15.9293138200000008 35.7752591699999982 8.6742155899999993 Cl
atom 18.7013249299999984 38.5604256700000008 5.9297581199999998 Na