#===============================================================================
# Created using the Atomic Simulation Environment (ASE)

# Tue Dec 23 22:26:16 2025

#=======================================================
lattice_vector 28.1999999999999993 0.0000000000000000 0.0000000000000000 
lattice_vector 0.0000000000000000 39.4799999999999969 0.0000000000000000 
lattice_vector 0.0000000000000000 0.0000000000000000 62.3296083400000001 
atom 7.6819501900000002 14.7031429100000004 0.3170779800000000 Au
atom 10.3919538500000002 14.7389363600000003 0.0475810500000000 Au
atom 13.1635421699999995 14.8098194799999998 -0.1201595500000000 Au
atom 16.0310448500000007 14.7699327900000004 -0.2980913100000000 Au
atom 18.8735260300000007 14.7170172699999995 -0.3122505900000000 Au
atom 21.7598032900000007 14.7516214300000001 -0.5741323800000000 Au
atom 24.8502567700000014 14.6452435300000001 -0.3836768300000000 Au
atom 26.9997109500000008 14.7228290200000007 -0.0929833800000000 Au
atom 2.0513612000000001 14.8001086500000003 0.0357872700000000 Au
atom 4.8958567200000003 14.7366919400000000 -0.1376705100000000 Au
atom 8.9975828100000008 17.1690227499999999 0.5680396400000000 Au
atom 11.7564329700000005 17.2482261900000005 0.1955200200000000 Au
atom 14.6163486000000002 17.2368153100000008 -0.4387293800000000 Au
atom 17.4948117799999991 17.1769117000000016 -0.5063875500000000 Au
atom 20.2795866800000013 17.2226942500000000 -0.5513187800000000 Au
atom 23.1589819599999984 17.2384913799999993 -0.3202242500000000 Au
atom 25.9073287800000003 17.2706963199999990 -0.3543637600000000 Au
atom 0.4268632600000000 17.2215362600000006 -0.1728901700000000 Au
atom 3.4440574499999999 17.2240892700000003 -0.0733215100000000 Au
atom 6.2289032899999999 17.2243842700000016 -0.0959302500000000 Au
atom 7.5422500699999997 19.6958742200000003 0.6407009299999999 Au
atom 10.3423268900000007 19.6470113399999988 0.3844593800000000 Au
atom 13.1423462799999999 19.6528730899999999 0.0752430700000000 Au
atom 15.9879580899999993 19.7877207900000016 -0.1924654600000000 Au
atom 18.8107129899999990 19.7419715599999996 -0.4170329100000000 Au
atom 21.6336334000000008 19.7482960200000015 -0.3744439900000000 Au
atom 24.4045639600000008 19.7245651500000001 -0.1381518400000000 Au
atom 27.3312772600000002 19.7917685500000005 -0.2734460900000000 Au
atom 2.0116791200000002 19.7484853200000003 -0.0981300000000000 Au
atom 4.8126483499999999 19.7136798199999994 0.1284339700000000 Au
atom 8.8641884799999993 22.0950259799999991 0.2559947800000000 Au
atom 11.6599302900000001 22.0915259100000014 0.1898416800000000 Au
atom 14.5108100899999997 22.3181292800000008 0.0079296000000000 Au
atom 17.3142682800000003 22.4692178100000000 0.0553359800000000 Au
atom 20.2470606400000008 22.2826139900000015 0.1786800300000000 Au
atom 23.0169607899999988 22.2637372099999986 0.0469928300000000 Au
atom 25.8531680699999988 22.1367133100000011 0.1491550800000000 Au
atom 0.6015247900000000 22.2860195700000006 -0.1635469400000000 Au
atom 3.3285210500000000 22.2256352899999996 0.2400310900000000 Au
atom 6.0509672999999999 22.2286656499999999 0.4322136700000000 Au
atom 7.4556323000000004 24.6251663200000017 0.2138394200000000 Au
atom 10.3153149800000001 24.6370719300000012 0.1007564300000000 Au
atom 13.0755746199999994 24.4251282399999994 0.2237211600000000 Au
atom 16.1920539099999985 24.4293174499999992 0.1097479000000000 Au
atom 18.8638578700000004 24.7888661699999986 -0.0199956000000000 Au
atom 21.7037097500000016 24.7250997900000016 -0.0867713800000000 Au
atom 24.6947508700000000 24.5848164999999987 -0.0294660600000000 Au
atom 27.0594332199999990 24.6335193200000013 0.1278970800000000 Au
atom 1.8520717900000001 24.7128806999999995 0.0524903500000000 Au
atom 4.5734949199999999 24.6793287799999987 0.2281863600000000 Au
atom 8.7987337599999993 27.1756273600000000 0.0960462700000000 Au
atom 11.7164401599999994 27.0207937899999990 0.2394645100000000 Au
atom 14.5324340000000003 26.9643718399999983 -0.0345996400000000 Au
atom 17.3067225799999989 27.0902019600000017 -0.1411148100000000 Au
atom 20.2469068000000014 27.2374517599999990 -0.2216206600000000 Au
atom 22.9894902999999999 27.1033605500000014 -0.3434780500000000 Au
atom 25.8639816600000003 27.1130230200000000 0.1302457400000000 Au
atom 0.4094048500000000 27.1193631099999983 -0.0547629400000000 Au
atom 3.2438998799999998 27.2134295799999997 -0.1554660300000000 Au
atom 6.0629419799999997 27.0619388699999988 0.1299635700000000 Au
atom 7.0043507199999997 29.5664658500000002 0.2306232700000000 Au
atom 10.3825595800000006 29.5792330999999997 0.2004369500000000 Au
atom 13.1683056399999998 29.5243804499999989 -0.0734682400000000 Au
atom 15.9693228200000004 29.4731965100000011 0.2192366300000000 Au
atom 18.7445877900000006 29.5900112300000018 -0.1194215100000000 Au
atom 21.6617322399999992 29.6643923299999983 0.0856893300000000 Au
atom 24.4001164999999993 29.6021005499999994 -0.0113579700000000 Au
atom 24.6133166400000007 29.6191635099999999 -0.0233337900000000 Au
atom 4.4209360799999997 29.7504935300000000 -0.0839095400000000 Au
atom 4.9330667799999999 29.5750863899999992 0.1432786100000000 Au
atom 9.0338171400000000 32.0956881600000017 -0.0532798100000000 Au
atom 11.8561397700000004 32.0238282099999978 -0.0768841800000000 Au
atom 14.5317644900000005 32.0133612300000010 -0.2101244800000000 Au
atom 17.4399950200000013 32.0402265800000023 -0.0934247300000000 Au
atom 20.3154141099999990 32.1307145500000004 -0.1551711400000000 Au
atom 23.1375651600000012 32.3065621900000011 0.1034635100000000 Au
atom 25.8426653500000008 31.9913165100000008 -0.1386423800000000 Au
atom 0.4584527600000000 32.1575056599999982 -0.2856084800000000 Au
atom 3.2712179300000002 32.0649851299999966 -0.0108744800000000 Au
atom 6.0929453499999999 32.1211673600000012 0.1090392500000000 Au
atom 7.5601503100000000 34.5070203499999977 -0.0701801200000000 Au
atom 10.4461576300000001 34.4777713399999968 0.1636603200000000 Au
atom 13.2733820799999993 34.4966280200000028 0.3734743500000000 Au
atom 16.0356243999999997 34.5571240499999988 -0.1781528000000000 Au
atom 18.8986299100000004 34.5652955300000002 -0.2589773600000000 Au
atom 21.7522625199999986 34.7186394699999994 -0.1994122800000000 Au
atom 24.5134937000000015 34.4929093499999979 0.0301841800000000 Au
atom 27.2723061099999988 34.6390756500000023 -0.1618818800000000 Au
atom 1.9349434400000001 34.6271018999999995 -0.0821721500000000 Au
atom 4.7632659000000004 34.5757781599999987 0.1689465900000000 Au
atom 8.6562635100000005 37.1238979399999991 0.2512847700000000 Au
atom 11.8098637499999999 36.8908909100000031 0.1384552200000000 Au
atom 14.6189471999999991 36.9762958499999996 -0.1840506000000000 Au
atom 17.4026059900000014 36.9701550099999992 -0.3826123300000000 Au
atom 20.1527182399999987 37.1001899099999974 -0.1330862100000000 Au
atom 23.0942317300000006 37.0876494800000032 -0.1327766600000000 Au
atom 25.9850285499999991 37.0459601800000016 -0.0318932000000000 Au
atom 0.5515871700000000 37.1265145599999968 -0.2769311800000000 Au
atom 3.3539669100000000 37.0054321900000005 -0.0369096800000000 Au
atom 6.3310759499999998 39.9175047299999974 0.0091834400000000 Au
atom 7.5418273700000000 -3.0232267199999998 0.2818353300000000 Au
atom 10.2473543399999993 -0.1677349100000000 0.3069912300000000 Au
atom 13.0294824100000000 -0.0271121400000000 0.0226162500000000 Au
atom 15.9199570200000000 -0.0186310200000000 -0.0486688800000000 Au
atom 18.8700560700000004 0.0484299200000000 -0.1743691100000000 Au
atom 21.6146099400000011 0.0434498000000000 -0.1398809300000000 Au
atom 24.4649329000000009 0.1343675400000000 0.0615635000000000 Au
atom 27.2232298099999994 -0.0257427000000000 0.4233706300000000 Au
atom 1.8035520899999999 0.1344736800000000 0.1240807100000000 Au
atom 4.7233358200000000 -0.0545821600000000 0.2216055200000000 Au
atom 8.9429677499999993 2.3156717400000000 0.1359119400000000 Au
atom 11.6918080999999994 2.4408267299999999 0.3218737900000000 Au
atom 14.5742724900000002 2.2887322600000002 0.0638875800000000 Au
atom 17.3591877799999992 2.4442476499999999 -0.0511288400000000 Au
atom 20.1844083500000018 2.5366922900000000 -0.1356521600000000 Au
atom 23.0228149500000008 2.5767747399999998 0.0474739000000000 Au
atom 25.7734499799999988 2.5248118200000000 0.0720590400000000 Au
atom 0.4618178200000000 2.5127022700000001 0.4054771400000000 Au
atom 3.2965076899999999 2.4976507300000002 0.3560736700000000 Au
atom 6.1009100099999998 2.4251124300000000 0.0914178900000000 Au
atom 7.5310273600000004 4.9178128599999997 0.0125635200000000 Au
atom 10.2610783399999992 4.8217924500000002 0.2341699800000000 Au
atom 13.0568263499999997 4.8969449300000001 0.2976330000000000 Au
atom 15.8946065200000000 4.9102714599999997 0.0615804500000000 Au
atom 18.7064967300000013 4.9404073100000003 -0.1854455900000000 Au
atom 21.4904451300000012 4.9280944299999998 0.3061184400000000 Au
atom 24.3553918200000012 5.0901602500000003 0.1777128300000000 Au
atom 27.1864680599999993 4.9431478999999996 0.3140316300000000 Au
atom 1.8495102400000001 4.9303434800000003 0.1861328800000000 Au
atom 4.6702114100000003 4.9105595800000001 0.2533118300000000 Au
atom 8.8567809600000000 7.3687616599999997 0.2701845700000000 Au
atom 11.7629337700000001 7.0442521100000004 0.0361935900000000 Au
atom 14.4548181600000003 7.2535727500000000 0.0354417900000000 Au
atom 17.3026318199999984 7.4546306600000003 -0.1210924700000000 Au
atom 20.1631015299999987 7.4356146399999998 0.0815183400000000 Au
atom 23.1074868799999997 7.3047481200000002 0.0874638800000000 Au
atom 25.9335455099999983 7.4602676700000004 0.1536840100000000 Au
atom 0.5141989800000000 7.3980832699999999 0.0953578700000000 Au
atom 3.2218597999999998 7.4618355000000003 0.3749612900000000 Au
atom 6.0101706600000000 7.3716108399999998 0.2517421100000000 Au
atom 7.6082605200000000 9.8322398300000007 0.1704283900000000 Au
atom 10.3230320500000001 9.9217356700000003 -0.1048450200000000 Au
atom 13.2125772900000005 9.8150377399999993 -0.1715117700000000 Au
atom 15.9864691400000005 9.8985312000000008 -0.2232350500000000 Au
atom 18.8126585900000016 9.9437960400000005 -0.1563813200000000 Au
atom 21.7545120099999991 9.8439201900000004 0.0152644100000000 Au
atom 24.5088055599999990 9.8274818400000008 -0.2275973900000000 Au
atom 27.3828898199999990 9.8512536399999995 0.1390670000000000 Au
atom 1.9188650700000001 9.9256325499999996 0.2700710800000000 Au
atom 4.7319428600000002 9.8420420199999992 0.0651819700000000 Au
atom 9.0352306599999999 12.2324331999999991 0.2232890400000000 Au
atom 11.7681444699999993 12.3543934699999998 -0.1911282500000000 Au
atom 14.5635184599999992 12.2880719099999993 0.0836690800000000 Au
atom 17.3908092600000010 12.3316767200000008 0.0152912400000000 Au
atom 20.3064200799999988 12.2934453599999998 0.1514992300000000 Au
atom 23.1042287199999983 12.3203394399999997 -0.1466615300000000 Au
atom 25.8984551699999983 12.2310786000000000 -0.1727390200000000 Au
atom 0.5419920300000000 12.3558452499999998 0.1263921400000000 Au
atom 3.3931476800000002 12.4702650199999994 0.2049680100000000 Au
atom 6.2315986199999998 12.3370605399999995 0.2489666500000000 Au
atom 7.4638913100000002 13.1928831300000002 2.8623259499999998 Au
atom 10.3490271600000003 13.1126855300000003 2.6636250299999999 Au
atom 13.1197730200000002 13.2801916299999991 2.3856610800000002 Au
atom 15.9710611700000005 13.2389897600000008 2.5184320200000001 Au
atom 18.8020559700000014 13.3404673599999999 2.7810661200000002 Au
atom 21.6204026399999982 13.2271295599999998 2.3554794399999999 Au
atom 24.3632491199999990 13.1896164700000007 2.4499316300000000 Au
atom 27.2448149400000013 13.1214297500000008 2.5669702600000002 Au
atom 1.8287600100000001 13.1865592800000009 2.9228052700000000 Au
atom 4.7125513300000001 13.1741773599999998 2.7555112400000001 Au
atom 8.8819130499999996 15.5697551099999991 3.1473344399999998 Au
atom 11.5952800299999996 15.6481647699999993 2.5362414599999998 Au
atom 14.4614028200000000 15.7094764399999995 2.2772661200000002 Au
atom 17.3380019700000005 15.6211149999999996 2.1634725499999998 Au
atom 20.1970310899999994 15.7964691800000008 2.0955520600000002 Au
atom 23.4217192599999997 15.4736958599999994 2.2242350200000001 Au
atom 25.5471272599999999 15.5715522899999996 2.3506285600000001 Au
atom 0.4643696300000000 15.6578773699999996 2.5151180599999998 Au
atom 3.3627935899999999 15.6142714799999993 2.4944107299999998 Au
atom 6.1389769699999999 15.6614641700000004 2.7003824200000000 Au
atom 7.8249272100000002 18.1371955699999994 2.9745224399999999 Au
atom 9.9777634499999994 18.1600808299999983 3.0065334199999998 Au
atom 13.1697969900000000 18.1783362199999985 2.5927604199999998 Au
atom 16.0249700799999992 18.1112774099999996 2.1589725899999999 Au
atom 18.9876463899999983 17.7449180800000015 2.1923354599999998 Au
atom 21.6396404999999987 18.0451179500000016 2.2907302600000001 Au
atom 24.4752859100000002 18.0913150000000016 2.3896773800000002 Au
atom 27.2593928699999992 18.1089606500000002 2.3576360900000002 Au
atom 1.9922835800000001 18.0599707999999985 2.4639911699999999 Au
atom 4.8409842699999999 18.1885249199999990 2.4927749000000001 Au
atom 8.9727121099999998 20.6359524900000011 3.0611896800000000 Au
atom 11.7732338100000007 20.6697570599999985 2.8165334500000001 Au
atom 14.6039011799999994 20.5707397599999986 2.4389044400000000 Au
atom 17.3034214700000000 20.4650288600000003 2.3075816200000001 Au
atom 20.2269296999999995 20.4168428099999986 2.5464523400000001 Au
atom 23.0168951100000001 20.4965848299999998 2.5518742900000002 Au
atom 25.8493666500000003 20.4875250999999992 2.4376212300000000 Au
atom 0.4500283700000000 20.5050677899999982 2.5013758699999999 Au
atom 3.3132290000000002 20.6431057100000004 2.7900649000000000 Au
atom 6.1687635199999997 20.5797543999999988 3.1128334400000002 Au
atom 7.5647555200000003 23.0335666500000009 2.7420771300000002 Au
atom 10.3682651499999992 23.0401392399999985 2.7192296400000000 Au
atom 13.3222244700000001 23.1336720000000007 2.8668724000000001 Au
atom 15.9571222400000003 22.8748532400000002 2.8645267300000001 Au
atom 18.7394266199999997 22.9790713300000000 2.6222734299999999 Au
atom 21.6500960599999992 22.9562225499999997 2.7752136400000000 Au
atom 24.4919800400000014 23.0362777500000000 2.6494112900000002 Au
atom 28.5813517700000013 23.1117466100000009 2.5999378300000000 Au
atom 0.5413536900000000 23.0162067400000012 2.4866564300000000 Au
atom 4.7207520399999998 23.1239479500000016 2.9415691599999998 Au
atom 9.0070714299999999 25.4816443499999998 2.8278859999999999 Au
atom 11.8540907400000002 25.5113232399999994 2.8890391900000001 Au
atom 14.7788366000000000 25.5145507500000015 2.5550012700000000 Au
atom 17.1768201699999992 25.5271094699999992 2.6907832200000001 Au
atom 20.3354308400000008 25.3958958700000004 2.5623395800000002 Au
atom 23.1377829699999999 25.4880130800000018 2.5870323800000001 Au
atom 25.7797964300000011 25.5384163000000015 2.6708965000000000 Au
atom 0.4383643200000000 25.6268840699999991 2.6278561400000000 Au
atom 3.1564340199999998 25.5235007399999994 2.7413153700000001 Au
atom 6.1499109100000000 25.5380433300000007 2.7162604699999999 Au
atom 7.5133878899999997 27.9125425599999986 2.8056281300000001 Au
atom 10.4314451199999993 27.8726836499999990 2.7862911499999998 Au
atom 13.2604614299999994 27.9873690300000000 2.5050316200000000 Au
atom 16.0434995700000016 27.9276346199999992 2.5817806000000001 Au
atom 18.8564466700000004 27.8466148199999992 2.1692866600000000 Au
atom 21.7330804200000003 27.9487886600000017 2.4644781199999999 Au
atom 24.4561531499999987 27.9847841099999997 2.7061977800000001 Au
atom 27.2806801800000009 28.0560602099999983 2.5286337200000002 Au
atom 1.9216274600000001 28.0503715100000015 2.4323011000000001 Au
atom 4.7086935099999998 28.0386754700000012 2.5769820800000001 Au
atom 8.8819760399999996 30.3510011199999994 2.6715351799999998 Au
atom 11.7857973099999995 30.3390894099999997 2.7100699900000000 Au
atom 14.6688537399999994 30.4231740299999984 2.5522958999999998 Au
atom 17.5353611500000000 30.3929283099999985 2.5301635899999999 Au
atom 20.2579385999999992 30.3385977599999990 2.5005986199999999 Au
atom 23.0690072199999996 30.4450114899999988 2.6626187699999999 Au
atom 25.8361079599999997 30.4528508500000008 2.5597512299999998 Au
atom 0.4434723800000000 30.5329829299999993 2.5342193700000002 Au
atom 3.2477385499999998 30.6001918300000000 2.6895812600000002 Au
atom 6.0866379899999998 30.4212357799999999 2.7933773700000000 Au
atom 7.6071517899999996 32.9421976900000004 2.5748016499999999 Au
atom 10.4063370400000004 32.7659428400000010 2.6343983799999999 Au
atom 13.2480503800000005 32.8124674299999981 2.5857146499999999 Au
atom 16.0279747700000001 32.8936893099999992 2.2970882800000001 Au
atom 18.8122422100000009 32.8791476999999972 2.5263705500000002 Au
atom 21.6191632899999995 32.9247853299999989 2.5704098200000001 Au
atom 24.3664246300000009 32.9455635599999965 2.5773898800000001 Au
atom 27.1288507800000005 32.9349294000000015 2.3260715099999998 Au
atom 1.7766694500000000 32.9208172599999997 2.3495635799999999 Au
atom 4.7290164900000002 32.9503892600000015 2.5759294300000000 Au
atom 8.9910491900000000 35.2806985300000022 2.7795665299999999 Au
atom 11.8109332400000007 35.2458006199999971 2.9457256100000002 Au
atom 14.8559288699999996 35.5095588800000002 2.6707118300000001 Au
atom 17.4340064599999991 35.3065564199999997 2.2915317100000001 Au
atom 20.3448356399999994 35.4071011699999971 2.4911828499999999 Au
atom 22.9518897600000003 35.4362021999999968 2.5896645700000001 Au
atom 25.7516829700000009 35.2819506399999980 2.7583013200000002 Au
atom 0.4206939700000000 35.3913448200000005 2.3758021600000001 Au
atom 3.2673854800000002 35.4297629799999996 2.7733008500000000 Au
atom 6.1676888700000001 35.3607584299999971 2.5926725300000002 Au
atom 7.6575110600000000 37.8453666999999996 2.8771733799999999 Au
atom 10.3719960100000002 37.6760285000000010 2.8380875099999998 Au
atom 13.1802123299999998 37.7024598100000006 2.5688641300000001 Au
atom 15.8890933600000004 37.4811426400000016 2.4070692500000002 Au
atom 18.7690602700000007 37.8356536100000014 2.3934028299999999 Au
atom 21.6523433700000005 37.8887011400000020 2.3735498399999999 Au
atom 24.5993861900000006 37.8058940900000024 2.5066554399999998 Au
atom 27.3588375699999986 37.7787803299999965 2.8961841300000000 Au
atom 1.8914242400000001 37.8352781600000014 2.5232443199999999 Au
atom 4.9395538500000002 33.8051875800000019 2.7449135400000002 Au
atom 8.9661615300000008 0.8541658200000000 2.8579146500000001 Au
atom 11.7486759700000007 0.8724592900000000 2.9093334500000001 Au
atom 14.4921790500000007 0.7517895100000000 2.5691791400000001 Au
atom 17.2755730800000009 0.7116312200000000 2.5668379799999999 Au
atom 20.1682639700000017 0.7580578100000001 2.6078312499999998 Au
atom 23.0617034899999993 0.7933275200000000 2.7716568600000002 Au
atom 25.7827326799999987 0.8349981000000000 2.8305953200000000 Au
atom 0.4741615800000000 0.7285910500000000 2.9206062600000000 Au
atom 3.2274074100000001 0.8354900800000000 2.8777997000000002 Au
atom 5.8657503499999999 4.7962682100000000 2.7797709500000001 Au
atom 7.6079945699999998 3.2698042699999998 2.5429319399999999 Au
atom 10.4021939600000000 3.3957545599999999 2.9661694900000000 Au
atom 13.2301412000000003 3.3820706899999999 2.9415449900000001 Au
atom 15.9874931500000006 3.2140278400000000 2.5772238900000000 Au
atom 18.7892910700000009 3.2248746499999998 2.4460562700000001 Au
atom 21.5710365199999998 3.2483291699999999 2.7150686700000000 Au
atom 24.4860088000000005 3.5543062800000000 2.7854421399999998 Au
atom 27.1409613100000016 3.2706407000000000 2.8825351399999999 Au
atom 1.7140238800000001 3.2540203100000000 2.9091436599999998 Au
atom 4.6318058999999998 3.3018562700000000 2.7138485800000001 Au
atom 8.8522582799999991 5.7268498599999997 2.9299165800000000 Au
atom 11.7132793100000008 5.7826015100000001 2.7770479099999998 Au
atom 14.5444432599999995 5.8075858299999998 2.6618337400000001 Au
atom 17.3844226699999993 5.7916242400000000 2.4752083800000002 Au
atom 20.0990548000000011 5.7456736499999996 2.7000486200000000 Au
atom 22.8764669900000008 5.7055623999999998 2.9635063300000000 Au
atom 25.6650313799999985 5.6052597899999999 2.7830060200000002 Au
atom 0.4244938200000000 5.7591675799999997 2.7726840699999999 Au
atom 3.2954318599999999 5.7635230000000002 2.7766683200000002 Au
atom 6.0974262799999996 5.7376790700000004 2.6602224099999998 Au
atom 7.5158808500000003 8.1936375199999993 2.8287605899999999 Au
atom 10.3874981000000002 8.2947424400000003 2.6721783800000001 Au
atom 13.1773572899999998 8.2087420299999998 2.6056971700000000 Au
atom 15.9159393500000004 8.2040853600000005 2.4637465399999998 Au
atom 18.7356946999999998 8.2586650000000006 2.5955341399999998 Au
atom 21.3076098400000014 8.1857038899999992 2.7772543500000002 Au
atom 24.5937553099999988 8.1660062199999999 2.5732202499999999 Au
atom 27.2560148700000013 8.1385591799999997 2.8281464299999999 Au
atom 1.8018952500000001 8.2839485100000001 3.0759957700000000 Au
atom 4.7114263500000000 8.3004350000000002 2.8507745600000001 Au
atom 8.9779206499999997 10.7314579600000002 2.9542314400000000 Au
atom 11.7990559299999997 10.7242614500000002 2.3444839599999998 Au
atom 14.5414833500000000 10.6653230000000008 2.5434193199999999 Au
atom 17.3226480199999990 10.6668222799999999 2.4252115500000002 Au
atom 20.1612663300000001 10.7197206200000004 2.7494776200000000 Au
atom 22.9954804400000015 10.7237462600000004 2.3909037899999999 Au
atom 25.7523640799999995 10.7074971800000007 2.5423093600000000 Au
atom 0.3905811700000000 10.7461096000000005 2.7867602400000000 Au
atom 3.2099335800000000 10.7164451500000002 2.7471627500000002 Au
atom 6.1542907900000001 10.7147139599999992 2.5541111600000002 Au
atom 7.2708402500000000 13.0636962099999998 5.9769020599999996 Cl
atom 7.2566480599999998 15.9037561600000004 8.7235648300000008 Cl
atom 7.3676216999999999 12.9857299400000006 8.3816303300000001 Na
atom 7.2281152100000003 16.0104009000000005 5.9509588000000004 Na
atom 7.2728688100000003 18.8079351700000004 5.8327875999999996 Cl
atom 7.2965812899999998 21.5158355300000004 8.8392725700000003 Cl
atom 7.2454760399999998 18.6502944399999997 8.7423963899999997 Na
atom 7.3331303300000004 21.5376238999999998 6.0803983800000001 Na
atom 7.3329660700000003 24.4129100200000018 6.0597484200000000 Cl
atom 7.3321298400000003 27.4063368300000008 8.6447231599999999 Cl
atom 7.0782440700000002 24.6420183799999997 8.4912276900000005 Na
atom 7.1174694699999996 27.2024003400000005 5.8768764999999998 Na
atom 7.3354656800000004 30.2246408100000004 5.7497426100000002 Cl
atom 7.1610125800000004 33.0820939199999984 8.7248108000000002 Cl
atom 7.1511935600000003 30.3082400800000009 8.5782027500000009 Na
atom 7.3044471700000004 32.9677300800000026 5.9322783200000000 Na
atom 7.3479244899999996 35.7550391899999980 5.8383449900000004 Cl
atom 7.1473141699999996 38.4858549200000013 8.9804695999999993 Cl
atom 7.3130277699999997 35.7231341900000032 8.5550195799999997 Na
atom 7.4169364000000000 38.5720944600000024 6.0192478100000004 Na
atom 7.0786254399999997 1.9414518000000001 5.9948855900000000 Cl
atom 7.2365183300000000 4.5120134099999998 8.9297590800000002 Cl
atom 7.2549115700000000 1.8292713500000000 8.6921313500000004 Na
atom 7.2486866399999998 4.6517692100000003 6.0354792499999999 Na
atom 7.1785449000000003 7.4697159099999997 6.0828354500000001 Cl
atom 7.3314697200000003 10.2242586499999994 8.6437762199999995 Cl
atom 7.5731160600000003 7.3501861000000002 8.7314021099999994 Na
atom 7.1539067899999997 10.2012585799999993 5.9208574299999999 Na
atom 10.0095606499999992 13.0939275300000002 5.9576156500000002 Na
atom 13.0250953599999999 13.1371888499999994 5.8753064699999999 Cl
atom 10.1013780900000008 15.9151186500000001 8.8026050900000001 Na
atom 13.1611187100000002 16.0276154499999990 8.7161832100000005 Cl
atom 12.8663069700000001 13.1529658600000001 8.5654501900000000 Na
atom 10.1675218500000000 13.0689158899999995 8.7519135499999994 Cl
atom 12.8711521399999995 15.8641709399999993 5.9432742500000000 Na
atom 10.1142560899999996 15.9904463999999997 5.9188526000000001 Cl
atom 10.2040215199999995 18.8552699299999986 6.4955739399999999 Na
atom 13.0297749700000001 18.9016160000000006 5.8790462999999997 Cl
atom 10.0233206599999995 21.5915127899999995 8.7928715299999993 Na
atom 13.4069201499999995 21.7823659200000002 8.7876475000000003 Cl
atom 13.0193752600000003 18.9569637899999996 8.4688471500000002 Na
atom 9.9641763599999997 18.8368310600000015 8.4114409999999999 Cl
atom 12.8878123999999996 21.4505176599999992 6.1459913799999999 Na
atom 10.0423183999999992 21.6501739200000003 5.9990815800000004 Cl
atom 10.1192230199999997 24.4074899300000006 6.2045347700000004 Na
atom 12.9685784599999998 24.6493524800000010 5.6771313499999998 Cl
atom 9.8392745300000009 27.1651951099999991 8.4148890299999994 Na
atom 12.9352884699999997 27.5465954099999983 8.4721831400000003 Cl
atom 12.9478592500000005 24.7540337299999997 8.4690202299999999 Na
atom 10.2367911899999999 24.5516683499999999 8.7972902699999995 Cl
atom 12.8433638299999995 27.1795679800000016 5.7091526100000003 Na
atom 10.0598558400000009 27.3234200499999993 5.6527336600000000 Cl
atom 10.1857717999999995 30.0059406099999997 5.8984272899999999 Na
atom 12.9460543700000006 30.0188267000000018 5.6872316600000001 Cl
atom 10.0679992899999995 32.9429116199999967 8.3509932599999992 Na
atom 12.9466081800000001 32.7784044400000028 8.5863150899999994 Cl
atom 13.0669290599999997 29.9004347700000004 8.5288579099999993 Na
atom 10.1009854299999997 30.0358740299999987 8.6682985499999994 Cl
atom 12.8912693500000000 32.8027451700000015 5.8731608399999997 Na
atom 10.0761404900000002 32.9458495700000000 5.8317731899999998 Cl
atom 10.1392255799999997 35.6926442600000016 5.7936738500000002 Na
atom 13.0065921499999995 35.6463109500000002 5.6496848300000000 Cl
atom 10.2047988699999994 38.4557016099999984 8.4334960199999998 Na
atom 13.0562606599999995 38.3512572599999970 8.7017703799999992 Cl
atom 12.9741368200000000 35.5437057199999984 8.4309970100000005 Na
atom 10.1928914899999992 35.5247041300000035 8.5345528500000007 Cl
atom 12.9294636199999999 38.4530767800000035 5.9731533499999996 Na
atom 10.1380176100000003 38.4888155599999990 5.7362159300000002 Cl
atom 9.9355853500000002 1.8689781700000001 5.8632151500000003 Na
atom 12.7808770900000006 1.8873161800000000 5.9610668000000002 Cl
atom 10.3590933900000000 4.4197964399999998 8.4153335299999998 Na
atom 12.7841908499999999 4.6081536600000002 8.5181746000000000 Cl
atom 12.9773683799999997 1.6901515800000000 8.4289465400000001 Na
atom 10.0712435399999993 1.6941796800000000 8.6917012099999997 Cl
atom 12.9069072800000004 4.6948243800000000 5.8269435900000000 Na
atom 10.0897333200000006 4.7062253800000002 6.0926231299999998 Cl
atom 10.2402084799999997 7.4745041600000004 5.9297078900000004 Na
atom 13.0040379500000007 7.5628392900000003 5.4884125299999997 Cl
atom 10.2499211300000006 10.2614669099999993 8.2981709899999991 Na
atom 13.2473661299999996 10.3673181099999994 8.6747919099999997 Cl
atom 12.9953846399999993 7.4458868100000002 8.4978615200000007 Na
atom 10.4608549100000001 7.2703146299999997 8.6745846400000008 Cl
atom 12.9152791699999998 10.2912280599999999 5.9551255799999998 Na
atom 10.2288412199999996 10.2291737499999993 6.0860684999999997 Cl
atom 15.7038914999999992 13.0321009100000005 5.7809590100000001 Na
atom 18.4533676000000000 13.3444115199999995 5.7999402699999996 Cl
atom 15.8158092700000008 16.1404925000000006 8.4758266899999999 Na
atom 18.5762668200000007 16.0835150400000018 8.5983087299999994 Cl
atom 18.4058632399999986 13.2131806699999999 8.5579851799999993 Na
atom 16.1148914599999991 13.1560853000000009 8.5952902899999994 Cl
atom 18.5788839099999983 16.2195395200000014 5.8088694299999997 Na
atom 15.6484941800000001 16.0421024599999988 5.6803937400000004 Cl
atom 15.8954298999999999 18.9621447299999986 5.7507550900000002 Na
atom 18.3253328199999999 18.9190497399999984 5.3878711600000004 Cl
atom 15.6628237699999993 21.7753214700000015 8.4153039300000003 Na
atom 18.6261429599999992 21.7640594800000002 8.3475075699999994 Cl
atom 18.6013548100000001 18.8721957099999997 8.5255740699999993 Na
atom 15.8388752299999993 18.9580696000000017 8.6448516699999995 Cl
atom 18.6970240600000004 21.7780744000000013 5.8019056999999998 Na
atom 15.8172450900000001 21.7564405000000001 5.7118632500000004 Cl
atom 15.8090274599999994 24.5399956000000010 5.7626168900000003 Na
atom 18.6100582099999983 24.4665674200000005 5.6007871500000004 Cl
atom 15.7377845999999995 27.3122179799999998 8.2241608300000006 Na
atom 18.7777615199999985 27.1744465300000009 8.5482018199999992 Cl
atom 18.6322266300000017 24.4457608099999995 8.3445668400000006 Na
atom 15.7793804000000009 24.5451859299999988 8.4763996000000006 Cl
atom 18.7550516999999992 27.1886288799999996 5.5879985699999999 Na
atom 15.6209347600000008 27.3639178700000016 5.9687455900000002 Cl
atom 15.6744115700000002 30.1485588200000016 5.7703655800000000 Na
atom 18.6716030599999989 29.9707869299999992 5.7002717399999998 Cl
atom 15.9063942699999998 33.0085191699999996 8.4615103099999995 Na
atom 18.7286407699999984 32.8193915100000027 8.2818773199999995 Cl
atom 18.9071509300000002 29.8676807300000000 8.4481906799999997 Na
atom 15.5216966799999998 30.3125056199999996 8.5389029399999998 Cl
atom 18.5682438000000012 32.8082032499999983 6.3154888199999997 Na
atom 15.7515962399999996 33.0373987899999975 5.6070928599999998 Cl
atom 15.9336904900000000 35.5189028799999988 5.6278373000000004 Na
atom 18.7001008999999989 35.7154488299999997 5.6591829999999996 Cl
atom 15.9446221099999992 38.3228044000000025 8.4183249500000006 Na
atom 18.6571857799999989 38.3932910600000028 8.6467501000000002 Cl
atom 18.7672777500000016 35.5196967799999967 8.3825735100000003 Na
atom 15.7271459399999998 35.4993926799999997 8.6435314000000005 Cl
atom 18.6340457000000015 34.7038823500000007 5.8293423899999999 Na