#===============================================================================
# Created using the Atomic Simulation Environment (ASE)

# Tue Dec 23 22:26:05 2025

#=======================================================
lattice_vector 28.1999999999999993 0.0000000000000000 0.0000000000000000 
lattice_vector 0.0000000000000000 39.4799999999999969 0.0000000000000000 
lattice_vector 0.0000000000000000 0.0000000000000000 62.3296083400000001 
atom 7.4576624400000000 14.7585258499999998 0.1423014500000000 Au
atom 10.3823869400000000 14.7037972299999993 -0.0558037900000000 Au
atom 13.0215728599999991 14.9219915099999998 0.1460855800000000 Au
atom 15.9803220699999997 14.7669378800000004 -0.0967918100000000 Au
atom 18.7475549999999984 14.8163233400000003 0.0477859100000000 Au
atom 21.6589094899999992 14.8542340399999997 -0.2150128900000000 Au
atom 24.3073085000000013 14.8033020099999995 -0.0879341200000000 Au
atom 27.3512630299999984 14.7195803800000000 -0.0005199200000000 Au
atom 1.7915271900000000 14.7894917600000007 0.0927498000000000 Au
atom 4.6666646900000002 14.7644634700000008 0.1514129700000000 Au
atom 8.9975334599999996 17.3328741700000002 0.0501365800000000 Au
atom 11.8844458799999995 17.3935309700000005 -0.0599484900000000 Au
atom 14.5213804900000003 17.3728033400000008 -0.0306941800000000 Au
atom 17.3460838300000013 17.0615132100000011 0.0071830700000000 Au
atom 20.1291442600000003 17.3342729200000001 0.1089014600000000 Au
atom 22.9902277700000006 17.3097410600000003 -0.0534492200000000 Au
atom 25.8749496199999989 17.3463810100000018 0.0833255000000000 Au
atom 0.5401344700000000 17.2270854200000016 0.0545504700000000 Au
atom 3.3070498100000001 17.3399532799999996 -0.0075089900000000 Au
atom 6.2055374399999996 17.1735142299999985 0.1613626300000000 Au
atom 7.2867457800000004 19.7280395599999991 0.0796620700000000 Au
atom 10.4586400099999999 19.6839587800000011 0.1484334900000000 Au
atom 13.0524704600000003 19.9368726299999999 0.1376355800000000 Au
atom 15.8159216399999991 19.7629623899999984 0.0707458200000000 Au
atom 18.7918715399999989 19.8554215899999988 0.2195979200000000 Au
atom 21.4049560800000016 19.7880525499999997 0.0351080600000000 Au
atom 24.3216913599999991 19.7264259099999997 0.0690222700000000 Au
atom 27.1927899599999989 19.6156977999999995 -0.0241940500000000 Au
atom 1.7959693500000000 19.8585858699999989 0.0930072000000000 Au
atom 4.6722088900000003 19.9419570800000017 0.0468265800000000 Au
atom 8.8988574699999994 22.2042688400000010 0.2131499300000000 Au
atom 11.6098768099999994 22.0726435499999987 0.1687034500000000 Au
atom 14.6103621199999996 22.3012193799999991 0.0307837200000000 Au
atom 17.3436834600000012 22.1783242600000001 0.1014690000000000 Au
atom 20.1680157800000011 22.1765680200000013 0.1688835500000000 Au
atom 22.9624878099999989 22.2769887900000008 0.0551498500000000 Au
atom 25.7209565299999987 22.3223461500000013 0.0351090500000000 Au
atom 0.4189809100000000 22.2367412999999985 0.2985134500000000 Au
atom 3.4511004100000000 22.0600931399999993 0.0566016300000000 Au
atom 5.9410624500000004 22.1747701399999997 0.2835152000000000 Au
atom 7.5296494400000000 24.8468924800000011 0.1156585500000000 Au
atom 10.4523428599999999 24.7303099099999990 -0.0951374200000000 Au
atom 13.3457989999999995 24.8419816100000013 0.1852745300000000 Au
atom 16.1222895500000014 24.7109391100000018 0.0478720200000000 Au
atom 18.7020833700000004 24.6614752400000015 0.0728666400000000 Au
atom 21.6189051499999998 24.6121745800000014 0.1920873000000000 Au
atom 24.2682704200000003 24.7431446900000012 0.1809421600000000 Au
atom 27.2974614500000001 24.8047145899999997 0.1045519200000000 Au
atom 1.9149542600000000 24.7635107900000015 0.1327722800000000 Au
atom 4.6026696700000000 24.6024063099999992 0.1619285100000000 Au
atom 8.7582708999999994 27.1205808600000005 0.0201065300000000 Au
atom 11.8092789299999996 27.0778834199999991 0.1261946900000000 Au
atom 14.4776121900000003 27.1951958800000000 0.1820885300000000 Au
atom 17.4812963400000001 27.1564964599999996 0.0379921100000000 Au
atom 20.2131073400000005 27.1133658199999985 -0.0284525400000000 Au
atom 22.9883403999999985 27.0623432100000016 0.0920124500000000 Au
atom 25.9006583699999986 27.0924130400000003 0.0540396800000000 Au
atom 0.3562332600000000 27.1416919900000018 0.1812729600000000 Au
atom 3.2201576200000002 27.0907449900000010 0.1482863300000000 Au
atom 6.2157982000000001 27.2514851900000004 0.1170194200000000 Au
atom 7.6339255799999997 29.7401717800000007 0.0561588400000000 Au
atom 10.4428227499999995 29.5012919400000015 0.1224172500000000 Au
atom 13.1996359699999992 29.5828562499999990 0.0294885300000000 Au
atom 16.0269412299999985 29.5601444700000009 0.1312724000000000 Au
atom 18.8878168700000018 29.5619163000000000 0.0218641700000000 Au
atom 21.6273189600000002 29.7057164699999987 0.0789591300000000 Au
atom 24.3476461399999984 29.6628008899999998 0.1685078900000000 Au
atom 27.2990425099999996 29.4588601200000006 0.1265608900000000 Au
atom 1.7526444000000001 29.4763416599999992 0.2195821200000000 Au
atom 4.7177518500000000 29.5485625899999995 0.1149261100000000 Au
atom 8.9319968700000008 31.9564604099999983 0.3381912400000000 Au
atom 11.7559368499999994 32.0254688899999991 -0.0919825500000000 Au
atom 14.4639027500000008 32.2712045399999994 -0.0413450400000000 Au
atom 17.3653457399999986 32.1098378100000019 0.1309905700000000 Au
atom 20.1474312600000012 32.1579509600000009 -0.0786578000000000 Au
atom 23.1437190599999987 32.1234556499999968 0.0951299200000000 Au
atom 26.0654566000000010 32.1057882300000017 -0.0460880300000000 Au
atom 0.5993829700000000 32.2155915900000025 0.0038059500000000 Au
atom 3.2788821600000002 32.1993599199999991 -0.1651118700000000 Au
atom 6.0385876800000000 32.2579545800000034 -0.0460834600000000 Au
atom 7.5679543999999996 34.5782771900000014 0.1322258800000000 Au
atom 10.3976349300000006 34.6917814500000006 0.2221287100000000 Au
atom 13.1126752599999996 34.4746843499999969 -0.0527705300000000 Au
atom 15.6797671800000007 34.4202729200000022 -0.0006127700000000 Au
atom 18.6328897200000014 34.6746860100000021 -0.1850959800000000 Au
atom 21.4392347699999988 34.4376237500000002 -0.0353263600000000 Au
atom 24.5468285600000016 34.4553429400000013 -0.1354202300000000 Au
atom 27.2898412899999983 34.4477260800000025 0.0366452500000000 Au
atom 2.1274978700000000 34.6343325300000018 -0.1202867900000000 Au
atom 4.6010584500000000 34.6084271000000001 -0.0671851300000000 Au
atom 8.8760364500000009 37.1459025500000024 -0.0745459600000000 Au
atom 11.6465167899999997 36.9924162699999997 -0.0658785500000000 Au
atom 14.5163262500000005 36.8577039500000012 0.0606120000000000 Au
atom 17.4601998800000011 36.9873305300000013 0.1029933300000000 Au
atom 20.2648385600000012 37.0776887900000034 0.0960887300000000 Au
atom 23.1255708800000015 37.0679378099999965 0.1497410800000000 Au
atom 25.8242922200000002 36.8987360300000020 0.0109437800000000 Au
atom 0.4681451000000000 37.1841875000000002 0.0073420500000000 Au
atom 3.0830120299999999 37.0230315299999972 -0.1025797500000000 Au
atom 6.0941938400000000 36.9164554700000025 0.0950002200000000 Au
atom 7.5974609199999996 -0.1017024400000000 0.0985131600000000 Au
atom 10.4199949499999995 0.0953586500000000 0.1455341300000000 Au
atom 13.1337138000000007 0.1449440600000000 0.2615227400000000 Au
atom 15.8916287100000009 0.1798322400000000 0.1018205700000000 Au
atom 18.7843378500000000 -0.0895544600000000 -0.0714183000000000 Au
atom 21.6678421700000001 0.1005808600000000 0.0341162300000000 Au
atom 24.4271411600000015 -0.0165727400000000 -0.1546446400000000 Au
atom 27.1146278400000007 0.0815026000000000 0.2386495200000000 Au
atom 1.7616155600000001 0.1847310200000000 0.0600575500000000 Au
atom 4.8019740000000004 0.0212942400000000 0.0415616000000000 Au
atom 8.8600774199999996 2.4971574900000002 0.0447704400000000 Au
atom 11.6338918099999997 2.4869547800000000 -0.0446571200000000 Au
atom 14.6314866099999996 2.4596081299999999 0.0091515800000000 Au
atom 17.6079673800000016 2.3495448200000002 0.0880683600000000 Au
atom 20.4520618499999998 2.3700845300000002 0.1300301500000000 Au
atom 23.0006537999999985 2.5544817800000001 0.1558323100000000 Au
atom 25.7257105199999998 2.5400227700000002 0.0361332600000000 Au
atom 0.4432642400000000 2.4920662299999998 0.0725358500000000 Au
atom 3.4622806000000002 2.4759500299999999 0.0004321600000000 Au
atom 6.1169980700000002 2.6267157499999998 0.0999990700000000 Au
atom 7.5720693399999996 4.8256014000000000 0.0705288400000000 Au
atom 10.3946653999999992 5.1199914700000004 0.0045055000000000 Au
atom 13.2608003700000001 4.9198170599999997 0.0467210200000000 Au
atom 15.9462299000000005 4.9498328000000003 0.0096854900000000 Au
atom 18.8759437299999995 5.0369180000000000 0.1914991200000000 Au
atom 21.5876593800000016 5.0054249799999999 0.0913431800000000 Au
atom 24.5283116099999994 5.1085842699999997 0.0268374700000000 Au
atom 27.2641778899999991 4.7965090999999997 0.1747958600000000 Au
atom 1.7730408200000001 5.1180460900000000 -0.0730715700000000 Au
atom 4.8037782599999996 5.0023056800000001 0.2546644000000000 Au
atom 9.1220021300000003 7.2931511499999999 -0.0849309600000000 Au
atom 11.5954138499999999 7.5724641400000001 0.1960124300000000 Au
atom 14.7365994899999997 7.5508500099999996 0.0147525800000000 Au
atom 17.4097855999999993 7.4555700399999996 0.0778198800000000 Au
atom 20.2570170599999990 7.5299005699999997 0.0572572600000000 Au
atom 22.9219781000000005 7.4092673700000002 0.0969379900000000 Au
atom 25.8642965300000007 7.3152979900000004 0.0965474700000000 Au
atom 0.5849626900000000 7.4837162099999999 -0.0524826600000000 Au
atom 3.2079338399999999 7.5002308700000002 0.0056959200000000 Au
atom 5.9822058900000004 7.3979452900000000 0.0077617500000000 Au
atom 7.5704192900000002 9.8892504199999998 0.1216198700000000 Au
atom 10.3587574199999999 9.7164025699999996 -0.1031956300000000 Au
atom 13.2243770600000001 9.8992262300000000 -0.2455224000000000 Au
atom 15.7883643199999995 9.9287472500000007 0.0873426600000000 Au
atom 18.8348447499999985 9.8807866200000003 -0.0227901300000000 Au
atom 21.6498156900000005 9.8701414199999995 0.1569684700000000 Au
atom 24.3040171700000016 9.8524900199999994 -0.0116352000000000 Au
atom 27.4095600799999985 9.8764957899999999 0.0152372100000000 Au
atom 1.8310140200000000 9.7014024600000006 -0.0647494200000000 Au
atom 4.7053130999999997 9.7767894700000006 0.1551108700000000 Au
atom 8.8014282000000001 12.3395467399999994 0.0221110100000000 Au
atom 11.7551070000000006 12.4624459299999994 0.1182830900000000 Au
atom 14.5812484399999995 12.3564995799999995 0.0432762900000000 Au
atom 17.5758468299999997 12.2734571399999997 0.0188019200000000 Au
atom 20.1711406300000000 12.3555656200000001 0.0377771800000000 Au
atom 23.0351260499999988 12.4863424100000007 -0.0036426200000000 Au
atom 25.9252514599999984 12.4399837299999998 -0.0829149400000000 Au
atom 0.2477506000000000 12.3581068999999992 0.1168249600000000 Au
atom 3.2744193600000000 12.2351739700000000 0.0245653400000000 Au
atom 6.0422218000000001 12.3837853700000000 0.1434902300000000 Au
atom 7.4599034000000000 13.3087046299999994 2.6949919000000002 Au
atom 10.3827777599999997 13.2591845300000006 2.4639482500000001 Au
atom 13.0997667999999994 13.2271104400000006 2.5927166800000001 Au
atom 15.9237372799999992 13.0440514499999995 2.5557553700000000 Au
atom 18.8941526400000015 13.1866457900000000 2.7653765099999998 Au
atom 21.8105830999999988 13.2812591199999996 2.5170854700000000 Au
atom 24.5982156600000010 13.2575102400000002 2.8349696600000001 Au
atom 27.1396528000000004 13.2042373499999997 2.6117708799999999 Au
atom 1.7270362100000001 13.2732325800000002 2.5997316300000000 Au
atom 4.5605916400000002 13.1874753699999996 2.5921459400000000 Au
atom 9.0421252800000005 15.6982791899999992 2.6343200699999998 Au
atom 11.7425554299999995 15.7144324599999994 2.7272598000000001 Au
atom 14.5881629499999992 15.6662512899999999 2.6989092900000000 Au
atom 17.3496926100000017 15.6200863099999996 2.7333059300000002 Au
atom 20.2539894199999999 15.4440257699999997 2.6321527200000001 Au
atom 23.0649797899999989 15.4977398300000004 2.5329303500000000 Au
atom 25.7142461699999991 15.5968448800000008 2.6509246599999998 Au
atom 0.5571339199999999 15.6854489200000007 2.6068373500000002 Au
atom 3.4682377999999998 15.7066933500000001 2.7538969899999999 Au
atom 6.1319661200000004 15.6180406000000005 2.5414881500000002 Au
atom 7.3281039899999998 18.1528080000000003 2.7262147500000000 Au
atom 10.3840143800000000 18.1636547800000017 2.5686192499999998 Au
atom 12.9666976700000003 18.0182606499999984 2.6513819199999999 Au
atom 15.7768413499999998 18.1237522599999998 2.7464318200000002 Au
atom 18.9747050199999983 18.1649875200000004 2.7090662900000000 Au
atom 21.5525316499999988 18.1718711900000010 2.6203564099999999 Au
atom 24.3429950400000017 18.1470943499999997 2.5099068299999998 Au
atom 27.3202102199999999 18.0261312199999999 2.5199346000000000 Au
atom 1.7539791199999999 17.9952035600000002 2.7176193700000000 Au
atom 4.5570250300000001 18.0614783400000007 2.6914376500000001 Au
atom 9.0607797800000007 20.6978524700000008 2.8520060200000001 Au
atom 11.7520101100000005 20.5255937700000004 2.6988883900000000 Au
atom 14.4759277900000001 20.6295095800000006 2.8133975400000000 Au
atom 17.4961328199999997 20.5095217299999995 2.7991434599999998 Au
atom 20.2063898199999983 20.5143780699999994 2.6215003600000002 Au
atom 23.0077511399999999 20.4865970200000014 2.7709503700000000 Au
atom 25.9291307899999985 20.5158894600000004 2.6028290699999999 Au
atom 0.4354793000000000 20.6857991299999995 2.8184333499999998 Au
atom 3.2626427599999999 20.5836455700000016 2.6508569999999998 Au
atom 6.1027655599999999 20.4432227100000006 2.8783658700000001 Au
atom 7.4012791800000004 23.0876067700000007 2.5511185099999998 Au
atom 10.5316778200000005 23.0957921900000009 2.7973112800000002 Au
atom 13.2374237200000007 22.9952796600000013 2.6664167600000002 Au
atom 16.1008492399999987 23.0425685400000013 2.6956002400000001 Au
atom 18.8393961899999987 22.9469295200000012 2.5977072600000000 Au
atom 21.6300556899999989 22.8948144000000013 2.5941507499999998 Au
atom 24.4023759700000014 22.9484801000000012 2.6988313200000000 Au
atom 27.1428532400000009 23.2463947200000014 2.5599768799999998 Au
atom 1.8690084000000000 23.1149915899999989 2.8518800799999999 Au
atom 4.6852150899999998 23.1489732400000001 2.4828473899999999 Au
atom 9.0285616599999994 25.5740711000000012 2.6323536000000001 Au
atom 11.7173739900000005 25.5447077600000014 2.7988558900000000 Au
atom 14.4731028199999994 25.6725055100000006 2.5673350099999999 Au
atom 17.4768086099999991 25.5102557300000008 2.7317683000000001 Au
atom 20.3339829999999999 25.5199204399999999 2.6348259600000001 Au
atom 23.0120586399999993 25.6143612000000012 2.7145301399999999 Au
atom 25.8426012800000002 25.5387212699999999 2.6595062000000000 Au
atom 0.4287289200000000 25.7807568799999984 2.8122893499999999 Au
atom 3.2964041300000000 25.4247591200000009 2.7506732399999998 Au
atom 5.9885943299999997 25.6315082099999998 2.6772281499999999 Au
atom 7.6377881900000002 27.8525931699999987 2.6100207599999998 Au
atom 10.3055719499999991 28.1331612900000003 2.6421209299999999 Au
atom 13.0534627000000008 27.9254339400000013 2.6013618599999999 Au
atom 15.9385034200000000 28.0062419899999995 2.5905641600000000 Au
atom 18.7902102599999985 27.9426903099999997 2.5628200300000001 Au
atom 21.6360548600000016 27.9241143299999983 2.7859178199999999 Au
atom 24.4632762399999990 27.7885120000000008 2.5646123400000000 Au
atom 27.2220801399999992 27.8989862600000009 2.8347187900000002 Au
atom 1.7729472500000001 27.9877382899999994 2.5813768900000000 Au
atom 4.6403229799999997 27.8937060199999998 2.7121934699999999 Au
atom 8.8049054699999996 30.6044541499999987 2.6779545200000001 Au
atom 11.7038194099999995 30.5514566499999987 2.6381468099999998 Au
atom 14.4185369600000008 30.5330894199999996 2.5744795599999999 Au
atom 17.4032790800000008 30.6064084700000016 2.5071265899999999 Au
atom 20.2548696499999998 30.5374456999999992 2.4903101400000001 Au
atom 23.1364258999999990 30.4531682299999993 2.5983209399999998 Au
atom 25.6938708499999997 30.4106600299999990 2.7089684200000002 Au
atom 0.5435862900000000 30.4443266799999996 2.6126447200000000 Au
atom 3.2396635699999998 30.4250074200000000 2.5808811600000001 Au
atom 6.1891640199999998 30.4465098500000018 2.5985644099999998 Au
atom 7.6923639499999998 32.8824147699999969 2.5249879300000000 Au
atom 10.2711188000000000 32.7872824900000026 2.6880676600000002 Au
atom 13.2405008800000008 33.1154342000000028 2.5197551499999999 Au
atom 15.9933736300000007 32.9853030000000018 2.8224941900000000 Au
atom 18.8622995600000003 32.8202785100000014 2.6234018400000001 Au
atom 21.5866580399999997 32.7933382900000012 2.6500382099999999 Au
atom 24.4514709600000018 32.9263970299999968 2.6055809200000000 Au
atom 27.3108929700000012 32.9411327700000029 2.7167545299999998 Au
atom 1.9684796899999999 32.7827255899999983 2.7525491500000001 Au
atom 4.7025682700000004 32.9919803200000032 2.6684455699999998 Au
atom 8.9279877499999998 35.2703346199999999 2.6410113100000001 Au
atom 11.5817236900000005 35.4103118000000023 2.5495970899999998 Au
atom 14.6408761500000004 35.4870245899999972 2.8565681900000000 Au
atom 17.3917537300000014 35.1862830399999993 2.7344275499999999 Au
atom 20.2177924199999985 35.3847775400000017 2.7757996199999999 Au
atom 22.9763847699999992 35.2825815699999978 2.7790193300000001 Au
atom 25.7031395200000006 35.2972997199999980 2.7196457800000000 Au
atom 0.4675762100000000 35.3982162400000036 2.7258599399999999 Au
atom 3.3123033600000000 35.2481837099999993 2.4958954900000001 Au
atom 6.0264136900000000 35.4310757900000013 2.6207180200000000 Au
atom 7.4159540300000000 37.6565319899999977 2.5767709600000002 Au
atom 10.2072713200000003 37.8092337100000009 2.3861526799999999 Au
atom 13.3182296000000004 37.8367000399999966 2.6634598999999999 Au
atom 16.0126735199999999 37.6851516799999970 2.6707304900000000 Au
atom 18.8355945499999997 38.0676002900000015 2.7517066500000000 Au
atom 21.5502544000000000 37.5446709499999969 2.7640145600000001 Au
atom 24.5316678599999989 37.8768349899999990 2.5043178099999999 Au
atom 27.3433361099999992 37.9875040399999975 2.5329216699999999 Au
atom 1.8296205800000001 37.7546703300000033 2.7596768900000002 Au
atom 4.4763515399999996 37.8209823799999967 2.5540551100000002 Au
atom 8.9585475500000005 1.0136144899999999 2.7240067200000002 Au
atom 11.8381079200000006 0.9745355700000000 2.7658619500000001 Au
atom 14.6456618100000000 0.8699019000000000 2.7712419599999998 Au
atom 17.4293816200000009 0.8544094900000000 2.8236051999999998 Au
atom 20.2619129700000009 0.8716435800000000 2.7053259299999999 Au
atom 22.9576146399999992 0.8208574300000000 2.6779990499999999 Au
atom 25.6523337900000001 0.8415450400000000 2.5560635800000000 Au
atom 0.5088983800000000 0.7808698700000000 2.7965603600000000 Au
atom 3.4640817199999998 0.8015595599999999 2.6729680500000002 Au
atom 6.1942594399999997 0.9408039600000000 2.6850508000000000 Au
atom 7.3979026000000001 3.4181607399999998 2.6966971200000001 Au
atom 10.4924393499999997 3.1784699399999998 2.7500264600000000 Au
atom 13.2034105299999993 3.3857075999999999 2.8531656500000002 Au
atom 16.0560838200000013 3.2302406000000001 2.6991853099999998 Au
atom 18.8322087600000003 3.1990232900000000 2.6313709699999999 Au
atom 21.5239277400000013 3.2924262899999999 2.7948993799999999 Au
atom 24.3436284699999987 3.2929731200000001 2.6919061200000001 Au
atom 27.1892242899999985 3.3204666600000001 2.8454783799999999 Au
atom 2.0468019200000001 3.4092067699999999 2.7558861200000000 Au
atom 4.5865242300000002 3.4182793500000002 2.9330627800000002 Au
atom 8.9090534899999998 5.8006581500000003 2.7375607799999999 Au
atom 11.8375803600000005 5.8001326799999999 2.8074979500000001 Au
atom 14.5657554400000002 5.7525769200000001 2.5348215700000001 Au
atom 17.3559009000000017 5.8615927299999999 2.6480172500000001 Au
atom 20.2060930899999995 5.8507240999999999 2.5734645199999999 Au
atom 23.2416135100000005 5.7557066900000002 2.6603836699999999 Au
atom 25.6859205400000015 5.7370068800000000 2.6691549900000000 Au
atom 0.3127042200000000 5.7217855399999999 2.5634052399999998 Au
atom 3.2738290399999999 5.7953012700000004 2.8574609700000000 Au
atom 6.2206385300000004 5.8715963400000000 2.7456764599999999 Au
atom 7.4337975600000004 8.2043897700000006 2.5128896500000000 Au
atom 10.3625610500000001 8.2983909400000009 2.4535131500000000 Au
atom 13.0849990599999995 8.3654959299999998 2.6525705899999998 Au
atom 15.8170054499999999 8.3520666499999994 2.7128328800000001 Au
atom 18.7694237999999984 8.0988067200000007 2.7677099300000001 Au
atom 21.5356253399999993 8.1260369899999993 2.5408268899999999 Au
atom 24.3929751300000000 8.2173713599999996 2.8554965399999999 Au
atom 27.1803285300000006 8.4652633599999998 2.5599431699999999 Au
atom 1.8601501499999999 8.4407949999999996 2.9019823400000000 Au
atom 4.5203430500000001 8.3247559399999993 2.7244880000000000 Au
atom 8.9700924799999999 10.7248040200000005 2.6738377500000001 Au
atom 11.7396303999999994 10.8127616100000008 2.7005633000000002 Au
atom 14.6459902199999998 10.5183654700000009 2.7170703399999998 Au
atom 17.4093697499999998 10.9285369299999999 2.7214026400000000 Au
atom 20.1613417300000002 10.8467570400000000 2.5297092600000002 Au
atom 23.1608332799999985 10.6387007499999999 2.8226205700000002 Au
atom 25.7400373400000007 10.8347175599999996 2.6312473500000002 Au
atom 0.3016490300000000 10.7780082900000007 2.5314737300000001 Au
atom 3.2255395099999999 10.6617641800000005 2.6262067999999998 Au
atom 6.0204519100000002 10.8287648900000004 2.4555799199999999 Au
atom 7.2603507199999999 13.1413285700000007 5.7676076800000002 Cl
atom 7.5589202499999999 15.8079151200000005 8.6253672699999999 Cl
atom 7.5709539899999996 13.2690119699999993 8.2821355000000008 Na
atom 7.6610086199999996 15.9977298300000008 5.9296910199999999 Na
atom 7.4270416099999998 18.8334648899999983 5.8139370499999998 Cl
atom 7.5899976899999997 21.8021161499999998 8.5105438200000005 Cl
atom 7.5413549000000000 18.8776765299999987 8.1298618299999994 Na
atom 7.4762462899999997 21.6624767200000008 5.7676634599999996 Na
atom 7.3930731900000000 24.4393323000000002 5.8247027999999998 Cl
atom 7.3692645600000004 27.4463134000000011 8.5644536900000006 Cl
atom 7.6239122200000002 24.4457701800000002 8.1607321000000006 Na
atom 7.5468371999999997 27.3004850400000016 5.5942054299999997 Na
atom 7.4198778200000000 30.0250216700000010 5.6221580600000003 Cl
atom 7.5548736800000000 32.8009511699999976 8.6308654899999997 Cl
atom 7.5348550400000001 30.2070933400000001 8.5425155099999994 Na
atom 7.4383888999999996 33.0474925299999995 5.8225560200000004 Na
atom 7.4788741999999999 35.6554603800000010 5.6919718100000001 Cl
atom 7.4514470499999996 38.5907060400000006 8.5079348400000008 Cl
atom 7.4971764900000002 35.8511068199999983 8.2791476500000005 Na
atom 7.5546610500000000 38.5839920399999983 5.8524075599999996 Na
atom 7.5361040600000004 1.8913425699999999 5.7276788700000001 Cl
atom 7.5125055200000004 4.8391099000000004 8.5499446199999998 Cl
atom 7.4900078199999998 1.8685661600000001 8.3337622600000003 Na
atom 7.4447932600000000 4.6973382499999996 5.8072612399999999 Na
atom 7.4079565499999998 7.5632833799999997 5.7422352900000000 Cl
atom 7.5021005599999997 10.5123664300000002 8.5504348700000001 Cl
atom 7.4060471899999998 7.5960271900000000 8.4036735199999999 Na
atom 7.3803824899999997 10.2791635100000001 5.8119670699999997 Na
atom 10.3418276900000006 13.2635433500000008 5.9684971700000000 Na
atom 13.2383562799999996 13.1303932600000000 5.6352699099999999 Cl
atom 10.4188548999999995 16.0737553899999988 8.2327100800000004 Na
atom 13.0185273299999995 16.0117474000000009 8.4414860500000000 Cl
atom 13.2624364799999999 13.1806211799999993 8.4064827100000006 Na
atom 10.3632724500000002 13.2285655700000007 8.5660878599999997 Cl
atom 13.0661031300000001 16.0854095999999984 5.8917005600000003 Na
atom 10.3215253300000001 15.9219803599999992 5.8810827100000003 Cl
atom 10.2953974000000006 18.7406819800000015 5.9558060199999998 Na
atom 13.0564175599999999 18.7190265099999991 5.8488975800000000 Cl
atom 10.1602340699999996 21.4552736800000012 8.4088550699999995 Na
atom 13.1788165100000008 21.7388222800000008 8.5745454900000002 Cl
atom 13.1900077499999995 18.7630285299999997 8.3606959399999994 Na
atom 10.4294094899999994 18.8957669800000012 8.5302716099999998 Cl
atom 13.1495391399999999 21.7089946699999992 5.6673370600000004 Na
atom 10.3321683499999999 21.7999281799999984 5.7963432700000004 Cl
atom 10.4584454699999991 24.3724458999999989 5.7684195500000000 Na
atom 13.2269699000000003 24.3292160300000013 5.7062404999999998 Cl
atom 10.2302429900000007 27.1149401599999997 8.2252497800000004 Na
atom 13.0483978100000009 27.2802338000000013 8.6986636100000005 Cl
atom 13.1113156699999998 24.3437701699999991 8.4870158000000000 Na
atom 10.3100236699999996 24.5684357400000017 8.6008416099999998 Cl
atom 13.0410772099999992 27.3738354000000008 5.8387087199999996 Na
atom 10.2142776499999997 27.0800020799999999 5.8960565799999998 Cl
atom 10.1486136800000004 30.0214827299999989 5.6435001299999996 Na
atom 13.0745312899999995 30.0657330499999986 6.0262729700000000 Cl
atom 10.4091026800000002 33.0273920200000006 8.3541530300000009 Na
atom 13.3279955200000000 32.8571640500000015 8.5254836699999998 Cl
atom 13.2415012200000000 29.9387226400000017 8.3990816800000001 Na
atom 10.4498753000000004 30.1237557199999983 8.6137235899999993 Cl
atom 13.3681233600000002 32.9597559999999987 5.8457993100000003 Na
atom 10.4288158200000005 32.8573828700000021 5.6567512799999999 Cl
atom 10.4139524399999992 35.7417913100000035 5.9255800000000001 Na
atom 13.3225498099999999 35.7920118700000032 5.6313715400000000 Cl
atom 10.0813255399999999 38.4780005799999998 8.5978407099999998 Na
atom 13.0898769700000006 38.5202197300000009 8.4850796699999993 Cl
atom 13.0664586099999998 35.7436048699999986 8.3199347600000007 Na
atom 10.3592000500000001 35.6418248599999998 8.5797726599999997 Cl
atom 12.9868559399999999 38.6098745999999977 5.7587528700000004 Na
atom 10.1675965999999995 38.7008138799999983 5.8477518499999999 Cl
atom 10.3827417799999999 1.7450288800000000 5.9138405599999997 Na
atom 13.0216671799999997 1.9945183799999999 5.6895191900000004 Cl
atom 10.2318856900000004 4.5988160000000002 8.4627180000000006 Na
atom 13.1232270100000008 4.7296663199999998 8.7054530700000008 Cl
atom 13.3084053099999995 1.9160273400000001 8.3289296099999994 Na
atom 10.2889999999999997 1.9971015100000000 8.6752506999999994 Cl
atom 13.0922088500000005 4.7935904699999998 5.9138947799999997 Na
atom 10.2959813600000007 4.6916143300000002 5.8834041299999997 Cl
atom 10.2956779800000007 7.3974090700000001 5.8476543500000000 Na
atom 13.1228581700000007 7.5767246100000003 5.6418915800000002 Cl
atom 10.3805946799999997 10.1979258999999995 8.4662551500000003 Na
atom 12.9840866100000003 10.5240857800000001 8.5292844700000003 Cl
atom 13.0323863000000006 7.4591490499999997 8.4799539500000005 Na
atom 10.4542328900000001 7.4818167600000001 8.5592747399999993 Cl
atom 13.1951077699999999 10.3444275000000001 5.7433497600000001 Na
atom 10.1677531299999995 10.1271162500000003 5.7528622199999999 Cl
atom 16.0212986899999983 13.0045911899999993 5.8091613600000001 Na
atom 18.8637518399999990 13.0545526299999999 5.8611724000000001 Cl
atom 16.0190996100000014 16.1152408200000004 8.4406487800000001 Na
atom 18.7187759299999996 15.9883737600000000 8.4526093299999996 Cl
atom 18.9740133200000010 13.0980018400000002 8.3855635700000004 Na
atom 16.0137487199999988 13.0740449099999996 8.5891613800000002 Cl
atom 18.8091473200000010 16.2667903900000006 5.7025507400000004 Na
atom 15.9205577300000005 15.8593281099999999 5.7158347899999997 Cl
atom 15.6956537600000008 18.8097145300000008 5.7628003699999999 Na
atom 18.9334725900000009 18.8789535899999983 5.7459566799999999 Cl
atom 16.1000546500000006 21.6966750799999986 8.4335260400000003 Na
atom 19.0171157800000010 21.7601330399999995 8.5076169099999994 Cl
atom 18.7019678499999991 18.8004394999999995 8.3511378000000001 Na
atom 16.0710276199999988 18.7646024999999987 8.5672916800000003 Cl
atom 18.7271123000000017 21.6120321000000004 5.9164627799999998 Na
atom 16.0792804599999997 21.5029003799999998 5.8047843300000004 Cl
atom 15.8511849300000005 24.3044188599999984 5.7736787500000002 Na
atom 18.6743445799999996 24.4494046800000007 5.6168475700000000 Cl
atom 15.9132171099999997 27.1711700399999998 8.4766872299999996 Na
atom 18.7845426400000015 27.0863747799999999 8.6135471900000002 Cl
atom 18.7381317400000000 24.3929314400000017 8.4555757400000005 Na
atom 15.9045725800000000 24.4715133199999997 8.7820411699999994 Cl
atom 19.0252380800000012 27.2079214699999987 5.8749415500000000 Na
atom 16.0266201700000011 27.4025368600000014 5.8540332599999996 Cl
atom 16.0298153300000017 30.0989349900000001 5.6902565799999998 Na
atom 18.6742130700000004 30.0440505199999990 5.5379258800000004 Cl
atom 16.0462017900000014 32.9425733400000027 8.3406693799999996 Na
atom 18.7658616900000013 33.0726568799999967 8.4457088400000000 Cl
atom 18.8284677299999998 30.3296856800000008 8.4364511100000001 Na
atom 15.9190777600000004 29.9759875499999993 8.6649382700000004 Cl
atom 18.6459445399999986 32.9182095600000011 5.6675956000000003 Na
atom 15.9359196300000008 32.9460166200000018 5.8026336100000000 Cl
atom 16.0304604499999996 35.6888114099999996 5.9089444400000000 Na
atom 18.7997402600000001 35.6498599399999989 5.6172308400000004 Cl
atom 16.0391390700000009 38.3847542399999995 8.3658233499999994 Na
atom 18.6826762899999999 38.5172451899999970 8.6774184000000005 Cl
atom 18.8521849199999991 35.6571671399999985 8.3004593599999996 Na
atom 16.0128808300000003 35.6514291399999976 8.5948103600000003 Cl
atom 18.8998314299999990 38.5528923500000005 5.8242396100000002 Na
atom 15.9578302700000005 38.3628970899999970 5.6903342800000001 Cl