#===============================================================================
# Created using the Atomic Simulation Environment (ASE)

# Tue Dec 23 21:42:40 2025

#=======================================================
lattice_vector 28.1999999999999993 0.0000000000000000 0.0000000000000000 
lattice_vector 0.0000000000000000 39.4799999999999969 0.0000000000000000 
lattice_vector 0.0000000000000000 0.0000000000000000 62.3296083400000001 
atom 7.6060132100000004 14.7751745000000003 -0.2916906700000000 Au
atom 10.3392285400000006 14.7472163199999997 -0.1332821300000000 Au
atom 13.1714398900000003 14.7476072499999997 -0.1939988900000000 Au
atom 16.0034837400000001 14.8703879000000008 -0.1901871600000000 Au
atom 18.7623752800000005 14.7932792200000005 -0.2890979900000000 Au
atom 21.5468477599999986 14.8541595300000004 0.0123534500000000 Au
atom 24.4846337399999996 14.7904932999999996 -0.0849528900000000 Au
atom 27.3268702099999992 14.7812303200000006 -0.1808901900000000 Au
atom 1.9561089400000000 14.6995832800000006 -0.0487093800000000 Au
atom 4.8150918799999998 14.8062827699999993 -0.3010363500000000 Au
atom 8.8721716399999995 17.2326007300000015 -0.0027016400000000 Au
atom 11.7799906500000002 17.2765483400000015 -0.0683870700000000 Au
atom 14.6363029400000002 17.3055785799999988 -0.1966778600000000 Au
atom 17.3880251299999991 17.3309904900000014 -0.0662903500000000 Au
atom 20.2031178699999998 17.2207023499999998 0.0426949600000000 Au
atom 23.0604322800000006 17.3293737300000004 0.1686798000000000 Au
atom 25.9023543099999998 17.2428586499999987 0.2011203200000000 Au
atom 0.4877591300000000 17.2184721200000013 0.1422151200000000 Au
atom 3.3170906200000001 17.2498107500000017 -0.2220822500000000 Au
atom 6.0888285000000000 17.2192116599999991 0.0394141600000000 Au
atom 7.4654499899999998 19.6478972600000006 0.0530701500000000 Au
atom 10.3364680500000006 19.6831117599999992 0.1110012400000000 Au
atom 13.1942651499999997 19.7499914399999987 -0.1958264400000000 Au
atom 15.9765182899999996 19.8415643400000015 -0.0199776500000000 Au
atom 18.7783671000000005 19.7582980299999988 0.1369384900000000 Au
atom 21.5213420800000002 19.8472259700000002 0.0477246500000000 Au
atom 24.3722260300000002 19.8155836299999990 0.2263782900000000 Au
atom 27.1722712800000004 19.6849986900000005 -0.0546152800000000 Au
atom 1.8520914300000000 19.7004393299999983 -0.0013215600000000 Au
atom 4.7203015099999996 19.6526696899999997 0.1207320800000000 Au
atom 8.9434427099999994 22.1750591099999994 0.2029262000000000 Au
atom 11.7469075000000007 22.1465418900000017 -0.0588489100000000 Au
atom 14.5270697500000008 22.2092509000000007 -0.0454866600000000 Au
atom 17.3526963599999995 22.2749641499999989 0.1317977500000000 Au
atom 20.1435883999999987 22.3368898400000013 0.0622186300000000 Au
atom 23.0690949900000000 22.2196561099999990 0.3089233400000000 Au
atom 25.8505653200000012 22.2112893999999983 0.2918189400000000 Au
atom 0.4542485900000000 22.1226184199999985 -0.1608589400000000 Au
atom 3.2427304800000001 22.1328424900000016 0.0664447400000000 Au
atom 6.0630814800000001 22.2309114100000009 0.2061499300000000 Au
atom 7.4653423700000001 24.6595652200000011 0.0886935700000000 Au
atom 10.3634161799999998 24.5794655900000016 0.1025155800000000 Au
atom 13.1754184399999996 24.6362230999999987 -0.0750967500000000 Au
atom 15.8972755899999996 24.6857074400000016 0.1866890700000000 Au
atom 18.7093508899999996 24.6460563899999983 0.1010548100000000 Au
atom 21.5792312099999997 24.7563460599999985 0.0572256100000000 Au
atom 24.3716590500000017 24.6439471899999987 0.1769751800000000 Au
atom 27.2239532799999999 24.5798939099999991 0.0840464200000000 Au
atom 1.7880268699999999 24.6314231899999996 0.0971397700000000 Au
atom 4.6039348999999996 24.6283795099999985 0.0906637000000000 Au
atom 8.9125254300000005 27.0281940399999989 -0.1550561500000000 Au
atom 11.6513089399999998 27.1373599299999988 -0.1453092100000000 Au
atom 14.5171789699999998 27.1634625000000014 0.0959974100000000 Au
atom 17.3041504999999987 27.1203411299999999 0.1602580700000000 Au
atom 20.1363807500000007 27.1429711900000008 0.0627703000000000 Au
atom 22.9270609999999984 27.0888724900000000 -0.1417650400000000 Au
atom 25.7090703900000008 27.0481286899999986 -0.0024782800000000 Au
atom 0.3401250700000000 27.1205536400000007 -0.0059744100000000 Au
atom 3.2244933599999999 27.1009932000000013 0.1377610600000000 Au
atom 6.0244480999999999 27.0706529200000006 -0.0249872500000000 Au
atom 7.4752885100000004 29.6495911499999991 -0.2113440800000000 Au
atom 10.2811332199999992 29.5664471499999983 0.1576330800000000 Au
atom 13.0520421500000001 29.6363910799999992 -0.2064361200000000 Au
atom 15.9129018000000002 29.5923120399999995 -0.0555419700000000 Au
atom 18.7378703699999996 29.6012682299999987 -0.1227091400000000 Au
atom 21.5574525199999982 29.5235993000000008 -0.0674557100000000 Au
atom 24.3936971699999994 29.4600406600000007 -0.0014846800000000 Au
atom 27.1690942900000003 29.4840713699999988 -0.0952663700000000 Au
atom 1.7707882100000001 29.6628958300000001 -0.1999815100000000 Au
atom 4.6423045800000002 29.6190246700000017 -0.0875867100000000 Au
atom 8.9553759999999993 32.0338918100000001 -0.2458089700000000 Au
atom 11.7347475400000008 32.0431284399999967 -0.1409379900000000 Au
atom 14.5627306599999997 32.1107415099999969 -0.2709203400000000 Au
atom 17.3227808799999998 32.0474104899999972 -0.2004933200000000 Au
atom 20.1412172600000012 32.0649851800000008 -0.1998563000000000 Au
atom 22.9394525499999986 32.0214211400000011 0.0366290000000000 Au
atom 25.7543997599999983 31.9878481500000014 -0.0710577300000000 Au
atom 0.3705199200000000 32.0262095400000035 -0.0402279900000000 Au
atom 3.2874448699999999 32.1029385699999992 -0.2201347600000000 Au
atom 6.1017488599999998 32.1504386299999965 -0.1464207900000000 Au
atom 7.5586196299999999 34.4669626499999993 -0.0769362500000000 Au
atom 10.3500154000000002 34.4741023099999992 0.0471406000000000 Au
atom 13.1581117800000005 34.5381352899999996 -0.0500576600000000 Au
atom 15.9711261100000002 34.6082236700000010 -0.1700677800000000 Au
atom 18.8255942800000007 34.5556221000000008 -0.0232510000000000 Au
atom 21.5681919499999992 34.5424047099999996 -0.0090901000000000 Au
atom 24.3198850600000007 34.5135322300000027 0.0302686700000000 Au
atom 27.1765299300000009 34.5108522299999976 0.2498034000000000 Au
atom 1.8539171999999999 34.4979850100000007 -0.0703257000000000 Au
atom 4.7128104600000000 34.5914277600000020 -0.1453046500000000 Au
atom 9.0028312699999997 36.9560654200000016 -0.0959212500000000 Au
atom 11.8315267500000001 37.0680018199999992 0.0982478500000000 Au
atom 14.6516626399999996 37.0511894699999971 0.2983523400000000 Au
atom 17.3355893899999991 37.0342101199999973 0.1696237500000000 Au
atom 20.1957177299999984 37.0548491200000001 0.0007873800000000 Au
atom 22.9817489299999984 37.0398295099999970 0.0438875000000000 Au
atom 25.8609650699999989 37.0319687200000018 0.2904365000000000 Au
atom 0.4713840600000000 36.9311183599999993 -0.0130033900000000 Au
atom 3.3244126899999999 36.9326887300000024 0.0623107600000000 Au
atom 6.2145962099999998 37.0281359900000027 -0.0272891900000000 Au
atom 7.5736424199999997 0.0064226500000000 0.0533583600000000 Au
atom 10.4292159400000006 -0.0049355400000000 0.2372394400000000 Au
atom 13.2260972700000003 0.0212199900000000 0.3860151500000000 Au
atom 15.9617837199999997 0.0063068200000000 0.3165030000000000 Au
atom 18.8723420100000006 0.0225381700000000 0.2394070700000000 Au
atom 21.6722737700000003 0.0696886100000000 0.1126401000000000 Au
atom 24.4644441800000010 0.0173031000000000 -0.0386977200000000 Au
atom 27.2724179999999983 -0.1032181800000000 0.0600121800000000 Au
atom 1.9266022300000001 0.0460819600000000 0.0778025000000000 Au
atom 4.7815940100000001 -0.0498807400000000 0.1888803400000000 Au
atom 9.0690968699999992 2.4900517700000000 0.2498480300000000 Au
atom 11.8054228099999996 2.4243017800000000 0.4060256300000000 Au
atom 14.6434340400000007 2.4656997299999999 0.4530082100000000 Au
atom 17.4322206699999995 2.4574281000000000 0.1010452200000000 Au
atom 20.2871766600000001 2.4966436200000000 0.1753385700000000 Au
atom 23.0963943000000000 2.4956563500000000 0.1505318200000000 Au
atom 25.9308281100000002 2.4474500099999998 0.2307836000000000 Au
atom 0.5180797300000000 2.4763842000000000 0.1437281300000000 Au
atom 3.4044436899999999 2.5281948200000000 0.1779868600000000 Au
atom 6.1665158499999997 2.3622627899999999 0.2339463600000000 Au
atom 7.5178632500000004 4.9651688600000004 0.1068518800000000 Au
atom 10.4464568599999996 5.0534229799999997 0.1804656000000000 Au
atom 13.1848700000000001 4.9276385700000001 0.4930186500000000 Au
atom 15.9609915499999993 4.8984410499999997 0.1131994600000000 Au
atom 18.7548615900000009 5.0045386900000004 0.0012843400000000 Au
atom 21.6472283400000016 4.9057155300000002 0.0224856300000000 Au
atom 24.5454317099999990 4.7967155000000004 0.0794068800000000 Au
atom 27.4086936600000008 4.9428438200000002 0.1890571500000000 Au
atom 1.9426465399999999 4.9313727500000004 0.1901183900000000 Au
atom 4.7082712000000004 4.9745406799999996 0.1177089400000000 Au
atom 8.9810786199999999 7.4018459999999999 0.1059318000000000 Au
atom 11.8464054999999995 7.4368516099999997 0.3473651300000000 Au
atom 14.6001067100000004 7.4393281800000004 0.1900455600000000 Au
atom 17.3946291100000003 7.4543793000000003 0.1116472300000000 Au
atom 20.1624766099999988 7.4377698299999997 -0.0557446600000000 Au
atom 23.0606655099999998 7.3390494799999999 0.2904684900000000 Au
atom 25.8631506299999998 7.2840991600000002 0.0407282500000000 Au
atom 0.5208834800000000 7.3342096999999997 -0.0507020300000000 Au
atom 3.3340708100000001 7.3557250200000004 0.2598671300000000 Au
atom 6.2117045800000001 7.3627278000000000 0.2732708700000000 Au
atom 7.6246512299999996 9.8979951199999991 0.0463468200000000 Au
atom 10.4417494400000006 9.8693330400000008 0.0162800200000000 Au
atom 13.2086275799999999 9.8597601000000008 0.0572157700000000 Au
atom 15.9970119099999994 9.8724036599999998 0.1911319000000000 Au
atom 18.8317323999999999 9.9492393000000003 0.2022491700000000 Au
atom 21.5803719299999983 9.9317344300000006 -0.0985987800000000 Au
atom 24.4923429599999984 9.7709628100000003 0.1130964500000000 Au
atom 27.2678130100000011 9.7621668699999997 -0.0140912000000000 Au
atom 1.8672947799999999 9.7944291499999991 -0.1963749400000000 Au
atom 4.7523225800000004 9.7640286500000002 -0.0726238600000000 Au
atom 8.9390681799999996 12.3169762600000006 -0.2185782100000000 Au
atom 11.8237092100000005 12.2556016299999992 -0.1882322700000000 Au
atom 14.5697158299999998 12.3004591899999998 -0.1218174000000000 Au
atom 17.3042820500000012 12.3452154699999994 -0.2003209800000000 Au
atom 20.2228397700000002 12.3693802599999998 -0.1706414500000000 Au
atom 23.1048067699999997 12.3390268200000008 0.0949164100000000 Au
atom 25.8740294900000016 12.3090528399999997 -0.1496403700000000 Au
atom 0.4466971100000000 12.2418119000000001 -0.1984432600000000 Au
atom 3.2605341200000000 12.2458468499999995 -0.3140280400000000 Au
atom 6.0571658800000003 12.2998094899999995 -0.3731793300000000 Au
atom 7.5090640700000000 13.2462293599999992 2.2447936999999998 Au
atom 10.3545928699999994 13.1510092899999993 2.3519550100000002 Au
atom 13.2216735900000000 13.1947812500000001 2.3779976600000001 Au
atom 16.0349316799999997 13.2146188900000006 2.3857334300000002 Au
atom 18.8715461600000012 13.2605769200000001 2.1551757700000000 Au
atom 21.5904140499999997 13.1818619300000002 2.5441564900000002 Au
atom 24.4589996999999997 13.1279388099999998 2.5402637499999998 Au
atom 27.2963184100000014 13.1366504800000001 2.3712189000000001 Au
atom 1.9004776000000001 13.1107240500000000 2.5479156199999999 Au
atom 4.6453793399999999 13.2355426200000004 2.2556892700000000 Au
atom 8.8955879499999995 15.6055792400000009 2.4110609200000002 Au
atom 11.7357905299999992 15.6147097400000003 2.5122018700000002 Au
atom 14.6010124900000005 15.6718242900000000 2.4743168799999999 Au
atom 17.4016637900000006 15.6770388000000001 2.4353504400000001 Au
atom 20.2079415199999985 15.6714531400000006 2.6813156800000000 Au
atom 23.0223511499999987 15.6712620600000001 2.6394289000000000 Au
atom 25.8948692800000018 15.5051837799999994 2.5548898699999998 Au
atom 0.5660111200000000 15.6117539900000004 2.5218983200000000 Au
atom 3.2701897700000000 15.6212565899999998 2.4022373099999998 Au
atom 6.0514636399999997 15.6120810199999998 2.6093192300000001 Au
atom 7.4468296699999996 18.0046025900000011 2.7505861800000000 Au
atom 10.3118361800000002 18.0875959100000010 2.6148542600000000 Au
atom 13.1795378700000008 18.1284850700000000 2.4430436900000001 Au
atom 15.9992483900000000 18.0958397799999986 2.4646730099999998 Au
atom 18.7764884499999987 18.0815180099999999 2.6469078200000000 Au
atom 21.6283590699999984 18.1765259499999985 2.5607169100000000 Au
atom 24.4669842799999984 18.0563702500000005 2.8117507399999999 Au
atom 27.2920780200000017 17.9975205900000006 2.7989647700000000 Au
atom 1.8931600900000001 18.0565625899999986 2.5819552600000000 Au
atom 4.6997948699999998 18.1329307399999990 2.5616373600000002 Au
atom 8.9475703099999997 20.4987992299999995 2.6838326700000001 Au
atom 11.7256941200000000 20.6604760100000000 2.7251012700000001 Au
atom 14.4892552899999991 20.5887767100000012 2.5516344200000001 Au
atom 17.3716891999999987 20.6302051300000002 2.6807423899999998 Au
atom 20.2058511400000000 20.6073234099999993 2.6937524900000001 Au
atom 23.1038905800000016 20.5587276599999988 2.8284217400000000 Au
atom 25.8876937900000001 20.4903767399999985 2.6900027299999998 Au
atom 0.3841365300000000 20.5438405400000015 2.5056129800000000 Au
atom 3.2108597300000001 20.5496284899999999 2.7636407599999999 Au
atom 6.0779905000000003 20.6235581199999984 2.7424563399999999 Au
atom 7.4296807700000000 23.0944105200000003 2.7652613800000001 Au
atom 10.2759267399999992 23.0609811600000008 2.7169968199999999 Au
atom 13.1105189800000002 23.0759323199999997 2.4835842800000001 Au
atom 15.9471993199999993 23.0434698199999985 2.6651524400000000 Au
atom 18.7199981099999988 23.0685748500000010 2.7071288000000000 Au
atom 21.5263672499999998 23.0542240000000014 2.6823027800000001 Au
atom 24.4685436600000017 23.0823868800000014 2.7818786300000000 Au
atom 27.2345578599999989 23.0413419300000015 2.8390995499999998 Au
atom 1.7155423000000001 22.9960643800000000 2.5980422700000001 Au
atom 4.6083805900000003 23.0173755600000014 2.7306201400000001 Au
atom 8.8658099299999993 25.5545529999999985 2.4687652400000002 Au
atom 11.6646187500000007 25.5909216099999988 2.6052067999999999 Au
atom 14.5142196000000006 25.5116589699999992 2.7940815300000001 Au
atom 17.3129579599999985 25.5171558000000012 2.7455750100000000 Au
atom 20.1727880500000012 25.4655124000000015 2.6736939799999999 Au
atom 22.9800470499999996 25.4017111299999989 2.6090290899999999 Au
atom 25.7941659299999984 25.4294283700000001 2.7222533599999998 Au
atom 0.3874086800000000 25.4718983100000003 2.7436231000000002 Au
atom 3.1555406800000001 25.4389661400000016 2.6573433099999999 Au
atom 5.9662037300000001 25.4876534799999988 2.6217043499999999 Au
atom 7.4465487899999996 27.9934265899999986 2.3176429399999998 Au
atom 10.2307761700000004 28.0185507300000012 2.6334805000000001 Au
atom 13.0621883299999997 27.9729860799999983 2.3047436200000000 Au
atom 15.8592160900000003 28.0003971900000010 2.7370876499999999 Au
atom 18.7280811699999994 27.9679710899999989 2.5364525699999998 Au
atom 21.5592342099999996 27.9536062799999989 2.6093050000000000 Au
atom 24.3285094400000013 27.8929081900000000 2.7481082300000002 Au
atom 27.1250480500000002 27.8970897899999990 2.6921282999999998 Au
atom 1.8000079099999999 27.9374312600000003 2.5242160299999998 Au
atom 4.6253200100000003 27.9644220799999985 2.7173960899999998 Au
atom 8.7008003299999999 30.4628557899999990 2.6846086499999999 Au
atom 11.6630447200000003 30.4639039700000005 2.5730303299999999 Au
atom 14.4421350900000007 30.4378252700000012 2.5178688700000000 Au
atom 17.2754892200000008 30.4088667699999995 2.5948087599999998 Au
atom 20.2052705999999986 30.4286112099999997 2.4221479100000001 Au
atom 22.9173287700000010 30.4608563600000011 2.6147990900000000 Au
atom 25.7754431299999993 30.3782591999999987 2.5454997499999998 Au
atom 0.3781670900000000 30.4037055100000018 2.5142489299999999 Au
atom 3.0982206400000001 30.4320174600000009 2.3380966200000000 Au
atom 5.9436808599999997 30.3923660899999994 2.4639622499999998 Au
atom 7.3997260999999996 32.9203634300000019 2.5415534700000002 Au
atom 10.1540079500000004 32.8737963499999992 2.6311601200000001 Au
atom 13.0084801799999994 32.8961903200000023 2.3083014400000001 Au
atom 15.8442272299999996 32.8511058899999995 2.4311453099999998 Au
atom 18.6668145599999988 32.7867561699999968 2.4579416500000000 Au
atom 21.4903917399999997 32.9407243599999973 2.5882670000000001 Au
atom 24.3871041999999996 32.9103973200000013 2.5034371599999998 Au
atom 27.1417826200000007 32.8503128099999984 2.7218809099999999 Au
atom 1.7782213700000000 32.9604392199999978 2.3827124799999999 Au
atom 4.6866235600000001 32.8596058099999979 2.3877088000000000 Au
atom 8.8581972199999992 35.3786158799999981 2.6205860900000002 Au
atom 11.6431744500000001 35.3349450600000026 2.5684163199999999 Au
atom 14.4643698199999999 35.2135860500000035 2.7938040399999999 Au
atom 17.2568105699999990 35.2786271000000013 2.5422287899999998 Au
atom 20.1285449900000017 35.3802881000000014 2.6117225799999999 Au
atom 22.9098845699999991 35.3986928500000033 2.6190256000000001 Au
atom 25.8142341600000016 35.3703439299999971 2.8007531499999998 Au
atom 0.3650989900000000 35.4833745199999981 2.6879368200000000 Au
atom 3.2155838900000000 35.3032833099999976 2.5284848700000002 Au
atom 6.0735745000000003 35.3656344099999984 2.4311876099999998 Au
atom 7.5515934700000003 37.8777738100000008 2.5282519500000000 Au
atom 10.3515180999999998 37.8032720900000001 2.7487946499999998 Au
atom 13.1645610099999999 37.7892844400000030 2.8614442699999998 Au
atom 15.9274946499999999 37.6936459900000003 2.8699252199999998 Au
atom 18.7103791500000014 37.8312793799999980 2.7590976299999999 Au
atom 21.5679067499999988 37.9348311899999970 2.6662996500000000 Au
atom 24.3844837299999995 37.8585059600000022 2.6291144300000000 Au
atom 27.2438089199999993 37.8298936099999992 2.7728607400000000 Au
atom 1.9096697300000001 37.8009412400000002 2.5328110000000001 Au
atom 4.7284324800000004 37.7396531999999993 2.8007018900000000 Au
atom 8.9664968100000007 0.8222343900000000 2.8052786799999998 Au
atom 11.7785857899999993 0.7854353900000000 3.0207488300000001 Au
atom 14.5302846500000005 0.7378630800000000 3.0047644099999999 Au
atom 17.3691998599999984 0.7859409900000000 2.6746609800000001 Au
atom 20.1721155299999992 0.8786221100000000 2.8333170200000000 Au
atom 23.0557863599999990 0.8433835200000001 2.7939309899999998 Au
atom 25.8004141099999984 0.7509872600000000 2.6916009299999999 Au
atom 0.4516643600000000 0.8187328500000000 2.7373882300000001 Au
atom 3.2717835499999999 0.7589913500000000 2.8182615800000002 Au
atom 6.1523325599999996 0.7979237100000000 2.8404044000000002 Au
atom 7.5411606000000004 3.2597331299999999 2.7473400699999999 Au
atom 10.3813339800000008 3.3189313899999999 2.9633755499999999 Au
atom 13.1892818799999993 3.3231187200000001 3.0497783599999999 Au
atom 16.0321227700000009 3.2146613500000001 2.7984388099999999 Au
atom 18.8243120899999994 3.3980015300000002 2.5732486799999998 Au
atom 21.5995488800000004 3.2168800599999998 2.6772676299999998 Au
atom 24.4610212000000011 3.3444629799999999 2.8110026299999999 Au
atom 27.2585043300000009 3.3186763300000002 2.7341636800000000 Au
atom 1.9428857799999999 3.2951395200000002 2.7916498100000000 Au
atom 4.7466948300000000 3.2568472200000000 2.7847795899999999 Au
atom 8.8798343800000001 5.7524659099999997 2.7094745800000002 Au
atom 11.7185044000000005 5.8268734200000001 3.0091242700000000 Au
atom 14.6436616900000001 5.7083980099999998 2.8738530500000001 Au
atom 17.4482445199999994 5.7808951300000002 2.6936431299999999 Au
atom 20.2569899199999988 5.8037423500000003 2.6063226400000001 Au
atom 23.0315675000000013 5.7561097999999999 2.7705914300000001 Au
atom 25.8511775200000002 5.8580246899999997 2.8159284800000002 Au
atom 0.4470838700000000 5.7898648899999996 2.7415694099999999 Au
atom 3.3178664300000000 5.7913976199999997 2.8108016999999998 Au
atom 6.1806906599999998 5.7284322400000001 2.7525716899999999 Au
atom 7.5275685399999999 8.2121895899999995 2.8641188500000001 Au
atom 10.2814470900000003 8.2678764000000005 2.7038477699999999 Au
atom 13.2071263600000002 8.2506315600000004 2.8815016199999999 Au
atom 16.0588347200000001 8.2475641900000003 2.7340338800000001 Au
atom 18.8077751100000015 8.2856278499999991 2.7563596299999999 Au
atom 21.6889530499999985 8.2888801999999995 2.6691639000000000 Au
atom 24.4688067899999986 8.2981139699999993 2.8669349099999999 Au
atom 27.2507183799999986 8.2463897500000005 2.4860471000000000 Au
atom 1.9187534600000000 8.2741245899999996 2.7333160200000002 Au
atom 4.7546384100000001 8.2582187200000003 2.6776774600000000 Au
atom 8.9462303500000004 10.8332986200000008 2.5105546599999999 Au
atom 11.8405478599999991 10.7032607199999994 2.6036259300000002 Au
atom 14.6230592000000001 10.8247058999999997 2.5574762600000001 Au
atom 17.4650536999999986 10.8341771300000005 2.6239031000000002 Au
atom 20.1696016500000006 10.7778787999999999 2.6155212900000002 Au
atom 22.9901935199999983 10.7551641000000000 2.6723560800000001 Au
atom 25.8239260900000005 10.7636113600000005 2.5058270100000000 Au
atom 0.4111062700000000 10.7171407100000007 2.3841604799999998 Au
atom 3.3095186900000000 10.6952419200000008 2.4530176899999998 Au
atom 6.1299045899999998 10.7787256199999995 2.4322647499999999 Au
atom 7.4560264299999996 13.3114954000000001 5.5101594100000000 Cl
atom 7.6269516299999998 16.1489131000000015 8.5060659899999997 Cl
atom 7.6758058499999997 13.2908079400000005 8.1614107199999992 Na
atom 7.4763503800000004 16.2204175799999994 5.7109472800000001 Na
atom 7.5074183999999997 18.9921016400000013 5.7245157300000002 Cl
atom 7.3584069100000002 21.7552003399999982 8.5754740900000002 Cl
atom 7.3210488900000001 18.9052971099999993 8.3793218300000003 Na
atom 7.3705342099999998 21.6660656899999999 5.9310554299999998 Na
atom 7.3920352100000004 24.5382718100000012 5.6554355599999999 Cl
atom 7.3602108199999998 27.4955207000000001 8.3745560399999999 Cl
atom 7.3809794999999996 24.6721979299999994 8.3730263500000000 Na
atom 7.4032595600000004 27.4567826500000010 5.7120242899999996 Na
atom 7.7044741300000004 30.3833696300000007 5.5918802300000001 Cl
atom 7.5367789500000004 32.9846596599999984 8.5205873299999997 Cl
atom 7.5432769200000003 30.2539799500000015 8.1782385899999994 Na
atom 7.6892371400000004 33.1930089900000027 5.7354722000000002 Na
atom 7.4920792599999997 35.9542234299999990 5.8782376500000000 Cl
atom 7.4860788200000004 38.7228995500000011 8.6141207699999995 Cl
atom 7.4112354399999996 36.0193848299999999 8.5435691499999997 Na
atom 7.4846685800000001 38.7424765199999968 5.9463665399999996 Na
atom 7.5467923900000002 2.0184007600000000 5.6968576000000004 Cl
atom 7.5569503800000000 4.7810759500000000 8.5266066699999996 Cl
atom 7.4833270499999998 2.0783266299999998 8.3368080800000008 Na
atom 7.4869721800000004 4.7727530199999997 5.7970804600000001 Na
atom 7.5371317700000002 7.5357623499999997 5.6792008500000000 Cl
atom 7.5804156100000002 10.4367605999999995 8.3701196800000002 Cl
atom 7.4855784900000000 7.5768989900000001 8.3953330800000003 Na
atom 7.5376129299999999 10.4417120499999996 5.6811026900000003 Na
atom 10.5398484400000001 13.3664246999999996 5.6453879999999996 Na
atom 13.2595560100000007 13.4168465900000005 5.5464263300000001 Cl
atom 10.3019077100000001 16.1644438900000011 8.2550465800000001 Na
atom 13.1739506899999999 16.1911919699999984 8.2638410100000002 Cl
atom 13.1514940700000000 13.3542675000000006 8.2881013800000005 Na
atom 10.4779118899999997 13.3049119400000002 8.5124745900000001 Cl
atom 13.2435861300000006 16.3020856800000011 5.6813596899999999 Na
atom 10.4001480900000001 16.1417152799999997 5.3481616699999996 Cl
atom 10.3043551699999991 18.9630870499999986 5.6935578199999997 Na
atom 13.1995743099999991 19.0557460700000014 5.4608045299999999 Cl
atom 10.2842776400000009 21.8157443499999992 8.2988504100000000 Na
atom 13.0458752100000002 21.7653241999999985 8.4702174899999996 Cl
atom 13.1676006000000001 19.0479209400000009 8.1852734599999994 Na
atom 10.2705952000000007 18.9676912100000017 8.4825733799999998 Cl
atom 13.1350054499999995 21.7556271000000017 5.6679509000000001 Na
atom 10.1659203399999996 21.7651464099999998 5.6718955299999996 Cl
atom 10.0411669299999993 24.6528384400000000 5.6923238999999999 Na
atom 12.8525363099999996 24.5280999100000017 5.5836295500000004 Cl
atom 10.3297874499999995 27.3434006300000014 8.1382181399999993 Na
atom 13.1093078599999995 27.4872983499999997 8.2664764700000006 Cl
atom 13.0052339299999993 24.6179257299999996 8.2822772699999998 Na
atom 10.2055077799999996 24.5535631700000003 8.4530797100000008 Cl
atom 13.1302591100000008 27.3851096200000015 5.5122418299999998 Na
atom 10.0920269099999995 27.4306492700000000 5.5281657500000003 Cl
atom 10.3821083600000001 30.3409662500000010 5.6972292800000002 Na
atom 12.9697604299999991 30.2655249399999988 5.6096618700000001 Cl
atom 10.4039820100000000 33.0401250500000003 8.3824396100000005 Na
atom 13.1509850799999999 32.9910999800000013 8.4039610699999994 Cl
atom 13.0505702800000005 30.2083835900000004 8.2189528799999998 Na
atom 10.3491835099999996 30.1294518899999986 8.4826475499999994 Cl
atom 13.2102225799999999 33.0442751900000005 5.7431575199999996 Na
atom 10.5339888500000001 33.1997206899999995 5.6809588000000000 Cl
atom 10.3039890100000004 35.9657745800000015 5.8826753900000002 Na
atom 13.1752767399999993 35.8571212499999987 5.9368477899999998 Cl
atom 10.2035022699999995 38.5084792800000031 8.5199337600000007 Na
atom 13.1908269699999998 38.6493706899999978 8.7185226399999998 Cl
atom 13.1345483499999993 35.7960424500000016 8.5338352900000007 Na
atom 10.4425683899999999 35.7815353399999978 8.6875785099999998 Cl
atom 13.1666511199999992 38.5595427299999969 6.0484175799999997 Na
atom 10.4075331200000001 38.6250227000000024 5.9385905699999997 Cl
atom 10.4233570100000001 1.8773017200000000 5.9132062100000002 Na
atom 13.2115553600000002 2.0835358400000001 6.0351920500000000 Cl
atom 10.3311110599999996 4.7259274299999996 8.4231487200000004 Na
atom 13.1354717500000007 4.8314173000000000 8.8765393800000005 Cl
atom 13.2157048800000005 2.0434528799999998 8.7094823300000002 Na
atom 10.3713721200000002 1.9808762799999999 8.5989380400000002 Cl
atom 13.1784613000000004 4.7727525499999999 5.9893536400000000 Na
atom 10.4894754900000002 4.7261367800000000 5.8882954800000000 Cl
atom 10.3129552199999992 7.5898523300000003 5.6721616499999996 Na
atom 13.1799617799999993 7.5663366300000003 5.7006037699999998 Cl
atom 10.4508753300000006 10.4910674600000000 8.0626158500000003 Na
atom 13.2348791699999992 10.5389795900000003 8.4121438000000008 Cl
atom 13.1361621500000005 7.5347755200000002 8.3465755399999999 Na
atom 10.4598053499999999 7.7361678500000002 8.3316355200000007 Cl
atom 13.2261340100000009 10.2206520600000008 5.6438347599999998 Na
atom 10.3396864300000004 10.6129590599999997 5.4360508899999997 Cl
atom 16.0620138700000012 13.1697426800000006 5.5407696000000000 Na
atom 18.8441642999999992 13.3936945200000004 5.4304764900000002 Cl
atom 16.0534149699999986 16.0536421699999998 7.9783718700000001 Na
atom 18.7136030799999986 16.1885234999999987 8.3733648499999997 Cl
atom 18.8409151900000005 13.3162856499999993 8.1115147299999997 Na
atom 16.0355478699999985 13.3317025200000003 8.3830936699999992 Cl
atom 18.8613094900000000 16.1515065500000006 5.4296481700000001 Na
atom 15.9084328599999996 16.2772388200000009 5.4808257700000000 Cl
atom 15.8737564700000000 19.0093720099999999 5.7730717100000000 Na
atom 18.8692243200000007 18.9665652000000016 5.6546416300000004 Cl
atom 15.7896000799999996 21.9394667000000005 8.4796224099999993 Na
atom 18.7892690599999987 21.7195964500000009 8.6006671400000005 Cl
atom 18.8373137899999996 18.9795164900000017 8.2599408099999998 Na
atom 15.8606564799999994 19.0219275699999990 8.4619712299999996 Cl
atom 18.7090446600000000 21.9020744399999998 5.8642796500000003 Na
atom 16.0293501899999988 21.8587427199999986 5.5374834300000000 Cl
atom 15.9024439100000006 24.5306067399999996 5.5535192100000002 Na
atom 18.8100437000000014 24.5770971600000010 5.9142823900000003 Cl
atom 15.9158806599999991 27.4173973000000011 8.0722685700000003 Na
atom 18.7587162700000007 27.4005529199999991 8.4450631999999999 Cl
atom 18.7639933600000006 24.5021608800000017 8.6305784299999999 Na
atom 15.6103995100000006 24.6732140199999996 8.1973665199999992 Cl
atom 18.7812168899999996 27.2959354300000001 5.7081118599999998 Na
atom 15.9093870699999993 27.3671103799999997 5.4131209599999996 Cl
atom 15.9446806799999994 30.0964532700000014 5.5979182300000003 Na
atom 18.7060133999999998 30.2421029700000012 5.5484081999999999 Cl
atom 15.9650299600000007 32.9107526399999983 8.3512433700000006 Na
atom 18.8013264500000012 33.0239929399999994 8.4402823999999992 Cl
atom 18.8006406800000008 30.1815633800000001 8.0890254600000002 Na
atom 15.9933292500000004 30.1604196299999998 8.3594869299999992 Cl
atom 18.7532594999999986 33.1075704499999972 5.6124698100000003 Na
atom 15.9335011699999995 33.0603083299999980 5.6871064699999998 Cl
atom 15.8772413500000003 35.8579849500000023 5.8794664000000001 Na
atom 18.7710804899999992 35.9670162500000004 5.7295239999999996 Cl
atom 15.9306575099999996 38.6810281300000014 8.6230985800000006 Na
atom 18.9810035699999986 38.5896213600000024 8.6431047099999994 Cl
atom 18.7246485500000013 35.8570804800000005 8.2403186900000005 Na
atom 15.9854273100000004 35.6927298600000000 8.7163561999999999 Cl
atom 18.7501999899999987 38.7111486200000030 5.8536192800000002 Na