#===============================================================================
# Created using the Atomic Simulation Environment (ASE)

# Tue Dec 23 21:42:09 2025

#=======================================================
lattice_vector 28.1999999999999993 0.0000000000000000 0.0000000000000000 
lattice_vector 0.0000000000000000 39.4799999999999969 0.0000000000000000 
lattice_vector 0.0000000000000000 0.0000000000000000 62.3296083400000001 
atom 7.5219963600000002 14.7989743800000007 0.0132768700000000 Au
atom 10.3433972500000007 14.8366416999999995 -0.0001661600000000 Au
atom 13.1577682800000009 14.8116339999999997 -0.0624457000000000 Au
atom 15.9745402900000002 14.8040415400000001 0.0300672300000000 Au
atom 18.7764559300000009 14.7793968299999996 0.1164928900000000 Au
atom 21.5514044600000005 14.8199909299999995 -0.0283656700000000 Au
atom 24.4159707899999994 14.7595424699999995 -0.0683366400000000 Au
atom 27.2576355799999988 14.8102170999999991 0.0275208900000000 Au
atom 1.8739552200000000 14.7397162700000006 0.0558548300000000 Au
atom 4.7195477300000004 14.8267244500000004 -0.0288529000000000 Au
atom 8.8718241399999993 17.2987690500000006 -0.0193728800000000 Au
atom 11.7452183199999993 17.3009991200000002 0.0251022700000000 Au
atom 14.5620294799999996 17.2519942499999992 -0.0151785900000000 Au
atom 17.3941764300000017 17.2764607800000007 -0.0408214800000000 Au
atom 20.1593029699999988 17.3211309600000014 0.0671002100000000 Au
atom 23.0263165799999996 17.2686246799999985 0.0254707600000000 Au
atom 25.8235839799999987 17.2715075400000018 -0.0044299000000000 Au
atom 0.4362251300000000 17.2457376099999991 0.0526775100000000 Au
atom 3.2404884100000002 17.2379373800000018 0.0167020200000000 Au
atom 6.0849298000000003 17.2939757000000007 -0.0195214300000000 Au
atom 7.5207526299999996 19.7386674000000006 0.1814449500000000 Au
atom 10.3581678999999998 19.7394804400000012 0.0693073900000000 Au
atom 13.1714930799999994 19.7711307699999992 0.1216776000000000 Au
atom 15.9989770100000008 19.7637975099999998 0.0450400400000000 Au
atom 18.7587826900000003 19.8072826299999996 0.1190728900000000 Au
atom 21.6151756100000014 19.7585632900000014 0.0184746600000000 Au
atom 24.4446401800000004 19.7464712499999990 0.0526594000000000 Au
atom 27.2467983499999988 19.7847032300000016 0.0505150000000000 Au
atom 1.8589548899999999 19.7586974899999994 0.0943687000000000 Au
atom 4.6603208900000004 19.7320258600000003 0.0543193500000000 Au
atom 8.9108697699999997 22.2256438199999984 0.1149287800000000 Au
atom 11.7255255999999992 22.2071616300000017 0.2032620000000000 Au
atom 14.5830783600000000 22.2414562199999999 0.0671281700000000 Au
atom 17.3981809100000007 22.2574361699999983 0.1263659900000000 Au
atom 20.1984764500000011 22.2343294699999987 0.0764869400000000 Au
atom 23.0307255300000016 22.2069173800000002 0.0671839000000000 Au
atom 25.8783669699999983 22.2175958300000005 0.1005496900000000 Au
atom 0.4899424300000000 22.2218035699999987 0.0276535100000000 Au
atom 3.2922330099999999 22.2281647999999983 0.0750694800000000 Au
atom 6.0863389100000003 22.1753467999999998 0.1327422700000000 Au
atom 7.4974513500000004 24.6495438900000003 0.0769567400000000 Au
atom 10.3301922899999994 24.6995283900000011 0.1083609500000000 Au
atom 13.1453570299999996 24.6923755699999994 0.1405455000000000 Au
atom 15.9544162499999995 24.6913563099999998 0.1033433700000000 Au
atom 18.7676493800000017 24.6815511799999996 0.1059812300000000 Au
atom 21.5905854499999990 24.6798962599999996 0.1691344100000000 Au
atom 24.4296649600000002 24.6674849700000003 0.0590156300000000 Au
atom 27.2917511499999996 24.7026910899999983 0.1621960200000000 Au
atom 1.8602461699999999 24.7023325800000002 0.0552639300000000 Au
atom 4.6955470899999998 24.6615431299999983 0.1753666900000000 Au
atom 8.8945422500000006 27.1543740199999988 -0.0086830400000000 Au
atom 11.7178677600000007 27.1400262800000007 0.0857196800000000 Au
atom 14.5298967900000005 27.1861051700000012 0.0412186900000000 Au
atom 17.4118247199999985 27.1426138899999998 0.1176505200000000 Au
atom 20.2325833599999996 27.1366410299999998 0.0853135700000000 Au
atom 23.0630153000000000 27.1483449899999982 0.1565416100000000 Au
atom 25.8460535299999989 27.1154065700000011 0.0880492200000000 Au
atom 0.4488500600000000 27.1608401700000002 0.0587415200000000 Au
atom 3.3068266999999998 27.1348157999999984 0.0779070200000000 Au
atom 6.0895638200000004 27.1139271899999983 -0.0501279100000000 Au
atom 7.5059934799999999 29.6373077500000015 0.0017590100000000 Au
atom 10.3124393800000007 29.5807358399999991 0.0867691700000000 Au
atom 13.1131298800000007 29.6633187400000011 0.0766800100000000 Au
atom 15.9672407100000004 29.6263082699999991 0.0237112300000000 Au
atom 18.7753812499999988 29.6320836900000018 0.0216445400000000 Au
atom 21.6115057899999989 29.6218363099999991 0.0246904500000000 Au
atom 24.4284232400000008 29.6289574699999996 0.0361562000000000 Au
atom 27.2526699800000003 29.6447754199999984 0.0553184000000000 Au
atom 1.8208494700000000 29.6356367100000000 -0.0213460900000000 Au
atom 4.6839482800000001 29.5960321099999994 0.0250026100000000 Au
atom 8.8856676700000001 32.0664982199999997 0.0000666700000000 Au
atom 11.7509057600000002 32.1161474000000027 -0.0605170600000000 Au
atom 14.5387647900000001 32.0732600099999985 0.0024554100000000 Au
atom 17.3641817399999994 32.0577696399999965 -0.0137953400000000 Au
atom 20.2266360200000008 32.0663147300000020 -0.0260024500000000 Au
atom 22.9917414099999995 32.1086785199999980 -0.0757577200000000 Au
atom 25.8471885499999985 32.1416333199999968 -0.0113894600000000 Au
atom 0.4514420000000000 32.1153905299999991 0.0731449100000000 Au
atom 3.2941843199999998 32.0843805499999988 -0.0167133000000000 Au
atom 6.0702581000000002 32.0864402300000009 0.0542899700000000 Au
atom 7.4738700800000002 34.5170748000000032 -0.0122724800000000 Au
atom 10.3018268200000005 34.5046375900000015 0.0090203500000000 Au
atom 13.1460195399999993 34.5656573199999997 0.0321926400000000 Au
atom 15.9893332699999995 34.5135021500000008 -0.0210503400000000 Au
atom 18.7998259300000008 34.5327475200000009 0.0301876100000000 Au
atom 21.6085442400000005 34.5582639499999971 0.0349314500000000 Au
atom 24.4226622199999994 34.5595685300000000 -0.0323112700000000 Au
atom 27.2687566699999984 34.5836858300000003 -0.0111934100000000 Au
atom 1.8637178500000000 34.6011077499999971 -0.0463019300000000 Au
atom 4.6717330600000002 34.5575917700000019 0.0489116500000000 Au
atom 8.9153095199999992 36.9983613599999970 0.0794185700000000 Au
atom 11.7330763800000000 37.0108029200000033 -0.0783448200000000 Au
atom 14.5394193800000000 36.9779006999999993 0.0616716200000000 Au
atom 17.3722288599999999 37.0282175099999975 0.0309644800000000 Au
atom 20.1776210999999996 37.0062033999999969 0.0239025200000000 Au
atom 23.0228416100000004 37.0422489099999979 -0.0010233100000000 Au
atom 25.8622990900000005 37.0310352899999984 0.0228741900000000 Au
atom 0.4982686200000000 37.0830655299999989 0.0157563600000000 Au
atom 3.2960194100000000 37.0146693900000017 -0.0520938300000000 Au
atom 6.0885696200000003 37.0053541500000023 0.0609276600000000 Au
atom 7.5262624000000002 0.0220076600000000 -0.0000391100000000 Au
atom 10.3274805300000008 0.0011590900000000 0.1821924000000000 Au
atom 13.1314149100000002 0.0021680200000000 -0.0177613800000000 Au
atom 15.9579799599999994 -0.0127850100000000 0.1206265800000000 Au
atom 18.7749331899999987 -0.0071794600000000 0.1144949700000000 Au
atom 21.6028363299999988 -0.0091313500000000 0.0358948800000000 Au
atom 24.4331534599999998 0.0093847500000000 0.1113821700000000 Au
atom 27.2500410500000001 0.0229251200000000 0.2290828200000000 Au
atom 1.9052646200000001 0.0077953400000000 0.0458164400000000 Au
atom 4.7067663299999998 -0.0402753600000000 0.1326237900000000 Au
atom 8.9227970600000006 2.4751640199999998 0.0417771700000000 Au
atom 11.6977359599999993 2.4755606600000002 -0.0259572000000000 Au
atom 14.5211691900000002 2.4374042999999999 0.0570316600000000 Au
atom 17.3770263699999994 2.4836897200000001 0.1465129100000000 Au
atom 20.1951339099999991 2.4481835300000001 0.0822813000000000 Au
atom 22.9724901199999998 2.4719790100000001 0.0590404500000000 Au
atom 25.8205145800000011 2.4772481100000001 0.0833180000000000 Au
atom 0.4552368800000000 2.4624499100000001 0.1258620900000000 Au
atom 3.2897130600000000 2.4598851000000002 0.0786851100000000 Au
atom 6.1391451500000001 2.4402086900000000 0.1120807600000000 Au
atom 7.5270623800000003 4.9415407800000004 0.0637492000000000 Au
atom 10.3371907899999993 4.9573324699999999 0.0863570500000000 Au
atom 13.1988423899999994 4.9186887600000002 0.1524590100000000 Au
atom 15.9802014700000008 4.9179878500000003 0.0926429900000000 Au
atom 18.7988094699999984 4.9416101399999999 0.1087512200000000 Au
atom 21.5921219800000017 4.9552625499999996 0.1042667100000000 Au
atom 24.4256567900000015 4.9540105700000003 0.0496700500000000 Au
atom 27.2711936000000001 4.9362308300000004 0.0567836600000000 Au
atom 1.8612280000000001 4.9052226799999996 0.1283115900000000 Au
atom 4.6822983100000002 4.9194916900000001 0.1544690600000000 Au
atom 8.9261572400000002 7.3954491700000000 0.0188476200000000 Au
atom 11.7538066099999998 7.3802579399999999 0.0601097200000000 Au
atom 14.5594444599999999 7.3662179300000004 0.0806730700000000 Au
atom 17.3792945299999992 7.4242400599999998 0.1563495100000000 Au
atom 20.1611147499999994 7.3893863599999996 0.0082340200000000 Au
atom 23.0237230699999991 7.4176505300000004 0.0649685800000000 Au
atom 25.8240312199999984 7.4119700000000002 0.1292903200000000 Au
atom 0.4415406500000000 7.3998653399999998 0.0588175200000000 Au
atom 3.2733262999999999 7.3854065000000002 0.0562650100000000 Au
atom 6.0978445499999996 7.3915592200000004 0.0160501300000000 Au
atom 7.5012740500000001 9.8352716999999998 0.0445026700000000 Au
atom 10.3588594599999997 9.8618894800000003 -0.0037140200000000 Au
atom 13.1834911699999999 9.8172077200000007 0.0113166400000000 Au
atom 15.9690663700000002 9.8829540100000006 0.0328489700000000 Au
atom 18.8157578600000015 9.8803432400000002 0.0521244400000000 Au
atom 21.6362045400000014 9.8687250399999993 0.0142797000000000 Au
atom 24.4003407199999991 9.9005737099999997 0.0787304300000000 Au
atom 27.2387726599999986 9.8811391600000000 -0.0279787800000000 Au
atom 1.8815346600000000 9.8604835299999998 0.0240922400000000 Au
atom 4.6759290199999999 9.8826619299999994 -0.0101166800000000 Au
atom 8.9497841499999993 12.3477086699999994 -0.0888966000000000 Au
atom 11.7521901700000004 12.2926055699999992 -0.0320935600000000 Au
atom 14.5491957200000002 12.3563553499999994 -0.0280717700000000 Au
atom 17.3693893800000012 12.3523793499999996 -0.0314206000000000 Au
atom 20.2236147700000011 12.3411470699999999 -0.0904467000000000 Au
atom 23.0330048599999984 12.3685914900000000 -0.0568056000000000 Au
atom 25.8314562800000012 12.3533755299999992 0.0079687600000000 Au
atom 0.4508257300000000 12.3157140700000003 -0.0640359400000000 Au
atom 3.2999028099999999 12.3404399700000003 0.0078095800000000 Au
atom 6.1016147900000002 12.3733040200000008 -0.0282138400000000 Au
atom 7.5359696200000004 13.1896495500000004 2.6390724300000001 Au
atom 10.3501065000000008 13.1889099499999993 2.5659230000000002 Au
atom 13.1189424500000005 13.1607598200000009 2.6423566699999999 Au
atom 15.9661007300000009 13.1742642599999993 2.6108093399999999 Au
atom 18.8125669400000000 13.1827576799999999 2.7400835500000000 Au
atom 21.6138210400000013 13.1238632699999993 2.5129219800000002 Au
atom 24.4535739099999994 13.1769101699999993 2.6823933900000001 Au
atom 27.2320318700000001 13.1900776600000000 2.5870526100000002 Au
atom 1.8276588300000001 13.1815739300000008 2.6847519800000001 Au
atom 4.6605032900000003 13.2161509800000001 2.6177624599999998 Au
atom 8.9521838900000006 15.6339941499999995 2.5964873700000002 Au
atom 11.7402511900000004 15.6703790499999993 2.6808455100000002 Au
atom 14.5529905900000003 15.6322474099999997 2.5993257800000000 Au
atom 17.3412399000000015 15.6601921799999992 2.6485664999999998 Au
atom 20.1817263099999984 15.6518132300000001 2.7200680799999999 Au
atom 23.0169879299999991 15.6036754500000008 2.5480531499999999 Au
atom 25.8385786599999996 15.6562119699999993 2.6422981200000000 Au
atom 0.4597445100000000 15.6824499100000008 2.6381133499999998 Au
atom 3.2788078100000000 15.6285043399999992 2.6415772300000002 Au
atom 6.1670945100000001 15.6282585300000001 2.5944516200000001 Au
atom 7.5135618900000001 18.1041461099999985 2.7496727700000001 Au
atom 10.3136346499999991 18.0917361200000002 2.5906567599999999 Au
atom 13.1390046799999993 18.1094742900000014 2.7066086899999999 Au
atom 15.9706754400000008 18.1469982300000012 2.5725331400000000 Au
atom 18.7666581599999986 18.1095366899999988 2.6980051000000000 Au
atom 21.5852704300000013 18.0720975800000012 2.5672270300000002 Au
atom 24.4161793500000002 18.0810719400000011 2.6813617500000002 Au
atom 27.2640160199999997 18.1504742499999985 2.6202235400000000 Au
atom 1.9188750000000001 18.0922149499999989 2.7048141600000002 Au
atom 4.7335731399999998 18.0777512999999992 2.5886128199999998 Au
atom 8.9028729000000002 20.5771801299999986 2.6973412500000000 Au
atom 11.7163800200000008 20.5924614999999989 2.7825811599999999 Au
atom 14.5703411200000001 20.5971324600000010 2.7072726399999998 Au
atom 17.3529917000000005 20.6147907699999990 2.7698279399999999 Au
atom 20.1767656500000001 20.5561229999999995 2.6945212700000001 Au
atom 23.0060988900000005 20.5434429499999993 2.6881876199999999 Au
atom 25.8099794699999983 20.5930564300000007 2.6940530400000000 Au
atom 0.4706904000000000 20.5949045200000000 2.6658042000000002 Au
atom 3.2707271100000002 20.5796643199999991 2.6595539300000000 Au
atom 6.0949810700000002 20.6207456700000016 2.7335338500000002 Au
atom 7.5272991700000000 23.0657466699999993 2.7524352699999999 Au
atom 10.3466305399999996 23.0758515899999992 2.7325612499999998 Au
atom 13.1605595399999995 23.0594959099999990 2.7023031199999998 Au
atom 15.9928521900000007 23.0722892600000016 2.6816594800000000 Au
atom 18.8018214199999996 23.0659015799999985 2.7384548899999999 Au
atom 21.5927681900000010 23.0733249700000016 2.7134588700000002 Au
atom 24.3955516900000013 23.0526473199999984 2.6808620699999999 Au
atom 27.2691221800000001 23.0545583299999990 2.6781733999999999 Au
atom 1.8739247400000001 23.0697341000000016 2.6255176200000001 Au
atom 4.6844252800000001 23.0640144900000017 2.7893894900000000 Au
atom 8.9256929100000004 25.5305808899999995 2.6357713700000001 Au
atom 11.7241872399999991 25.5467918400000009 2.7277123799999998 Au
atom 14.5465095200000007 25.5436659800000001 2.7331638200000001 Au
atom 17.3832983799999994 25.5450012899999983 2.7319963700000001 Au
atom 20.2040579899999990 25.6032616600000011 2.7166480900000001 Au
atom 23.0108356299999990 25.5208555299999986 2.8056489000000000 Au
atom 25.8203038400000011 25.5116748400000013 2.7853572799999999 Au
atom 0.4463836000000000 25.5274349399999991 2.7841128099999999 Au
atom 3.2556339900000002 25.5655765799999983 2.7263611900000000 Au
atom 6.0940176900000003 25.5692753800000006 2.7451077300000000 Au
atom 7.5213560499999996 27.9909112399999991 2.5583777900000002 Au
atom 10.2909511600000005 28.0033630100000011 2.6713529700000000 Au
atom 13.1481660799999993 28.0166190300000011 2.6198416299999998 Au
atom 15.9589197499999997 27.9847551400000008 2.7223402000000001 Au
atom 18.8054145499999983 28.0113888700000011 2.7103558900000002 Au
atom 21.6359921700000015 28.0473628400000017 2.7092577400000000 Au
atom 24.4488559199999997 27.9938722899999988 2.6988463000000000 Au
atom 27.2226780899999987 28.0136514500000011 2.6913602299999999 Au
atom 1.8457504300000001 27.9918820000000004 2.6073065299999998 Au
atom 4.6853071699999997 28.0249968199999984 2.6595175000000002 Au
atom 8.8967188600000000 30.4781874899999998 2.6279313300000000 Au
atom 11.7097579100000004 30.4646786600000006 2.6596701800000000 Au
atom 14.5811554099999992 30.4702187500000008 2.6572559800000000 Au
atom 17.3837431100000011 30.4802129700000002 2.6096231900000002 Au
atom 20.2346313199999983 30.4779365099999993 2.6840790399999999 Au
atom 23.0161752399999990 30.4866460000000004 2.6010088900000001 Au
atom 25.8320784299999993 30.5337934199999985 2.6223903800000001 Au
atom 0.4695039100000000 30.5044432299999997 2.6855290500000000 Au
atom 3.2666187999999998 30.4647720900000003 2.5624694899999998 Au
atom 6.0893697800000002 30.4550903800000015 2.6081885800000002 Au
atom 7.5158445900000004 32.9775058700000017 2.5991594999999998 Au
atom 10.2980805100000001 32.9182611299999976 2.6223553900000001 Au
atom 13.0859780400000005 32.9182078700000034 2.5892931500000000 Au
atom 15.9310427899999993 32.8975727799999973 2.6650585000000002 Au
atom 18.7502673900000012 32.9187225499999983 2.5860316000000001 Au
atom 21.5490169499999986 32.9264215899999968 2.7083141199999998 Au
atom 24.3732758800000013 32.9321109199999995 2.5623114100000000 Au
atom 27.2596107699999983 32.9650203799999986 2.6853044200000000 Au
atom 1.8754049600000000 32.9319423499999999 2.5592939100000001 Au
atom 4.6936040700000001 32.9071066999999999 2.6981927699999999 Au
atom 8.9050741700000007 35.4136973499999996 2.5851763200000000 Au
atom 11.7230908100000004 35.4009983600000027 2.5982249899999998 Au
atom 14.5529094099999998 35.3633002600000026 2.6722143599999999 Au
atom 17.3265521999999983 35.3880979400000015 2.5812379299999999 Au
atom 20.1937958100000010 35.3963846300000000 2.6320709899999999 Au
atom 23.0190074200000012 35.4256476600000028 2.6263852800000000 Au
atom 25.8105533300000012 35.3922471099999996 2.5739983500000001 Au
atom 0.4545559000000000 35.3841396500000016 2.6039903999999998 Au
atom 3.2902710300000000 35.3813039400000022 2.6161914700000000 Au
atom 6.0982033299999996 35.3891067500000034 2.6327584000000002 Au
atom 7.4744097099999998 37.8546449099999975 2.5936358799999999 Au
atom 10.3280323799999998 37.8671548399999978 2.7025575399999999 Au
atom 13.1081425500000002 37.8317652699999982 2.6098248200000000 Au
atom 15.9328293999999993 37.8100579299999993 2.7143734400000001 Au
atom 18.7784433200000009 37.8289638800000034 2.6922781100000002 Au
atom 21.5969384700000013 37.8516918199999992 2.6447568900000000 Au
atom 24.4530666299999986 37.8973707199999978 2.6294742200000001 Au
atom 27.2514937000000010 37.8115065300000026 2.7253772700000001 Au
atom 1.8624950300000001 37.8427099299999981 2.6181932200000002 Au
atom 4.6648276199999996 37.8205317399999998 2.7108280300000001 Au
atom 8.8911486100000001 0.8214160400000000 2.7386537199999998 Au
atom 11.7249248399999999 0.8672089300000000 2.7169433000000001 Au
atom 14.6069242900000003 0.8486257800000000 2.6772368499999999 Au
atom 17.4067515999999998 0.8651357800000000 2.7353277999999999 Au
atom 20.2185298399999986 0.8422636900000000 2.7032109700000002 Au
atom 23.0112122799999987 0.8546746600000000 2.6774748700000002 Au
atom 25.8671302599999997 0.8631416000000000 2.8006340399999998 Au
atom 0.4469111400000000 0.8265434100000000 2.7286864400000002 Au
atom 3.2653276800000000 0.8934306500000000 2.7600598999999999 Au
atom 6.0769779399999999 0.8121610700000000 2.7245256200000001 Au
atom 7.4966383399999996 3.3415850100000002 2.6572874299999998 Au
atom 10.3203083099999997 3.3384345999999998 2.6497286600000001 Au
atom 13.1656749200000007 3.2989953100000000 2.6598863300000000 Au
atom 16.0038276400000008 3.3135509399999998 2.6660637399999998 Au
atom 18.8115654600000006 3.3126204499999998 2.7371439999999998 Au
atom 21.5791238999999990 3.3217827700000000 2.6985723500000001 Au
atom 24.3885131800000003 3.3060730500000002 2.6554179300000000 Au
atom 27.2123215400000014 3.2961587899999998 2.6464289700000001 Au
atom 1.8587881900000001 3.3479264799999999 2.6856561100000000 Au
atom 4.7194419099999996 3.2975241899999999 2.7073263900000000 Au
atom 8.9175751000000005 5.8119698399999997 2.7319177799999999 Au
atom 11.7639615699999993 5.8094710699999998 2.7983511800000000 Au
atom 14.5590108100000002 5.8021839499999999 2.7576601100000002 Au
atom 17.3765852400000007 5.7947661400000001 2.7233041199999999 Au
atom 20.2055557999999991 5.8203666800000002 2.7207672899999999 Au
atom 23.0214984300000012 5.8084595900000000 2.6937131700000001 Au
atom 25.8357989199999984 5.7513021799999997 2.7067426299999999 Au
atom 0.4573103300000000 5.7976158099999999 2.7532280199999999 Au
atom 3.2792725100000002 5.7932414000000003 2.7286380299999999 Au
atom 6.1043956000000001 5.7813103999999997 2.6907273699999998 Au
atom 7.4915686199999998 8.2727931699999999 2.7321450199999999 Au
atom 10.3075965899999993 8.2814666599999995 2.5998680699999999 Au
atom 13.1528687499999997 8.2358727799999993 2.7015884799999998 Au
atom 15.9224711600000006 8.3194437899999993 2.6662864499999999 Au
atom 18.8368211700000003 8.2848203100000006 2.7824076700000000 Au
atom 21.6387422399999991 8.2607000999999993 2.5875907599999999 Au
atom 24.4722343799999997 8.2591866300000003 2.8109932799999999 Au
atom 27.2558530499999989 8.2618155200000007 2.6392954600000000 Au
atom 1.8396578600000000 8.2617042900000008 2.6923010000000001 Au
atom 4.7147478400000002 8.2759111599999997 2.6131729199999998 Au
atom 8.8940532399999999 10.7396353700000002 2.5881249199999998 Au
atom 11.7107507700000006 10.7322937300000003 2.5956602400000000 Au
atom 14.5150696999999997 10.7343881099999994 2.6258445500000001 Au
atom 17.3814856800000008 10.7198565200000004 2.5982483300000001 Au
atom 20.1952274900000006 10.7032970499999998 2.6153940400000000 Au
atom 23.0815911199999988 10.6994310200000005 2.6386146699999999 Au
atom 25.8862184000000006 10.7481279399999998 2.5681669600000001 Au
atom 0.4595352300000000 10.7426926199999997 2.5821089900000000 Au
atom 3.2806188999999999 10.7327628599999993 2.6275461899999999 Au
atom 6.0827073199999999 10.7578848199999992 2.6335822200000001 Au
atom 7.4581039300000000 13.2357450900000000 5.6723868800000004 Cl
atom 7.5051116400000000 15.9993306200000003 8.5405941799999994 Cl
atom 7.4997898799999998 13.2722214899999997 8.3084143499999996 Na
atom 7.4461520900000000 16.1075048699999996 5.7504079299999997 Na
atom 7.4624358800000001 18.8948383500000006 5.7463145000000004 Cl
atom 7.4729274700000001 21.5888365700000016 8.6929975800000001 Cl
atom 7.4434299299999998 18.8187368900000003 8.3317164100000003 Na
atom 7.5118937600000004 21.6829512199999996 5.8545552699999996 Na
atom 7.4577629300000003 24.4664706800000005 5.8357262800000003 Cl
atom 7.4902604699999999 27.3115229500000005 8.6815311400000006 Cl
atom 7.5121005900000002 24.3919546800000013 8.4883696000000004 Na
atom 7.4989665800000003 27.1872585600000001 5.9385046099999999 Na
atom 7.4865334199999998 30.0129908199999988 5.7474327299999999 Cl
atom 7.5032113100000002 32.9190394600000005 8.5084954100000001 Cl
atom 7.4990154899999997 30.0683212200000014 8.4115806499999994 Na
atom 7.4879615800000003 32.9492399700000007 5.7730759500000000 Na
atom 7.4930161699999998 35.7635686699999980 5.7230522500000003 Cl
atom 7.5403577100000003 38.5272088999999980 8.5921123700000006 Cl
atom 7.5097577299999996 35.7240569800000003 8.3696610200000006 Na
atom 7.4856113200000003 38.5837325099999973 5.8102240700000003 Na
atom 7.4627118599999998 1.9262242500000000 5.7998735699999999 Cl
atom 7.4809065199999996 4.7286538000000000 8.6921245999999996 Cl
atom 7.4705170299999999 1.8915265699999999 8.4736195300000006 Na
atom 7.4671777600000002 4.7498549399999996 5.9121352299999996 Na
atom 7.4640528599999998 7.5471349200000004 5.8790924799999997 Cl
atom 7.5415409000000002 10.4543052000000003 8.6126883000000003 Cl
atom 7.4871700099999998 7.5431014999999997 8.5008358499999996 Na
atom 7.4945731400000000 10.3255506100000005 5.8478102800000000 Na
atom 10.3140541100000007 13.2215228699999994 5.7952627500000000 Na
atom 13.1029258599999991 13.2041638799999994 5.6775589999999996 Cl
atom 10.3226644800000003 16.0590468199999989 8.3585422400000002 Na
atom 13.1371388400000004 16.0214000600000013 8.5667788599999994 Cl
atom 13.1483762199999994 13.1914938399999997 8.3224250899999994 Na
atom 10.3627842000000001 13.2595747399999997 8.5605344100000007 Cl
atom 13.0550504800000002 16.0403916299999985 5.7826559900000003 Na
atom 10.3230179599999996 16.1419796799999986 5.7238916299999998 Cl
atom 10.2592312600000000 18.8909227699999995 5.8226912300000002 Na
atom 13.1140923100000002 18.8402323500000008 5.7733074100000001 Cl
atom 10.2948782199999993 21.6236131799999995 8.4450802399999993 Na
atom 13.1214197400000003 21.5944034500000015 8.7026610200000007 Cl
atom 13.0906988000000002 18.8207494199999985 8.3931144500000006 Na
atom 10.3019231799999993 18.8166630700000006 8.6424782199999992 Cl
atom 13.1438476800000004 21.6270024700000008 5.9246833600000004 Na
atom 10.2941208799999995 21.6191164100000002 5.7921312800000004 Cl
atom 10.2817049899999997 24.4759598499999989 5.8606357999999998 Na
atom 13.0963341799999995 24.4059453799999986 5.8044218699999997 Cl
atom 10.3030094299999995 27.3216959499999987 8.3988499500000007 Na
atom 13.1297973599999995 27.2003907699999985 8.6199530699999993 Cl
atom 13.0899240999999993 24.4164007900000009 8.4570677500000002 Na
atom 10.2689719299999993 24.4557964000000005 8.6544714799999998 Cl
atom 13.1283761699999992 27.1812708100000009 5.8322902100000000 Na
atom 10.2980938799999997 27.2232196100000010 5.7796747300000000 Cl
atom 10.2973567399999997 30.0599037200000012 5.7663767600000000 Na
atom 13.1278719499999994 30.0023055899999989 5.7617010999999998 Cl
atom 10.3354719500000005 32.8542135200000018 8.3274299099999993 Na
atom 13.1715469400000007 32.9086995700000031 8.5804478700000004 Cl
atom 13.1559713100000000 30.0815398999999992 8.3394039800000002 Na
atom 10.3620104800000004 30.0746121399999993 8.5331397899999999 Cl
atom 13.1234353699999993 32.8685702000000006 5.7776165800000001 Na
atom 10.3849117500000006 32.8600237500000034 5.6517538900000002 Cl
atom 10.3173585400000007 35.6992267700000028 5.8089653600000002 Na
atom 13.1708263799999994 35.6692458999999999 5.6763541000000002 Cl
atom 10.3098896100000008 38.5338674400000016 8.4248101900000005 Na
atom 13.1340165899999999 38.5471974299999971 8.5313267300000000 Cl
atom 13.1494671499999995 35.7004976300000010 8.3448814799999997 Na
atom 10.3149442899999997 35.6212139000000008 8.5025101900000006 Cl
atom 13.0968990800000000 38.5471745299999995 5.7622258700000000 Na
atom 10.3088913299999998 38.5504783700000004 5.7864180200000002 Cl
atom 10.2527913300000009 1.8865274900000000 5.8714819399999998 Na
atom 13.0639702000000000 1.9239452600000000 5.8006460100000004 Cl
atom 10.3362939699999998 4.7665878299999997 8.4919614899999996 Na
atom 13.1083446200000004 4.8001956500000000 8.6261963000000002 Cl
atom 13.0777432900000008 1.9033768900000001 8.3864261300000003 Na
atom 10.3249915300000001 1.8614228900000001 8.7044301799999992 Cl
atom 13.0634964300000007 4.7504230500000002 5.8247852900000003 Na
atom 10.2798815799999996 4.7458538499999996 5.8521544499999996 Cl
atom 10.2771952500000001 7.5032634299999996 5.8280677299999999 Na
atom 13.1448164900000002 7.5764654699999996 5.7627847100000000 Cl
atom 10.3501620200000009 10.4116539299999999 8.3762612999999995 Na
atom 13.1528721900000001 10.3882216300000003 8.6012910300000005 Cl
atom 13.1906043700000009 7.5902963300000001 8.4092433999999994 Na
atom 10.3715629899999993 7.5614286000000002 8.6551265399999995 Cl
atom 13.1902697599999996 10.3994832699999993 5.7907995899999998 Na
atom 10.2930341700000003 10.3477150899999994 5.7277763400000001 Cl
atom 15.9807731700000009 13.2510592799999998 5.8557962500000000 Na
atom 18.7584187299999989 13.2392704200000004 5.8877117099999996 Cl
atom 15.9269811600000004 16.0901974599999988 8.4042830199999994 Na
atom 18.7707988099999987 16.0091194899999998 8.6891666700000005 Cl
atom 18.7436962300000012 13.2162157400000009 8.5546427800000000 Na
atom 15.9189398499999992 13.2370367699999996 8.5631654299999997 Cl
atom 18.8131862900000009 16.0364947600000001 5.8940565400000002 Na
atom 15.9294096799999991 16.0169585000000012 5.7358057999999996 Cl
atom 15.9459286599999999 18.8343049200000010 5.7240188999999999 Na
atom 18.7912251999999995 18.8238513800000007 5.8344417599999998 Cl
atom 15.9673638499999999 21.6267352600000002 8.4498007299999998 Na
atom 18.7444314399999996 21.6070074299999995 8.6363639499999998 Cl
atom 18.7941558200000003 18.8341633000000002 8.4641812499999993 Na
atom 15.9234960099999991 18.8139496000000008 8.5522159299999991 Cl
atom 18.7922285699999989 21.5956115100000012 5.8831973199999998 Na
atom 15.8943792199999994 21.6385781799999997 5.8249885499999996 Cl
atom 15.9502854299999992 24.4534232799999991 5.9015135900000004 Na
atom 18.7483363899999986 24.4138146899999988 5.8604747799999997 Cl
atom 15.9386138800000001 27.2816025099999990 8.4281796199999999 Na
atom 18.7635499599999989 27.2339685299999985 8.6304250099999997 Cl
atom 18.7458687899999994 24.4452561499999987 8.4810610000000004 Na
atom 15.9860458100000002 24.4070643400000016 8.6626322699999996 Cl
atom 18.7544519899999997 27.1905959700000004 5.8585155999999996 Na
atom 16.0196228000000005 27.2418480599999988 5.7844386300000004 Cl
atom 15.9799695699999997 30.0135267399999996 5.8318941899999999 Na
atom 18.7473781700000011 30.0984785899999991 5.7311145899999998 Cl
atom 15.9556340500000005 32.8857860099999968 8.3915961400000008 Na
atom 18.8067633200000017 32.8160902500000020 8.6071022900000003 Cl
atom 18.8044148500000006 30.0177400500000005 8.3903670300000002 Na
atom 15.9898713000000008 30.0704938700000000 8.6026963100000007 Cl
atom 18.7238965499999992 32.8492597600000025 5.8682267799999996 Na
atom 15.8926150800000006 32.9041464800000014 5.7425885000000001 Cl
atom 15.9793281799999995 35.7026738200000011 5.7806383800000001 Na
atom 18.7365223500000013 35.7573296899999988 5.7361844199999998 Cl
atom 15.9428697600000007 38.5427446300000014 8.3533212700000004 Na
atom 18.7954124600000014 38.5515185900000006 8.5843296500000008 Cl
atom 18.7888364699999997 35.6938485900000018 8.4181912099999998 Na
atom 15.9626498399999992 35.7275500300000033 8.5607568599999997 Cl
atom 18.7705553499999986 38.6180418200000020 5.8626836400000002 Na
atom 15.9421765499999992 38.6415875900000003 5.7393695999999998 Cl