#===============================================================================
# Created using the Atomic Simulation Environment (ASE)

# Tue Dec 23 22:26:39 2025

#=======================================================
lattice_vector 28.1999999999999993 0.0000000000000000 0.0000000000000000 
lattice_vector 0.0000000000000000 39.4799999999999969 0.0000000000000000 
lattice_vector 0.0000000000000000 0.0000000000000000 62.3296083400000001 
atom 7.5094128199999997 14.8398515900000003 -0.2213980800000000 Au
atom 10.3860703599999997 14.8740810700000008 -0.0728652600000000 Au
atom 13.1415641999999995 14.6069893299999993 -0.1891662000000000 Au
atom 15.8990091800000002 14.8565047600000000 -0.2364655800000000 Au
atom 18.7488489700000009 14.6989125499999993 -0.2561350100000000 Au
atom 21.6168796999999984 14.7383018000000003 -0.1528728500000000 Au
atom 24.5719925100000012 14.9760083200000000 -0.1243766600000000 Au
atom 27.4785632399999997 14.6961330799999992 -0.2010210500000000 Au
atom 1.8835328200000001 14.7599791699999994 -0.1092244500000000 Au
atom 4.7915376800000002 14.7282478399999999 -0.2221715200000000 Au
atom 8.8704408200000007 17.1030703300000013 -0.1114150700000000 Au
atom 11.7714496200000003 17.4312770099999987 -0.0293178600000000 Au
atom 14.4768880499999995 17.3259389000000006 -0.2041832300000000 Au
atom 17.4148282600000002 17.5803199700000015 0.0351044800000000 Au
atom 20.0921443400000008 17.1839590000000015 0.1557126700000000 Au
atom 23.0267137200000001 17.2915534800000010 0.2152398600000000 Au
atom 25.9428520300000010 17.3116362300000013 0.1799026700000000 Au
atom 0.5937336800000000 17.0177462300000002 0.2645074100000000 Au
atom 3.3658550900000002 17.1547377499999989 -0.1042795500000000 Au
atom 6.2312103700000003 17.2381792999999988 -0.0751859500000000 Au
atom 7.2645774599999999 19.5755407199999993 0.1647465000000000 Au
atom 10.3829669899999999 19.6030187699999985 0.2045808300000000 Au
atom 13.2836209499999995 19.8424835299999991 -0.2139383600000000 Au
atom 15.8209404500000002 19.9342731499999992 0.0193390700000000 Au
atom 18.8515708400000008 19.8527331700000005 0.1276579800000000 Au
atom 21.5928517100000015 20.0013914899999996 0.0614630100000000 Au
atom 24.2880063600000007 19.7580195699999983 0.3190246200000000 Au
atom 27.3402988399999991 19.7373022099999993 0.0170070100000000 Au
atom 1.9117043899999999 19.7517076799999991 0.0581054600000000 Au
atom 4.8001221899999997 19.6698768599999987 0.2654602100000000 Au
atom 8.9920371400000008 22.1111561099999996 0.2324309500000000 Au
atom 11.7960754500000000 22.1847955500000005 0.0048684200000000 Au
atom 14.4576819000000008 22.2133680899999995 -0.0041601200000000 Au
atom 17.3556510599999996 22.1462141499999987 0.0651835100000000 Au
atom 20.2756380000000007 22.3196128800000011 0.0022544300000000 Au
atom 23.1357690200000015 22.3037763399999989 0.3990396500000000 Au
atom 25.9519517800000017 22.3966332399999999 0.3203872100000000 Au
atom 0.4774624700000000 22.0955276400000002 0.0713833200000000 Au
atom 3.3270669000000002 22.0599193999999983 0.1278358100000000 Au
atom 6.0703442699999997 22.3471658399999988 0.1834255700000000 Au
atom 7.4201927899999998 24.6883453000000017 -0.0069270800000000 Au
atom 10.2792890600000000 24.5539023699999994 0.1510390400000000 Au
atom 13.0308371699999999 24.5961927100000004 -0.0611743300000000 Au
atom 15.7214489099999994 24.8213992700000006 0.2583100700000000 Au
atom 18.6935127700000017 24.8975527200000002 -0.0869490400000000 Au
atom 21.7781394000000006 24.6602296699999997 0.0929111300000000 Au
atom 24.4268736699999991 24.5822389299999990 0.0947031000000000 Au
atom 27.2403787400000006 24.5713727400000010 0.0573662100000000 Au
atom 1.8503198700000001 24.6851034200000008 0.0489866200000000 Au
atom 4.7251229900000000 24.7408641100000004 0.2730278900000000 Au
atom 8.7587526800000006 27.0282751999999995 -0.2242074500000000 Au
atom 11.6716840600000005 26.9608697399999997 -0.1019107600000000 Au
atom 14.5610819800000009 27.1844073199999983 0.0088548000000000 Au
atom 17.1493223599999993 26.9777049300000016 0.3295812100000000 Au
atom 20.2421307699999993 27.1231631700000015 0.1089415700000000 Au
atom 22.8425551599999999 27.0720462499999996 -0.0710115500000000 Au
atom 25.6985282499999990 26.7637636000000008 -0.0863302000000000 Au
atom 0.2623140000000000 27.1939653600000000 -0.0054278900000000 Au
atom 3.1890715300000001 27.0406784800000004 0.1372903100000000 Au
atom 6.0006783199999996 27.1950403799999982 -0.1061489600000000 Au
atom 7.5840489099999999 29.6560357699999990 -0.1656791400000000 Au
atom 10.3132947099999992 29.8069864299999985 0.2111423700000000 Au
atom 13.1941543200000009 29.3821478899999988 -0.3811796000000000 Au
atom 16.0506137600000010 29.5465110499999994 -0.3134520900000000 Au
atom 18.6267084999999994 29.7260269199999989 -0.1969631000000000 Au
atom 21.6291301400000009 29.6353752099999994 -0.1065534300000000 Au
atom 24.5628807699999996 29.4397895600000012 0.0525059300000000 Au
atom 27.2302917099999995 29.6384155599999985 0.0250397200000000 Au
atom 1.7760123100000000 29.6092221900000006 -0.2989770200000000 Au
atom 4.7512597799999998 29.6371915900000005 0.0374574400000000 Au
atom 8.9681175000000000 32.0140617599999970 -0.3470676100000000 Au
atom 11.8962447000000004 32.0244043000000005 -0.2212315100000000 Au
atom 14.6048615500000007 31.8089201499999987 -0.1746050100000000 Au
atom 17.3015152299999997 32.0522443500000023 -0.2715775500000000 Au
atom 20.1331789800000003 32.3234543000000016 -0.2331950700000000 Au
atom 22.9130353100000015 32.1287673200000015 0.1465454600000000 Au
atom 25.8114287199999985 32.0664106600000025 -0.2026435900000000 Au
atom 0.3205552500000000 31.9851024799999983 -0.0243072100000000 Au
atom 3.2438968699999999 32.2667119700000029 -0.1614434200000000 Au
atom 6.1411772100000004 32.0168795100000025 -0.1862043800000000 Au
atom 7.5725314600000004 34.3988460899999993 -0.0733323400000000 Au
atom 10.3510140699999997 34.5731906400000000 -0.0245064700000000 Au
atom 13.2036075900000007 34.3981229600000020 -0.1331140500000000 Au
atom 16.0834779099999992 34.6319778900000017 -0.1977253700000000 Au
atom 18.7386524600000008 34.6112803700000029 -0.0441947700000000 Au
atom 21.5123209700000011 34.4957881799999981 -0.1786894900000000 Au
atom 24.4185576600000012 34.6127151199999972 0.1194809400000000 Au
atom 27.0788445099999997 34.5835494000000025 0.3246067600000000 Au
atom 2.0555795899999998 34.7202132700000021 -0.1917541600000000 Au
atom 4.6511323500000001 34.5935190399999968 -0.3373658800000000 Au
atom 9.1479754100000008 36.7810252100000028 -0.3200180500000000 Au
atom 11.8849608300000007 37.0049288599999997 0.1122885800000000 Au
atom 14.6197605300000006 37.0467718900000023 0.4736278000000000 Au
atom 17.5259926399999983 36.9996227800000028 0.2549416700000000 Au
atom 20.3045148200000014 36.9330901100000020 -0.0236188100000000 Au
atom 23.0465507100000018 37.0480241799999988 -0.0084709600000000 Au
atom 25.8017976900000008 37.1750054199999980 0.4301806500000000 Au
atom 0.5436315000000000 37.0140998899999971 0.0320569300000000 Au
atom 3.1979435500000002 36.9224375200000026 0.1757709400000000 Au
atom 6.2090738600000002 37.0498675300000002 0.0429798600000000 Au
atom 7.4749986200000000 0.0712261600000000 0.1327788300000000 Au
atom 10.4367694899999996 -0.1741026600000000 0.2637321800000000 Au
atom 13.1999715200000001 0.0401066800000000 0.2897705300000000 Au
atom 15.9065846400000002 0.0011501200000000 0.1933275200000000 Au
atom 18.8457633999999992 -0.0938066300000000 0.1448637800000000 Au
atom 21.6253096000000014 -0.1297663000000000 -0.0057446200000000 Au
atom 24.4057797600000015 0.0427814300000000 0.0228944900000000 Au
atom 27.2251302799999984 0.0545114100000000 0.0649744800000000 Au
atom 1.9083299600000001 -0.0856211800000000 0.1315931200000000 Au
atom 4.7111202700000003 -0.0057987800000000 0.1797036600000000 Au
atom 9.1690085700000008 2.3028896500000000 0.3830040200000000 Au
atom 11.6890782699999995 2.4636573799999999 0.2457936700000000 Au
atom 14.7995131499999992 2.4394072900000001 0.4638952000000000 Au
atom 17.3971413800000008 2.2984811000000001 0.0873092600000000 Au
atom 20.1836007200000012 2.5516508099999999 0.1851556000000000 Au
atom 23.3238171500000000 2.5801479899999999 0.2362711500000000 Au
atom 25.8750951899999997 2.6560256500000001 0.2156564800000000 Au
atom 0.3791685200000000 2.4160589799999999 -0.1538491500000000 Au
atom 3.4497895100000000 2.6054003400000001 0.2119798700000000 Au
atom 5.8577757500000001 2.3424257399999999 0.0984098500000000 Au
atom 7.5134665900000002 5.1709558199999996 0.2493834800000000 Au
atom 10.3330007100000003 5.0472244300000000 0.2569784700000000 Au
atom 13.2643803800000004 5.0928440500000001 0.5382601500000000 Au
atom 15.9604457899999996 4.7105467599999997 0.0039579700000000 Au
atom 18.6299878800000016 4.9171252699999997 -0.0918272000000000 Au
atom 21.6283147400000004 4.9284780599999998 0.0206518000000000 Au
atom 24.5848232700000011 4.8507728500000002 0.0730460600000000 Au
atom 27.3833059699999986 4.9730400000000001 -0.0134480600000000 Au
atom 2.0530369799999999 5.1237847299999997 0.0321950600000000 Au
atom 4.8111157599999999 4.9698108300000001 0.1402196200000000 Au
atom 9.0488274900000008 7.2032124099999999 0.2283512900000000 Au
atom 11.8595662999999991 7.3767039600000004 0.3492985000000000 Au
atom 14.5337637100000006 7.4041116300000001 -0.0278205700000000 Au
atom 17.3423588399999993 7.4656122399999996 0.1311607100000000 Au
atom 20.1672733700000002 7.3992347399999998 -0.1028852100000000 Au
atom 23.1632938999999993 7.3718148399999999 0.2815041300000000 Au
atom 25.8274709400000013 7.3501747200000001 -0.0227850400000000 Au
atom 0.3886284000000000 7.2671621499999999 -0.1126633100000000 Au
atom 3.2191134500000000 7.3484511899999996 0.4007366500000000 Au
atom 6.2079410299999997 7.3694359100000000 0.2052729300000000 Au
atom 7.4275671599999997 9.7332175400000001 -0.1267989500000000 Au
atom 10.4098753500000001 9.9511117000000002 -0.0725188900000000 Au
atom 13.3643937099999999 9.8387284800000003 -0.1792597300000000 Au
atom 16.0014103600000013 9.7668263399999997 0.2459037100000000 Au
atom 18.8120695500000004 9.9416615900000007 0.2496985100000000 Au
atom 21.5928632000000000 10.0644327199999992 0.0983590700000000 Au
atom 24.5393203100000008 9.8887042500000000 0.0526559400000000 Au
atom 27.2245309999999989 9.8985602999999998 0.0815185600000000 Au
atom 1.9207116900000001 9.7041318699999994 -0.3049654300000000 Au
atom 4.8408414999999998 9.9114070099999996 -0.0895076900000000 Au
atom 9.1175379900000006 12.3638265500000006 -0.2406886900000000 Au
atom 11.7320824199999993 12.3405554399999993 -0.1264879700000000 Au
atom 14.6239111000000008 12.2860545499999994 -0.1765020100000000 Au
atom 17.4163224200000002 12.2639359900000002 -0.2349346000000000 Au
atom 20.4283248899999990 12.3741534400000006 -0.0703023300000000 Au
atom 23.3310100499999997 12.3790004099999997 -0.0231591800000000 Au
atom 25.8350630700000004 12.3349300199999998 0.0468470100000000 Au
atom 0.7415639900000000 12.3018095899999995 -0.1535726400000000 Au
atom 3.0314146700000002 12.1691175299999994 -0.2166444300000000 Au
atom 6.0990978000000000 12.3709905100000004 -0.3613612100000000 Au
atom 7.6126270299999996 13.2562503399999994 2.2404116599999999 Au
atom 10.2432859500000006 13.2106815599999994 2.3607179800000000 Au
atom 13.3679549299999998 13.1617738200000005 2.2441842500000000 Au
atom 15.8818960800000006 13.0811121799999999 2.2441256200000002 Au
atom 18.7541638900000009 13.1926388899999996 2.2422613000000000 Au
atom 21.6694470099999990 13.1724713700000002 2.6116818799999999 Au
atom 24.4369963400000003 13.1211304400000000 2.5620834900000000 Au
atom 27.2212384400000005 12.8644187900000002 2.4451042300000001 Au
atom 1.7670577100000000 13.1450839300000002 2.3888509299999998 Au
atom 4.6251958699999998 13.3666453799999996 2.1183581500000002 Au
atom 8.8612519600000006 15.5229561199999999 2.4533445899999999 Au
atom 11.6654773400000007 15.6999220699999995 2.6562964600000001 Au
atom 14.6290986899999993 15.7331272799999997 2.3163206000000001 Au
atom 17.4140250300000012 15.6182608500000004 2.4521139600000001 Au
atom 20.2583843600000009 15.5857769699999995 2.7722182399999999 Au
atom 23.0935068900000005 15.7397966999999994 2.7257640500000000 Au
atom 25.9100646400000016 15.6037046600000000 2.5820546700000002 Au
atom 0.3423490000000000 15.6423913599999995 2.4456786600000000 Au
atom 3.2787902700000000 15.7277948300000006 2.4118714699999999 Au
atom 6.1026405500000003 15.6582576000000007 2.8206396599999999 Au
atom 7.3949361299999996 18.0654319399999999 2.7290175900000002 Au
atom 10.2805526799999996 17.9282147000000016 2.6722091899999998 Au
atom 13.1987152499999993 18.1376053199999987 2.4358111700000000 Au
atom 16.2480493300000006 18.0511162600000006 2.3806084699999999 Au
atom 18.9309946499999988 18.2434156799999982 2.7441817300000002 Au
atom 21.6932441400000009 18.2612212000000014 2.4408677499999998 Au
atom 24.4111104400000016 18.0222007700000013 3.0986375499999999 Au
atom 27.5157914199999993 17.9402501100000009 2.5114149299999999 Au
atom 1.7535133400000000 17.9038208499999989 2.5033835299999998 Au
atom 4.5711151299999999 18.0385590200000010 2.6801070500000002 Au
atom 9.1156564600000003 20.5133868499999998 2.6853252099999998 Au
atom 11.8342819800000001 20.8101180300000017 2.7218068899999999 Au
atom 14.4547843700000005 20.4859693100000015 2.4635433600000001 Au
atom 17.3460934400000006 20.6658172299999983 2.6018594899999998 Au
atom 20.0662278399999998 20.7341560499999993 2.5746850700000001 Au
atom 23.0358859100000011 20.4466362000000004 2.8568927199999998 Au
atom 26.0419503500000005 20.4836729200000001 2.7027791200000002 Au
atom 0.4979736100000000 20.3471737600000004 2.5938896699999998 Au
atom 3.0820240000000001 20.4892102600000001 2.8409612399999999 Au
atom 5.9488622400000004 20.4106094099999993 2.7798252200000002 Au
atom 7.3958425999999999 22.9634390999999987 2.6713960800000001 Au
atom 10.1332896399999992 22.9597110099999995 2.5598600299999998 Au
atom 13.2660291499999996 23.1763221299999991 2.4200516799999998 Au
atom 15.9496180299999999 22.8242777699999984 2.7546491999999998 Au
atom 18.7053769199999991 23.1774890800000009 2.8147402300000000 Au
atom 21.5262647099999995 22.9744316300000015 2.5064288600000002 Au
atom 24.2599172900000006 23.2674450600000000 3.0537799500000000 Au
atom 27.1703890600000015 23.1142853099999996 2.8906127800000001 Au
atom 1.7161396400000000 22.8204891299999986 2.6117575600000000 Au
atom 4.4537428200000004 22.9845580699999985 2.5665609500000000 Au
atom 8.7271353999999999 25.4860478499999985 2.5231082599999999 Au
atom 11.7396510900000006 25.5299183700000007 2.4976815299999999 Au
atom 14.6444920100000004 25.4771684299999990 2.8486846899999998 Au
atom 17.1305590499999987 25.3985679799999993 2.6433151800000001 Au
atom 20.1423020699999995 25.4373422500000004 2.9023165400000002 Au
atom 22.9270835700000006 25.4284036200000010 2.6123423099999998 Au
atom 25.7637172999999997 25.5785297800000002 2.6410872300000001 Au
atom 0.4716477400000000 25.4779131700000008 2.6658368200000000 Au
atom 3.1231203500000002 25.4679171099999984 2.5565618899999998 Au
atom 5.8833517799999999 25.4387904599999999 2.9033134600000001 Au
atom 7.3544427199999998 27.8073656999999983 2.1552474099999999 Au
atom 10.1371322700000004 28.0276813199999992 2.5766481600000000 Au
atom 13.0835607799999991 27.8848561100000012 2.2473284900000001 Au
atom 15.8955188799999991 27.9708618400000013 3.0504702400000001 Au
atom 18.7715160800000014 28.0247008899999983 2.3976628400000002 Au
atom 21.7005213899999987 27.9163168699999993 2.4388948500000001 Au
atom 24.4005240299999997 27.8753492399999985 2.6778571499999999 Au
atom 27.2334773299999995 27.8902183299999997 2.8523497199999999 Au
atom 1.8830291600000000 27.7151162599999985 2.5619477399999999 Au
atom 4.5923720699999997 27.9968272499999991 2.9856638100000001 Au
atom 8.9054243599999996 30.4417499000000014 2.5547275900000002 Au
atom 11.6575026299999998 30.4006709099999988 2.4706470199999999 Au
atom 14.5509865800000000 30.3177372500000004 2.4503856700000002 Au
atom 17.1979283999999986 30.5573810600000009 2.4955577899999999 Au
atom 20.1502397799999997 30.3814246700000012 2.3533936400000002 Au
atom 22.9325622699999983 30.4611782399999989 2.6288586100000000 Au
atom 25.7269213000000008 30.4939302000000012 2.3255452999999999 Au
atom 0.4875655400000000 30.4552266699999983 2.5215674600000000 Au
atom 3.3023189799999999 30.4783305800000015 2.2776984300000001 Au
atom 5.8690803999999996 30.4547093900000014 2.4185109800000002 Au
atom 7.3297590000000001 32.9080367800000033 2.8050533199999999 Au
atom 10.0016906100000007 32.9035880100000000 2.5724878300000000 Au
atom 12.7991939699999993 32.8661010000000005 2.4112743499999998 Au
atom 15.7636624300000001 32.7466494900000029 2.4719002799999998 Au
atom 18.7791129699999999 32.6793562800000004 2.3167061599999998 Au
atom 21.5515365000000010 33.0903527099999977 2.4777129400000000 Au
atom 24.4770613799999985 32.9141701799999993 2.3873834999999999 Au
atom 27.2533614200000009 32.9220133800000028 2.9583116199999999 Au
atom 1.9125406700000001 33.2511230499999968 2.4323494200000000 Au
atom 4.6285171600000004 32.7813338099999996 2.4456975600000002 Au
atom 8.8430412700000005 35.3252954000000017 2.5940161300000000 Au
atom 11.7450627900000004 35.3718460699999966 2.6825847999999999 Au
atom 14.5322285699999991 35.3066908799999979 2.8818387699999999 Au
atom 17.3081111900000018 35.2093591599999982 2.4274092100000000 Au
atom 19.8781078300000011 35.2539685599999970 2.7537642700000000 Au
atom 22.9644285199999985 35.4227516199999997 2.6848222200000000 Au
atom 26.0054589199999988 35.2807941399999976 2.9348879600000002 Au
atom 0.3863935500000000 35.5905407500000024 2.8864072599999999 Au
atom 3.2465516399999998 35.4649724100000014 2.4592117099999999 Au
atom 6.0926347800000000 35.4745229600000016 2.5246386099999998 Au
atom 7.5767150100000000 38.0190562000000014 2.6358485900000002 Au
atom 10.3415419800000006 37.9071061000000000 2.7799453999999999 Au
atom 13.0153646599999995 37.6322639300000006 2.7418815200000002 Au
atom 15.9069295299999993 37.6954085500000033 2.8565159400000000 Au
atom 18.6826142600000011 37.8089022099999994 2.8111493900000002 Au
atom 21.7275737100000015 38.1201354800000018 2.5212212900000002 Au
atom 24.5173428400000013 37.9407018699999981 2.5301651100000000 Au
atom 27.1946139699999989 37.9098715000000013 2.7595570199999999 Au
atom 1.9002827700000000 37.7852555400000014 2.5757847100000002 Au
atom 4.8242187200000002 37.7101797300000001 2.7131254700000000 Au
atom 9.1394246100000007 0.7255628500000000 2.8965973800000002 Au
atom 11.8756211599999997 0.8447289100000001 3.0266933100000002 Au
atom 14.6274635600000007 0.7690683100000000 3.1340860799999999 Au
atom 17.2662866999999984 0.8462685900000000 2.8381633200000000 Au
atom 20.3160961399999991 0.9196715800000000 2.6580545600000001 Au
atom 23.1569187599999999 0.7786809500000000 2.7936655300000002 Au
atom 25.7021491200000014 0.8135876800000000 2.6832338700000000 Au
atom 0.5238293600000000 0.8763657300000000 2.6916769600000001 Au
atom 3.1903620199999998 0.7497348000000000 2.7731043099999999 Au
atom 6.0967564699999999 0.7483901300000000 2.9324770000000000 Au
atom 7.6151525199999996 3.3109472300000000 2.6484190100000000 Au
atom 10.3843428299999996 3.2343702400000001 2.9682145800000002 Au
atom 13.0890614400000000 3.3472685700000002 2.9332429800000002 Au
atom 16.0235113399999989 3.1926612400000001 2.7016171999999998 Au
atom 18.7310584300000009 3.4642894300000000 2.6491848199999999 Au
atom 21.5949614700000012 3.3673323399999999 2.6588184500000001 Au
atom 24.4400673799999986 3.2128365699999999 2.8957186899999998 Au
atom 27.2296496499999989 3.2107849100000001 2.8748608800000000 Au
atom 2.0411078300000001 3.4929946699999999 2.6946572099999999 Au
atom 4.6185035000000001 3.1121708899999998 2.7667217000000002 Au
atom 8.9830852599999993 5.6630748899999999 2.6440679199999999 Au
atom 11.8850675799999994 5.7744519499999996 2.9984748400000001 Au
atom 14.6602129100000003 5.6439104799999997 2.8082004500000002 Au
atom 17.4903440900000007 5.8608122900000001 2.5507778900000000 Au
atom 20.3661298100000003 5.4724826999999996 2.6822670600000000 Au
atom 22.9213947100000013 5.6241032000000004 2.8040961400000000 Au
atom 25.7911347100000015 5.8777364499999996 2.9048540799999998 Au
atom 0.3175015300000000 5.6987598000000004 2.5781153899999998 Au
atom 3.2911966200000000 5.6604317599999998 2.9073750199999999 Au
atom 6.1464607000000004 5.5841647099999996 2.8932469699999999 Au
atom 7.4100712800000004 8.3057771700000007 2.9140501400000001 Au
atom 10.2422485499999993 8.3538764699999994 2.7995397000000000 Au
atom 13.1453496800000007 8.2693153699999993 2.7764618900000002 Au
atom 16.1719117399999988 8.1477336099999995 2.7065643200000000 Au
atom 18.6742990400000011 8.3414350499999994 2.6490352399999999 Au
atom 21.6730248400000001 8.3242407800000002 2.6599848399999999 Au
atom 24.5126727700000018 8.3052988699999997 2.9616413300000000 Au
atom 27.3396852700000004 8.0905489199999998 2.4881593799999999 Au
atom 2.1549934199999998 8.3729300900000005 2.7769451599999999 Au
atom 4.8073208300000001 8.2138782399999997 2.5628812200000000 Au
atom 8.9254113099999994 10.9520851399999994 2.4379081199999999 Au
atom 11.6535652299999999 10.6894200700000006 2.4973218300000002 Au
atom 14.6948301600000004 10.7785015800000004 2.4094462100000000 Au
atom 17.3488380199999987 10.8660284600000008 2.4932724400000001 Au
atom 20.0269371599999992 10.9347779799999998 2.5668474699999999 Au
atom 23.0396305000000012 10.7864235500000003 2.5434029499999999 Au
atom 25.8631253100000009 10.6923942000000007 2.4647795800000001 Au
atom 0.3104158300000000 10.6696944600000005 2.6045650000000000 Au
atom 3.0992150800000000 10.5885387400000006 2.4865218499999999 Au
atom 6.1646119500000003 10.8753711200000005 2.5857246599999999 Au
atom 7.5102264400000003 13.2377427399999998 5.5337716400000003 Cl
atom 7.6474178100000003 15.8013446399999999 8.6652090699999995 Cl
atom 7.5024260500000004 13.3204373700000005 8.0750887900000006 Na
atom 7.4029854100000003 16.2253223999999996 5.7507934799999996 Na
atom 7.5620167599999997 19.2171831600000012 5.7362129099999999 Cl
atom 7.3101212200000001 21.7441255600000005 8.5408998500000006 Cl
atom 7.2732115600000000 18.8236542600000014 8.3987928600000004 Na
atom 7.4168002199999998 21.7289032499999983 5.8411646900000003 Na
atom 7.3846219800000004 24.5771384399999988 5.5204428200000004 Cl
atom 7.3982793300000003 27.5396276600000007 8.2998762500000005 Cl
atom 7.5008678199999999 24.5480734500000004 8.4269111399999996 Na
atom 7.4974346000000001 27.4254952400000001 5.6276599599999999 Na
atom 7.7769650700000001 30.4829761400000017 5.4943046100000004 Cl
atom 7.4080988400000001 32.9879952900000006 8.3832499100000000 Cl
atom 7.5586397300000003 30.3509681200000010 8.2266366099999999 Na
atom 7.8393410499999998 33.2526354000000026 5.7020497900000002 Na
atom 7.5514750800000003 35.9470938799999971 5.9224814600000002 Cl
atom 7.4536608500000003 38.7550063699999967 8.6148027200000001 Cl
atom 7.5861850700000000 36.1373714899999996 8.7847426700000000 Na
atom 7.4502909600000002 38.6569411999999986 6.1162713399999999 Na
atom 7.6010238200000000 2.1343535800000000 5.6220809899999997 Cl
atom 7.5081123900000000 4.9768273199999999 8.6808625599999996 Cl
atom 7.4719465500000002 2.1390468100000000 8.3036183700000006 Na
atom 7.3294268599999999 4.7597448900000003 5.7480606900000000 Na
atom 7.7323280399999996 7.3674645500000002 5.6154008299999996 Cl
atom 7.3822649199999999 10.3634714700000004 8.3287956500000000 Cl
atom 7.5488763600000004 7.5505001500000004 8.5994061599999991 Na
atom 7.4317535699999997 10.4377221000000002 5.5453926400000002 Na
atom 10.5110579400000006 13.2083805800000000 5.7302676899999998 Na
atom 13.2499263099999993 13.2872880799999997 5.4932209700000003 Cl
atom 10.3940156399999992 16.1861351400000011 8.2509688499999996 Na
atom 13.1398689999999991 16.1767731499999989 8.2779221199999995 Cl
atom 13.0616703399999992 13.3566629100000007 8.2597132700000007 Na
atom 10.5101187899999999 13.1733063700000006 8.4533251000000007 Cl
atom 13.2483408199999992 16.4101482800000014 5.8748567300000003 Na
atom 10.3106351499999995 15.9436020200000002 5.3240892500000001 Cl
atom 10.3365995900000005 19.0243319600000014 5.7384742500000003 Na
atom 13.0573625300000007 19.1133923400000008 5.4988670300000004 Cl
atom 10.2377590900000008 21.8702507399999995 8.3775332999999996 Na
atom 13.1895483700000007 21.7642283600000006 8.4253245000000003 Cl
atom 13.2142256099999997 19.1463972600000005 8.2225812999999999 Na
atom 10.0794651900000005 19.0693128899999991 8.4455938800000006 Cl
atom 13.2250072200000002 21.7258117700000000 5.5252681700000004 Na
atom 10.1824291500000008 21.7781120299999991 5.8008821499999996 Cl
atom 9.9320501500000002 24.3731320599999997 5.5184958999999996 Na
atom 12.8997033000000005 24.3756399600000009 5.6367456699999998 Cl
atom 10.3951310499999998 27.4097791599999994 8.2258224000000002 Na
atom 13.1006782099999999 27.4740238000000012 8.2850994999999994 Cl
atom 12.9573590799999998 24.7107763100000000 8.2402022299999995 Na
atom 10.1791984699999993 24.5723131200000005 8.4650978899999991 Cl
atom 13.1550649300000000 27.3035503900000016 5.3361930600000003 Na
atom 10.0970059600000006 27.3555764500000009 5.6560647599999996 Cl
atom 10.5046933100000004 30.2394600099999984 5.6774388800000004 Na
atom 12.8783465100000001 30.3354092199999990 5.7057312199999997 Cl
atom 10.3329900099999996 32.9664302199999995 8.4113600900000005 Na
atom 13.1706275300000009 33.1527897799999991 8.3387265700000004 Cl
atom 13.0207225500000003 30.1012268200000008 8.3937426399999993 Na
atom 10.3136943599999995 30.0262995100000012 8.3381971000000004 Cl
atom 13.1148072100000004 33.0428874699999966 5.8112783800000001 Na
atom 10.6176835000000001 33.2356753800000035 5.8480661600000001 Cl
atom 10.2437767399999995 35.7377826299999981 5.8655579299999996 Na
atom 13.1912584000000006 35.8199901699999970 5.9949042199999996 Cl
atom 10.2913083699999994 38.4116335100000015 8.4848469800000004 Na
atom 12.9111436000000008 38.7797223199999976 8.5557648799999999 Cl
atom 13.0518311600000008 35.8283263000000005 8.5515965800000000 Na
atom 10.3673295200000002 35.8295699299999981 8.7964928199999992 Cl
atom 13.2958218499999994 38.4674134500000022 5.9434548600000001 Na
atom 10.2475911800000006 38.5509089399999993 5.9350261199999998 Cl
atom 10.4097598300000005 1.6398569999999999 5.9126460700000001 Na
atom 13.2172813700000003 2.0330486699999999 5.9184387500000000 Cl
atom 10.3314750100000001 4.8705163200000001 8.3374259500000001 Na
atom 13.0324079099999999 4.8010569800000003 8.7058173500000002 Cl
atom 13.1464915199999997 2.0138221100000000 8.6872168500000004 Na
atom 10.3391269099999992 1.9079924399999999 8.6679842899999997 Cl
atom 13.2192418000000007 4.9431508300000004 6.0294997099999996 Na
atom 10.4597791000000004 4.6208319500000004 5.9004639200000000 Cl
atom 10.3218409500000003 7.6218604599999997 5.5739746300000004 Na
atom 13.1134469100000004 7.7443430800000002 5.9039775399999996 Cl
atom 10.4403874299999995 10.4818382000000003 8.1263830699999993 Na
atom 13.3166243699999995 10.4751673800000003 8.1593338400000004 Cl
atom 13.0087852799999997 7.5542566700000000 8.3722550299999998 Na
atom 10.5497797099999993 7.5107263000000000 8.4222334599999993 Cl
atom 13.3085860999999994 10.2612483300000008 5.6243333399999997 Na
atom 10.2413145399999994 10.6810120400000006 5.1364502300000003 Cl
atom 15.9926866600000004 13.1624083100000000 5.5444666500000004 Na
atom 18.9796394600000013 13.2108458100000004 5.4006588600000001 Cl
atom 16.1208797699999984 16.0624995999999989 7.9561403400000001 Na
atom 18.6582984299999985 16.3299199600000016 8.4241674500000006 Cl
atom 18.7545951600000009 13.3329679599999995 8.0983493200000005 Na
atom 16.0607844200000009 13.4174449599999992 8.2911448599999993 Cl
atom 18.6969672500000001 16.3065866399999990 5.4943194399999999 Na
atom 15.9266221199999993 16.2423056400000014 5.4672877499999997 Cl
atom 15.9044050699999993 18.8641368100000015 5.7148066799999997 Na
atom 18.8195274800000014 19.0475775200000008 5.7850799899999998 Cl
atom 15.7001118500000008 21.8850633099999996 8.5266161900000004 Na
atom 18.7869063899999986 21.7157958899999990 8.6297140599999995 Cl
atom 18.7822261799999985 18.9383549000000002 8.2742086599999993 Na
atom 15.8730355000000003 18.9378965000000008 8.4815801099999995 Cl
atom 18.9384296399999990 21.9064212500000011 5.7083456799999999 Na
atom 16.1936950499999988 21.9616516200000014 5.5835888200000001 Cl
atom 15.8138158000000004 24.4258477300000010 5.5333568199999998 Na
atom 18.8591005900000006 24.5996649500000011 5.9310754499999998 Cl
atom 15.8447397100000007 27.4058568300000012 8.0788814400000000 Na
atom 18.8521106100000004 27.2498810999999996 8.3881643500000003 Cl
atom 18.8800637699999996 24.4186899699999991 8.6909753999999992 Na
atom 15.7556196199999992 24.8025405100000000 8.3464621900000004 Cl
atom 18.8823231000000007 27.2254125599999988 5.6588218100000001 Na
atom 16.0275431700000013 27.3139400200000004 5.2669157300000000 Cl
atom 16.1050595799999989 30.1721800500000015 5.7448815599999996 Na
atom 18.6746910300000017 30.3252411299999984 5.4835878500000002 Cl
atom 16.1311475400000006 32.7933310399999982 8.3996664499999998 Na
atom 18.9536620400000011 33.2027607300000014 8.4512856500000009 Cl
atom 18.8095629299999985 30.1153576799999989 8.1862561700000001 Na
atom 16.1174710200000000 30.1601643400000015 8.4219393599999997 Cl
atom 18.7049529899999989 33.0988645400000010 5.6838600100000001 Na
atom 15.9648436000000000 33.2761994900000033 5.7617971900000002 Cl
atom 15.8590349400000008 35.8015249600000018 5.8510087300000002 Na
atom 18.9017562300000002 35.9919475499999990 5.6890121699999998 Cl
atom 15.9859099600000008 38.8225534600000017 8.6990223400000009 Na
atom 18.9502881599999995 38.6571686799999981 8.7461155200000000 Cl
atom 18.6772760700000013 35.9908331000000032 8.2456721099999992 Na
atom 15.9698166100000005 35.5963400099999987 8.7806134300000007 Cl
atom 18.7880609099999987 38.8389336700000030 6.0159202699999996 Na