#===============================================================================
# Created using the Atomic Simulation Environment (ASE)

# Tue Dec 23 21:43:00 2025

#=======================================================
lattice_vector 28.1999999999999993 0.0000000000000000 0.0000000000000000 
lattice_vector 0.0000000000000000 39.4799999999999969 0.0000000000000000 
lattice_vector 0.0000000000000000 0.0000000000000000 62.3296083400000001 
atom 7.4985256299999996 14.9065642799999996 -0.3670360300000000 Au
atom 10.3395711200000004 14.7926368499999992 -0.3245964600000000 Au
atom 13.2518826300000008 14.8426532499999997 -0.2831508100000000 Au
atom 15.9618175099999995 14.8439323299999995 -0.2594881600000000 Au
atom 18.8155804599999996 14.8648161999999999 -0.2188171800000000 Au
atom 21.6516850400000003 14.8870151100000001 -0.1185256900000000 Au
atom 24.4188510399999998 14.7876224100000009 -0.1985006900000000 Au
atom 27.2620256800000007 14.7876325299999998 -0.2873670600000000 Au
atom 1.9554018700000000 14.7776901699999996 -0.1815729500000000 Au
atom 4.7833453199999996 14.9242712500000003 -0.1203097100000000 Au
atom 8.9217863499999996 17.3800258099999994 -0.1443255400000000 Au
atom 11.6722492599999992 17.2409989800000005 -0.2490730500000000 Au
atom 14.6121196900000001 17.2660798600000014 -0.0980517700000000 Au
atom 17.4455872800000016 17.3849088599999995 -0.2109571900000000 Au
atom 20.2241904900000016 17.3203960399999985 -0.0163691300000000 Au
atom 23.0600985999999999 17.2902814800000009 0.0024932400000000 Au
atom 25.8323673000000014 17.2729864900000010 -0.2011301900000000 Au
atom 0.5244124200000000 17.2778965299999996 -0.2613614000000000 Au
atom 3.3171585100000001 17.2940035499999993 0.0774615500000000 Au
atom 6.1344896599999998 17.3794355399999993 -0.1352273700000000 Au
atom 7.4327582899999998 19.8587186899999999 -0.0241433100000000 Au
atom 10.3034898199999994 19.8007525300000005 -0.0820081900000000 Au
atom 13.1260469099999995 19.7194171999999988 0.2075280200000000 Au
atom 15.8888643900000002 19.7539772800000009 0.1061054300000000 Au
atom 18.7828220899999998 19.7575458799999986 0.3867309800000000 Au
atom 21.5988824400000006 19.7711023600000004 0.2328620100000000 Au
atom 24.3931185600000013 19.7089930500000001 0.2221795000000000 Au
atom 27.1337225500000017 19.7603509799999983 0.0003435500000000 Au
atom 1.7957492500000001 19.6958982599999999 0.0047693500000000 Au
atom 4.5818104300000000 19.8444719999999997 0.0327399400000000 Au
atom 8.9242193299999997 22.2316372199999996 0.2409056900000000 Au
atom 11.6989961499999993 22.2076986900000009 0.2889372100000000 Au
atom 14.5212724499999997 22.1713471300000009 0.3686981400000000 Au
atom 17.3072127699999996 22.2049835599999987 0.2915012100000000 Au
atom 20.1699973999999997 22.1950971700000004 0.2548494000000000 Au
atom 22.9767720299999993 22.2402979599999995 0.4997495000000000 Au
atom 25.7819272200000000 22.2154382199999993 0.1457054900000000 Au
atom 0.4834873200000000 22.2327265400000016 0.0922970300000000 Au
atom 3.2221644600000001 22.1936768200000003 -0.0866262100000000 Au
atom 6.0319234699999997 22.2314594700000008 0.1410327300000000 Au
atom 7.5431456800000003 24.7319165100000014 -0.0204411700000000 Au
atom 10.3766972699999993 24.6036717200000012 0.3050948300000000 Au
atom 13.2762484599999997 24.6662719499999987 0.2321855200000000 Au
atom 16.0121297499999997 24.6940077100000011 0.1486896300000000 Au
atom 18.7642739799999987 24.6320132299999983 0.4509459200000000 Au
atom 21.5556238700000016 24.7067674799999999 0.5744681400000000 Au
atom 24.3906603799999999 24.7307566700000017 0.2555891800000000 Au
atom 27.2278039800000009 24.7244517399999992 0.1731345600000000 Au
atom 1.8759720799999999 24.6465859599999995 0.0080185200000000 Au
atom 4.7393471399999996 24.7514287800000012 0.1331107600000000 Au
atom 8.9710798700000005 27.0611694699999994 0.0096733800000000 Au
atom 11.7030734299999999 27.0781369599999984 0.4184052300000000 Au
atom 14.5856829999999995 27.1331701000000010 0.4131687500000000 Au
atom 17.4791930399999984 27.1867064200000002 0.3357965200000000 Au
atom 20.2632638199999988 27.1058095200000011 0.4810662500000000 Au
atom 23.0147861700000007 27.1416450000000005 0.1699927700000000 Au
atom 25.8689290499999984 27.2630868600000014 0.2988873300000000 Au
atom 0.4857870100000000 27.1222506999999986 0.0551306600000000 Au
atom 3.2978201299999998 27.1292872299999992 0.2309085000000000 Au
atom 6.1595348599999999 27.1787789900000014 0.0896660400000000 Au
atom 7.4894784899999998 29.6531988599999998 -0.0979301100000000 Au
atom 10.2956708399999997 29.5683354899999991 0.3934766100000000 Au
atom 13.1156508100000000 29.5040579200000010 0.3711501000000000 Au
atom 15.9346587300000007 29.5418751200000003 0.0908142600000000 Au
atom 18.8034730900000007 29.5848963299999994 0.1895949300000000 Au
atom 21.6800349399999988 29.6146919699999991 0.0453373000000000 Au
atom 24.5477728000000006 29.6137136900000009 0.0358890200000000 Au
atom 27.3470831200000006 29.5981116700000015 0.2048193500000000 Au
atom 1.9218031700000000 29.6294900199999987 -0.0064138900000000 Au
atom 4.6923289900000000 29.6045400100000009 0.0502705100000000 Au
atom 8.9742149900000001 32.0218603799999997 -0.0045564900000000 Au
atom 11.7350797500000006 32.0197707399999985 0.3566738400000000 Au
atom 14.5213903700000007 31.9473126399999998 0.2716731300000000 Au
atom 17.3632111400000007 32.0541628300000028 -0.0640507600000000 Au
atom 20.2045437899999989 32.1496993299999971 -0.0516923000000000 Au
atom 23.1152736400000016 32.0234276899999983 -0.1421968700000000 Au
atom 25.9053994799999998 32.0854220699999999 0.1234174500000000 Au
atom 0.5269734100000000 32.0709362600000034 0.0302823700000000 Au
atom 3.3147875999999998 32.0100098300000013 0.0603460100000000 Au
atom 6.1695690900000004 32.0296475399999991 -0.2052443700000000 Au
atom 7.5005709899999999 34.4800129099999992 -0.0347028200000000 Au
atom 10.2762162299999993 34.4613897999999992 0.1194897700000000 Au
atom 13.1471867400000004 34.4458466800000025 0.1560788800000000 Au
atom 15.9087451400000006 34.4131856999999997 0.2452250700000000 Au
atom 18.8055730099999998 34.5660778600000000 0.0562335200000000 Au
atom 21.6926304999999999 34.4700520700000013 -0.0918436700000000 Au
atom 24.4740716599999999 34.5130393399999988 0.1058177200000000 Au
atom 27.2802124299999988 34.4676845899999975 -0.2269036900000000 Au
atom 1.8985851199999999 34.5365030500000003 -0.0937153100000000 Au
atom 4.6901960499999999 34.5077356899999970 0.0711141100000000 Au
atom 8.9666420999999996 36.9944695300000035 0.0310997800000000 Au
atom 11.6805627300000001 36.9675482199999976 0.1625103300000000 Au
atom 14.4108909599999997 37.0051865499999977 0.0799881300000000 Au
atom 17.2581191899999986 36.8833225300000009 0.1379767200000000 Au
atom 20.2389130199999983 37.0399329399999999 0.2276410000000000 Au
atom 23.0136084300000014 36.9492570199999975 0.0162088800000000 Au
atom 25.8953156600000014 36.9844753799999992 0.1666054900000000 Au
atom 0.4612174700000000 37.0515949199999994 -0.1778845600000000 Au
atom 3.2923563300000001 37.0972270399999999 -0.2400710200000000 Au
atom 6.0790553200000002 37.0590812100000022 -0.0755444900000000 Au
atom 7.5577947400000003 0.0233088100000000 0.1202509100000000 Au
atom 10.4170256600000002 -0.0089225600000000 0.0581740400000000 Au
atom 13.1580574099999996 0.0087172300000000 0.2377329600000000 Au
atom 15.9548672299999996 -0.0979051000000000 0.0673704200000000 Au
atom 18.6749830400000008 -0.0340499200000000 0.0025212100000000 Au
atom 21.5691065199999983 -0.0276344500000000 0.4284617300000000 Au
atom 24.3386150299999997 -0.0227266900000000 0.2110522000000000 Au
atom 27.1885143599999992 0.0625215900000000 0.1426049500000000 Au
atom 1.8483000900000000 0.0634702600000000 -0.0739091500000000 Au
atom 4.7549162599999999 0.0656480200000000 -0.0085489400000000 Au
atom 8.8404807600000002 2.4534676300000000 -0.0140536600000000 Au
atom 11.6795738599999996 2.3491708999999998 -0.0634440500000000 Au
atom 14.5422689100000007 2.3914952199999999 0.0113699600000000 Au
atom 17.3516007099999996 2.4701573799999998 0.0276424300000000 Au
atom 20.1127701399999985 2.4543837700000002 0.1679618000000000 Au
atom 22.9470938199999992 2.4202911700000000 -0.0315178300000000 Au
atom 25.7883854100000001 2.5070469900000001 -0.0457758700000000 Au
atom 0.4259600800000000 2.5528858500000000 -0.0774889700000000 Au
atom 3.2959598799999998 2.4629164900000000 -0.0535058800000000 Au
atom 6.0916472199999996 2.4473711900000001 0.1852090500000000 Au
atom 7.4893182999999999 4.8878110000000001 0.0282767800000000 Au
atom 10.3689724400000003 4.9340617900000003 -0.0052886000000000 Au
atom 13.1536214200000003 4.8059549300000004 0.0824128700000000 Au
atom 15.9606876999999994 4.9774587800000001 0.0574968800000000 Au
atom 18.7862812499999983 4.8299483700000003 0.2064934700000000 Au
atom 21.5293549900000016 4.9082085700000002 0.1240628000000000 Au
atom 24.3291767999999990 4.9129013700000002 0.3930699700000000 Au
atom 27.1371073400000000 5.0294736300000000 0.3440172500000000 Au
atom 1.7316665899999999 4.9612286499999998 0.1896146600000000 Au
atom 4.6007991900000000 4.8916238999999999 0.0828954300000000 Au
atom 8.9483340499999997 7.3466859700000002 -0.1925615500000000 Au
atom 11.7671831600000001 7.2668846900000004 -0.1326899000000000 Au
atom 14.5312998499999999 7.2783148200000003 -0.1321645100000000 Au
atom 17.3214957200000015 7.3496738800000001 -0.1111789500000000 Au
atom 20.0884063799999986 7.3395564699999998 0.0929173400000000 Au
atom 22.9006414700000001 7.3324487500000002 -0.0412046200000000 Au
atom 25.7222206699999987 7.4050327600000001 0.0372954400000000 Au
atom 0.3761396900000000 7.3864634400000000 0.1179757300000000 Au
atom 3.3388880200000002 7.3558615600000001 0.0613948900000000 Au
atom 6.1206481100000003 7.3792793400000001 0.0428653100000000 Au
atom 7.5486044799999998 9.7853200600000001 -0.1537850200000000 Au
atom 10.3180241499999994 9.8851847100000008 -0.1918112500000000 Au
atom 13.1057950400000003 9.8074289500000003 -0.3470499400000000 Au
atom 15.9416189599999996 9.7575143200000003 -0.0555189300000000 Au
atom 18.7839347200000013 9.8994332400000005 -0.1010863800000000 Au
atom 21.6297036100000000 9.8859364099999993 -0.1015827600000000 Au
atom 24.4093389199999997 9.8277382600000003 -0.2360536500000000 Au
atom 27.2344312399999993 9.9016614599999997 -0.1910855700000000 Au
atom 1.9022891600000000 9.8641854999999996 0.0069333800000000 Au
atom 4.7143795500000003 9.9176588300000006 -0.1332662800000000 Au
atom 8.9198398000000001 12.3429306000000008 -0.3154653900000000 Au
atom 11.7957682599999991 12.4150327300000001 -0.0876514800000000 Au
atom 14.6305659499999994 12.2861056899999994 -0.2152924600000000 Au
atom 17.3931492299999988 12.3290873600000008 -0.2734437300000000 Au
atom 20.1508240699999988 12.4003204000000000 -0.0947942000000000 Au
atom 22.9818556600000008 12.3275772799999999 -0.1806174000000000 Au
atom 25.7990608200000011 12.2970157100000002 -0.4339549400000000 Au
atom 0.4536513400000000 12.2899503100000000 -0.2896282200000000 Au
atom 3.3248711000000002 12.3828841500000006 -0.2470654500000000 Au
atom 6.1519376399999999 12.3296518699999993 -0.3794651200000000 Au
atom 7.4671045400000002 13.2554923200000001 2.2180678800000000 Au
atom 10.3073745199999998 13.3040981600000006 2.4969379400000000 Au
atom 13.2575771000000007 13.1674036700000006 2.3796078100000000 Au
atom 16.0198109600000009 13.0762120999999993 2.3643324600000000 Au
atom 18.7913358399999986 13.1698398300000008 2.5563822699999998 Au
atom 21.6788614099999997 13.1577510300000000 2.5253498400000001 Au
atom 24.4620770199999988 13.0639929299999995 2.3782676999999999 Au
atom 27.2960290400000005 13.1726138800000001 2.2435280000000000 Au
atom 1.8846883000000001 13.2461010699999999 2.3109772999999998 Au
atom 4.6852559200000004 13.2447244200000007 2.3735536700000002 Au
atom 8.9313392000000000 15.7051896899999992 2.3696467800000001 Au
atom 11.8305940500000002 15.7314319299999994 2.2812109700000001 Au
atom 14.5408590199999992 15.6644766400000002 2.4418711200000001 Au
atom 17.3575469099999999 15.5854024399999993 2.3464825999999999 Au
atom 20.1093535099999983 15.6081400099999996 2.4894431899999998 Au
atom 23.0228093899999990 15.5846037499999994 2.5106948299999998 Au
atom 25.8266384699999989 15.6352636199999999 2.4220521000000002 Au
atom 0.4279095900000000 15.6630735300000001 2.4375613000000000 Au
atom 3.2862874899999999 15.6861989400000006 2.5960523100000001 Au
atom 6.1459920800000001 15.7092139599999996 2.4495792000000001 Au
atom 7.4469193999999996 18.2410676900000013 2.5670222499999999 Au
atom 10.3582992100000002 18.1329567500000017 2.2723568900000002 Au
atom 13.2130717700000009 18.1180231200000001 2.5759189100000000 Au
atom 16.0172303900000017 18.0459850800000012 2.6158743200000001 Au
atom 18.8045304299999998 18.0385864299999987 2.7577338299999998 Au
atom 21.6890540200000004 18.1326293000000014 2.5307789999999999 Au
atom 24.5624690699999988 18.0418571999999990 2.6943176200000001 Au
atom 27.2754130900000007 18.0466219599999995 2.4568930299999998 Au
atom 1.8689553699999999 18.1106920799999997 2.5341085500000000 Au
atom 4.6554858799999996 18.1936526100000009 2.5392503099999999 Au
atom 8.8484775899999999 20.5603317499999996 2.8349781100000002 Au
atom 11.6367290600000004 20.5222987799999999 2.7733332800000001 Au
atom 14.5621946700000002 20.5539847500000015 2.8821464500000000 Au
atom 17.3622487499999991 20.5539616800000005 2.9517259000000000 Au
atom 20.2841076999999999 20.5109290599999987 2.8691807300000001 Au
atom 23.0885459399999995 20.5548230300000014 2.9847476999999998 Au
atom 25.7707563999999998 20.5530066200000014 2.8039131300000002 Au
atom 0.4508656900000000 20.6116747800000013 2.6084886300000001 Au
atom 3.2587392899999998 20.6592622400000003 2.5856687599999999 Au
atom 6.0777535599999997 20.6533512200000011 2.6064407300000001 Au
atom 7.4625085799999997 23.0099665999999985 2.7158766000000001 Au
atom 10.2730394900000004 23.0802028899999989 3.0090405499999999 Au
atom 13.1718800999999992 23.0389121299999999 2.7935000400000001 Au
atom 16.0032813800000007 23.0446083500000007 2.7386284500000002 Au
atom 18.7729230800000018 22.9334868999999983 3.0100510300000001 Au
atom 21.6104628400000003 23.0550493500000009 3.1482861500000001 Au
atom 24.4790942300000012 23.1270190100000015 2.8246217100000002 Au
atom 27.2250639200000002 23.1030026699999986 2.7803708600000001 Au
atom 1.8768905300000001 23.0904074000000001 2.5968912000000000 Au
atom 4.6380712199999996 23.1155335099999988 2.7244241800000002 Au
atom 8.9576689799999993 25.5192082400000011 2.8287199900000002 Au
atom 11.8171357599999993 25.5411274699999993 2.9599704299999998 Au
atom 14.6315498999999996 25.4902288400000003 2.8382592099999999 Au
atom 17.3041479199999984 25.5221924999999992 2.9372729099999999 Au
atom 20.0589634900000000 25.6047273699999991 3.1092042599999998 Au
atom 23.0033989100000014 25.6037957899999995 2.9308717199999998 Au
atom 25.8552597099999986 25.6760410499999985 2.7723190799999999 Au
atom 0.4581678300000000 25.6313935099999988 2.6559358600000000 Au
atom 3.2984337199999998 25.5123575500000008 2.7656549799999999 Au
atom 6.1015674600000001 25.5999423600000000 2.7365327200000000 Au
atom 7.5638823400000001 28.0928388600000005 2.5775110500000000 Au
atom 10.3266284400000004 27.9418396999999992 2.9930377300000002 Au
atom 13.2384202799999997 28.0093155799999991 2.9906501799999998 Au
atom 16.0250638800000011 28.0103116800000009 2.9654104499999998 Au
atom 18.7604214899999988 28.0570613199999990 3.0627264099999998 Au
atom 21.6870911299999989 28.0329777200000017 2.8898490099999998 Au
atom 24.3959512200000006 28.0993493799999996 2.7215370299999999 Au
atom 27.3226810799999988 28.0654637200000003 2.9378223200000000 Au
atom 1.8896161600000001 27.9814780899999995 2.7236848500000002 Au
atom 4.7584575999999998 28.0992895699999998 2.6641242300000001 Au
atom 8.9156022799999999 30.5516294200000011 2.8584650800000002 Au
atom 11.7185869100000009 30.4506365599999995 2.9480152300000002 Au
atom 14.5526892100000005 30.4254822000000011 2.8461983000000002 Au
atom 17.3374821799999985 30.5026372499999994 2.6082846900000001 Au
atom 20.2526214200000005 30.4361261300000017 2.6001312699999999 Au
atom 23.0647105000000003 30.5742230900000003 2.6079336099999999 Au
atom 25.9272110699999985 30.5264598300000003 2.8666826200000002 Au
atom 0.5278506400000000 30.5514179100000014 2.7075049800000000 Au
atom 3.2416593900000001 30.4951485899999994 2.6835296099999999 Au
atom 6.1339752399999998 30.5720912399999989 2.5865290100000000 Au
atom 7.6429464600000001 33.0707746699999987 2.4652898799999998 Au
atom 10.3903472200000007 32.9724997699999989 2.9154193099999999 Au
atom 13.1578424500000004 32.8905387699999991 2.6706646900000002 Au
atom 15.9437189600000000 32.9701911800000005 2.9388979900000001 Au
atom 18.7900774099999985 32.8457647399999999 2.5641037099999999 Au
atom 21.6330221499999986 32.8977759599999970 2.6454552800000002 Au
atom 24.4723693900000008 32.8802166199999988 2.5953519200000001 Au
atom 27.3266110799999993 32.9778181300000028 2.7215320900000002 Au
atom 1.9789051099999999 33.0473520800000031 2.6361790900000002 Au
atom 4.7685937699999998 32.9392469300000030 2.4482230399999998 Au
atom 8.9656258399999995 35.4729002600000030 2.7442098300000000 Au
atom 11.7141783299999993 35.3937681999999967 2.6382805100000000 Au
atom 14.5058462099999996 35.4232154700000024 2.8661451300000000 Au
atom 17.3996639199999983 35.3207693800000015 2.7626300700000002 Au
atom 20.2778175800000007 35.2813377800000012 2.6312302700000001 Au
atom 23.0782057999999992 35.3132443599999988 2.6162650400000000 Au
atom 25.9328356900000010 35.3347655600000010 2.7155960000000001 Au
atom 0.5456320099999999 35.4324388499999969 2.3688122100000002 Au
atom 3.3696720899999999 35.5292061199999978 2.5751609599999998 Au
atom 6.1918774200000000 35.4694761599999993 2.5565685800000000 Au
atom 7.5218699999999998 37.9408691499999975 2.6769545300000002 Au
atom 10.2702094699999993 37.9754762900000031 2.6057181599999999 Au
atom 13.0551733100000007 37.8854531499999965 2.7867209900000001 Au
atom 15.9451564999999995 37.7758233300000015 2.6879510400000002 Au
atom 18.8124681100000011 37.7854493999999974 2.6406308599999999 Au
atom 21.7114968399999988 37.7859328400000010 2.8492740400000001 Au
atom 24.5225132200000004 37.8761767399999982 2.5913370699999998 Au
atom 27.3235416899999990 37.8485976899999983 2.7797298600000002 Au
atom 1.9337150200000000 37.8702146299999995 2.4102615200000002 Au
atom 4.6927900600000001 37.9693335400000009 2.6641354599999998 Au
atom 8.9383873999999999 0.9809720900000000 2.7950764399999999 Au
atom 11.7495886499999997 0.9477845700000000 2.7935188700000002 Au
atom 14.5550425899999993 0.8385049500000000 2.7511089800000001 Au
atom 17.3537050999999991 0.8211678100000001 2.7295094799999999 Au
atom 20.1179415400000003 0.8164238700000001 2.8287019799999999 Au
atom 23.0694985800000012 0.8601948100000000 3.0858538499999999 Au
atom 25.9261812099999993 0.8151363900000000 2.7471218799999999 Au
atom 0.5729538700000000 0.8859923200000001 2.7210277299999999 Au
atom 3.2443902699999998 0.9202404800000000 2.6045206799999998 Au
atom 6.0479024199999998 0.9428662000000000 2.7580509300000000 Au
atom 7.5503024900000000 3.4197661699999999 2.5634705499999999 Au
atom 10.4049149900000000 3.4006641499999999 2.5149557699999998 Au
atom 13.2090266199999995 3.3321830000000001 2.6809717599999998 Au
atom 15.9948562299999999 3.2288991299999998 2.6079045999999999 Au
atom 18.7925232199999996 3.2720195099999998 2.8936238099999998 Au
atom 21.6815871599999994 3.2146566399999998 2.5331425699999999 Au
atom 24.4197802499999987 3.2839456999999999 2.7461678400000000 Au
atom 27.2183224300000006 3.3358530700000002 2.6800080099999999 Au
atom 1.7993522500000001 3.4017113399999999 2.7131573200000001 Au
atom 4.6622439499999997 3.4196570400000001 2.5480568400000001 Au
atom 8.9019272899999997 5.8658992400000001 2.5448282799999999 Au
atom 11.6619585800000003 5.8034407200000002 2.6641389100000001 Au
atom 14.5032006300000003 5.8095094999999999 2.6616230200000000 Au
atom 17.3257861200000001 5.7324874399999999 2.7377217400000000 Au
atom 20.1329201100000006 5.7068945700000002 2.8005595699999999 Au
atom 22.9990139199999994 5.7944557300000001 2.8212718200000002 Au
atom 25.7361401100000009 5.8625161700000001 2.8751493600000000 Au
atom 0.3868084000000000 5.7845186999999996 2.9326339799999999 Au
atom 3.1963037900000000 5.8989669200000003 2.7041562799999999 Au
atom 6.0722093800000003 5.9424196299999998 2.7221659599999999 Au
atom 7.5518172500000000 8.3630095600000001 2.4736745199999999 Au
atom 10.3259527900000005 8.3203455200000001 2.4304561499999999 Au
atom 13.0903904200000003 8.2725658800000001 2.3549202100000000 Au
atom 16.0347168599999996 8.2861705499999996 2.4680015900000001 Au
atom 18.7383837100000008 8.2419874100000001 2.5948914400000000 Au
atom 21.4904277700000002 8.2581111400000005 2.6002569599999998 Au
atom 24.2838864000000001 8.2723837899999992 2.5237240999999999 Au
atom 27.1556870600000018 8.2933974900000003 2.4966829499999998 Au
atom 1.7911835199999999 8.2765181600000002 2.6163092699999999 Au
atom 4.6063440900000003 8.3654816099999998 2.5650829200000000 Au
atom 9.0041409399999992 10.8470229800000002 2.3897263500000001 Au
atom 11.7525421800000007 10.8262864299999997 2.3431804000000001 Au
atom 14.5855890200000005 10.6724954099999998 2.5219800900000000 Au
atom 17.4468853099999990 10.7006093999999994 2.3764535499999999 Au
atom 20.1585394099999995 10.7336656599999998 2.4467246399999998 Au
atom 23.0475269400000009 10.7200128899999996 2.4586269000000001 Au
atom 25.9106611700000009 10.6784965199999995 2.3027913600000001 Au
atom 0.4674203000000000 10.7485557699999994 2.6325899499999998 Au
atom 3.2853798699999999 10.7884464999999992 2.4088813199999999 Au
atom 6.1602130099999997 10.7899568299999995 2.3170949799999998 Au
atom 7.3904191800000003 13.0926328400000003 5.5572561199999999 Cl
atom 7.4180299999999999 15.8636014400000001 8.4512915599999996 Cl
atom 7.4805663800000000 13.0571086199999993 8.1438697599999994 Na
atom 7.4875870999999998 16.0986741400000000 5.7975406200000004 Na
atom 7.3728252200000002 18.8316751700000005 5.7543801300000004 Cl
atom 7.3923953600000001 21.5888601099999988 8.7485721099999996 Cl
atom 7.5815899699999996 18.8388141100000013 8.4980473799999992 Na
atom 7.4619307600000004 21.5812207799999989 5.8159670600000002 Na
atom 7.5094574999999999 24.4585338999999991 5.8689943099999997 Cl
atom 7.3281429600000001 27.4232686799999996 8.7691485500000006 Cl
atom 7.4885198900000001 24.4909229400000008 8.5029207499999995 Na
atom 7.4328930099999999 27.4734899100000014 5.9658406900000003 Na
atom 7.3699356900000002 30.2563201799999995 5.8272254800000001 Cl
atom 7.3530391100000001 33.2126761000000030 8.7075763300000002 Cl
atom 7.3872831300000001 30.2424508400000001 8.5815148200000007 Na
atom 7.3755983100000000 33.0607314200000033 5.8732269099999996 Na
atom 7.4650177099999997 35.8430767199999991 5.7355897300000001 Cl
atom 7.3411328700000000 38.6158617199999981 8.6653119400000005 Cl
atom 7.2935081400000001 35.9423947499999983 8.4189794700000000 Na
atom 7.3637860399999999 38.7092064300000018 5.8886460700000001 Na
atom 7.4757283899999996 2.0569444899999998 5.8672152600000000 Cl
atom 7.4084703300000001 4.9392202300000001 8.4933829500000009 Cl
atom 7.3344642300000000 2.0895179300000000 8.5046515100000004 Na
atom 7.3778405600000001 4.8720176899999998 5.8312111599999996 Na
atom 7.2285375199999997 7.5485782400000003 5.5189883699999998 Cl
atom 7.3284664399999997 10.3606330199999999 8.3330404599999994 Cl
atom 7.5702556100000002 7.6121130600000004 8.1952938100000008 Na
atom 7.3672784599999996 10.2159881499999994 5.6033292200000000 Na
atom 10.3310181700000001 13.2219520500000005 5.7223048199999997 Na
atom 13.0644652299999997 13.2162461199999992 5.5860020500000003 Cl
atom 10.3009991000000003 15.9389941700000008 8.3601130200000000 Na
atom 13.1044257999999996 15.9821969100000008 8.3703725700000007 Cl
atom 13.0685162699999999 13.2463169500000006 8.2222338799999992 Na
atom 10.2317503399999996 13.2328482399999992 8.3872931000000008 Cl
atom 13.0933948400000002 16.2460759999999986 5.5483850199999996 Na
atom 10.4179136600000000 15.9911032399999993 5.6765352299999998 Cl
atom 10.3000427899999991 18.9036183800000011 5.8503897800000004 Na
atom 13.0424050499999993 19.0193212699999989 5.7490680200000002 Cl
atom 10.3302027899999995 21.5713708599999983 8.5353781400000006 Na
atom 12.9266907500000006 21.6905418800000014 8.8745929300000004 Cl
atom 13.1280994500000006 18.6854075699999989 8.4773189999999996 Na
atom 10.2278710499999992 18.6893829400000016 8.6231732799999996 Cl
atom 12.8641988699999992 21.7678477900000011 5.9543150100000002 Na
atom 10.2545006799999996 21.8082129299999998 5.8819295900000004 Cl
atom 10.2413582999999999 24.5462756800000008 5.9794826499999996 Na
atom 13.0010705000000009 24.5625715599999985 5.9111010200000003 Cl
atom 10.2818295800000001 27.5241548199999997 8.7311688299999997 Na
atom 13.1047987999999993 27.3598098299999997 8.9921738300000005 Cl
atom 12.9545007400000003 24.5807937500000016 8.5654603599999994 Na
atom 10.0938648700000009 24.4974936399999983 8.5479517099999995 Cl
atom 13.1139749000000005 27.4214693999999994 6.1221649500000002 Na
atom 10.2701387400000002 27.5075564999999997 6.0789960699999996 Cl
atom 10.3060222499999998 30.1602277600000015 5.9839283600000002 Na
atom 13.0324987599999993 30.1756887300000010 6.0542992599999996 Cl
atom 10.2666428700000001 32.9940810900000017 8.4721179699999993 Na
atom 13.1582234800000002 33.0827326900000003 8.8277101299999998 Cl
atom 13.2100960500000006 30.2237945299999993 8.7091429300000005 Na
atom 10.1650459400000006 30.2388431699999991 8.7790258899999998 Cl
atom 13.0789917700000000 33.1103792700000028 6.0760987100000001 Na
atom 10.2505202299999993 32.9092648399999987 5.8154494100000003 Cl
atom 10.1534217099999999 35.8682052200000001 5.9253566400000004 Na
atom 12.9739289299999996 35.9891842400000002 5.8901801100000002 Cl
atom 10.0991912399999997 38.6272891899999991 8.3504509900000006 Na
atom 12.9877463899999999 38.6581131000000013 8.6571490600000001 Cl
atom 12.9265954599999997 35.9004339900000033 8.4439030299999995 Na
atom 10.1525754100000007 35.7679142200000015 8.6992791799999996 Cl
atom 12.9073591699999994 38.6948203500000005 5.9070286999999997 Na
atom 10.0874599699999994 38.6106606199999973 5.6993164600000004 Cl
atom 10.1807244000000008 2.0622635200000001 5.7355174399999997 Na
atom 13.2113918300000002 1.9092919300000000 5.6722844400000003 Cl
atom 10.2338393500000002 4.7019001999999999 8.3089449399999999 Na
atom 12.8997049300000004 4.8315828700000001 8.5573098400000003 Cl
atom 13.0944379000000009 1.9936202800000000 8.3094917400000003 Na
atom 10.1735178200000007 1.9589200800000000 8.4074272800000003 Cl
atom 13.1554915700000006 4.8463477599999996 5.7743838099999998 Na
atom 10.0375418500000002 4.9934353099999997 5.6177485500000000 Cl
atom 10.3586370599999995 7.6110491099999997 5.7859949899999998 Na
atom 13.0775744899999999 7.4540441399999997 5.6670971799999998 Cl
atom 10.2670123400000008 10.4385039400000004 8.0802653000000007 Na
atom 13.1862404099999999 10.4209208100000001 8.3231334500000003 Cl
atom 12.9418841199999992 7.6996988699999998 8.4186519700000009 Na
atom 10.1465500899999999 7.6941796599999996 8.4641900099999994 Cl
atom 13.0192578399999999 10.4562287299999994 5.5485152500000003 Na
atom 10.3152182799999999 10.3127503699999998 5.4314268600000002 Cl
atom 15.9760059099999996 13.1593724400000003 5.5895821300000001 Na
atom 18.5655329400000007 13.4021504599999997 5.5376477800000004 Cl
atom 15.8454325300000001 15.8807438199999993 8.2411532600000008 Na
atom 18.5690569699999983 16.0401525400000011 8.5646759699999997 Cl
atom 18.5559147600000003 13.3003059399999994 8.1898206099999999 Na
atom 15.8557997099999994 13.0869544100000006 8.4658911799999998 Cl
atom 18.7457659300000010 16.1706754000000004 5.6238558200000002 Na
atom 15.7901427900000009 16.0241716499999995 5.6878868400000000 Cl
atom 15.8375851500000007 18.8746195000000014 5.6969966200000002 Na
atom 18.7552343800000010 18.8355616300000008 5.6833872400000001 Cl
atom 15.9403660899999995 21.4770444400000002 8.5482985500000002 Na
atom 18.6804531400000009 21.4732476800000001 8.8381080999999995 Cl
atom 18.6627057900000004 18.7483395699999988 8.2798290500000000 Na
atom 15.8942280700000005 18.7393004699999999 8.4735548499999993 Cl
atom 18.5916781899999997 21.7718124400000015 5.9893185200000003 Na
atom 15.7897406500000006 21.8473767700000003 5.9817392800000002 Cl
atom 15.8512617400000000 24.5853244800000006 6.0952489400000003 Na
atom 18.6581453400000008 24.5355743199999985 5.9699680700000002 Cl
atom 16.0444874900000016 27.2246963400000013 8.6577683200000006 Na
atom 18.7573306299999985 27.4225349099999995 8.7613848500000007 Cl
atom 18.6533608499999985 24.4279695699999984 8.6786164299999999 Na
atom 15.9307488599999996 24.4889899299999989 8.8248187900000001 Cl
atom 18.6607273000000013 27.2036519800000001 6.0484336200000000 Na
atom 15.8627573099999992 27.3306671500000000 6.0884612200000001 Cl
atom 15.7287170300000003 30.1625367299999994 5.8316174900000002 Na
atom 18.5150209799999992 30.2107716099999983 5.8635292100000003 Cl
atom 15.8855664200000000 33.1229637599999975 8.5363387999999993 Na
atom 18.7133353400000004 32.9401136399999999 8.5798275099999994 Cl
atom 18.7091288800000015 30.1829390500000017 8.4744136399999999 Na
atom 15.9723808500000004 30.3063069799999987 8.7556942299999996 Cl
atom 18.6103020100000016 32.8431481000000005 5.9186960700000002 Na
atom 15.8084340399999999 33.1650320299999990 5.8797951399999997 Cl
atom 15.8987888700000006 35.8993272499999989 6.0050933500000001 Na
atom 18.6706273200000012 35.8038998099999972 5.8970284900000003 Cl
atom 15.7500028600000004 38.6078707799999989 8.3775042699999993 Na
atom 18.6281392100000005 38.6540494999999993 8.5463963300000003 Cl
atom 18.7503932800000008 35.8969670899999969 8.5760607899999997 Na
atom 15.7468062700000004 35.7973374600000014 8.6871240899999993 Cl
atom 18.7098167400000008 38.5850243200000023 5.9478658199999996 Na