#===============================================================================
# Created using the Atomic Simulation Environment (ASE)

# Tue Dec 23 22:26:20 2025

#=======================================================
lattice_vector 28.1999999999999993 0.0000000000000000 0.0000000000000000 
lattice_vector 0.0000000000000000 39.4799999999999969 0.0000000000000000 
lattice_vector 0.0000000000000000 0.0000000000000000 62.3296083400000001 
atom 7.4460803300000000 14.7394239400000000 -0.1672502900000000 Au
atom 10.2549359800000008 14.8430361899999994 -0.4457109500000000 Au
atom 13.0861770800000006 14.8517202800000003 -0.3613137700000000 Au
atom 15.9043175699999999 14.8435442099999992 -0.3932066300000000 Au
atom 18.7469837800000008 14.8582571899999998 -0.1849293700000000 Au
atom 21.5247034699999986 14.8311920500000003 -0.1460808500000000 Au
atom 24.2820494400000015 14.7916320799999994 -0.2262183500000000 Au
atom 27.1443139299999991 14.9004934000000002 -0.2911238900000000 Au
atom 1.8481332200000000 14.9207525200000006 -0.3842813000000000 Au
atom 4.6754424500000002 14.8410757600000007 -0.2730975400000000 Au
atom 9.0814748299999994 17.2557423400000012 -0.1948711400000000 Au
atom 11.5281044399999999 17.2559010300000004 -0.3047111700000000 Au
atom 14.4580281700000004 17.3827639900000008 -0.4534456000000000 Au
atom 17.3306187999999999 17.3364511000000014 -0.1604883800000000 Au
atom 20.1855528600000014 17.3218186799999998 -0.1958216100000000 Au
atom 22.9133323199999985 17.2638133300000014 -0.0873324400000000 Au
atom 25.7528158400000002 17.3124416200000013 -0.1379011000000000 Au
atom 0.3956083700000000 17.4161785800000004 -0.1242961500000000 Au
atom 3.1465995300000000 17.4168946899999995 -0.2008922600000000 Au
atom 5.6634557900000004 17.3649819100000009 -0.0925446400000000 Au
atom 7.5065334699999999 19.7860522000000003 0.2438864600000000 Au
atom 10.2375165700000004 19.8113275699999996 -0.1172771600000000 Au
atom 13.0549087700000008 19.8343668499999985 -0.3939508500000000 Au
atom 15.9177800299999994 19.7764524900000005 -0.1605411000000000 Au
atom 18.7935638300000001 19.8668608000000013 -0.1261171600000000 Au
atom 21.5802762399999999 19.8027004899999994 -0.0142560200000000 Au
atom 24.3760801399999991 19.8047025699999999 -0.0703716700000000 Au
atom 27.1551452200000014 19.8498352199999992 -0.1560676600000000 Au
atom 1.7459946200000001 19.8854905799999990 0.1684853900000000 Au
atom 4.6446780499999996 19.7579154899999985 0.1405794600000000 Au
atom 8.9486503800000001 22.2388547999999986 0.2045221800000000 Au
atom 11.6799993999999998 22.2545272300000008 -0.2129215000000000 Au
atom 14.5501394400000006 22.4208243399999994 -0.1241909600000000 Au
atom 17.3830245000000012 22.3088113600000000 -0.1688554000000000 Au
atom 20.1869422599999986 22.2535875800000014 -0.0231783200000000 Au
atom 22.9746209499999985 22.2508106000000012 -0.1124685900000000 Au
atom 25.7573545300000006 22.3085856400000004 0.1464330600000000 Au
atom 0.3543776800000000 22.3081429699999987 0.1885133800000000 Au
atom 3.1952178700000000 22.2016525499999986 -0.0793133800000000 Au
atom 6.0692495099999997 22.2407757599999982 0.2539395800000000 Au
atom 7.4157748300000002 24.6109199700000012 0.2361134500000000 Au
atom 10.2417829499999993 24.6986154499999984 0.0164682700000000 Au
atom 13.0890004199999996 24.6972788399999992 -0.2568369600000000 Au
atom 15.8395657100000005 24.5908466499999996 -0.1012187100000000 Au
atom 18.7713517600000017 24.8051264200000006 -0.3252884000000000 Au
atom 21.5902926400000013 24.7716526299999984 -0.1170457900000000 Au
atom 24.3831271399999991 24.7324573900000004 0.1222222300000000 Au
atom 27.1377787999999995 24.7500217000000013 0.1626366100000000 Au
atom 1.7651922200000001 24.6747628799999994 0.3138830500000000 Au
atom 4.5399446799999996 24.6569061800000000 0.1423610600000000 Au
atom 8.8830940900000002 27.1639839899999984 0.0369002100000000 Au
atom 11.6328995499999994 27.1811023899999995 -0.0452836800000000 Au
atom 14.5118907799999999 27.1270894799999986 -0.1187015200000000 Au
atom 17.3111482400000014 27.1644823799999990 -0.1766220400000000 Au
atom 20.1916654599999994 27.2567411700000015 -0.2044478500000000 Au
atom 22.9802918600000012 27.2253187600000004 0.0897534300000000 Au
atom 25.7589845799999999 27.1915926600000013 0.2459212300000000 Au
atom 0.3960530500000000 27.1209572500000000 0.1176397300000000 Au
atom 3.2806111900000001 27.1386758199999996 0.1026040100000000 Au
atom 6.0824349399999997 27.0604991000000012 0.0386735000000000 Au
atom 7.5091672599999999 29.5879590899999982 0.1767692700000000 Au
atom 10.3167471299999995 29.6836598800000004 -0.0049670000000000 Au
atom 13.0673884200000003 29.6806524100000004 0.1659438500000000 Au
atom 15.8434184499999997 29.6409640199999984 -0.0967438300000000 Au
atom 18.6547677900000011 29.6305418299999985 0.1264611900000000 Au
atom 21.5472430400000015 29.7025654299999999 0.1623927100000000 Au
atom 24.2785797099999989 29.6964029200000006 0.2785926600000000 Au
atom 27.2444415400000004 29.5748700599999985 0.1045480500000000 Au
atom 1.8580521500000000 29.5955343900000010 0.0558496300000000 Au
atom 4.6979969300000004 29.5355702700000009 0.1212138900000000 Au
atom 8.9741767699999997 32.0788897799999972 0.0728918000000000 Au
atom 11.7773731200000000 32.1599155400000001 0.0631833800000000 Au
atom 14.5806404599999997 32.1112307400000034 -0.0033267000000000 Au
atom 17.3510534599999993 32.0549973999999978 -0.0219882800000000 Au
atom 20.1432969300000018 32.1172832900000031 -0.0205968500000000 Au
atom 23.0128541599999998 32.1858244000000013 0.0632861300000000 Au
atom 25.9410294700000001 31.9766514099999988 -0.0099937900000000 Au
atom 0.5124420800000000 32.0606941799999987 -0.1104825000000000 Au
atom 3.3285210900000002 32.0036261600000032 0.0483594800000000 Au
atom 6.1559075600000002 32.0147129599999971 -0.0057725500000000 Au
atom 7.3439799499999996 34.6011998700000021 0.0941731300000000 Au
atom 10.3126245700000005 34.5188481499999966 0.1147995800000000 Au
atom 13.1951551499999997 34.5610997900000001 0.0687250500000000 Au
atom 16.0290790899999998 34.5116215500000010 -0.0953657200000000 Au
atom 18.7568588200000015 34.5426935899999989 0.0093023300000000 Au
atom 21.5879464500000005 34.5904724099999967 -0.1846239000000000 Au
atom 24.4186109999999985 34.5927100299999992 -0.0693300600000000 Au
atom 27.2791889999999988 34.5857686800000010 -0.0997379300000000 Au
atom 1.9394065500000000 34.4939162699999997 -0.1189252500000000 Au
atom 4.8688007400000002 34.4947399599999969 0.0293444100000000 Au
atom 8.9258909699999993 36.9580983900000035 -0.0986168700000000 Au
atom 11.7146311000000001 36.9716378999999975 0.0846850900000000 Au
atom 14.5352639000000003 37.0999320299999980 -0.1300767700000000 Au
atom 17.3104924599999990 36.9950726000000003 0.1007338400000000 Au
atom 20.1919551800000008 37.0906312199999988 -0.0357187500000000 Au
atom 23.0066741800000010 37.0290930199999977 -0.0558513100000000 Au
atom 25.8720415700000004 37.0768862299999995 -0.0320826500000000 Au
atom 0.5741015000000000 37.0492387500000007 0.0311722600000000 Au
atom 3.3906242999999998 36.9730218099999988 0.0359263400000000 Au
atom 6.0014586999999997 37.0131245399999997 -0.0876352200000000 Au
atom 7.5399351799999996 -0.0340586400000000 -0.0773802800000000 Au
atom 10.3040671899999996 -0.0350986400000000 -0.0247672100000000 Au
atom 13.1041001399999999 0.0732569100000000 -0.1219729300000000 Au
atom 15.8971036699999999 0.0725623400000000 0.0605234700000000 Au
atom 18.6687172799999992 -0.0050393200000000 0.0557100700000000 Au
atom 21.6053099300000007 0.0974215300000000 0.1237970200000000 Au
atom 24.4149037000000000 0.0219297800000000 0.0170600800000000 Au
atom 27.2919059900000001 -0.0153518700000000 0.1975949700000000 Au
atom 1.9076396200000001 0.0822624000000000 0.1605606700000000 Au
atom 4.7043861400000004 -0.0745969900000000 0.2228259000000000 Au
atom 8.9135019900000003 2.4124317500000001 -0.1170449100000000 Au
atom 11.7517617399999992 2.5808003899999998 -0.0666674400000000 Au
atom 14.5567451600000002 2.5337471200000001 0.1951526100000000 Au
atom 17.3659541399999995 2.5236493300000000 0.0226783700000000 Au
atom 20.2318052600000016 2.4731633000000000 0.1823802300000000 Au
atom 23.0430329200000017 2.4778197500000001 -0.0173838200000000 Au
atom 25.7881297300000014 2.4106624700000001 0.1455160600000000 Au
atom 0.4431185200000000 2.4856381800000000 0.1434985600000000 Au
atom 3.2956187300000002 2.4388303599999999 0.0874994800000000 Au
atom 6.0628504400000001 2.3946628400000001 0.0502269900000000 Au
atom 7.4946240700000004 4.9502875099999999 0.0061405600000000 Au
atom 10.3615055100000006 4.9480915500000000 -0.0982206400000000 Au
atom 13.1834792200000006 4.9858708099999998 0.0825481900000000 Au
atom 15.9694874299999992 5.0395557899999996 0.1641010800000000 Au
atom 18.8077153300000006 5.0532545300000002 0.1573190700000000 Au
atom 21.5801916799999987 4.8997711400000004 0.1387891300000000 Au
atom 24.3858155200000013 4.8623961800000002 0.4183305200000000 Au
atom 27.2467372999999995 4.8881382699999998 0.2429795700000000 Au
atom 1.8196228000000001 4.8764119399999997 0.2566090400000000 Au
atom 4.6680173099999998 4.8764840400000002 0.2629817300000000 Au
atom 8.9283411800000003 7.3813693200000001 0.0455209700000000 Au
atom 11.7021784899999997 7.3838453299999998 0.1991414900000000 Au
atom 14.4914568599999996 7.4496773100000002 0.2174951900000000 Au
atom 17.3531725899999998 7.4160371999999999 0.0497181500000000 Au
atom 20.2014221999999997 7.4091792999999999 0.0909219300000000 Au
atom 23.0293906399999990 7.3382795700000001 0.2190107700000000 Au
atom 25.8273222699999998 7.3749058500000002 0.2199323500000000 Au
atom 0.4254886600000000 7.4352476300000001 0.1524045600000000 Au
atom 3.2727848000000002 7.2873898800000001 0.1784338300000000 Au
atom 6.0896260699999996 7.3930315200000001 0.0372321800000000 Au
atom 7.5245923899999996 9.8811914800000000 -0.0398066800000000 Au
atom 10.2760160299999992 9.9204235500000006 0.0185553500000000 Au
atom 13.0547561299999995 9.8961909600000002 -0.2346957700000000 Au
atom 15.9397796199999995 9.8159445699999992 -0.2815410000000000 Au
atom 18.7756063299999987 9.8319593100000002 -0.2096291800000000 Au
atom 21.5897048200000015 9.8506571399999991 0.0326343200000000 Au
atom 24.4131861100000016 9.7912617100000006 -0.0341670100000000 Au
atom 27.2183430699999995 9.9229272500000008 0.0666615200000000 Au
atom 1.7936969000000000 9.8686214999999997 -0.0886647000000000 Au
atom 4.6442774000000000 9.7917635500000006 0.1671161700000000 Au
atom 8.9172774399999994 12.3992505800000004 0.0182487500000000 Au
atom 11.7787398499999991 12.4389277099999997 -0.1701874500000000 Au
atom 14.6554935400000002 12.3059267999999999 -0.2818647200000000 Au
atom 17.4107633100000001 12.3839484899999999 -0.3285200600000000 Au
atom 20.1845003299999988 12.3476298900000003 -0.3499642500000000 Au
atom 23.0042591099999996 12.2372814400000003 -0.2578690900000000 Au
atom 25.7915371700000016 12.3948973799999997 -0.1135527200000000 Au
atom 0.4210214400000000 12.4013981399999995 -0.1135022100000000 Au
atom 3.2276367900000000 12.3082082800000006 -0.1893405200000000 Au
atom 6.0924377999999999 12.2926173700000003 -0.0294591700000000 Au
atom 7.4909290000000004 13.2076961500000003 2.5343471599999998 Au
atom 10.3266566100000006 13.2138121000000002 2.5482443699999999 Au
atom 13.1263755300000007 13.1893564800000007 2.3061889000000000 Au
atom 15.9575361299999994 13.3021546199999996 2.2780629299999999 Au
atom 18.7547039600000005 13.1451253500000007 2.2730666300000002 Au
atom 21.6173082200000017 13.1317255100000008 2.3130595000000000 Au
atom 24.4074501700000006 13.2321686300000003 2.4966706300000001 Au
atom 27.2376617400000001 13.1726173600000003 2.2890001500000001 Au
atom 1.7871371400000000 13.2307586500000003 2.3921103800000001 Au
atom 4.6255907799999996 13.1639195499999992 2.3715846799999998 Au
atom 8.8883986900000007 15.6238245899999999 2.3403846499999998 Au
atom 11.7124572800000006 15.6184299299999996 2.2635016399999999 Au
atom 14.5013198100000000 15.7547813899999998 2.1632847200000000 Au
atom 17.3183521800000015 15.6591984600000007 2.4579941500000002 Au
atom 20.1684757499999989 15.6826624700000004 2.4324764100000000 Au
atom 23.0100307199999996 15.6310541399999998 2.3700530999999998 Au
atom 25.7726355500000004 15.6522796700000004 2.4179393899999999 Au
atom 0.4169260200000000 15.6564679099999999 2.3315457400000001 Au
atom 3.2084323499999998 15.6779414100000007 2.2637022899999999 Au
atom 6.0490344900000004 15.6322310800000004 2.4885527199999999 Au
atom 7.4766575800000004 17.9569718499999986 2.6509698199999998 Au
atom 10.2306475199999998 18.1177834199999985 2.3667382799999999 Au
atom 13.0671318599999999 18.1750320099999989 2.1635973900000001 Au
atom 15.9039960300000001 18.1605868900000011 2.3591883600000001 Au
atom 18.7541118800000000 18.1387652400000015 2.3654121799999999 Au
atom 21.5853895099999988 18.1864221400000012 2.5213117899999999 Au
atom 24.3898238099999993 18.1472678599999995 2.5207451700000001 Au
atom 27.1716971100000002 18.0969776499999995 2.4673684100000002 Au
atom 1.8103861299999999 18.1384023100000000 2.5464923900000001 Au
atom 4.6127090800000001 18.0693705400000013 2.6020920699999999 Au
atom 8.9067252799999999 20.5732552700000006 2.8705316299999999 Au
atom 11.6645680400000007 20.6234188100000004 2.3804462499999999 Au
atom 14.4511649400000000 20.5983546699999991 2.4377160099999999 Au
atom 17.3182591899999991 20.6460504900000004 2.5419034500000000 Au
atom 20.1268093899999982 20.5929984300000015 2.6117374999999998 Au
atom 22.9282351099999993 20.6651612600000014 2.4719948500000002 Au
atom 25.7613661100000009 20.5955814000000004 2.6228227899999998 Au
atom 0.3750844900000000 20.6191827200000013 2.8205236500000002 Au
atom 3.2849630799999998 20.6335329399999985 2.6186465600000002 Au
atom 6.1253355500000000 20.4720982199999995 2.8380621200000000 Au
atom 7.4651299499999997 23.0293373800000012 2.9201775500000000 Au
atom 10.2623588399999992 23.0253303199999984 2.6921004900000001 Au
atom 13.0223163199999998 23.0891869199999995 2.4801270400000002 Au
atom 15.9060048100000007 23.1539384400000010 2.6456781199999999 Au
atom 18.6953508399999997 23.1112395200000016 2.4055278800000002 Au
atom 21.5603451899999996 23.2048385699999997 2.5638875300000001 Au
atom 24.3396415300000015 23.0984478200000005 2.7032056199999999 Au
atom 27.1049011399999991 23.0893632500000017 2.8286521800000002 Au
atom 1.7818944999999999 23.0632528599999986 2.7032302200000000 Au
atom 4.6304182899999997 23.1013630399999990 2.7810606999999998 Au
atom 8.9355490000000000 25.4958038900000012 2.7435613900000000 Au
atom 11.6766580399999995 25.5462009999999999 2.7027675200000001 Au
atom 14.4820168299999992 25.6521449900000000 2.5971895500000000 Au
atom 17.3038703900000002 25.5996844699999997 2.4124142399999999 Au
atom 20.0741030599999988 25.6059379400000005 2.3748620900000001 Au
atom 22.9300545999999983 25.6639182499999983 2.6226425400000002 Au
atom 25.7320968100000016 25.5089837400000015 2.9503208000000001 Au
atom 0.3862019900000000 25.5081345500000012 2.8335229000000002 Au
atom 3.2781288800000001 25.6063763999999985 2.8958832499999998 Au
atom 6.0862980300000000 25.5540712100000000 2.7887754800000000 Au
atom 7.5712569900000002 27.9688198200000002 2.5826368199999998 Au
atom 10.3470873599999997 28.0222423300000010 2.5646414599999998 Au
atom 13.1223041400000007 28.0797157999999989 2.5784247400000000 Au
atom 15.9190112199999998 28.0658332299999991 2.4284902499999999 Au
atom 18.7065132500000004 28.0565139600000002 2.5654575799999999 Au
atom 21.5070683799999998 28.0876458000000007 2.7079231300000002 Au
atom 24.3492077000000009 28.0604126899999997 2.7758697500000000 Au
atom 27.1371774300000013 27.9601162199999997 2.8227406799999999 Au
atom 1.8011657100000000 27.9569690800000004 2.6521166300000001 Au
atom 4.7220253000000003 28.0153907099999984 2.6947554399999998 Au
atom 8.9302378000000004 30.4840925100000000 2.7674889399999998 Au
atom 11.7116699600000000 30.5521584299999986 2.7053290799999998 Au
atom 14.5614526499999997 30.5418445200000015 2.8152265399999998 Au
atom 17.4148608299999985 30.5603701399999999 2.6782517499999998 Au
atom 20.1614992700000002 30.5252563399999985 2.6771576700000002 Au
atom 22.9252125800000002 30.5667933299999994 2.9284788000000002 Au
atom 25.7835590900000007 30.4266538599999983 2.6816434099999999 Au
atom 0.4389594800000000 30.4425720300000009 2.7345987400000000 Au
atom 3.2132512100000001 30.3720416299999982 2.6519038899999998 Au
atom 6.0472424399999998 30.4660121599999982 2.6737063200000000 Au
atom 7.5037108799999999 32.9046350899999993 2.5207266900000000 Au
atom 10.3131015000000001 32.9195995999999980 2.6970198200000000 Au
atom 13.2183099300000002 32.8690500299999968 2.5851634200000002 Au
atom 15.9361998699999994 32.9066554199999999 2.5863675900000000 Au
atom 18.7849878100000005 32.9730784600000035 2.6098875600000002 Au
atom 21.5501405800000008 33.0257071099999990 2.5895421600000001 Au
atom 24.4222154099999997 32.9070133100000035 2.5361469900000002 Au
atom 28.8916537600000005 32.7937435999999991 2.5579441200000002 Au
atom 1.8822800700000000 32.9009682699999999 2.4456708900000002 Au
atom 4.6717874200000002 32.8723114399999972 2.6034812199999999 Au
atom 8.9030152200000003 35.3348116800000014 2.6850019500000002 Au
atom 11.7665129600000000 35.5230194000000026 2.7309571799999999 Au
atom 14.6798664700000003 35.4389189799999968 2.5264734000000000 Au
atom 17.4096154299999988 35.3860066100000026 2.7336442800000000 Au
atom 20.2061572799999993 35.4557258600000011 2.5806569900000000 Au
atom 23.0178923399999995 35.4184053099999971 2.5013682799999999 Au
atom 25.8442548800000012 35.3960137199999991 2.4009934400000001 Au
atom -1.2330526300000000 35.4396273899999983 2.6260324300000000 Au
atom 3.1882435700000000 35.2912260800000013 2.5763399300000001 Au
atom 6.0694223100000002 35.3168906100000015 2.5048782699999999 Au
atom 7.4882797300000004 37.7806538500000002 2.4640662400000002 Au
atom 10.3952522599999995 37.7630269699999985 2.6510723199999999 Au
atom 13.2736150700000000 37.9008082000000002 2.4800589899999999 Au
atom 16.0539673699999987 37.9452022600000021 2.5964503900000002 Au
atom 18.8599710499999986 37.8745975200000018 2.5901611999999998 Au
atom 21.6630122199999988 37.9017236400000002 2.6650296199999999 Au
atom 24.5767351800000000 37.8547547599999987 2.5313917199999998 Au
atom 27.3023945599999998 37.8463502999999974 2.6766951300000001 Au
atom 1.8621882400000001 37.7360251899999994 2.5454090800000002 Au
atom 4.6633204800000003 37.6918779700000002 2.8025999900000000 Au
atom 8.9410524400000000 0.7915264100000000 2.5861064699999998 Au
atom 11.7427922099999993 0.7843657200000000 2.5015899099999999 Au
atom 14.5143640499999993 0.8647725900000000 2.7109080900000002 Au
atom 17.4048601699999992 0.8448689900000000 2.6651159999999998 Au
atom 20.2524303600000017 0.9080128800000000 2.7856545300000000 Au
atom 23.1437689599999992 0.8942272500000000 2.5947888300000002 Au
atom 25.9772363000000013 0.8109313100000000 2.7704754800000000 Au
atom 0.5557507900000001 0.8854399500000000 2.8476592400000000 Au
atom 3.4068685900000002 0.8302735000000000 2.7521613000000000 Au
atom 6.1778719600000001 0.8494971100000001 2.6449322400000002 Au
atom 7.4921042099999999 3.3203377600000001 2.5557868600000000 Au
atom 10.2322195699999998 3.2814838000000002 2.5920226999999998 Au
atom 13.1426537299999993 3.3088972700000001 2.7507628899999998 Au
atom 15.9970922899999994 3.3831001800000000 2.7106662600000000 Au
atom 18.7799071399999988 3.3738765900000001 2.7243638600000000 Au
atom 21.6329163700000002 3.3731035000000000 2.6779993100000001 Au
atom 24.5487304500000008 3.3181785100000001 2.8393195400000000 Au
atom 27.3072564000000000 3.3104361500000001 2.8017992500000002 Au
atom 2.0047286600000001 3.2937824600000001 2.7847918500000000 Au
atom 4.6894310499999996 3.2543059200000002 2.7267013100000002 Au
atom 8.9146221499999996 5.8088550000000003 2.5857547300000001 Au
atom 11.7266385300000007 5.7394996200000001 2.6515599100000000 Au
atom 14.5384401800000003 5.8949696300000003 2.7523382000000001 Au
atom 17.3644702399999993 5.9040532499999996 2.6658495200000001 Au
atom 20.1792841900000006 5.8588707400000004 2.6459605499999999 Au
atom 23.0246677200000001 5.9280520100000000 2.8798219399999998 Au
atom 25.8733325399999998 5.7972716499999999 2.9626051400000000 Au
atom 0.4756253400000000 5.7387960600000003 2.8396293400000001 Au
atom 3.3064847999999998 5.7924318299999999 2.8650691699999999 Au
atom 6.1041146900000003 5.8012215100000004 2.7423403799999999 Au
atom 7.6536004799999997 8.3536581999999999 2.6120421299999999 Au
atom 10.2831322299999997 8.2768529900000001 2.7403581500000000 Au
atom 13.0712795300000000 8.3537823800000002 2.6945526900000001 Au
atom 15.9818379799999999 8.3052544600000004 2.6408128300000002 Au
atom 18.8649565899999985 8.5545565200000002 2.6585339900000000 Au
atom 21.5885633699999993 8.3461553399999993 2.6891520099999999 Au
atom 24.4733435099999994 8.3538479599999995 2.7757689600000002 Au
atom 27.3340182399999989 8.1995729799999992 2.7581175400000002 Au
atom 1.9592140899999999 8.2655734899999995 2.8037461499999998 Au
atom 4.5239222300000002 8.2829587700000005 2.7378611700000000 Au
atom 8.9922284300000008 10.7273758299999997 2.7230206799999999 Au
atom 11.7056292800000001 10.8075544200000007 2.4995296200000001 Au
atom 14.4853998399999995 10.7826492399999996 2.2987800100000002 Au
atom 17.2867019400000004 10.7767878400000008 2.2934071899999999 Au
atom 20.0596600999999986 10.6428144200000006 2.5173908400000000 Au
atom 22.9902058199999999 10.7700194699999994 2.5357841600000000 Au
atom 25.8469049499999990 10.7440493099999994 2.5255105599999998 Au
atom 0.4246016700000000 10.6887761099999992 2.6349205499999999 Au
atom 3.2676960199999998 10.7316183800000005 2.5564817999999998 Au
atom 6.1196077100000004 10.8413358399999993 2.5968953699999999 Au
atom 7.6307685500000000 13.0199811499999996 5.6608884300000000 Cl
atom 7.6266489499999999 15.8447943400000000 8.5405503800000009 Cl
atom 7.7073330799999997 13.0808822500000002 8.5593477999999994 Na
atom 7.6308416899999996 15.8217692700000008 5.7138903900000004 Na
atom 7.6706802100000004 18.5975816199999997 5.8040398700000004 Cl
atom 7.6587679599999996 21.4645529300000000 8.5673648700000005 Cl
atom 7.7284803399999999 18.6297705200000010 8.2101358399999995 Na
atom 7.6357271799999999 21.4266022999999990 5.8838755200000001 Na
atom 7.8904152200000004 24.2244431899999988 5.9302016000000002 Cl
atom 7.7084183399999997 27.0568491100000017 8.5292712700000006 Cl
atom 7.5888702600000002 24.2891997800000006 8.3874066799999998 Na
atom 7.6852322900000001 26.9665429400000001 5.7607418199999998 Na
atom 7.6111892599999997 29.8566089699999999 5.6325960600000000 Cl
atom 7.7351721500000004 32.6931211799999986 8.5067250699999999 Cl
atom 7.6561365099999996 29.7624425899999991 8.3846768500000000 Na
atom 7.5669343099999997 32.6637834400000031 5.6786815099999997 Na
atom 7.4188219499999999 35.4580706599999971 5.5938335600000002 Cl
atom 7.6461505100000000 38.2818722900000026 8.5042141400000002 Cl
atom 7.6650756400000004 35.5724694900000031 8.2730953100000004 Na
atom 7.5935587599999996 38.3332909000000015 5.7131852700000003 Na
atom 7.4860274300000000 1.7163125299999999 5.6746964999999996 Cl
atom 7.5907839800000003 4.6412919700000002 8.5507401099999996 Cl
atom 7.6613349399999997 1.7613925900000000 8.5194578500000002 Na
atom 7.5765172900000000 4.6582023899999996 5.7798893800000002 Na
atom 7.5220310899999996 7.4028593499999999 5.7593503899999998 Cl
atom 7.3517235200000002 9.9378859500000001 8.4875624599999995 Cl
atom 7.5287690899999999 7.7026699100000000 8.3529024300000003 Na
atom 7.6062137900000000 10.3211203499999993 5.7065168899999996 Na
atom 10.4796417999999996 13.1279396399999992 6.0044906700000000 Na
atom 13.2667941200000001 13.1085100600000004 4.9583519699999998 Cl
atom 10.6984330900000000 16.3004185100000001 8.3883309199999996 Na
atom 13.4660964500000002 16.2230379900000017 8.3597786599999999 Cl
atom 13.4304160199999991 13.3790032599999993 9.2622708800000009 Na
atom 10.6276128199999995 13.0076609600000008 8.2405889200000004 Cl
atom 13.2453222499999992 15.8523246600000007 5.2552458199999998 Na
atom 10.4282492300000005 15.5710905600000000 5.5002369499999997 Cl
atom 10.3947384399999994 18.6094058400000009 5.7986183100000002 Na
atom 13.1894819200000004 18.7166209700000010 5.2919838400000003 Cl
atom 10.5610666999999996 21.3403406199999992 8.3694120000000005 Na
atom 13.3232173700000001 21.4887919899999993 8.3240064500000006 Cl
atom 13.5243202700000005 18.7094850599999987 8.3730182600000003 Na
atom 10.5143264500000004 18.9004066000000002 7.9605965699999999 Cl
atom 13.2822746200000008 21.6330729899999987 5.4573454000000003 Na
atom 10.4586173200000001 21.5379697099999987 5.5525311999999998 Cl
atom 10.0204653100000005 24.4243346599999995 5.7769699000000001 Na
atom 13.2408409500000008 24.3605751400000017 5.5921284800000004 Cl
atom 10.8147274099999997 26.7615824499999988 8.3521028400000006 Na
atom 13.0722018200000001 27.1070376999999993 8.3902609899999998 Cl
atom 13.2816052199999994 24.2671181099999984 8.3439691600000003 Na
atom 10.5901188000000008 24.3595092899999983 8.6774616499999997 Cl
atom 13.2530136400000007 27.1578847500000009 6.1558583699999998 Na
atom 10.5029210000000006 26.9930009599999998 5.5717753800000001 Cl
atom 10.4659303999999995 29.6932491399999989 5.8640361199999997 Na
atom 13.1837153899999997 29.9105438899999996 5.5988676899999996 Cl
atom 10.2074588899999998 32.6125335699999965 8.8020890699999992 Na
atom 13.2040442000000002 32.6970628300000001 8.5660299799999997 Cl
atom 13.2603742699999998 29.8633476000000009 8.4902589099999997 Na
atom 10.4045953600000001 29.9021392199999987 8.5682175500000000 Cl
atom 13.1645342900000006 32.6827657600000023 5.7159349600000002 Na
atom 10.2815419499999994 33.1950915899999970 5.4129602300000004 Cl
atom 10.3636006799999993 35.0642886600000026 5.7317285099999999 Na
atom 13.1211402899999996 35.5657810599999991 5.8163379099999997 Cl
atom 10.4401630799999996 38.2928681499999968 8.2730288400000003 Na
atom 13.1970785399999997 38.4128198699999999 8.4248946300000007 Cl
atom 13.2381268300000006 35.5685702600000013 8.5034729599999999 Na
atom 10.4094004800000004 35.5287827900000011 8.5038531200000005 Cl
atom 13.1551708900000008 38.5381473899999989 5.6947024099999997 Na
atom 10.3702955899999996 38.2672728699999993 5.4480832799999996 Cl
atom 10.2763344500000002 1.7593437599999999 5.8554134299999996 Na
atom 13.2040431500000004 1.9293107599999999 5.8742204500000001 Cl
atom 10.3018119099999996 4.6739872000000000 8.3765404300000004 Na
atom 13.1553249399999999 4.6910446500000003 8.5838428199999992 Cl
atom 13.2400434300000001 1.8256984400000000 8.2119765999999998 Na
atom 10.3894456999999996 1.7823456600000001 8.5912959000000004 Cl
atom 13.2342030099999999 4.6486424599999996 5.8634166299999997 Na
atom 10.3242157999999993 4.5783947999999999 6.0217306099999997 Cl
atom 10.4370303500000006 7.5824123400000003 5.9020833799999997 Na
atom 13.2477065100000004 7.6194094600000000 5.7719668200000003 Cl
atom 10.1817295399999992 10.6203794200000008 8.6932696400000005 Na
atom 13.2989123899999999 10.4830989199999998 8.7004634299999992 Cl
atom 13.3123902100000002 7.5319786799999999 8.4609745299999997 Na
atom 10.3998869999999997 7.4504422799999999 8.6603775400000007 Cl
atom 13.2036998200000006 10.4073037599999996 5.9551722199999997 Na
atom 10.3998668100000007 10.6270353699999998 5.8632644699999998 Cl
atom 16.2327827700000000 13.4286648500000005 5.4012825900000001 Na
atom 19.1988042599999993 13.4048466699999995 5.5307829699999997 Cl
atom 15.9391373299999994 16.0396086199999992 8.0133078500000003 Na
atom 18.8386303499999990 15.9801552299999994 8.1861053399999992 Cl
atom 19.0275411400000003 13.2322048199999998 8.2241329400000005 Na
atom 16.0939457099999998 13.3824472100000005 8.6657206000000002 Cl
atom 19.0642839799999990 15.6566299299999994 5.4082683600000001 Na
atom 16.0802254399999995 15.7572054599999998 5.2381871200000001 Cl
atom 16.2652941400000017 18.7687093400000009 5.7973117199999997 Na
atom 18.9955860100000002 18.7608689899999987 5.3222118600000003 Cl
atom 16.1170176699999992 21.5115393099999999 8.0670644700000000 Na
atom 18.8019626399999993 21.4387299099999993 8.2106379599999997 Cl
atom 19.0767369699999989 18.6451657399999995 8.1119955200000007 Na
atom 16.1014671299999996 18.7976566299999988 7.8221359699999997 Cl
atom 19.1103443599999991 21.5843826199999995 5.6247569000000004 Na
atom 16.0416211100000012 21.6628156800000014 5.2401047399999996 Cl
atom 16.0413582999999988 24.3086895200000015 5.6903378599999996 Na
atom 18.7986449499999999 24.4945603299999988 5.8808756799999999 Cl
atom 16.1081147499999986 27.1101854899999992 8.4852366999999997 Na
atom 18.9918673399999989 27.0600601699999999 8.6670624099999998 Cl
atom 18.9009092500000015 24.3020385099999991 8.0094051600000000 Na
atom 16.1188662899999997 24.3238723099999987 8.6266337499999999 Cl
atom 18.8006703500000008 27.4179721799999996 5.8785335300000003 Na
atom 16.0214492100000001 27.1949218600000009 5.6350540400000000 Cl
atom 15.9605808400000004 30.0044653600000011 5.9008035400000001 Na
atom 18.8180588499999999 29.8722209599999999 5.9368910599999998 Cl
atom 16.0295405299999985 32.8216526799999997 8.0215671400000002 Na
atom 18.9656189700000013 32.8180141400000025 8.6207933299999997 Cl
atom 18.7500060600000005 30.0310085999999998 8.6637006599999999 Na
atom 15.9774954600000001 30.0107819900000017 8.6576181699999992 Cl
atom 18.9267530499999985 32.8203079099999968 5.7833997200000002 Na
atom 16.0324621000000000 32.7851497500000022 6.1190043899999997 Cl
atom 15.9367524199999995 35.5218975499999985 5.7859234800000001 Na
atom 18.9466808499999999 35.6666611799999984 5.8520947300000001 Cl
atom 16.0498033100000015 38.4073192999999975 8.1180916199999995 Na
atom 18.8981547399999990 38.5055743100000001 8.7765324800000002 Cl
atom 18.8740120500000010 35.5523839700000011 8.3818890300000000 Na
atom 16.0506151800000012 35.6082537400000021 8.5827100099999996 Cl
atom 18.9017438800000015 38.4665733699999990 5.4996948999999997 Na