#===============================================================================
# Created using the Atomic Simulation Environment (ASE)

# Tue Dec 23 22:26:43 2025

#=======================================================
lattice_vector 28.1999999999999993 0.0000000000000000 0.0000000000000000 
lattice_vector 0.0000000000000000 39.4799999999999969 0.0000000000000000 
lattice_vector 0.0000000000000000 0.0000000000000000 62.3296083400000001 
atom 7.5542842700000001 14.8923326599999992 -0.0902628900000000 Au
atom 10.4390807599999995 14.8259650000000001 -0.0344509000000000 Au
atom 13.2070302300000009 14.8820265799999998 0.1549057100000000 Au
atom 15.9632206300000004 14.8582138399999995 0.0146328700000000 Au
atom 18.7436239399999991 14.8715403800000008 -0.2611096000000000 Au
atom 21.7696351899999989 14.9670401700000006 -0.1972087600000000 Au
atom 24.4475048999999984 14.8555013900000006 -0.5199359800000000 Au
atom 27.2487521800000003 14.8736484099999995 -0.3019827900000000 Au
atom 1.8896834199999999 14.6857162199999998 -0.1047820700000000 Au
atom 4.7126182700000001 14.8201740399999995 -0.2765091300000000 Au
atom 8.9499589499999992 17.2209739999999982 0.0291541100000000 Au
atom 11.7636289099999995 17.3160080900000004 -0.1791347400000000 Au
atom 14.5763306499999992 17.3301135600000009 -0.2615122100000000 Au
atom 17.3739830300000015 17.3384440899999994 -0.1976454700000000 Au
atom 20.2652375999999990 17.3774528599999982 -0.2482428100000000 Au
atom 23.2126487799999985 17.5077296300000000 -0.1718209400000000 Au
atom 25.9223314000000009 17.3081688000000007 -0.2969309300000000 Au
atom 0.5354559600000000 17.2266293899999994 -0.2003174800000000 Au
atom 3.3196728499999999 17.2212144000000009 0.0158037900000000 Au
atom 6.1425091199999997 17.3485650500000013 -0.0551851700000000 Au
atom 7.5187879999999998 19.7481812199999993 0.0122432700000000 Au
atom 10.4197339899999992 19.8063853899999991 -0.0155098400000000 Au
atom 13.1258410600000008 19.7930938000000012 -0.0569700500000000 Au
atom 16.0902647399999985 19.8421947900000006 -0.2388535300000000 Au
atom 18.8363088699999999 19.8873035099999989 -0.1317118200000000 Au
atom 21.6324235400000013 19.8985619999999983 -0.0091471500000000 Au
atom 24.5282037700000011 19.9427584600000003 0.2210109300000000 Au
atom 27.2699616099999993 19.9108480999999991 0.2404749900000000 Au
atom 1.9579943600000000 19.6404226100000017 0.3660136400000000 Au
atom 4.7064613000000000 19.7645127500000015 -0.0243989100000000 Au
atom 9.0270093599999992 22.1849750300000004 -0.0584018800000000 Au
atom 11.8560382999999998 22.2915624500000007 -0.0278562000000000 Au
atom 14.6343062499999998 22.2300783600000003 -0.0346017400000000 Au
atom 17.4907706300000001 22.2727345300000010 0.0898732300000000 Au
atom 20.1546312100000016 22.3753433999999984 0.1794605000000000 Au
atom 22.9230746100000005 22.2960400900000018 0.4083532100000000 Au
atom 25.8735165699999996 22.2983885700000002 0.3535498600000000 Au
atom 0.5654733600000000 22.1483142199999996 0.3488060700000000 Au
atom 3.2032675400000001 22.2468293199999998 0.2169152400000000 Au
atom 6.0110357600000004 22.0944441699999992 0.1163062800000000 Au
atom 7.4878194799999997 24.6215401699999994 -0.0319993700000000 Au
atom 10.3351188900000004 24.7080620199999998 -0.0820794400000000 Au
atom 13.2553714399999993 24.6931023900000000 0.0712807500000000 Au
atom 16.0475449999999995 24.7774936299999986 0.1595397300000000 Au
atom 18.8420401499999990 24.7803869600000013 0.4226986000000000 Au
atom 21.6246152100000018 24.8808880499999994 0.3825851000000000 Au
atom 24.3086058300000012 24.7340178500000007 0.4586481000000000 Au
atom 27.2532557699999991 24.5545540799999991 0.3669027400000000 Au
atom 1.8745593400000000 24.7533266699999999 0.2197559900000000 Au
atom 4.7205222999999998 24.6323647100000009 0.1763496900000000 Au
atom 8.9586383000000005 27.0724233000000005 -0.2534044400000000 Au
atom 11.8383191700000001 27.1187852000000014 -0.2032164500000000 Au
atom 14.5684442500000007 27.1490277700000000 -0.0318797700000000 Au
atom 17.4350453600000002 27.2118801300000008 0.0645538500000000 Au
atom 20.2027053000000016 27.1729734699999987 0.1460514400000000 Au
atom 23.0206971399999993 27.1109706800000012 0.0807359100000000 Au
atom 25.9196492200000002 27.1121244600000004 -0.0019308200000000 Au
atom 0.4092467800000000 27.2004953600000015 0.2871422600000000 Au
atom 3.3047223300000002 27.2681506899999988 0.1180920400000000 Au
atom 6.0561028200000004 27.0384033499999994 -0.0009786200000000 Au
atom 7.5510024700000002 29.5206131599999999 -0.0009676500000000 Au
atom 10.3970696100000008 29.6741241000000002 -0.3641900800000000 Au
atom 13.1474920100000006 29.5835670999999998 -0.1353064800000000 Au
atom 15.9346395199999993 29.5519044899999983 -0.0725624400000000 Au
atom 18.8548552299999983 29.5777254599999999 -0.0673031200000000 Au
atom 21.6525031800000001 29.6833616000000013 0.0151514700000000 Au
atom 24.3678786599999988 29.5129080700000017 0.1557660400000000 Au
atom 27.2105070799999993 29.6396988599999993 0.0861653500000000 Au
atom 1.8355492499999999 29.5878262999999997 0.3016193100000000 Au
atom 4.7513631500000004 29.6417656700000016 -0.0357736200000000 Au
atom 8.9261784300000002 32.0024028099999995 -0.0402258500000000 Au
atom 11.8315669600000000 32.1437449299999969 -0.3132812700000000 Au
atom 14.5799522100000001 31.9754805500000003 -0.1901713200000000 Au
atom 17.4382024599999994 32.0163252999999983 -0.2605343400000000 Au
atom 20.1437208199999986 32.1160874699999965 -0.1010705300000000 Au
atom 23.0569101399999994 32.0758913000000021 0.2379153500000000 Au
atom 25.9198082800000016 32.0617738199999991 -0.0611816500000000 Au
atom 0.4254566300000000 32.2747126300000033 0.1063055800000000 Au
atom 3.1793192700000001 32.1509475699999996 0.0886364000000000 Au
atom 6.0124625399999996 32.0282261899999980 -0.0638342600000000 Au
atom 7.4881109700000001 34.5869660800000034 -0.0040020100000000 Au
atom 10.2567064999999999 34.5433618699999982 -0.1711139900000000 Au
atom 13.1169553499999996 34.5723994800000014 -0.3402587700000000 Au
atom 15.8916687000000003 34.5439594200000002 -0.1910189000000000 Au
atom 18.7241734999999991 34.5546780600000005 -0.1071165900000000 Au
atom 21.6737824299999993 34.4943328299999976 0.1495763100000000 Au
atom 24.5051061700000012 34.6129551599999985 0.1019800200000000 Au
atom 27.2597395499999990 34.6171949599999991 -0.1256898800000000 Au
atom 1.9148532500000000 34.6915206899999973 -0.0430786600000000 Au
atom 4.7033842100000003 34.5823477900000000 -0.1842153200000000 Au
atom 8.8172591300000001 37.1562280999999999 -0.0544434100000000 Au
atom 11.6888771899999995 37.0935598200000030 -0.0574497800000000 Au
atom 14.4743378800000002 37.0715518700000004 -0.0205506500000000 Au
atom 16.9766407500000014 36.9884322899999987 0.0744934000000000 Au
atom 20.1639576900000002 37.0249268900000033 0.1783255800000000 Au
atom 22.9844807899999992 37.0421118900000010 0.0680167700000000 Au
atom 25.8870237900000006 37.0490194200000005 0.0234389600000000 Au
atom 0.3965232500000000 37.1195243399999981 -0.2464649900000000 Au
atom 3.3182057700000001 37.0030655899999985 -0.0417218400000000 Au
atom 6.0580786599999996 37.0230987400000018 0.0169275100000000 Au
atom 7.5450309999999998 0.0333476800000000 0.1687050700000000 Au
atom 10.2735873299999998 0.0949053100000000 -0.1517840700000000 Au
atom 13.1062710300000003 0.0233191400000000 -0.3598367300000000 Au
atom 15.8312383000000008 -0.0164298800000000 0.1058793700000000 Au
atom 19.0427269700000004 0.0204008900000000 0.0496597300000000 Au
atom 21.9646510100000008 0.0648453700000000 0.3943853700000000 Au
atom 24.5386008800000006 0.0574135600000000 -0.4082901500000000 Au
atom 27.0960387800000007 0.2082306500000000 -0.0414892400000000 Au
atom 1.8287434199999999 0.0821220900000000 0.2567880500000000 Au
atom 4.7562067199999998 0.1117010000000000 0.2592867000000000 Au
atom 8.9611823899999994 2.4325596300000001 0.0144888900000000 Au
atom 11.7907040599999995 2.5693259700000000 -0.1278839600000000 Au
atom 14.6753848100000006 2.5294691700000000 0.2004860000000000 Au
atom 17.3913843499999992 2.5326709500000000 -0.0510546100000000 Au
atom 20.2488593799999990 2.4455203399999998 -0.0580929400000000 Au
atom 23.0184067699999986 2.4682813000000001 0.2990052400000000 Au
atom 25.7820941099999992 2.6708029700000000 0.1045755100000000 Au
atom 0.4737413200000000 2.6112339699999998 -0.0275785400000000 Au
atom 3.2626263799999999 2.5336893400000000 0.1875896700000000 Au
atom 6.1643608199999997 2.5574997499999998 0.2465117500000000 Au
atom 7.6030447900000002 4.9628412800000001 0.1923550000000000 Au
atom 10.3405866100000008 5.0408823900000002 -0.0028786600000000 Au
atom 13.1393225900000008 4.9556594499999997 0.0884812700000000 Au
atom 15.9485694900000006 5.0703659200000004 0.1645381600000000 Au
atom 18.8349264000000005 4.9325892299999996 0.2728333300000000 Au
atom 21.6476296899999987 4.9633221299999999 0.0530240400000000 Au
atom 24.4265110999999990 5.0181026700000002 0.2751122100000000 Au
atom 27.3009482599999984 5.1100252499999996 0.0961651400000000 Au
atom 1.8875845200000001 5.0095226799999999 0.3333085300000000 Au
atom 4.6848040500000003 4.9811018400000000 0.3193501000000000 Au
atom 9.0099289000000002 7.4732338900000004 0.1753295800000000 Au
atom 11.8092125800000005 7.4588849699999997 0.0326756800000000 Au
atom 14.5073547099999995 7.5284104200000002 0.0233085300000000 Au
atom 17.3991084200000010 7.4513595300000004 0.2733461600000000 Au
atom 20.1709098599999983 7.4336653500000001 0.1093222300000000 Au
atom 22.9775185600000000 7.3814512900000002 0.0426876300000000 Au
atom 25.8923515299999991 7.3778441600000004 0.2652222200000000 Au
atom 0.4901800600000000 7.4918611200000003 0.1365697700000000 Au
atom 3.3455756399999999 7.3373064000000001 -0.0195031500000000 Au
atom 6.2191063499999997 7.3244119599999999 0.1678576500000000 Au
atom 7.4527839199999999 9.8341572199999998 0.1757527800000000 Au
atom 10.3519161400000002 9.9166478199999997 0.0431274200000000 Au
atom 13.0448727699999996 10.0349921299999991 0.1860477400000000 Au
atom 15.9352824700000006 9.9581320699999996 -0.0837317300000000 Au
atom 18.8090852400000017 9.9301920599999995 -0.0169964500000000 Au
atom 21.6188011700000011 9.8436655599999998 -0.1043307800000000 Au
atom 24.3828332299999992 9.8389787099999992 0.0679167200000000 Au
atom 27.2902535899999990 9.8691736799999994 0.1389080400000000 Au
atom 1.9388457500000000 10.0295126400000001 -0.0877876600000000 Au
atom 4.7463817300000004 9.8675089499999995 -0.0612076000000000 Au
atom 8.9658058999999994 12.3601900499999999 -0.1259869500000000 Au
atom 11.7210413899999999 12.4908634200000002 0.2910072800000000 Au
atom 14.5779568400000006 12.4111065699999994 0.1521797600000000 Au
atom 17.3258814500000007 12.3080088500000002 -0.1869596800000000 Au
atom 20.3246932800000017 12.4111929500000002 -0.2911346000000000 Au
atom 23.0758950100000000 12.3720159200000008 -0.2801247200000000 Au
atom 25.7874758600000007 12.2681402399999993 -0.2670097800000000 Au
atom 0.3864999300000000 12.6174952299999994 -0.1481254200000000 Au
atom 3.3232387100000000 12.3250920100000005 -0.1242069500000000 Au
atom 6.1395273799999996 12.2934757900000005 -0.1197844200000000 Au
atom 7.5050523299999998 13.0775293300000008 2.4846028400000000 Au
atom 10.3505408200000009 13.1802624999999995 2.6981950100000001 Au
atom 13.1407388300000001 13.2986219699999992 2.8256267600000000 Au
atom 16.0166406200000004 13.3029346099999994 2.6198298699999998 Au
atom 18.7871924600000000 13.2446557499999997 2.4246692099999998 Au
atom 21.5973091599999982 13.3292939500000003 2.3238651400000001 Au
atom 24.4407646499999984 13.1974116499999994 2.2634185400000000 Au
atom 27.3104807899999997 13.1088765800000004 2.0965708599999999 Au
atom 1.9309478200000001 13.2365921899999996 2.4863573500000000 Au
atom 4.7296309900000004 13.2713785699999995 2.3430463300000000 Au
atom 8.9684829100000005 15.6440875100000003 2.5613931700000001 Au
atom 11.8466819200000000 15.6621087499999998 2.6639265000000001 Au
atom 14.6492678999999999 15.6229574600000003 2.7211596800000000 Au
atom 17.3651205799999993 15.7245557100000006 2.3641255299999999 Au
atom 20.1658615899999987 15.7977881300000007 2.1554845899999999 Au
atom 23.0273613399999988 15.6863120600000006 2.3402381100000000 Au
atom 25.8451806700000013 15.6187171700000000 2.3194500699999998 Au
atom 0.3763435000000000 15.6961419499999995 2.3456550200000001 Au
atom 3.2708653200000000 15.7198650799999999 2.6297755700000001 Au
atom 6.1704760600000004 15.7183331800000001 2.3591737300000002 Au
atom 7.4747810399999999 18.1736154499999998 2.6340824199999999 Au
atom 10.3883507700000006 18.2283335400000013 2.4618746699999998 Au
atom 13.2902156599999994 18.0512384499999996 2.3385409199999998 Au
atom 16.0359058999999995 18.1907979299999987 2.3886764000000000 Au
atom 18.9235382799999989 18.2510322100000018 2.2926609299999998 Au
atom 21.6939693899999995 18.2076862900000016 2.2889613400000002 Au
atom 24.5310725299999994 18.1003656200000016 2.5539781900000000 Au
atom 27.2713733800000000 18.2587502199999996 2.6826903799999999 Au
atom 1.8963786000000000 18.0765637400000010 2.9472157800000001 Au
atom 4.6604054899999996 18.2253628899999995 2.4945593900000000 Au
atom 8.9496932400000002 20.6130571399999987 2.6214418600000000 Au
atom 11.8079010600000007 20.6164468899999989 2.4973102699999998 Au
atom 14.5616461699999995 20.6787509100000015 2.4048437699999998 Au
atom 17.3763831999999994 20.6949302899999985 2.6234032500000000 Au
atom 20.3004189699999991 20.7630051299999998 2.5407913299999998 Au
atom 23.0875530699999985 20.4940562300000018 2.8795728999999999 Au
atom 25.8774961899999987 20.5942534899999998 3.0983030399999998 Au
atom 0.5631550000000000 20.7733720300000009 3.0264436699999999 Au
atom 3.3970407499999999 20.6439179800000012 2.7072274599999999 Au
atom 6.1812378700000004 20.5693631900000007 2.7417101800000001 Au
atom 7.5860819099999999 23.0124073799999991 2.4871478599999999 Au
atom 10.3235094099999998 23.0843254100000017 2.6412737200000000 Au
atom 13.1811265300000002 23.2297787199999988 2.6142378399999999 Au
atom 16.0786832100000012 23.1022742500000007 2.4672160299999999 Au
atom 18.8493311000000006 23.2232823999999987 2.9460046900000001 Au
atom 21.6100960099999995 23.1221069300000011 2.9608590399999999 Au
atom 24.5203249200000002 23.0976721199999986 2.9753029899999999 Au
atom 27.4661496499999984 23.1265305599999991 2.9037501600000000 Au
atom 2.0726688499999999 23.0939201800000014 2.9723601600000000 Au
atom 4.8214256000000004 23.1520188699999991 2.6861605000000002 Au
atom 9.0067649400000001 25.5705145999999992 2.4539807400000000 Au
atom 11.8253529099999994 25.6267998699999993 2.5543315899999999 Au
atom 14.6200063300000007 25.5499139500000005 2.7801600000000000 Au
atom 17.4415972199999985 25.5714080999999993 2.9856613799999998 Au
atom 20.2520803100000002 25.6575870700000017 2.9725775799999998 Au
atom 23.0313070300000007 25.7030125600000012 2.9606104599999998 Au
atom 25.8304149199999991 25.6263582399999983 2.7936485599999998 Au
atom 0.4721223600000000 25.4980755499999994 2.7617687700000002 Au
atom 3.3141692300000001 25.5691188099999991 2.8193021699999998 Au
atom 6.2132553599999998 25.5211468699999990 2.7047074599999998 Au
atom 7.5734470900000002 27.8989654400000013 2.4434106099999999 Au
atom 10.3119521600000006 27.9985145399999986 2.3180962200000002 Au
atom 13.1810110500000004 27.9950630099999991 2.3462885000000000 Au
atom 15.9395687499999994 28.0189803899999994 2.7095269900000001 Au
atom 18.8412111700000011 27.9798413100000012 2.6801772599999998 Au
atom 21.6708241000000008 28.1328373399999982 2.7063150000000000 Au
atom 24.4376412800000011 28.1037407100000003 2.7785221199999999 Au
atom 27.2186825500000005 28.0198087399999984 2.7102454599999999 Au
atom 1.9097542400000000 28.0407220899999992 2.8949693700000001 Au
atom 4.7202621100000002 27.9403681599999985 2.6007546800000001 Au
atom 8.9042604599999997 30.3509038000000011 2.5644300000000002 Au
atom 11.5379778500000008 30.5188577899999984 2.3085843200000000 Au
atom 14.3787217300000005 30.6249708299999988 2.4363336599999998 Au
atom 17.3049321999999997 30.3980931199999986 2.3723126500000000 Au
atom 20.1922044000000014 30.5409885699999997 2.4302467700000001 Au
atom 22.9386109599999983 30.5967137300000012 2.8984881599999999 Au
atom 25.8735929700000007 30.5216043900000003 2.5095894400000001 Au
atom 0.4398206800000000 30.5778309499999992 2.5225583899999999 Au
atom 3.3082809300000000 30.4019226700000011 2.5299098799999999 Au
atom 6.1000010500000004 30.4356426700000000 2.5403813300000002 Au
atom 7.5294483899999998 32.9588450199999983 2.5759871400000001 Au
atom 10.2135367400000003 32.8486059000000026 2.4559644299999999 Au
atom 13.0795237499999999 32.9849399599999984 2.3308491000000000 Au
atom 15.9946570900000005 32.9512971899999982 2.4104139000000000 Au
atom 18.7658288400000011 32.9087840500000013 2.5124153699999998 Au
atom 21.5229507799999986 32.9995669799999973 2.8441973500000000 Au
atom 24.4988796899999990 32.9981093600000008 2.7514269900000001 Au
atom 27.2777454699999993 33.0365538699999988 2.8228797800000001 Au
atom 1.9003873899999999 32.9146784100000005 2.6780056999999999 Au
atom 4.7018010099999996 33.0717404900000034 2.5142264499999998 Au
atom 8.9000257699999992 35.3748936000000000 2.4889641899999999 Au
atom 11.7600177200000005 35.3525477199999969 2.4746974300000000 Au
atom 14.5970634300000004 35.3766322900000034 2.5312000299999999 Au
atom 17.4092911900000011 35.3568299800000005 2.7273741000000000 Au
atom 20.2084271099999988 35.4743226499999977 2.6293609500000001 Au
atom 23.0633241899999994 35.4254982799999993 2.6463437100000000 Au
atom 25.8974374699999998 35.4083164400000001 2.6561052900000002 Au
atom 0.4917791400000000 35.3885273900000001 2.3601974200000000 Au
atom 3.3104941999999999 35.5892570999999975 2.5277688700000001 Au
atom 6.1331217100000002 35.4568368799999973 2.4993528299999999 Au
atom 7.6787935200000002 37.9009856699999972 2.7579743099999998 Au
atom 10.5495125499999993 37.9233644400000003 2.6514219500000000 Au
atom 13.0670560899999995 37.8249892500000016 2.3528060700000002 Au
atom 15.8751839700000001 37.8448476800000009 2.7529354000000001 Au
atom 18.5201970299999985 37.7725945099999976 2.3121003700000000 Au
atom 21.5141838000000014 37.9687573499999971 2.9764863500000001 Au
atom 24.0882381400000014 37.9267663999999982 2.4434310300000002 Au
atom 27.2104049199999984 38.0102816599999969 2.2692499800000001 Au
atom 1.9436081700000001 37.9365690999999998 2.4802141299999998 Au
atom 4.7471135400000000 37.9378891400000029 2.7496029300000000 Au
atom 9.0197982999999997 0.9312988900000000 2.7805788599999999 Au
atom 11.7965026500000008 0.8893913600000000 2.5290930199999999 Au
atom 14.5900100899999998 0.7509388900000000 2.7053504400000001 Au
atom 17.2998216099999986 0.8427787300000000 2.5934419200000001 Au
atom 20.1478834499999984 0.8690016100000000 2.6260001399999999 Au
atom 23.1409038600000017 0.8768698900000000 3.0127106100000001 Au
atom 25.7086460999999993 0.8504929300000000 2.3433126199999998 Au
atom 0.2272771900000000 1.1663778100000000 2.6427048399999999 Au
atom 3.1561433999999999 0.9004145099999999 2.8235487199999998 Au
atom 6.0634221699999999 0.9198158400000001 2.7800577500000001 Au
atom 7.5751080899999996 3.4556624999999999 2.8273277299999999 Au
atom 10.3533873199999995 3.3071261199999999 2.5317369900000002 Au
atom 13.1196115300000002 3.4080038899999998 2.7664988199999998 Au
atom 15.9134216100000003 3.2432743400000001 2.8588251100000002 Au
atom 18.6892230300000008 3.4081570900000000 2.5942802899999999 Au
atom 21.5404613400000002 3.3869296699999998 2.7377419800000000 Au
atom 24.4388462299999993 3.3526540400000000 2.9317753000000000 Au
atom 27.1820198200000007 3.4030891599999999 2.7251752200000001 Au
atom 1.8322517000000000 3.4797499099999998 2.7159257999999999 Au
atom 4.6545491999999999 3.3406358900000002 2.8933783200000001 Au
atom 8.9678235599999994 5.9244558400000003 2.7621631999999998 Au
atom 11.7730304799999992 5.8338663300000002 2.8431849699999998 Au
atom 14.4938453999999997 5.8986642600000003 2.7202856099999999 Au
atom 17.2315320499999984 5.8506717000000004 3.0526751200000000 Au
atom 20.0649173800000007 5.8826875500000000 2.8381089899999998 Au
atom 23.0113778499999988 5.8473016299999996 2.8621788600000002 Au
atom 25.8168245700000014 5.9372822699999999 2.7353469900000000 Au
atom 0.4931849800000000 5.9165190299999999 2.8570591900000002 Au
atom 3.3095339400000001 5.8545744199999996 2.8210917100000001 Au
atom 6.0278891400000001 5.8666670200000004 2.9220762900000001 Au
atom 7.5016530000000001 8.3039987699999998 2.8408885900000000 Au
atom 10.3529807700000003 8.3798129499999998 2.5684702000000001 Au
atom 13.0955240499999999 8.4007380499999993 2.7486800300000001 Au
atom 15.9280947899999994 8.3294519299999994 2.6570265800000001 Au
atom 18.8420411100000003 8.3342628699999999 2.8185919699999999 Au
atom 21.6024899999999995 8.2024488400000006 2.5688616099999999 Au
atom 24.4218972000000001 8.3656381999999994 2.6748638800000002 Au
atom 27.3016877499999993 8.3677735900000005 2.6231967900000002 Au
atom 1.9863911299999999 8.2774973900000006 2.6528552799999998 Au
atom 4.7240235300000002 8.2815743400000006 2.5380766600000002 Au
atom 8.9136789200000006 10.6975865399999996 2.6066357099999999 Au
atom 11.6319996600000000 10.8657231599999999 2.8403778200000001 Au
atom 14.4974665500000004 10.8321330699999994 2.6884875300000002 Au
atom 17.3590231199999998 10.7665725499999994 2.5078291899999998 Au
atom 20.2547631099999990 10.8275360099999993 2.4859493700000002 Au
atom 23.1422259500000003 10.7918532000000003 2.5178983499999998 Au
atom 25.8281102199999992 10.7974669500000005 2.4459651800000000 Au
atom 0.5372438100000000 10.7444634099999998 2.5093064599999999 Au
atom 3.3016665000000001 10.8087572400000003 2.5922965300000000 Au
atom 6.0391564300000002 10.7460068999999994 2.6065019299999999 Au
atom 7.6683763300000001 12.7693996999999992 5.6597021900000000 Cl
atom 7.3707918899999996 15.6816493200000000 8.6515938299999995 Cl
atom 7.4401558300000001 12.8282701600000006 8.3863860799999994 Na
atom 7.4981416699999999 15.5890593899999992 5.8174932400000001 Na
atom 7.5134323600000004 18.3599984300000010 5.6930699799999998 Cl
atom 7.2360251599999996 21.2387631900000002 8.6675263800000000 Cl
atom 7.3701736999999996 18.4841933900000015 8.4249302000000004 Na
atom 7.4608623200000004 21.4605150500000015 5.7908877199999997 Na
atom 7.4178198300000000 24.2407119199999990 5.7573918700000002 Cl
atom 7.3830082499999996 26.9550308600000008 8.7468570200000002 Cl
atom 7.2575904600000003 24.0656133099999998 8.5738149700000008 Na
atom 7.4825902800000001 26.9496280400000003 5.8582997499999996 Na
atom 7.3452141099999997 29.7576422600000008 5.9010694299999997 Cl
atom 7.2618571699999999 32.5592599499999977 8.5727370100000009 Cl
atom 7.3482898600000004 29.7873817199999991 8.5018438100000004 Na
atom 7.4488047499999999 32.5078385899999986 5.7552062800000003 Na
atom 7.3326972799999997 35.5386215099999987 5.6292957599999998 Cl
atom 7.2203883400000004 38.1274758100000000 8.7047885300000001 Cl
atom 7.3151726100000003 35.3428415899999990 8.3721050199999993 Na
atom 7.6352641300000004 38.3528972499999981 6.2489027100000003 Na
atom 7.5136592400000000 1.7199064399999999 5.9441550000000003 Cl
atom 7.3415464699999999 4.5375343800000003 8.6398671399999998 Cl
atom 7.0774256400000004 1.6624789300000000 8.5267945100000002 Na
atom 7.4741931900000003 4.5225699800000001 5.9589964599999998 Na
atom 7.5427726000000002 7.4257797600000002 5.7531342099999998 Cl
atom 7.4844440600000004 10.1083691699999996 8.6197265999999999 Cl
atom 7.4131073900000004 7.3097355500000001 8.4375132199999996 Na
atom 7.6536114399999997 10.0587140799999997 5.7642609100000000 Na
atom 10.3099593299999999 12.7895458400000006 5.9957382900000002 Na
atom 13.1128903900000005 12.9033455900000007 5.8941268200000003 Cl
atom 10.1125397600000007 15.6878359599999992 8.3662363499999994 Na
atom 12.9852750100000005 15.8337267399999995 8.6275954299999995 Cl
atom 12.8576831499999997 12.7542071200000002 8.7565988000000008 Na
atom 10.0694091700000001 12.8649413100000007 8.7374992900000006 Cl
atom 13.0774983700000007 15.6542282900000007 5.8909303399999997 Na
atom 10.2465051099999993 15.7319287499999998 5.8385373899999999 Cl
atom 10.2889153499999999 18.6274831300000017 6.0019263699999996 Na
atom 12.9613415500000002 18.6382905200000017 5.5593191300000004 Cl
atom 10.1123970599999993 21.4238198500000010 8.4847749599999993 Na
atom 12.9774890700000007 21.2132982900000009 8.7614528499999995 Cl
atom 13.0338164800000005 18.3502910899999989 8.4650289000000001 Na
atom 10.0336577100000000 18.5371670900000005 8.6617757100000006 Cl
atom 13.0367896600000002 21.4974767100000008 5.9365330500000004 Na
atom 10.2471197200000006 21.3789936400000009 5.7884067100000003 Cl
atom 10.1986345000000007 24.2034882899999992 5.9981824899999996 Na
atom 12.8962037699999996 24.2389428299999992 5.8665725399999999 Cl
atom 10.1921525899999992 27.0284674500000008 8.4544770499999995 Na
atom 12.9569402999999994 26.9662437799999992 8.6260122199999998 Cl
atom 12.8831628800000004 24.2190745900000017 8.4016704799999999 Na
atom 10.1242171499999998 24.1155470299999983 8.7789300299999997 Cl
atom 12.9046609100000005 26.9980222199999993 5.7051451200000001 Na
atom 10.2308492100000006 26.9183623300000008 5.8143209300000001 Cl
atom 10.1788836699999994 29.8001224399999991 5.9248134200000004 Na
atom 12.9872336700000002 29.7834144000000016 5.7391504299999996 Cl
atom 10.2556949500000005 32.7569751999999994 8.1958006999999995 Na
atom 13.0462994800000001 32.7686762100000024 8.6337126400000006 Cl
atom 13.1306781899999994 29.8552782000000008 8.2963855199999994 Na
atom 10.2111759699999993 29.8241320700000010 8.6306889600000005 Cl
atom 13.0576086000000000 32.6465178999999992 5.6610593099999997 Na
atom 10.2764971000000003 32.7058684300000024 5.5075307400000000 Cl
atom 10.1940007300000008 35.5301099899999997 5.6633413700000004 Na
atom 12.8856479400000001 35.6873604399999991 5.5373114000000001 Cl
atom 10.1150005600000004 38.3336595299999985 8.7123509299999995 Na
atom 12.6795545300000008 38.4215506600000012 8.8030066799999993 Cl
atom 12.8581569699999996 35.5418841299999997 8.5055125500000006 Na
atom 10.1506100299999993 35.4266419599999978 8.3786771099999999 Cl
atom 13.0776373800000005 38.3630076500000001 6.1746055300000000 Na
atom 10.2260475599999996 38.4736407400000004 5.9700512000000003 Cl
atom 10.4723611900000009 1.6597963499999999 5.8923653199999997 Na
atom 13.0955940599999998 1.5587528799999999 5.8803860500000003 Cl
atom 10.2137978500000006 4.4800713500000002 8.5678997799999994 Na
atom 12.9616123200000004 4.5743595099999999 8.7592121299999999 Cl
atom 12.9664054400000008 1.6494236900000001 8.4592044600000005 Na
atom 9.9475510800000002 1.5118558499999999 8.8557242200000008 Cl
atom 13.1696974299999994 4.3563293099999996 6.0384269899999996 Na
atom 10.2393467400000002 4.4752521300000003 6.0449687399999998 Cl
atom 10.3333442099999999 7.3316186999999999 6.0186668599999997 Na
atom 13.1387868300000008 7.1185834300000002 5.7813467599999999 Cl
atom 10.1897824000000004 9.9846928199999994 8.5049583500000008 Na
atom 13.0665353900000003 9.8757375700000001 8.8636376800000001 Cl
atom 13.0366833100000008 7.1851537399999996 8.5212682700000002 Na
atom 10.0995784400000002 7.3279894199999998 8.7264023000000002 Cl
atom 13.1398979400000009 9.9316142500000009 5.9555277400000000 Na
atom 10.3558746399999997 9.9370790600000003 5.8602594100000003 Cl
atom 15.8759042600000004 12.5765004900000008 5.7088488799999997 Na
atom 18.6805868699999991 12.6226231700000007 5.4028543700000000 Cl
atom 15.8049723600000007 15.7114285900000006 8.5613267099999995 Na
atom 18.6187492500000005 15.6887484799999992 8.6053134799999995 Cl
atom 18.6203399099999984 12.8215849100000003 8.1796363999999997 Na
atom 15.8967999700000000 12.7273446900000007 8.3824840100000007 Cl
atom 18.6304451200000010 15.7125181200000004 5.5570406200000004 Na
atom 15.9356345899999994 15.7291065099999994 5.8194648899999999 Cl
atom 15.6083543599999999 18.4969630999999985 5.9942172500000002 Na
atom 18.4591755299999996 18.5963860899999993 5.6714098599999998 Cl
atom 15.7832712900000001 21.5058345799999984 8.4575406500000003 Na
atom 18.4959379400000010 21.1444213099999985 8.6400513900000000 Cl
atom 18.3804964400000017 18.5414247699999990 8.4318492500000009 Na
atom 15.6984284499999998 18.4888292900000017 8.6016773200000003 Cl
atom 18.5129699800000012 21.3952424500000014 5.8626443100000003 Na
atom 15.6217590299999998 21.3977061900000010 5.7851259900000001 Cl
atom 15.8092336699999993 24.1753045899999996 5.9629396400000001 Na
atom 18.6255733100000000 24.1603700500000009 6.0242756999999996 Cl
atom 15.7745068499999999 27.0191066400000004 8.4881764200000003 Na
atom 18.4970992699999996 27.0206213999999996 8.7001166600000008 Cl
atom 18.6892671399999983 24.1526147699999996 8.8261821099999995 Na
atom 15.6293740000000003 24.1803396900000003 8.6918339600000003 Cl
atom 18.6263810899999989 26.8902037400000005 5.9062009299999998 Na
atom 15.8406486799999993 26.8835191199999990 5.6986759899999999 Cl
atom 15.7837052599999996 29.8837815000000013 5.7693316399999999 Na
atom 18.3770889100000012 29.6848692599999993 5.8330635300000004 Cl
atom 15.6015906199999996 32.7114185599999985 8.4410106900000006 Na
atom 18.7104746000000013 32.6013264300000003 8.7611471400000003 Cl
atom 18.5494260799999999 29.7573152599999986 8.5509231200000002 Na
atom 15.8544119800000001 29.7936690300000002 8.5181019800000009 Cl
atom 18.5726831200000007 32.7753767800000020 6.0476531099999997 Na
atom 15.6600674600000005 32.4543484800000002 5.5879697699999999 Cl
atom 15.7420246499999994 35.4609608600000001 5.7072176399999996 Na
atom 18.5175542499999999 35.5719468699999979 5.7969089299999998 Cl
atom 16.1465834100000016 38.3942224099999976 8.5970453100000004 Na
atom 18.7923195400000012 38.4482434499999997 8.6226038000000003 Cl
atom 18.7146356400000009 35.6876145900000026 8.3438143599999997 Na
atom 15.7692111700000002 35.5314370500000010 8.5002158399999992 Cl
atom 18.7574287200000001 38.3770967299999981 5.9565743500000004 Na