#===============================================================================
# Created using the Atomic Simulation Environment (ASE)

# Tue Dec 23 21:42:50 2025

#=======================================================
lattice_vector 28.1999999999999993 0.0000000000000000 0.0000000000000000 
lattice_vector 0.0000000000000000 39.4799999999999969 0.0000000000000000 
lattice_vector 0.0000000000000000 0.0000000000000000 62.3296083400000001 
atom 7.5065559899999998 14.7566755300000008 0.0424715900000000 Au
atom 10.4281073400000004 14.8460550999999992 -0.0715050500000000 Au
atom 13.1862911999999994 14.8827996900000006 -0.3422771900000000 Au
atom 16.0488434700000013 14.8629190199999996 -0.4256151500000000 Au
atom 18.8134076999999991 14.8960404499999992 -0.1291344900000000 Au
atom 21.5172843000000000 14.8318372699999994 0.0404182400000000 Au
atom 24.3550681100000013 14.8246159500000001 0.0889068600000000 Au
atom 27.1418519300000014 14.8386234100000003 0.0244105800000000 Au
atom 1.6964104499999999 14.7851305800000006 -0.0042334300000000 Au
atom 4.5737840900000002 14.7589299500000006 -0.0950489400000000 Au
atom 8.8391759699999994 17.3056502999999999 -0.2908481600000000 Au
atom 11.6858301800000000 17.2764194800000013 -0.1335617100000000 Au
atom 14.5743272099999999 17.3208420799999985 -0.4531990900000000 Au
atom 17.3626336899999991 17.3390909200000003 -0.4522941800000000 Au
atom 20.1751809299999998 17.3362589199999988 -0.0555517100000000 Au
atom 23.0380472599999990 17.2556720900000009 0.0056399900000000 Au
atom 25.8216800800000001 17.3011422800000005 0.1529264700000000 Au
atom 0.4566670400000000 17.3036208900000013 0.0795548500000000 Au
atom 3.2896218799999999 17.2679646099999999 -0.1865455200000000 Au
atom 6.1190628900000004 17.2341194999999985 -0.1320340200000000 Au
atom 7.4913195200000002 19.7991482900000015 0.0834300300000000 Au
atom 10.3000996800000006 19.7612674900000016 -0.2172574100000000 Au
atom 13.1120621600000007 19.7445362200000005 -0.4494397700000000 Au
atom 15.9242280199999993 19.8065426500000008 -0.2978211000000000 Au
atom 18.7796718399999989 19.8078111800000016 -0.2490328700000000 Au
atom 21.5983079999999994 19.7706310199999997 0.0320805500000000 Au
atom 24.4648938700000009 19.7259529399999991 0.1799193600000000 Au
atom 27.1935998199999993 19.7722376100000012 0.1247003600000000 Au
atom 1.8160705300000000 19.7389719200000009 0.2045273500000000 Au
atom 4.7414551300000003 19.7239830599999983 -0.0150983000000000 Au
atom 8.9034483099999999 22.2914256000000002 -0.1119874600000000 Au
atom 11.6698451199999997 22.2013379099999995 -0.1780861700000000 Au
atom 14.5051513799999992 22.2413737000000005 -0.3927514000000000 Au
atom 17.3497337300000005 22.3085374700000010 -0.2488418200000000 Au
atom 20.2097341099999994 22.2838291800000015 -0.0408484400000000 Au
atom 23.0633870200000004 22.2651753100000001 0.0788514700000000 Au
atom 25.8562827800000008 22.3074509700000014 0.2199626300000000 Au
atom 0.4619930700000000 22.1551227200000014 0.2732570600000000 Au
atom 3.2359358800000000 22.2466063799999993 0.1349250800000000 Au
atom 6.0858521300000001 22.2366798199999991 0.1591016500000000 Au
atom 7.4772999100000002 24.6894492200000002 0.1007620200000000 Au
atom 10.4201985500000003 24.7883411799999998 0.0457048400000000 Au
atom 13.1569676700000002 24.6397769099999984 -0.0294478000000000 Au
atom 15.9671672099999995 24.8083223199999985 -0.1652557000000000 Au
atom 18.8499547099999987 24.8271443900000008 -0.0268679300000000 Au
atom 21.6025917599999993 24.7370829299999997 0.1979836200000000 Au
atom 24.4840664900000000 24.7370917000000006 0.1065707500000000 Au
atom 27.3171558099999991 24.6710457100000013 0.2207716500000000 Au
atom 1.8716020300000000 24.7966157100000011 0.4686384500000000 Au
atom 4.6758612700000004 24.6753339800000013 0.1841377300000000 Au
atom 8.9660393999999997 27.1946970000000015 -0.0042900600000000 Au
atom 11.7238041200000005 27.1924348400000007 0.0010870900000000 Au
atom 14.4517237000000005 27.1548305100000000 -0.1747656200000000 Au
atom 17.3698752600000006 27.2104029099999991 0.0122993600000000 Au
atom 20.2161963100000008 27.2198001199999986 0.0683373200000000 Au
atom 23.1513518500000011 27.2428378600000016 0.3696095100000000 Au
atom 25.9072414500000008 27.0794142399999984 -0.0521443900000000 Au
atom 0.5220567900000000 27.1593402799999986 0.0779938900000000 Au
atom 3.3999067500000000 27.1970699099999997 -0.0863844200000000 Au
atom 6.1708263600000004 27.2405629000000005 0.0115207900000000 Au
atom 7.5777193299999999 29.6812612599999994 -0.0193337000000000 Au
atom 10.3977657499999996 29.6830175499999989 -0.0343567900000000 Au
atom 13.1847581399999996 29.6249277500000012 -0.1111778800000000 Au
atom 15.9477304100000001 29.6197264099999984 -0.0629120000000000 Au
atom 18.7843844000000004 29.6115372400000005 0.1129925300000000 Au
atom 21.6133062199999983 29.6300674599999994 0.2088202900000000 Au
atom 24.4846549700000011 29.7326587300000007 0.0226853700000000 Au
atom 27.3036046200000015 29.5278630500000006 0.0058121700000000 Au
atom 1.9491567500000000 29.5561580399999997 -0.1349721100000000 Au
atom 4.7421243700000000 29.7120424499999984 0.0907084400000000 Au
atom 9.0278551300000007 32.0525517600000001 -0.0586965300000000 Au
atom 11.8351418400000004 32.1451695399999977 0.0459925400000000 Au
atom 14.5595148600000002 32.0462561000000008 0.1409889900000000 Au
atom 17.3658655000000017 32.0674197100000029 -0.0233946000000000 Au
atom 20.1791616699999992 32.0608305100000024 0.1057315400000000 Au
atom 22.9305696999999995 32.0739627399999989 -0.0181501300000000 Au
atom 25.9218438999999989 32.0852783899999991 -0.3201088700000000 Au
atom 0.5331628300000000 32.0726036100000016 -0.2139998500000000 Au
atom 3.3554797399999998 32.1209015499999992 -0.0269747800000000 Au
atom 6.2147251499999996 32.0859186100000002 -0.2801804700000000 Au
atom 7.5861120700000004 34.6706714000000034 -0.0369809100000000 Au
atom 10.3320320700000003 34.6005664300000007 0.0369814600000000 Au
atom 13.1448208199999996 34.5563358699999981 -0.0490935600000000 Au
atom 15.9846304700000008 34.4925917099999992 -0.1072688200000000 Au
atom 18.7338880600000017 34.5392947100000001 0.1843049300000000 Au
atom 21.4882033899999989 34.5853917199999970 -0.0189711900000000 Au
atom 24.4009308300000001 34.5933992300000028 -0.1711462000000000 Au
atom 27.2756890500000004 34.5382406100000026 -0.1669464100000000 Au
atom 1.9095865800000000 34.5204009200000002 -0.0872461600000000 Au
atom 4.7558852199999997 34.5795318600000030 -0.0493230400000000 Au
atom 8.9104746600000002 37.0831141299999985 0.1847154600000000 Au
atom 11.6765545700000004 37.1388881000000026 -0.1026981600000000 Au
atom 14.5105072499999999 37.0182928600000025 0.2248103900000000 Au
atom 17.2867059599999990 37.0966346299999969 0.0361673100000000 Au
atom 20.1196009499999988 37.0604484500000027 0.1467013700000000 Au
atom 22.9072734800000006 37.0212203600000009 -0.0376335500000000 Au
atom 25.7663914100000007 37.1589203099999992 -0.1434870200000000 Au
atom 0.4206531600000000 37.0860822799999994 0.0421003800000000 Au
atom 3.2881914200000000 36.9663540499999996 0.1025734700000000 Au
atom 6.0959768900000002 37.0533130499999999 0.0787824400000000 Au
atom 7.4734373500000002 0.0605994600000000 0.1162749300000000 Au
atom 10.3285517200000001 0.0267108700000000 0.3143735300000000 Au
atom 13.1668711100000007 0.0909271100000000 0.2350743100000000 Au
atom 15.9527872700000000 0.0659602300000000 0.1387916800000000 Au
atom 18.7640156299999994 0.0286946800000000 0.0478133100000000 Au
atom 21.5593659799999990 -0.0148682100000000 0.1589752200000000 Au
atom 24.3271214299999983 0.0898218100000000 0.0401041100000000 Au
atom 27.2456014000000017 -0.0243924900000000 0.1725445800000000 Au
atom 1.9235794799999999 -0.0125352200000000 0.1270769800000000 Au
atom 4.6617577800000003 -0.0316341600000000 0.1322149900000000 Au
atom 8.8021344199999998 2.5143017500000000 0.3834606600000000 Au
atom 11.6701975000000004 2.4803589499999998 0.1207039600000000 Au
atom 14.5589051299999994 2.5043363400000000 0.1361275300000000 Au
atom 17.4189682400000017 2.5029026800000000 0.2485835700000000 Au
atom 20.1407217799999998 2.5115791000000001 0.1110028300000000 Au
atom 22.9155989099999999 2.4748549199999998 0.0015071200000000 Au
atom 25.8508024100000000 2.4598018399999999 -0.1631144200000000 Au
atom 0.5017313000000000 2.4770515500000001 -0.0465776800000000 Au
atom 3.3463717300000000 2.4351673400000000 0.1003717100000000 Au
atom 6.0770018900000000 2.4532455400000002 0.2320643200000000 Au
atom 7.4052432100000001 4.9612276599999996 0.2686008600000000 Au
atom 10.2401102200000000 4.9487469600000003 0.2209402800000000 Au
atom 13.0998894799999999 4.8980721000000003 0.1162130400000000 Au
atom 15.9071020399999998 4.9735125499999997 0.0720895700000000 Au
atom 18.6875738499999997 4.9626666999999998 0.0291917800000000 Au
atom 21.5665352800000001 4.9723691900000002 -0.0962908400000000 Au
atom 24.3814415599999990 4.9059184800000004 -0.0037376500000000 Au
atom 27.2688128899999995 4.9365940100000003 -0.1228310300000000 Au
atom 1.8397975700000000 4.9064827199999996 -0.0583830400000000 Au
atom 4.6754334000000002 5.0088822200000003 0.1807534100000000 Au
atom 8.7821992000000009 7.4181321599999999 0.1317763600000000 Au
atom 11.7257864900000008 7.4020920099999996 0.0777445200000000 Au
atom 14.4946779100000001 7.4117067399999996 0.0860547500000000 Au
atom 17.3412834499999988 7.4276090699999999 0.0415283000000000 Au
atom 20.1019449500000000 7.4297574700000002 0.1797757200000000 Au
atom 22.9851288300000007 7.4875255200000002 0.2212970000000000 Au
atom 25.8606790300000000 7.4158117199999998 0.0985110400000000 Au
atom 0.4646600700000000 7.3616917600000003 -0.0324024400000000 Au
atom 3.2152364400000000 7.4254568599999997 0.1758931800000000 Au
atom 5.9841059899999998 7.4250259300000003 0.1718950700000000 Au
atom 7.4792102399999996 9.9117947599999994 0.0061395300000000 Au
atom 10.3089171799999999 9.9031042700000000 -0.0003140400000000 Au
atom 13.1259387600000004 9.9026613000000001 -0.0763635600000000 Au
atom 15.9824989300000002 9.8286013499999996 -0.3183903600000000 Au
atom 18.8265008499999986 9.7887272599999999 -0.1093604100000000 Au
atom 21.5803722299999983 9.8854980799999996 0.0060874800000000 Au
atom 24.4027678399999992 9.8870191999999992 0.1962471500000000 Au
atom 27.3041631400000000 9.8570116300000006 0.0663742000000000 Au
atom 1.8472351000000000 9.8458684499999993 0.1142207500000000 Au
atom 4.6173372500000003 9.9173720500000009 0.2069355800000000 Au
atom 8.8959623699999995 12.3946018400000000 -0.0443149800000000 Au
atom 11.7727073299999994 12.3874883499999999 -0.2494008000000000 Au
atom 14.6082520099999993 12.4030154300000000 -0.2210081400000000 Au
atom 17.3876194599999998 12.3933189200000005 -0.0632709200000000 Au
atom 20.1204371299999991 12.3523245399999997 0.1228097600000000 Au
atom 22.9718267599999990 12.3681399800000005 -0.0284722400000000 Au
atom 25.8055843200000012 12.3150195599999996 -0.1512890000000000 Au
atom 0.3111899400000000 12.3368377000000002 -0.0562870300000000 Au
atom 3.0855524700000001 12.3223028100000001 0.0560721000000000 Au
atom 5.9945162999999999 12.3336402799999991 0.1652475000000000 Au
atom 7.4594101899999998 13.1882386199999999 2.7099354000000000 Au
atom 10.3623033099999997 13.2528847800000005 2.5082472199999999 Au
atom 13.1398351200000008 13.2053791599999997 2.3183265000000000 Au
atom 15.9549716700000008 13.3390315800000003 2.3496796500000001 Au
atom 18.7232718799999986 13.2982961999999993 2.6095507100000002 Au
atom 21.6392299299999991 13.1625947599999993 2.5444024000000001 Au
atom 24.4149674800000014 13.1253787899999992 2.5922622600000000 Au
atom 27.1290637900000000 13.2494470300000007 2.4930486699999999 Au
atom 1.7723411200000001 13.2038736399999994 2.6536020599999999 Au
atom 4.5809731600000001 13.1790152200000001 2.6043965099999999 Au
atom 8.9025461900000007 15.6923005900000003 2.3698220499999998 Au
atom 11.8046196299999995 15.7240745600000000 2.3821994700000002 Au
atom 14.5252459500000004 15.7663265700000004 2.2124521599999998 Au
atom 17.3301833000000016 15.7936695399999998 2.2058668899999998 Au
atom 20.1668634199999985 15.6547845100000007 2.5588211400000000 Au
atom 23.0738620499999989 15.6335552300000007 2.5890842200000002 Au
atom 25.8014562299999994 15.6445927900000008 2.7445991500000000 Au
atom 0.4172651100000000 15.6713681400000002 2.6669708100000000 Au
atom 3.1618743299999998 15.6362923100000000 2.5385764900000001 Au
atom 5.9992646199999999 15.5543166599999996 2.4521120900000000 Au
atom 7.4111070300000002 17.9713989000000005 2.5187311800000001 Au
atom 10.2543852799999993 18.1699462999999994 2.4392999099999999 Au
atom 13.1118878199999997 18.2081842599999995 2.2166087200000000 Au
atom 15.8881015600000008 18.2024621599999996 2.1372996199999998 Au
atom 18.7537084900000011 18.2021333100000007 2.3593926399999998 Au
atom 21.5331602900000014 18.1474013399999983 2.5083120900000000 Au
atom 24.4245517099999994 18.1302603200000014 2.7705590199999999 Au
atom 27.1974119899999991 18.1183497899999999 2.6615021400000001 Au
atom 1.8295601500000001 18.0492794299999986 2.7508448699999999 Au
atom 4.5969362399999998 18.0928410900000003 2.4089256799999998 Au
atom 8.8525102800000006 20.6226541800000014 2.5373958499999998 Au
atom 11.7327157100000008 20.6175433499999983 2.4298491699999998 Au
atom 14.4868303800000007 20.6351183399999982 2.2323388000000000 Au
atom 17.2534711399999985 20.6230039500000011 2.2863913999999999 Au
atom 20.0445495099999995 20.6518300500000009 2.4909265800000000 Au
atom 22.9761887300000005 20.6217853099999999 2.7027315299999999 Au
atom 25.8430039499999999 20.6148740000000004 2.7682110799999999 Au
atom 0.4154335800000000 20.6326988100000008 2.9564414000000001 Au
atom 3.2556817499999999 20.6182492199999992 2.7257062099999998 Au
atom 6.0286890099999999 20.4768401000000004 2.7776576500000001 Au
atom 7.4377558199999996 23.0417862400000004 2.6267435600000000 Au
atom 10.2664866999999997 23.1492413399999997 2.4640299200000002 Au
atom 13.0781761599999999 23.0842803399999994 2.3874078700000001 Au
atom 15.8403896000000000 23.1199881699999992 2.1760267400000002 Au
atom 18.6507149299999995 23.0710285800000001 2.5602700100000000 Au
atom 21.5311059399999998 23.0813490899999998 2.6424553500000001 Au
atom 24.4254251099999991 23.1252698099999989 2.7149311200000001 Au
atom 27.2296305399999987 23.0807156099999986 2.8398315099999998 Au
atom 1.8662042700000001 23.0394500800000017 2.6364436900000001 Au
atom 4.7100568300000001 23.0732964199999984 2.7655822500000000 Au
atom 9.0420454100000001 25.6149013600000011 2.5799492900000001 Au
atom 11.7756057900000002 25.6267050400000009 2.7316552000000001 Au
atom 14.5060652599999997 25.5972825099999994 2.4913514499999998 Au
atom 17.3533672599999989 25.5060986900000017 2.4470241300000000 Au
atom 20.1752975399999990 25.5400098200000016 2.6695269000000001 Au
atom 23.0734740800000004 25.5488169800000016 2.8426041700000000 Au
atom 25.9081987799999993 25.6031490700000006 2.7274582100000000 Au
atom 0.5945609800000000 25.5228165400000009 2.9132743799999998 Au
atom 3.3499597500000000 25.5524958200000007 2.9212989999999999 Au
atom 6.1431700400000002 25.5793474699999983 2.6270828200000000 Au
atom 7.5858262800000000 28.0621015800000002 2.7123147400000001 Au
atom 10.3631448200000005 28.0589749600000005 2.7546819899999999 Au
atom 13.1968062699999997 28.1103422000000016 2.4590882700000001 Au
atom 15.9172515499999996 28.0382278999999990 2.5840321999999998 Au
atom 18.7736172900000007 28.0445128200000013 2.6222306600000000 Au
atom 21.5709468300000005 28.0613381599999983 2.9416299499999998 Au
atom 24.5158408899999998 28.0208282100000012 2.7338651500000002 Au
atom 27.3362871900000002 28.0507999800000007 2.5763552000000001 Au
atom 1.9273882400000000 27.9721436499999996 2.5242312000000000 Au
atom 4.7594623299999999 28.0543348299999984 2.7110215100000001 Au
atom 8.9747957599999992 30.4807313800000017 2.6970327100000002 Au
atom 11.7765441299999996 30.5422894300000003 2.6002186799999998 Au
atom 14.6570323800000004 30.4505646299999988 2.7676233500000000 Au
atom 17.4308254200000015 30.4833882100000011 2.6481593200000000 Au
atom 20.2606899899999995 30.5666910799999982 2.7576521500000002 Au
atom 23.1190612999999985 30.3990078299999986 2.7101506500000001 Au
atom 25.9507711800000003 30.5027889700000010 2.4569400199999998 Au
atom 0.5821808700000000 30.5284163500000005 2.4827281200000000 Au
atom 3.3407412500000002 30.4855213499999991 2.7691537300000002 Au
atom 6.2269901699999997 30.5531711900000005 2.6055606099999999 Au
atom 7.5465596000000001 32.9283414599999986 2.2508230800000000 Au
atom 10.3415513400000005 32.9477756200000016 2.6365637700000000 Au
atom 13.1772612000000002 32.9203585799999985 2.5316373500000000 Au
atom 16.0159977500000004 32.9176568999999972 2.6041506700000001 Au
atom 18.7911576300000007 32.8873366500000017 2.6508410300000000 Au
atom 21.6624813299999985 32.8674197699999979 2.5833890600000000 Au
atom 24.4420824400000001 32.9736817400000035 2.2707885200000000 Au
atom 27.2910653399999994 32.9790958000000032 2.3752555900000001 Au
atom 1.8809512900000001 32.8989727499999987 2.3647412200000000 Au
atom 4.7776567300000004 32.9317094399999988 2.6171075699999999 Au
atom 8.9372468099999995 35.4154630399999988 2.7673259099999998 Au
atom 11.7129906100000003 35.3989761699999974 2.4961999800000001 Au
atom 14.5250781999999994 35.3527818199999970 2.7128012400000001 Au
atom 17.2754434400000001 35.3558787799999976 2.6647234300000000 Au
atom 20.1504696099999983 35.3500858700000009 2.7340703500000001 Au
atom 23.0278272500000014 35.3256044399999993 2.5640914100000001 Au
atom 25.8246410100000006 35.4343643400000019 2.4693014899999999 Au
atom 0.4640806700000000 35.3477998500000012 2.4786520300000001 Au
atom 3.3303919400000002 35.3280825300000032 2.5334363500000001 Au
atom 6.1652942900000003 35.4226460900000006 2.6409605100000002 Au
atom 7.4295157700000001 37.9010989900000013 2.7675421000000000 Au
atom 10.2429924200000002 37.8761205099999998 2.8173995999999999 Au
atom 13.0481489300000000 37.8550686800000022 2.7523808700000001 Au
atom 15.8883558899999997 37.8199798699999974 2.7566491200000001 Au
atom 18.7240832600000005 37.8550522600000008 2.7092513000000000 Au
atom 21.6044210600000000 37.7749536899999967 2.7582746600000001 Au
atom 24.4017937399999987 37.8163407500000019 2.4936085299999999 Au
atom 27.2140759099999983 37.8820746999999969 2.8478627400000001 Au
atom 1.7469470100000000 37.8104122299999972 2.6245028900000000 Au
atom 4.6224232199999999 37.7872182600000031 2.7692098999999999 Au
atom 8.8700985100000000 0.8432987199999999 2.8600626500000002 Au
atom 11.7043288499999996 0.8371548000000000 2.9307067899999999 Au
atom 14.5222266799999993 0.8161883200000000 2.7750812599999999 Au
atom 17.3665837900000000 0.8764013300000000 2.8205143900000000 Au
atom 20.1858791599999989 0.8194529600000000 2.7674176400000001 Au
atom 22.9707147599999999 0.8067100100000000 2.8030488600000001 Au
atom 25.7863651000000011 0.8087835200000000 2.6284952499999998 Au
atom 0.4234878400000000 0.8306192500000000 2.6438483499999998 Au
atom 3.2844637799999998 0.7964099500000000 2.7623943299999998 Au
atom 6.0278498100000002 0.8315287600000000 2.7161948200000001 Au
atom 7.4152590500000004 3.2967667199999999 2.9086724799999999 Au
atom 10.2969431999999994 3.3342276900000001 2.7735654300000001 Au
atom 13.1265284900000001 3.3585999400000000 2.8144642400000000 Au
atom 15.9360423499999992 3.3169162100000000 2.6926687999999999 Au
atom 18.7375043000000012 3.3129668300000001 2.8525386799999999 Au
atom 21.5594732200000010 3.3176018900000002 2.5465617100000002 Au
atom 24.4019237900000014 3.2708853100000002 2.5160616899999999 Au
atom 27.1787523200000010 3.2398560100000000 2.4112873200000000 Au
atom 1.8347208399999999 3.2661556699999998 2.7729726299999999 Au
atom 4.6758615900000002 3.2977299300000000 2.7585489399999998 Au
atom 8.8298492999999993 5.8542440899999999 2.8802283100000001 Au
atom 11.6918322700000008 5.8526983399999999 2.7252698899999999 Au
atom 14.5287638599999998 5.8615915400000000 2.6687712000000001 Au
atom 17.3428706499999983 5.7965950800000003 2.6213898100000002 Au
atom 20.1682553099999993 5.7101772200000003 2.6741763900000000 Au
atom 22.9834814899999991 5.7792119599999996 2.6273082400000001 Au
atom 25.7713211899999983 5.7487350299999997 2.5677423400000001 Au
atom 0.4144169700000000 5.7648645399999996 2.4526666800000001 Au
atom 3.2256639400000000 5.8375576999999996 2.7374834300000002 Au
atom 5.9962180299999996 5.8343505200000001 2.8993863700000002 Au
atom 7.4257044199999998 8.3850895899999998 2.7382424799999998 Au
atom 10.3475913100000003 8.2830388100000008 2.6023344499999999 Au
atom 13.1598152299999995 8.3541580999999994 2.7838603700000002 Au
atom 15.9277305899999995 8.3065944399999996 2.5715974799999999 Au
atom 18.7332534099999997 8.3262428199999992 2.8568208600000000 Au
atom 21.5003240300000016 8.2322410599999998 2.6934764400000000 Au
atom 24.3921923300000003 8.2467331300000009 2.8791520899999998 Au
atom 27.2513583299999986 8.2872730800000003 2.6647248200000000 Au
atom 1.8436415200000000 8.2387311800000003 2.8543222799999999 Au
atom 4.6279213400000003 8.2852707399999996 2.7304166300000001 Au
atom 8.8740197399999996 10.7622865000000001 2.6212051900000000 Au
atom 11.7066834199999992 10.7121621400000002 2.5316391199999999 Au
atom 14.5154214199999991 10.7788169400000005 2.3305743699999999 Au
atom 17.3573022799999990 10.8557044900000008 2.4013848000000002 Au
atom 20.1751406099999997 10.7297353599999994 2.6352851600000000 Au
atom 22.9774236800000011 10.6576556900000003 2.6672896100000001 Au
atom 25.8553511100000009 10.7691545699999995 2.7696145500000000 Au
atom 0.3901126500000000 10.7817042999999995 2.5306563600000000 Au
atom 3.2416374700000001 10.7521285500000001 2.7195800600000002 Au
atom 6.1001733199999997 10.7591470699999991 2.9011213200000001 Au
atom 7.6642238200000001 13.0659900899999997 5.6297160799999997 Cl
atom 7.5436169299999998 15.9097903699999996 8.3647918800000003 Cl
atom 7.6578650499999998 13.1429446799999994 8.2605171800000008 Na
atom 7.6585780699999999 15.9060906400000004 5.6882050399999997 Na
atom 7.6707381300000002 18.8993283900000009 5.5233567700000004 Cl
atom 7.6195137400000004 21.5553327500000016 8.4772333599999996 Cl
atom 7.6723393800000004 18.7851487699999993 8.1692452099999997 Na
atom 7.7863904599999998 21.6815014200000000 5.6933504700000004 Na
atom 7.7065012900000003 24.5275354000000014 5.6208880900000002 Cl
atom 7.6037913100000001 27.2268804799999984 8.5017265900000005 Cl
atom 7.4971241900000001 24.3474545900000017 8.1711644499999991 Na
atom 7.5815603200000004 27.2264811500000015 5.8584234799999999 Na
atom 7.4988006199999999 30.0955736899999984 5.7278467600000003 Cl
atom 7.7988333699999997 32.9379138899999973 8.5677647799999992 Cl
atom 7.6107892000000001 29.9996082000000008 8.4438964799999994 Na
atom 7.6053793799999996 32.8832308200000014 5.6933318100000001 Na
atom 7.5545289899999997 35.4723725699999974 5.6270427500000002 Cl
atom 7.6382706400000000 38.5071101500000026 8.5933863800000001 Cl
atom 7.6148184900000002 35.5884544099999971 8.3320988899999993 Na
atom 7.7369092500000001 38.4899978500000017 5.9227906900000002 Na
atom 7.7888288000000001 1.8488828300000000 5.8392866500000000 Cl
atom 7.7662139400000001 4.6106912199999996 8.7334392199999993 Cl
atom 7.7460003200000003 1.7919100200000000 8.4023651200000007 Na
atom 7.8291995600000002 4.5519446400000003 5.8467891400000003 Na
atom 7.7101286199999999 7.3055500000000002 5.7264223899999998 Cl
atom 7.6296793100000002 10.2605204299999997 8.6641814700000008 Cl
atom 7.7417272900000000 7.5756667000000002 8.4233774599999993 Na
atom 7.5744746500000000 10.2345105299999997 5.9783680900000000 Na
atom 10.5145306999999999 13.0795573600000008 5.6209056400000001 Na
atom 13.3999370300000002 13.0208035500000001 5.3998206399999997 Cl
atom 10.4633827000000004 15.8336497800000000 8.0629399199999998 Na
atom 13.3258983000000004 15.9247570100000004 8.3506461800000000 Cl
atom 13.3945833499999996 13.1702971699999996 8.5481153400000007 Na
atom 10.4516096899999997 13.1953291200000002 8.3970064000000004 Cl
atom 13.2986358199999994 15.8446116600000000 5.5156167700000003 Na
atom 10.4429508299999991 15.8759566700000008 5.4469755900000001 Cl
atom 10.3528266999999996 18.7975876600000014 5.5102254700000000 Na
atom 13.1976997600000008 18.7590272499999990 5.2457534199999998 Cl
atom 10.3781500300000005 21.6196083100000003 8.1773203500000005 Na
atom 13.2282194700000009 21.4601631899999994 8.3669119999999992 Cl
atom 13.1640268500000008 18.7451417999999990 7.8402398800000004 Na
atom 10.4618849699999998 18.6926209300000004 8.1676453400000000 Cl
atom 13.2847273999999995 21.5901554500000010 5.4949999600000003 Na
atom 10.5173658900000007 21.6115239300000006 5.5458118499999998 Cl
atom 10.4617097300000008 24.5783394599999987 5.4637547299999998 Na
atom 13.2538152500000006 24.5518106699999983 5.9008464299999996 Cl
atom 10.4707577199999999 27.2169765699999999 8.1775280099999996 Na
atom 13.2552470099999997 27.2762451599999984 8.3953369500000008 Cl
atom 13.1140746299999993 24.3815037699999984 8.5912560800000008 Na
atom 10.3636972600000004 24.3866341899999988 8.2688159700000003 Cl
atom 13.3867560300000008 27.1761342799999994 5.6427053200000001 Na
atom 10.4214054800000007 27.2657642699999982 5.5901140500000004 Cl
atom 10.3955622000000005 29.9733574099999984 5.8185166300000004 Na
atom 13.2625840799999999 30.0567608300000018 5.7099134899999999 Cl
atom 10.4041692599999998 32.8637422199999989 8.2328482699999999 Na
atom 13.1279511400000004 32.8371048400000021 8.4443538100000008 Cl
atom 13.3771984800000006 30.0147394500000004 8.3428388800000004 Na
atom 10.4999427099999991 30.0325630299999986 8.4662901000000002 Cl
atom 13.4079397000000000 32.7512734399999985 5.7260376400000004 Na
atom 10.4396237599999999 32.8263874499999986 5.5402477000000001 Cl
atom 10.5633268200000003 35.4593376600000028 5.6769778200000003 Na
atom 13.3520750699999997 35.5300814100000011 5.6123840400000002 Cl
atom 10.5341245099999998 38.4048557599999967 8.4519818299999994 Na
atom 13.3535783800000001 38.2658704600000021 8.5981567099999996 Cl
atom 13.4686700399999992 35.5997563800000023 8.2747369400000004 Na
atom 10.5057881599999998 35.6225025500000001 8.4115740599999995 Cl
atom 13.1855461500000004 38.4298348499999989 5.8289381999999996 Na
atom 10.5503691800000006 38.4433119300000001 5.7836440500000004 Cl
atom 10.5578390100000004 1.9813028600000000 5.9098272200000004 Na
atom 13.2918180899999996 1.8811455900000000 5.9298907900000000 Cl
atom 10.5772457299999996 4.7736392600000004 8.6533274099999993 Na
atom 13.3623635299999997 4.6906693900000000 8.5777055900000008 Cl
atom 13.3296100899999992 1.9378442700000000 8.5582799200000004 Na
atom 10.6404101200000003 1.6823365900000000 8.6330289300000000 Cl
atom 13.3115309300000000 4.6294552600000003 5.9166696900000000 Na
atom 10.5753156300000004 4.6648309299999999 5.9905515899999999 Cl
atom 10.4581479300000009 7.3412021400000000 5.9183594299999998 Na
atom 13.1697303800000007 7.5152473799999999 5.5857547299999997 Cl
atom 10.4705076300000002 10.3882593799999992 8.6724787699999997 Na
atom 13.2732465200000007 10.3574222999999996 8.5341266400000002 Cl
atom 13.2782265600000002 7.5877253400000004 8.2967529800000008 Na
atom 10.5026675500000000 7.5343695500000001 8.6373771999999995 Cl
atom 13.2607681999999993 10.3598031899999992 5.7899833200000002 Na
atom 10.4848848300000004 10.2002682700000005 5.8054171900000000 Cl
atom 16.1045163799999997 12.9761950499999994 5.6666022800000002 Na
atom 19.0032473400000015 12.9980620299999998 5.5595114299999997 Cl
atom 15.9800248299999996 16.0326200400000012 8.0096480400000001 Na
atom 19.1120297900000011 15.9876768699999996 8.2181821500000005 Cl
atom 18.9438404300000016 13.1774587699999994 8.1493315200000005 Na
atom 16.1933132600000000 13.1923591800000004 8.3330878300000002 Cl
atom 18.9324233799999995 15.9148268700000006 5.4564003899999998 Na
atom 16.1557035900000017 15.8469832600000000 5.4235387900000003 Cl
atom 15.9662064600000004 18.7438383299999991 5.3132070799999997 Na
atom 18.7114464799999993 18.8505826399999989 5.3424156500000004 Cl
atom 16.0165582600000000 21.5646976399999986 8.2146559200000002 Na
atom 18.9115152500000008 21.5375545399999986 8.3739887599999996 Cl
atom 18.8077723699999986 18.7712688700000001 8.0553563500000003 Na
atom 15.9252013199999993 18.7095871000000002 8.0502688500000001 Cl
atom 18.9493692200000012 21.5885431099999998 5.6235232100000001 Na
atom 16.0060578699999994 21.5627427599999990 5.6190639800000000 Cl
atom 15.8666831699999999 24.3809286400000005 5.7647769200000001 Na
atom 18.6786326400000000 24.4047398800000011 5.6365558299999998 Cl
atom 16.2926173900000002 26.9984489100000005 8.2490044800000000 Na
atom 18.9834329900000007 27.1020213000000005 8.5926059699999993 Cl
atom 18.9578101399999994 24.2810612500000005 8.1723322300000003 Na
atom 15.9281156100000008 24.3413517100000014 8.4910431000000006 Cl
atom 19.1359455999999994 27.1176586200000003 5.6941495299999998 Na
atom 16.1392551299999987 27.2419656699999990 5.4626779100000000 Cl
atom 16.4075687099999996 29.8811589799999986 5.8081871800000000 Na
atom 19.1041899300000004 29.8619698699999994 5.7368688800000003 Cl
atom 16.1595147499999996 32.7697484600000024 8.3363479999999992 Na
atom 19.0072437799999996 32.8233699099999967 8.5005342200000005 Cl
atom 18.9455649800000003 29.9154382400000003 8.5601859099999995 Na
atom 16.1615120300000008 29.8803061800000016 8.5032214699999997 Cl
atom 19.0620979999999989 32.7230955200000011 5.8005836300000002 Na
atom 16.2527757199999989 32.5057438700000034 5.7157015199999996 Cl
atom 16.0927288799999992 35.5447984400000010 5.7164031199999998 Na
atom 18.8533803900000017 35.5863438800000011 5.6267147299999998 Cl
atom 16.1046237199999993 38.5208034999999995 8.4468785700000009 Na
atom 18.9085927100000006 38.2796696300000008 8.5337533699999994 Cl
atom 19.0157051300000006 35.5400508999999971 8.2977499800000007 Na
atom 16.1382670499999996 35.5379018400000035 8.5147876199999999 Cl
atom 18.9808446999999987 38.4294565900000009 5.8300645600000003 Na