#===============================================================================
# Created using the Atomic Simulation Environment (ASE)

# Tue Dec 23 21:42:28 2025

#=======================================================
lattice_vector 28.1999999999999993 0.0000000000000000 0.0000000000000000 
lattice_vector 0.0000000000000000 39.4799999999999969 0.0000000000000000 
lattice_vector 0.0000000000000000 0.0000000000000000 62.3296083400000001 
atom 7.3985811999999997 14.8118187399999997 -0.4904145100000000 Au
atom 10.3101775799999995 14.8336709899999999 -0.2979240700000000 Au
atom 13.2185719499999994 14.8200832400000007 -0.1711524600000000 Au
atom 16.0885362799999996 14.7614314600000007 -0.2400792700000000 Au
atom 18.7747490699999986 14.7882377599999995 0.2543582500000000 Au
atom 21.6235759899999991 14.8260636399999992 -0.0284478600000000 Au
atom 24.5063187499999984 14.8383990699999995 0.1136012800000000 Au
atom 27.2909874300000013 14.8788381699999999 0.0346175600000000 Au
atom 1.8694601799999999 14.9636607200000000 -0.0162137900000000 Au
atom 4.7319623000000002 14.8010516699999997 -0.1193272700000000 Au
atom 8.7466189599999993 17.3486780699999983 -0.1576090200000000 Au
atom 11.6582244300000006 17.2702991099999998 -0.3575778100000000 Au
atom 14.5856508999999992 17.2627618900000002 0.2222734800000000 Au
atom 17.3455681300000002 17.1957738000000013 -0.0656819700000000 Au
atom 20.2424692899999989 17.3343832499999984 -0.0963235700000000 Au
atom 22.9416556999999983 17.2478804200000013 0.0924739700000000 Au
atom 25.8694681399999986 17.3419880699999993 -0.0040651300000000 Au
atom 0.4510073200000000 17.5105647399999995 0.0605020000000000 Au
atom 3.2655574299999999 17.3811109799999990 -0.0291885700000000 Au
atom 5.9614757100000002 17.3149010200000006 -0.5080657100000000 Au
atom 7.3489841299999998 19.8563960199999983 -0.0849784100000000 Au
atom 10.3211660500000004 19.7826667500000006 -0.4396726700000000 Au
atom 13.0128717300000005 19.7006636300000011 0.0857001600000000 Au
atom 15.8040022100000002 19.8406207399999985 0.0055665300000000 Au
atom 18.5958795399999985 19.7362307799999996 0.0769071200000000 Au
atom 21.6379132500000004 19.7407409600000001 0.0640673400000000 Au
atom 24.4559041400000012 19.7121967699999985 0.2812068600000000 Au
atom 27.1498671700000003 19.9358183500000017 0.0212364500000000 Au
atom 1.7900713500000001 19.9140870499999991 -0.3370096800000000 Au
atom 4.5808788700000003 19.8622515499999999 -0.3000361000000000 Au
atom 8.9117579300000003 22.1888612700000003 -0.2940089600000000 Au
atom 11.6542176299999998 22.2367926400000009 -0.0641315500000000 Au
atom 14.4467292799999996 22.1941775200000002 0.2448328200000000 Au
atom 17.2729107400000004 22.2186664000000000 0.2788127100000000 Au
atom 20.0333298800000001 22.2460836200000003 -0.2224781600000000 Au
atom 22.9123421500000006 22.1478266099999992 0.0264706300000000 Au
atom 25.7709714500000011 22.2472272900000014 0.0730846500000000 Au
atom 0.4295315900000000 22.3459556299999988 0.0035473100000000 Au
atom 3.2426021800000000 22.3739881899999986 -0.1868839200000000 Au
atom 5.9947898999999998 22.3708032299999999 -0.1483851000000000 Au
atom 7.4259119499999997 24.7083213000000015 0.0806692300000000 Au
atom 10.2816680199999997 24.7048199400000001 -0.0155972200000000 Au
atom 13.1008918800000007 24.7472134799999992 0.3080809700000000 Au
atom 15.8787521199999997 24.7119980499999983 0.1124214900000000 Au
atom 18.7459327999999985 24.6684700799999987 0.0771543400000000 Au
atom 21.5637532199999988 24.6683570199999984 0.1524137300000000 Au
atom 24.2995547700000003 24.6433348499999987 -0.0469291400000000 Au
atom 27.1014132900000000 24.7220749200000007 0.0439917300000000 Au
atom 1.7792485499999999 24.8314337499999986 -0.0298164900000000 Au
atom 4.5396290700000002 24.7837666900000002 0.0074453500000000 Au
atom 8.7984174399999997 27.1407925600000013 -0.1606213800000000 Au
atom 11.6829149399999999 27.1312402900000009 0.0540340600000000 Au
atom 14.4701163499999996 27.1252160099999990 -0.1802884400000000 Au
atom 17.2822986699999994 27.1351004799999984 0.0125816000000000 Au
atom 20.0978129800000005 27.1433916300000000 -0.1697027800000000 Au
atom 22.9010521900000015 27.0798739099999999 0.0510914300000000 Au
atom 25.7323371099999996 27.1581018900000011 -0.0749757700000000 Au
atom 0.2791501000000000 27.1980137800000001 0.1722256500000000 Au
atom 3.0759751999999998 27.3474252200000016 0.0189116500000000 Au
atom 6.0082332999999997 27.2037097000000010 -0.0109452700000000 Au
atom 7.4114464499999997 29.7078658199999985 0.0296221700000000 Au
atom 10.2558387199999999 29.6168030599999987 -0.1267981800000000 Au
atom 13.1045291699999993 29.6295870999999984 -0.3706597800000000 Au
atom 15.8796763700000003 29.7399665000000013 0.1879128700000000 Au
atom 18.6683133099999985 29.6335265399999983 -0.1105518500000000 Au
atom 21.5261850999999993 29.5590958300000004 0.0224963200000000 Au
atom 24.3717743599999999 29.7193647900000002 0.1985234900000000 Au
atom 26.9907661499999989 29.6777616500000008 0.1384951600000000 Au
atom 1.6634680399999999 29.7038083499999992 0.4212816300000000 Au
atom 4.5891801200000000 29.8033677099999998 0.1560071300000000 Au
atom 8.8255743800000008 32.1865329999999972 -0.3613503700000000 Au
atom 11.5989117400000001 32.1251256600000019 -0.2351457600000000 Au
atom 14.4757677499999993 32.1285434300000006 -0.3883478800000000 Au
atom 17.3583218600000002 32.1775238999999971 -0.1232380700000000 Au
atom 20.1046524899999994 32.0517643900000024 0.0598566100000000 Au
atom 22.9529864100000012 32.0405012299999967 0.1499414100000000 Au
atom 25.7623809600000016 32.1696533900000006 0.2396871700000000 Au
atom 0.4244338700000000 32.0936268000000027 -0.0585406400000000 Au
atom 3.0736621999999998 32.0688720300000014 -0.2295108600000000 Au
atom 5.9512746600000002 32.1271897100000032 -0.3232835000000000 Au
atom 7.3195909900000000 34.5962522800000016 -0.0205600300000000 Au
atom 10.0865440500000005 34.6748942700000029 -0.4843828900000000 Au
atom 12.9983595399999992 34.5851009200000021 -0.2801254400000000 Au
atom 15.9084658799999996 34.5679215999999983 -0.1423423500000000 Au
atom 18.8228560599999994 34.6237373199999965 0.1288368400000000 Au
atom 21.6732039999999984 34.5419632199999995 0.2401461400000000 Au
atom 24.3639564100000001 34.5696682999999965 -0.0374571400000000 Au
atom 27.1868288500000013 34.5938144100000002 0.2269444000000000 Au
atom 1.7016832700000000 34.6078985299999999 -0.0543978300000000 Au
atom 4.4929304600000002 34.6480205900000016 -0.0721501400000000 Au
atom 8.7549041200000008 37.0676263699999993 0.1401800100000000 Au
atom 11.6478205900000003 37.0389141899999998 -0.2863908300000000 Au
atom 14.5736184800000004 37.0598679200000021 0.0039377500000000 Au
atom 17.3531026900000001 37.0716331599999975 -0.0537946700000000 Au
atom 20.1483526200000007 36.9993456199999997 0.1782411300000000 Au
atom 22.9857698600000013 37.0328525400000004 -0.0191618900000000 Au
atom 25.7638451999999987 37.0333394600000005 0.1359501100000000 Au
atom 0.2466925000000000 37.0614050800000001 0.2152803400000000 Au
atom 3.0063563200000001 37.0872758800000000 -0.1438330200000000 Au
atom 5.8304146000000001 37.0039732600000022 0.0891566000000000 Au
atom 7.3139938999999998 0.0958709400000000 -0.1379989600000000 Au
atom 10.2513204200000008 0.0355477200000000 0.0606607300000000 Au
atom 13.1222695100000006 -0.0211158300000000 0.1438230800000000 Au
atom 15.9817053199999997 0.0408710800000000 0.1738147400000000 Au
atom 18.7229297400000014 0.0697132300000000 0.0659434800000000 Au
atom 21.5978351300000000 -0.0550442000000000 0.1223171800000000 Au
atom 24.3539638700000012 0.0043432800000000 0.2123467900000000 Au
atom 27.2316277599999985 0.0302138300000000 0.1926368200000000 Au
atom 1.8325265100000001 0.0098617400000000 0.1375386700000000 Au
atom 4.6251901699999998 -0.0068497100000000 0.1435524200000000 Au
atom 8.8701824400000007 2.5159931800000002 -0.1294064400000000 Au
atom 11.7029864000000003 2.4104701999999998 -0.1871489000000000 Au
atom 14.6677734300000004 2.5087880500000002 0.0872635500000000 Au
atom 17.4107833700000008 2.5181608000000000 0.1941281600000000 Au
atom 20.2415448299999987 2.4597557200000000 -0.0436064100000000 Au
atom 22.9936603300000009 2.4306949499999999 0.1195644400000000 Au
atom 25.8503805399999997 2.4421113000000001 0.1037828400000000 Au
atom 0.4757534200000000 2.4452086700000000 0.0793226700000000 Au
atom 3.2764398400000001 2.4186281699999999 0.3232823000000000 Au
atom 6.0317294800000001 2.6022577700000000 0.0633755600000000 Au
atom 7.4806970599999998 4.9335449899999997 -0.0562459100000000 Au
atom 10.2124713499999995 4.9925629999999996 0.1602974500000000 Au
atom 13.0009406399999996 4.9231781200000002 0.2594744800000000 Au
atom 16.0160347899999991 4.9434943499999999 0.1990719900000000 Au
atom 18.8735145799999984 5.0181461900000004 0.1752032000000000 Au
atom 21.5739498900000015 4.8513456499999998 0.1666048700000000 Au
atom 24.3730564100000002 4.9114775899999996 0.1442594900000000 Au
atom 27.2459216099999999 4.9454499199999997 0.1458835000000000 Au
atom 1.8432566300000000 4.9032114399999998 0.4515140300000000 Au
atom 4.6714749600000003 4.9818996200000001 0.2395797200000000 Au
atom 8.9068560600000009 7.4492128099999997 -0.1832904700000000 Au
atom 11.7163790500000005 7.4557984399999997 0.0146287000000000 Au
atom 14.5598018600000003 7.4081206799999997 -0.1694326700000000 Au
atom 17.3590345799999994 7.3547959900000004 0.0224801300000000 Au
atom 20.2101724599999990 7.4603770300000001 -0.3212399100000000 Au
atom 23.0181057500000001 7.4151860500000000 -0.0322649400000000 Au
atom 25.9079903099999989 7.3626951399999996 0.1536785200000000 Au
atom 0.4789179700000000 7.3890396699999998 0.3959734400000000 Au
atom 3.2918144300000001 7.4564725799999998 0.1531710700000000 Au
atom 6.1050292300000004 7.3837478599999997 -0.3893588500000000 Au
atom 7.4519125700000002 9.8549177199999995 -0.2758450100000000 Au
atom 10.3071645699999994 9.9632945700000004 -0.0339456700000000 Au
atom 13.2864586700000000 9.8298999600000005 -0.0981997600000000 Au
atom 16.0649619000000001 9.8914047200000006 -0.0981522500000000 Au
atom 18.8124743000000016 9.8342929600000009 -0.2223692500000000 Au
atom 21.6238833899999996 9.9217021499999998 -0.3904012400000000 Au
atom 24.4365837699999986 9.8714574099999997 -0.2903791400000000 Au
atom 27.2747700399999999 9.8510105200000009 0.1777537100000000 Au
atom 1.9572601900000000 9.8884688300000008 0.2696137000000000 Au
atom 4.6750221500000002 9.9412035900000006 0.2178028400000000 Au
atom 8.8321502299999999 12.2897190900000002 -0.2679217200000000 Au
atom 11.6586498200000008 12.3307668499999998 -0.3182408900000000 Au
atom 14.5745040800000005 12.3160191300000008 -0.1537965400000000 Au
atom 17.5402543199999990 12.2719155400000002 0.0973655800000000 Au
atom 20.2210804599999996 12.3483982000000001 -0.1225839600000000 Au
atom 23.1087793099999992 12.3940133800000005 -0.2026719200000000 Au
atom 25.7580781099999996 12.4012873100000007 -0.1624339000000000 Au
atom 0.4453612400000000 12.3402263800000007 0.0001284800000000 Au
atom 3.2592697899999998 12.3995674299999994 0.1031666600000000 Au
atom 6.0896533000000002 12.3685694799999997 -0.1411580700000000 Au
atom 7.5890509300000000 13.2917777899999994 2.2794255300000001 Au
atom 10.2974084599999998 13.1507789499999994 2.1960690399999998 Au
atom 13.0577398999999996 13.1710786300000002 2.3671047100000000 Au
atom 15.9832758100000003 13.1645525899999996 2.4977195600000002 Au
atom 18.7424371699999988 13.1836550900000002 2.7912968999999999 Au
atom 21.5051215599999992 13.1846509300000001 2.4161771200000000 Au
atom 24.2823385599999995 13.1443039099999996 2.7139577500000001 Au
atom 27.0884839699999986 13.1564915899999999 2.5694385099999999 Au
atom 1.9163888400000000 13.2919015700000003 2.7867483300000000 Au
atom 4.7771267200000000 13.2526424299999999 2.6030362100000000 Au
atom 9.0028902899999999 15.7913811200000005 2.3116078600000001 Au
atom 11.7249090099999993 15.5695588100000002 2.4150356099999999 Au
atom 14.5338445000000007 15.5224723299999994 2.5959864399999999 Au
atom 17.3459124600000010 15.7592245200000001 2.7163049400000001 Au
atom 20.1333902100000017 15.7236052199999996 2.6495821099999999 Au
atom 22.8718603700000003 15.6124709199999998 2.7338465599999999 Au
atom 25.7024994100000015 15.6100846700000009 2.6751001500000000 Au
atom 0.4005634000000000 15.6951218200000007 2.7358126100000000 Au
atom 3.3092841499999999 15.6369922799999994 2.4981302500000000 Au
atom 6.1466672999999998 15.7665752700000006 2.2291114400000001 Au
atom 7.5618198599999999 18.1635771999999989 2.4602404000000000 Au
atom 10.3710940600000008 18.0828318199999991 2.2865522100000000 Au
atom 13.0505196500000000 18.0024390200000006 2.7606181099999998 Au
atom 15.8455738400000001 18.0952701500000011 2.7746736300000001 Au
atom 18.5951206000000013 18.2388349199999986 2.5732454100000002 Au
atom 21.5150006100000013 18.1655411700000009 2.6019564200000000 Au
atom 24.3003216900000005 18.0912762399999991 2.8532548599999998 Au
atom 27.1281406099999991 18.1839178100000005 2.6311880300000001 Au
atom 1.9191969600000001 18.1710656800000017 2.4901479399999999 Au
atom 4.8190841400000002 18.2208918100000012 2.4162774499999999 Au
atom 8.9958123800000003 20.6348492599999993 2.2518882900000001 Au
atom 11.6972697100000005 20.5128085599999999 2.5344671600000002 Au
atom 14.4527599500000008 20.5442361200000008 2.6387759300000000 Au
atom 17.2919777699999990 20.5290889900000018 2.8232314600000001 Au
atom 19.9914485299999996 20.6761996000000003 2.3550337899999998 Au
atom 22.9798232899999988 20.6309438999999983 2.9375675900000000 Au
atom 25.7957003900000004 20.5893695600000015 2.7526924600000000 Au
atom 0.5426191600000000 20.6565024500000014 2.4006780700000001 Au
atom 3.3717650899999998 20.6077767799999982 2.2529333500000002 Au
atom 6.1267522999999997 20.6929011000000003 2.5911187099999999 Au
atom 7.5017935099999997 23.0558382500000008 2.5235556300000002 Au
atom 10.2993845600000000 23.0763779199999988 2.6182050700000001 Au
atom 13.0814070699999991 23.0126758000000002 2.9148076600000001 Au
atom 15.8270491900000003 23.1078795499999998 2.8110495900000001 Au
atom 18.6847016699999990 23.1318543500000011 2.6860713800000000 Au
atom 21.5263293699999991 23.0130782499999995 2.6449697099999998 Au
atom 24.3472116199999995 23.0093870699999989 2.6927038799999998 Au
atom 27.2373729800000000 23.0418586000000012 2.7382453099999999 Au
atom 1.9348973300000001 23.0586895200000015 2.6797956300000001 Au
atom 4.6851047499999998 23.1137850299999990 2.5185455999999999 Au
atom 8.8220531799999993 25.5768693399999982 2.7373985300000001 Au
atom 11.5381621699999997 25.6337033800000000 2.8223409600000000 Au
atom 14.5341972599999991 25.6525742000000001 2.6171231200000000 Au
atom 17.3546277300000007 25.5132889499999997 2.6715395100000001 Au
atom 20.1840444300000001 25.5726903599999993 2.6340616899999998 Au
atom 22.9111754199999993 25.5892937799999984 2.6681544399999999 Au
atom 25.7704355999999990 25.4834201200000017 2.5902773799999999 Au
atom 0.4379544100000000 25.6532531000000006 2.7885304899999999 Au
atom 3.2017593000000000 25.6757160099999986 2.7551461499999998 Au
atom 6.0306063200000004 25.6171681500000012 2.4930244400000001 Au
atom 7.3714019300000002 28.0140068699999993 2.4235406700000000 Au
atom 10.1528813000000007 28.0770441899999987 2.7941955900000002 Au
atom 13.0052770599999992 27.9921156599999996 2.3054482400000000 Au
atom 15.8982324800000008 28.0943138899999987 2.7487033099999998 Au
atom 18.6590371300000015 28.0162556000000009 2.3232610700000000 Au
atom 21.6032209399999999 28.0330329499999991 2.6394801100000000 Au
atom 24.3660412400000013 27.9238059000000014 2.4056365000000000 Au
atom 27.1686407400000007 28.0745699799999997 2.6692522500000000 Au
atom 1.6799096800000000 28.0844090599999987 2.7918353300000001 Au
atom 4.5901869700000004 28.1250153400000009 2.6624636200000000 Au
atom 8.9328848099999991 30.5646575100000000 2.5745380500000001 Au
atom 11.6629945999999993 30.5209927699999994 2.3698216900000002 Au
atom 14.4811632499999998 30.4522803099999990 2.5046811899999999 Au
atom 17.3235577700000007 30.5451893100000014 2.5445324899999999 Au
atom 20.0435574099999982 30.5342665300000000 2.6876328300000001 Au
atom 22.8757593099999994 30.4674597300000016 2.6612456600000001 Au
atom 25.5617204700000009 30.5197773000000012 2.9167461000000001 Au
atom 0.2786798400000000 30.5813364400000012 2.8098721599999998 Au
atom 3.1429413300000002 30.6249957899999998 2.6788297800000000 Au
atom 5.9480026199999996 30.4935631399999991 2.7489228600000000 Au
atom 7.3751937600000002 32.9273194100000026 2.3041254100000002 Au
atom 10.1457580600000004 33.0042145299999987 2.3539640500000001 Au
atom 13.0951752199999998 32.9597969699999993 2.3949979600000000 Au
atom 15.8854714300000008 32.8859618700000027 2.2105464700000002 Au
atom 18.6843866100000007 32.9491929400000032 2.6413179100000002 Au
atom 21.4451789800000014 32.9341670499999992 2.9124091700000001 Au
atom 24.3173595999999996 33.0241031099999987 2.6148227400000001 Au
atom 27.1469242699999995 33.0711269500000000 2.9371701899999998 Au
atom 1.7127978500000001 32.9813910700000008 2.3472331999999998 Au
atom 4.5392722900000004 33.0290804799999975 2.4831681500000000 Au
atom 8.8086210000000005 35.4686169499999977 2.6304032500000001 Au
atom 11.6030220899999996 35.3935919600000020 2.1287446399999999 Au
atom 14.5122187300000007 35.2875957199999988 2.5011366100000001 Au
atom 17.2559213699999994 35.3710221500000017 2.4863311399999999 Au
atom 20.0710338600000000 35.3473909300000031 2.8325734499999999 Au
atom 22.9702358599999990 35.4237522100000035 2.9145802700000001 Au
atom 25.8315146099999993 35.4907379899999995 2.7669352400000000 Au
atom 0.3950054800000000 35.4319981000000013 2.8345443600000002 Au
atom 3.1755528200000001 35.4274834400000032 2.5932440200000002 Au
atom 6.0486019700000000 35.4692254100000000 2.5849515699999999 Au
atom 7.4322218199999996 37.9028934600000014 2.6884942999999999 Au
atom 10.2663939000000006 37.9052237000000005 2.7064313100000001 Au
atom 13.0445836600000007 37.8474205600000033 2.4309280499999999 Au
atom 15.8893136599999991 37.7537887299999966 2.6504261100000002 Au
atom 18.7472057300000010 37.7515789500000025 2.5271032299999998 Au
atom 21.5914292600000017 37.7960749399999969 2.6110566999999998 Au
atom 24.3632631599999989 37.8362371600000031 2.7015614499999998 Au
atom 27.2241014399999983 37.9373604900000032 2.8945883200000000 Au
atom 1.7651811799999999 37.8451220600000013 2.6361246399999998 Au
atom 4.6596771099999996 37.8675432599999979 2.5944757500000000 Au
atom 8.7654667600000007 0.8399960400000001 2.4121941499999999 Au
atom 11.5745916500000003 0.8944695300000000 2.5751137300000000 Au
atom 14.3623538400000008 0.7790443300000000 2.7239800999999999 Au
atom 17.1835021300000008 0.7139863700000000 2.7631674799999999 Au
atom 20.1434758299999999 0.8550192200000000 2.5991379999999999 Au
atom 23.1223119200000014 0.8713735200000000 2.8330174499999998 Au
atom 25.8376867200000007 0.9181126300000000 2.8928247800000002 Au
atom 0.3619865200000000 0.8250096600000000 2.7376792999999999 Au
atom 3.1390649700000002 0.8717938500000000 2.8513605000000002 Au
atom 5.9474623500000003 0.9151484200000000 2.5720976200000001 Au
atom 7.3558704600000002 3.3403431700000001 2.5853920900000000 Au
atom 10.2752728700000002 3.2981060599999998 2.4677559699999998 Au
atom 13.0989429299999998 3.3421491400000001 2.7599673500000002 Au
atom 15.9153754299999992 3.2909224600000000 2.7116430600000001 Au
atom 18.7163077099999988 3.2760001900000000 2.6590859999999998 Au
atom 21.6306964899999983 3.3661481700000002 2.6446026100000002 Au
atom 24.4397052499999994 3.5704349099999999 2.8960578799999999 Au
atom 27.2094251999999983 3.3108068199999998 2.6930871800000000 Au
atom 1.7765058800000000 3.3002816600000000 2.9169680400000000 Au
atom 4.5472802200000002 3.4143272200000001 2.8103421100000001 Au
atom 8.8758515599999992 5.7018363499999998 2.7288864099999999 Au
atom 11.6438202400000002 5.7533676700000003 2.9294304699999998 Au
atom 14.5210933299999994 5.7636932900000000 2.6014907599999999 Au
atom 17.4102068699999997 5.7914748200000004 2.8962233799999999 Au
atom 20.1492753799999988 5.7997857100000001 2.6586072000000001 Au
atom 22.9945653499999985 5.8935620499999999 2.9091040200000000 Au
atom 25.7741228500000013 5.9765137099999999 2.8994553600000001 Au
atom 0.4518391600000000 5.7382417099999996 2.9335590100000002 Au
atom 3.1874721500000001 5.9590764299999996 2.8012433400000001 Au
atom 6.1119733900000002 5.8368645399999997 2.6134191000000002 Au
atom 7.4918264499999996 8.2282547200000007 2.3441823799999999 Au
atom 10.3140587799999999 8.2321509899999992 2.5007923900000000 Au
atom 13.1722158599999997 8.2084240099999999 2.5585620100000002 Au
atom 15.9467204000000002 8.1193062800000000 2.4528127500000001 Au
atom 18.7797614300000006 8.2838656000000004 2.4655279800000001 Au
atom 21.5798060000000014 8.2131420599999991 2.2663756799999999 Au
atom 24.3858019800000001 8.3900468000000004 2.6183383999999998 Au
atom 27.2317806299999994 8.3252728999999999 2.8256959699999999 Au
atom 1.9185018800000000 8.3875395099999999 3.0141472000000000 Au
atom 4.7384271000000000 8.3342879799999992 2.6877597000000000 Au
atom 8.8526424299999995 10.7036597199999992 2.4527831099999999 Au
atom 11.6834817599999994 10.6922474500000000 2.6475705299999999 Au
atom 14.5275326099999997 10.6759133800000008 2.5128628399999999 Au
atom 17.3301762500000009 10.6167340200000009 2.5602550300000000 Au
atom 20.2007837899999991 10.6446547299999992 2.3491155699999999 Au
atom 22.9718507599999988 10.6624570999999992 2.1666703799999998 Au
atom 25.7469672699999990 10.7612655600000000 2.5643614700000001 Au
atom 0.4668465300000000 10.8601682799999999 2.7354972700000002 Au
atom 3.3768291300000000 10.7997766700000000 2.8394411399999999 Au
atom 6.2003082799999998 10.7338690099999994 2.6951766500000001 Au
atom 8.0372345500000009 13.0155957799999999 5.4117823899999999 Cl
atom 7.9241044499999997 15.7829422400000006 8.5102001400000002 Cl
atom 8.1545877499999992 12.9009345399999997 8.3016758199999998 Na
atom 7.9597762699999999 15.8181591299999997 5.7607049799999999 Na
atom 7.9685512300000001 18.4991761299999986 5.5098446200000000 Cl
atom 7.9990602700000002 21.3526231200000005 8.3825304799999998 Cl
atom 7.9081801000000000 18.5910324899999999 8.1542540100000007 Na
atom 7.8421170499999997 21.2557958099999986 5.3965240500000000 Na
atom 7.9689376400000000 24.2944221700000007 5.4851410600000001 Cl
atom 7.9006104500000003 26.9758202400000009 8.4468423099999992 Cl
atom 8.0550382999999997 24.1360435200000012 8.0417262800000007 Na
atom 8.0033019700000008 27.1602495099999999 5.6026051199999998 Na
atom 8.0083881100000003 29.8606642300000011 5.6952502300000001 Cl
atom 7.8779806800000003 32.6346700900000002 8.5366728599999995 Cl
atom 7.9773211399999999 29.8197646799999987 8.3995785699999992 Na
atom 7.9652421499999999 32.6235410299999984 5.6248842500000000 Na
atom 8.0304751700000008 35.3561280899999986 5.6584727499999996 Cl
atom 7.8624664800000001 38.2842145600000023 8.5373190000000001 Cl
atom 7.9694423299999997 35.5845643600000017 8.4376850599999997 Na
atom 7.8326893200000001 38.3122424600000002 5.9346493499999999 Na
atom 7.9225368700000001 1.7579162600000000 5.7616112399999997 Cl
atom 7.9938585499999997 4.5699906800000001 8.5219632099999991 Cl
atom 7.8204725200000000 1.7770916000000001 8.5839030399999992 Na
atom 7.9183082499999999 4.3210641299999999 5.7456913099999998 Na
atom 7.9637834099999996 7.2304219099999996 5.5112390600000003 Cl
atom 8.0155754500000000 10.0578040800000004 8.4205652299999993 Cl
atom 7.9958453799999996 7.3275846099999997 8.2729727400000002 Na
atom 7.9255343800000002 9.9836403399999991 5.7026570500000000 Na
atom 10.7795749999999995 12.9120347199999994 5.5544638300000004 Na
atom 13.6504553000000008 12.7373686500000005 5.5497915899999999 Cl
atom 10.6868648000000004 15.7633633599999996 8.3645432900000003 Na
atom 13.6935450299999992 15.7616587100000007 8.5203096499999997 Cl
atom 13.7366480499999994 12.9244584499999995 8.4671169099999997 Na
atom 10.8265829000000000 12.9397134600000001 8.4156357699999997 Cl
atom 13.7881041000000000 15.7600320499999995 5.8816213499999996 Na
atom 10.7991022799999996 15.6198806099999992 5.6029667400000003 Cl
atom 10.8969008600000006 18.5997469600000009 5.5035745199999999 Na
atom 13.8099701899999996 18.4259927400000016 5.5709389099999997 Cl
atom 10.6353853699999998 21.3821154100000008 8.1671158599999991 Na
atom 13.5241092700000003 21.4718755399999992 8.5161534400000001 Cl
atom 13.6033480800000000 18.6107937899999989 8.4348866400000002 Na
atom 10.8550994299999992 18.5460494999999987 8.2596443300000004 Cl
atom 13.6144774500000008 21.2827056799999994 5.8105240399999998 Na
atom 10.7483559000000000 21.2541585300000015 5.4997809300000000 Cl
atom 10.9974418499999995 24.3799253200000017 5.6710099600000001 Na
atom 13.5654943100000001 24.2942094600000011 5.8507872699999997 Cl
atom 10.9261623900000000 27.0745585899999988 8.4697210799999993 Na
atom 13.7703913700000005 27.2443475699999986 8.3475053900000002 Cl
atom 13.6179745000000008 24.1975030999999987 8.6330647799999998 Na
atom 10.6442151000000003 24.1734861800000012 8.5248912299999997 Cl
atom 13.6815686900000006 27.2884962900000012 5.9126878300000003 Na
atom 10.8265088200000008 27.1742502600000009 5.7255745800000000 Cl
atom 10.7557572199999996 29.9443610299999996 5.7427885900000000 Na
atom 13.6308894899999995 30.0771736599999997 5.6106313099999996 Cl
atom 10.6777881600000004 32.7266337599999986 8.5495576199999999 Na
atom 13.5587310799999994 32.6800428800000020 8.6215873999999992 Cl
atom 13.6668143499999992 29.9621707800000010 8.3760775100000000 Na
atom 10.8159484100000007 29.8122103900000006 8.5595459300000005 Cl
atom 13.5222375100000001 32.7786497800000021 6.0073502300000001 Na
atom 10.6677419499999999 32.7636802600000010 5.7106833400000001 Cl
atom 10.7331229399999994 35.5817875899999976 5.9041260700000002 Na
atom 13.3789033300000000 35.7281035000000031 5.7940392899999997 Cl
atom 10.7541054900000006 38.5420413599999989 8.4753741799999993 Na
atom 13.5124656400000003 38.4945244700000018 8.7395972799999999 Cl
atom 13.4555704100000000 35.6591571100000024 8.6308867100000004 Na
atom 10.8184615700000002 35.4806031500000003 8.6545501700000003 Cl
atom 13.5926349500000008 38.4320433899999969 5.8089864400000000 Na
atom 10.8236459099999998 38.3109017900000026 5.8587692300000001 Cl
atom 10.6536558800000005 1.6152412500000000 5.9694275000000001 Na
atom 13.4008979299999993 1.7503319799999999 5.6476658899999999 Cl
atom 10.7785851200000007 4.4772549000000001 8.3953433900000007 Na
atom 13.5251418700000006 4.5944887699999999 8.7218772300000005 Cl
atom 13.6289367899999991 1.7842276300000000 8.5758842299999998 Na
atom 10.7551199200000003 1.7439427199999999 8.6522234900000008 Cl
atom 13.6029582999999992 4.5825881300000004 5.8551658399999997 Na
atom 10.7968376999999993 4.3123614200000002 5.7708756799999996 Cl
atom 10.7997626499999999 7.3050378499999997 5.8298010400000004 Na
atom 13.6214341500000007 7.1715155599999996 5.5239481899999996 Cl
atom 10.9042590799999992 10.1095624700000002 8.2956894900000009 Na
atom 13.6748707399999994 10.0075771699999994 8.6050147199999998 Cl
atom 13.4889519900000003 7.2394520099999999 8.4103183599999998 Na
atom 10.7907074800000000 7.3501531599999996 8.5719604100000009 Cl
atom 13.6691760299999991 10.1033608299999997 5.8042295700000004 Na
atom 10.9750097899999997 9.9651467100000009 5.5095496099999997 Cl
atom 16.5905112899999985 12.9330017700000006 5.9718369600000001 Na
atom 19.3811575299999994 12.7930484799999995 5.5872640300000000 Cl
atom 16.4678503999999997 15.6880810900000007 8.5242037899999996 Na
atom 19.2395932199999997 15.6863211299999996 8.5707428599999993 Cl
atom 19.3613958100000012 12.8182065600000001 8.2431907800000008 Na
atom 16.4571835399999991 12.9105306399999993 8.6357519099999998 Cl
atom 19.1669426200000004 15.7672889900000008 5.8663642100000004 Na
atom 16.4825885300000010 15.6880867199999994 5.8074676199999997 Cl
atom 16.4251451199999998 18.5619570899999999 5.9794412499999998 Na
atom 19.0135002799999988 18.7929846000000005 5.7904957899999996 Cl
atom 16.3220215999999994 21.5520544600000008 8.2524636099999995 Na
atom 19.0941249100000014 21.5421160200000017 8.6399071700000007 Cl
atom 19.1415024600000017 18.5520639000000003 8.4301512800000005 Na
atom 16.3434310099999998 18.6431837599999994 8.6441132899999999 Cl
atom 19.1426621700000013 21.5487807899999986 5.8181645099999999 Na
atom 16.3689634599999998 21.6411596599999996 5.6634695300000004 Cl
atom 16.3560050500000003 24.4597091599999992 5.9581046700000000 Na
atom 19.2314907999999996 24.4591704900000018 5.7155067099999997 Cl
atom 16.3387013000000003 27.1761884900000013 8.5611616700000006 Na
atom 19.2543727000000011 27.1673514300000001 8.6603397799999993 Cl
atom 19.2142645999999999 24.2750540000000008 8.3032702900000004 Na
atom 16.5549674200000005 24.5017464099999991 8.8085410100000008 Cl
atom 19.1796593199999990 27.2928989299999998 5.7450619400000003 Na
atom 16.3493379599999997 27.1660544399999999 5.7247944200000003 Cl
atom 16.3620745899999989 29.9165104600000014 5.5679956900000001 Na
atom 19.1297153699999996 29.9746058799999986 5.7031604299999996 Cl
atom 16.4081457300000011 32.7516809099999975 8.4277589899999992 Na
atom 19.1881088300000009 32.8186500600000031 8.5753217100000008 Cl
atom 19.3440360700000014 29.9190842600000018 8.3357735599999998 Na
atom 16.3963897600000017 30.0395152100000011 8.5697973399999992 Cl
atom 19.0499751800000006 32.6643836699999994 5.9117387700000004 Na
atom 16.2824581100000003 33.0647959200000017 5.8628949199999996 Cl
atom 16.1926280499999997 35.7524458800000033 5.9516325700000001 Na
atom 18.8783297300000008 35.8225191699999996 5.8098321600000000 Cl
atom 16.2867751200000015 38.3793099399999988 8.5635005300000007 Na
atom 19.0055294100000012 38.4691112699999991 8.8138619600000006 Cl
atom 19.2547066300000012 35.7707543900000005 8.5056450699999999 Na
atom 16.2431083399999991 35.4829919599999997 8.6797016500000002 Cl
atom 19.0932793200000006 38.5475820300000009 6.0418785699999997 Na