#===============================================================================
# Created using the Atomic Simulation Environment (ASE)

# Sat Nov  1 21:48:30 2025

#=======================================================
lattice_vector 28.1999999999999993 0.0000000000000000 0.0000000000000000 
lattice_vector 0.0000000000000000 39.4799999999999969 0.0000000000000000 
lattice_vector 0.0000000000000000 0.0000000000000000 62.3296083400000001 
atom 7.3959264300000003 14.6981777800000000 0.1084548900000000 Au
atom 10.3385775199999994 14.6105270100000002 -0.1033872900000000 Au
atom 13.0600536199999997 14.8564262199999995 0.0589073800000000 Au
atom 16.2126967399999984 14.7757921900000007 0.1562707400000000 Au
atom 18.8926920000000003 14.6437290699999991 0.1418151800000000 Au
atom 21.6505319800000002 14.8799583500000008 -0.0690366500000000 Au
atom 24.6354645199999993 14.8756888099999998 0.1541882200000000 Au
atom 27.1210831799999994 14.8993067400000001 0.0026674900000000 Au
atom 1.7666428000000001 14.8946600799999995 0.0990262800000000 Au
atom 4.5777969000000001 14.7868720899999992 0.0750325500000000 Au
atom 8.9158950600000004 17.2852561800000011 -0.1581413900000000 Au
atom 11.7571888199999997 17.2853864699999988 -0.1740114700000000 Au
atom 14.7054209999999994 17.3438311600000006 -0.1010505800000000 Au
atom 17.2652987499999995 17.2098269799999990 0.0596676200000000 Au
atom 20.1402649899999986 17.3486637399999992 -0.0249504900000000 Au
atom 23.0447461800000006 17.2943036799999987 0.1821449400000000 Au
atom 25.6711022699999987 17.2131900699999996 0.0872540600000000 Au
atom 0.2737577400000000 17.2628439699999987 0.0894040600000000 Au
atom 3.3043900599999998 17.1854455000000002 0.2534846100000000 Au
atom 6.1930630500000001 17.2781207499999994 -0.0590636400000000 Au
atom 7.6639281700000002 19.8335795499999996 0.1232661100000000 Au
atom 10.3736723000000008 19.5856136499999991 0.0075192100000000 Au
atom 13.2429977500000007 19.8593500899999995 -0.0824113700000000 Au
atom 15.7212740600000007 19.7211687100000006 0.0109542100000000 Au
atom 18.8722309199999998 19.7163026899999991 0.0387114100000000 Au
atom 21.5401430500000011 19.7266786799999991 0.1857629800000000 Au
atom 24.4731261899999986 19.6663422700000012 -0.0482911000000000 Au
atom 27.0803949999999993 19.8821490200000000 -0.0866629000000000 Au
atom 1.8601962100000000 19.6458525399999999 0.0631090500000000 Au
atom 4.8980750300000002 19.7955287300000009 -0.0647751800000000 Au
atom 8.6899160400000000 22.3177169199999987 -0.0837016800000000 Au
atom 11.7465805700000008 22.1519008799999995 0.0591121100000000 Au
atom 14.3123581000000009 22.2588302400000018 -0.1521795300000000 Au
atom 17.4085727800000001 22.0334934099999984 0.0939571700000000 Au
atom 20.2330130100000005 22.2819457499999984 0.0942388800000000 Au
atom 23.0145086600000006 22.2706022399999988 0.0217512400000000 Au
atom 25.8839520000000007 22.3185957200000011 0.2260522100000000 Au
atom 0.4888298400000000 22.3147194099999986 0.2255117000000000 Au
atom 3.3386981499999999 22.3149564299999987 0.1183045000000000 Au
atom 6.2510867399999999 22.3581212600000008 0.1021490100000000 Au
atom 7.6020743599999996 24.7268844799999989 0.0622170600000000 Au
atom 10.4515777700000001 24.6950576200000000 0.1219572500000000 Au
atom 13.1160064599999995 24.7903020000000005 0.0673360700000000 Au
atom 16.0372426200000007 24.8591751099999989 0.2326043600000000 Au
atom 18.6918293800000015 24.5396963600000007 0.0667123200000000 Au
atom 21.7973963899999994 24.7987061500000010 0.0690434800000000 Au
atom 24.1405172800000010 24.8776786200000011 0.0422792200000000 Au
atom 27.3284276499999983 24.6959383099999989 -0.0274546900000000 Au
atom 1.7329495900000000 24.7818414199999992 0.0455885700000000 Au
atom 4.5966687100000003 24.6727705099999994 -0.0932297100000000 Au
atom 8.9685117000000005 27.0178555699999983 0.1676962300000000 Au
atom 11.5557653100000000 27.2083857299999998 0.1729857700000000 Au
atom 14.5696509899999995 27.1838581499999989 0.1597643400000000 Au
atom 17.2537564199999984 27.2662544599999990 0.0708229200000000 Au
atom 20.1597713399999989 27.1160117099999987 0.1887116300000000 Au
atom 23.0143678499999993 27.0440833500000011 0.1223443700000000 Au
atom 26.0663257900000005 27.2219230900000007 0.0396224500000000 Au
atom 0.3608009700000000 27.1190163899999988 0.0386805700000000 Au
atom 3.1535284200000002 27.1654977299999985 -0.0036503100000000 Au
atom 6.0026721600000004 27.1003501000000000 0.0911747800000000 Au
atom 7.4690044000000002 29.5089691700000003 -0.0618787100000000 Au
atom 10.4484524499999996 29.5963957700000009 0.0681097500000000 Au
atom 13.1113794499999994 29.4961506600000014 -0.0590104200000000 Au
atom 15.9023561099999995 29.6918019700000002 0.1777054900000000 Au
atom 18.7072399300000001 29.4999175700000009 -0.0022564200000000 Au
atom 21.7738945500000014 29.7884988700000015 0.0097776000000000 Au
atom 24.4391514000000001 29.6366519900000007 -0.0372712000000000 Au
atom 27.3341249399999988 29.6168671600000017 0.0316787000000000 Au
atom 1.7958400800000001 29.6347207200000007 0.0669535200000000 Au
atom 4.7185443999999999 29.5142375199999982 0.1065945000000000 Au
atom 8.8816176099999993 32.1491913400000016 -0.0138652500000000 Au
atom 11.7489423100000003 32.1373246599999973 0.1066578800000000 Au
atom 14.6158422500000000 32.2479920199999981 0.0614600100000000 Au
atom 17.3989326300000009 32.0159600100000006 0.0618340400000000 Au
atom 20.2101864300000003 32.1260403100000005 -0.0445157900000000 Au
atom 23.1714152099999993 32.1503725999999972 -0.0676418300000000 Au
atom 25.8629984800000017 32.1657814599999980 0.0690468900000000 Au
atom 0.3401496100000000 32.1431761300000005 -0.0252069600000000 Au
atom 3.3371624500000001 31.9942189500000005 0.0498878700000000 Au
atom 6.2337284999999998 31.8497566300000017 0.0843028200000000 Au
atom 7.5471654900000003 34.4390785499999978 -0.1382412400000000 Au
atom 10.2677972200000003 34.7078124499999987 0.0940269100000000 Au
atom 13.2025275999999998 34.6785813099999984 -0.0671623800000000 Au
atom 16.0738790499999986 34.5877594800000026 0.1669328500000000 Au
atom 18.7603121299999991 34.5712633999999994 0.1592385600000000 Au
atom 21.5719983500000012 34.5530712699999967 -0.0457090100000000 Au
atom 24.4391613399999983 34.4772217499999982 -0.0594169000000000 Au
atom 27.2285552399999986 34.5429942499999996 0.1422023000000000 Au
atom 1.7734489800000000 34.4741468799999993 -0.1154496100000000 Au
atom 4.8366433300000002 34.6186885999999987 0.3203286700000000 Au
atom 8.9187930200000007 37.0959432300000032 0.0678946800000000 Au
atom 11.6782092399999993 37.0326044400000001 -0.1525843400000000 Au
atom 14.7205363400000007 37.0761569699999995 0.1137014600000000 Au
atom 17.1261888000000013 37.1001560200000000 0.0383395300000000 Au
atom 20.0411866399999994 37.0703218800000016 -0.0360342500000000 Au
atom 22.9386703899999986 37.1245718099999991 -0.0306236400000000 Au
atom 25.8358589599999995 37.2464416700000029 0.0741755400000000 Au
atom 0.5797136500000000 36.9177151600000002 -0.1311573900000000 Au
atom 3.2884392000000000 37.0231823900000023 -0.0065493400000000 Au
atom 6.2249976399999998 36.9684102900000013 0.0300361500000000 Au
atom 7.5727951100000004 0.0539224700000000 0.1892781400000000 Au
atom 10.4367478499999997 0.0383413300000000 0.1990898300000000 Au
atom 13.1892389199999993 0.0523152700000000 0.0873974100000000 Au
atom 16.0074134000000008 0.1458044300000000 -0.0722326900000000 Au
atom 18.7215116600000009 0.1284438500000000 -0.2373089800000000 Au
atom 21.5215626899999997 0.1675265200000000 -0.0295766600000000 Au
atom 24.4665024100000004 0.0397796300000000 0.0908105200000000 Au
atom 27.2276075000000013 -0.0630612400000000 0.0171164900000000 Au
atom 1.7945323700000000 0.0095109400000000 -0.0340562000000000 Au
atom 4.5702097100000003 -0.1417647000000000 0.0185382200000000 Au
atom 8.8859516700000007 2.5002596300000000 0.0315601100000000 Au
atom 11.7600896499999994 2.4276138000000000 -0.0040232600000000 Au
atom 14.4558064900000005 2.3607037599999998 0.1239865400000000 Au
atom 17.4393981400000015 2.5297898200000000 0.0104868600000000 Au
atom 20.1710307600000007 2.4323746900000001 0.1079175600000000 Au
atom 23.0246118600000003 2.4531905200000002 0.1366377900000000 Au
atom 25.9268378800000008 2.4472111000000001 0.1268496800000000 Au
atom 0.4373304000000000 2.4162146999999998 0.2529717000000000 Au
atom 3.2810298400000000 2.5527585699999999 0.1553249500000000 Au
atom 6.1383538299999998 2.5878292900000002 0.1304134600000000 Au
atom 7.8035309799999997 4.9889577899999997 -0.0764276100000000 Au
atom 10.3826043000000006 4.8886477399999997 0.2285541800000000 Au
atom 13.1033303199999995 4.8832157299999999 0.0706721000000000 Au
atom 16.1481393500000010 4.9795268500000001 -0.0405425300000000 Au
atom 18.8063411999999985 5.1005927099999999 0.1712756400000000 Au
atom 21.5011175200000011 4.8412108900000002 0.0777594600000000 Au
atom 24.4070503599999995 4.9632184099999996 0.0814032100000000 Au
atom 27.3751101800000001 4.9833573400000004 -0.0960155400000000 Au
atom 1.9054792700000001 4.7761845000000003 0.1857865100000000 Au
atom 4.5765176800000003 4.7563271299999998 0.1119978300000000 Au
atom 8.8916945500000004 7.3788192099999996 0.0465060100000000 Au
atom 11.7304779499999992 7.2558096399999998 -0.0234612000000000 Au
atom 14.5776702799999995 7.3176606399999997 0.1018785400000000 Au
atom 17.2674391599999986 7.3670928800000004 0.1505090500000000 Au
atom 20.1832447700000017 7.1878888500000002 0.1748597800000000 Au
atom 22.9974108299999997 7.3115599700000002 0.1807664300000000 Au
atom 25.8339473700000006 7.4398872599999999 -0.0051298400000000 Au
atom 0.5789017600000000 7.0642610699999997 0.1576859100000000 Au
atom 3.3198019599999999 7.3876971899999999 -0.0154869200000000 Au
atom 6.1550750900000004 7.3745684300000001 0.1142177000000000 Au
atom 7.3695928700000000 9.8231045199999993 0.1188611800000000 Au
atom 10.2079248299999996 9.8653430400000008 0.0357791600000000 Au
atom 13.1443027099999998 9.7497096699999997 0.2666043300000000 Au
atom 15.9548986399999997 9.8613987900000009 -0.0659504300000000 Au
atom 18.9120942499999991 9.8158689999999993 -0.0142572800000000 Au
atom 21.6157057299999984 9.8202881600000005 -0.0798214900000000 Au
atom 24.3971088000000016 9.8669486699999993 0.2464404500000000 Au
atom 27.4182457799999995 9.9584767700000008 0.0239621500000000 Au
atom 1.7625587300000001 9.8785211799999999 0.1477163900000000 Au
atom 4.7989671999999999 9.9058456899999996 -0.0707011600000000 Au
atom 8.9478639500000003 12.2907987900000002 -0.1017741000000000 Au
atom 11.8028759300000008 12.4474815900000007 0.1975146900000000 Au
atom 14.7806724900000006 12.3983428599999996 -0.1161635000000000 Au
atom 17.2482667499999991 12.4696089800000003 -0.0647738800000000 Au
atom 20.2697150599999993 12.2696345900000008 0.2044389800000000 Au
atom 23.0347816499999993 12.2902517699999994 -0.0629678500000000 Au
atom 25.7961668800000012 12.4432957599999998 0.1165042600000000 Au
atom 0.5559972500000000 12.4970158900000001 0.1282121800000000 Au
atom 3.4344109999999999 12.2178305900000002 0.0744952900000000 Au
atom 6.0902905299999999 12.0857300900000002 -0.0867489900000000 Au
atom 7.4955669100000000 13.0579212099999999 2.7243834499999999 Au
atom 10.2898368100000006 13.2847926199999993 2.7412252300000000 Au
atom 13.0690104199999997 13.1651410099999993 2.6870576599999998 Au
atom 15.9323251599999995 13.2834390899999999 2.6068701299999999 Au
atom 18.6304561699999987 13.2370544300000006 2.6486444900000001 Au
atom 21.6359459299999983 13.2425802600000004 2.7163526899999999 Au
atom 24.4551963800000003 13.3349078399999996 2.6181316500000000 Au
atom 27.4669910699999988 13.1884966699999993 2.5273335100000001 Au
atom 1.9086825900000000 13.2876316100000000 2.7024228300000002 Au
atom 4.6073129799999997 13.1527836600000008 2.6047821199999999 Au
atom 8.9048501099999999 15.8890811200000002 2.6906190300000001 Au
atom 11.7403037700000006 15.6508599299999993 2.5743995599999998 Au
atom 14.4556394400000006 15.7178126500000008 2.6477179899999999 Au
atom 17.3090611000000010 15.6093339699999998 2.6528797599999998 Au
atom 20.0275665799999985 15.5474069700000008 2.7394743199999998 Au
atom 23.0178115100000014 15.7458289100000002 2.5734699399999998 Au
atom 25.7785085900000013 15.7073954300000000 2.6802032599999999 Au
atom 0.4116735000000000 15.6726150400000002 2.6747720799999999 Au
atom 3.2711591800000002 15.5142347899999997 2.5147553500000002 Au
atom 6.0705260000000001 15.5988125499999999 2.5504367100000001 Au
atom 7.5562740399999999 18.2186444700000010 2.7907171499999999 Au
atom 10.2326908000000003 18.1433551000000008 2.6508988599999999 Au
atom 13.2306316099999997 18.0886215600000000 2.6208048599999998 Au
atom 16.1449860899999997 18.0540260900000007 2.4472231099999999 Au
atom 18.5972147700000008 18.1156013400000013 2.6411769899999999 Au
atom 21.5949307200000007 18.1121710900000004 2.7793696300000001 Au
atom 24.3498962900000002 18.1310608699999989 2.5816387399999998 Au
atom 27.3949057899999993 18.2076436100000016 2.4787239099999998 Au
atom 1.9197084799999999 18.1498661000000006 2.7380794599999998 Au
atom 4.7669268200000001 18.1892024600000006 2.6304216600000001 Au
atom 8.9498626199999993 20.6621605399999986 2.8735239600000000 Au
atom 11.6665136199999999 20.6115216699999984 2.6571273000000000 Au
atom 14.6596618299999992 20.6608009000000017 2.6800232199999998 Au
atom 17.2781831799999992 20.5735692999999991 2.8942315999999999 Au
atom 20.0704012499999997 20.6649901000000007 2.5232909800000001 Au
atom 22.8965933499999998 20.4929732800000011 2.7989459900000000 Au
atom 25.8065946699999991 20.4912667599999985 2.7082647000000000 Au
atom 0.5392651500000000 20.4470527199999985 2.6903144299999999 Au
atom 3.4246216700000001 20.5672790799999987 2.6623541199999998 Au
atom 6.0325879699999998 20.6058123799999997 2.8941922000000000 Au
atom 7.5620125500000004 22.8961857400000000 2.8325548999999999 Au
atom 10.3557180100000004 22.9709364899999997 2.6448206299999999 Au
atom 13.0275247000000007 23.0914933500000004 2.8490927400000001 Au
atom 15.8066263100000004 23.1333004899999999 2.6097104199999999 Au
atom 18.7972852400000008 23.0286737499999994 2.7666594299999998 Au
atom 21.5720629099999996 23.0619680100000011 2.5758335500000000 Au
atom 24.2436534700000017 23.0177328299999999 2.5068226700000000 Au
atom 27.3653488600000010 23.0175309299999995 2.7764203799999998 Au
atom 2.0578806300000001 22.7685957600000002 2.6902382600000001 Au
atom 4.7831839399999998 23.0993818299999987 2.4529555500000000 Au
atom 9.0447335599999992 25.5539119899999996 2.8268670199999999 Au
atom 11.6349463699999998 25.4185689000000004 2.6858947199999998 Au
atom 14.6406671900000003 25.4943510199999999 2.4895331900000000 Au
atom 17.4673977899999997 25.4908320199999991 2.7074395700000000 Au
atom 20.2635673199999999 25.4822582000000004 2.6780846899999999 Au
atom 23.0340231099999997 25.3585068900000010 2.8329144999999998 Au
atom 25.7755295199999992 25.4697237299999983 2.5923706800000001 Au
atom 0.5490482300000000 25.5105364500000000 2.5516833100000000 Au
atom 3.1976380600000001 25.6476647699999987 2.6250195999999999 Au
atom 6.2199747900000002 25.5282069500000013 2.6746880499999999 Au
atom 7.3128710200000002 27.9306986100000003 2.5841276700000000 Au
atom 10.3411238399999998 27.9289912600000001 2.6158462199999999 Au
atom 13.2424622400000001 27.9316794799999997 2.7188304200000002 Au
atom 15.9331212600000001 28.1496493399999999 2.6981653799999998 Au
atom 18.7629392899999985 27.9928596600000006 2.6347881000000002 Au
atom 21.7591759899999992 28.0822708600000013 2.5391632700000000 Au
atom 24.3275953399999985 28.2059717300000017 2.7733158499999999 Au
atom 27.3192720899999983 27.9741267499999999 2.8015365000000001 Au
atom 1.7526111200000001 27.9885560499999997 2.5999114600000000 Au
atom 4.7327070100000004 28.1215246800000003 2.8898677500000001 Au
atom 8.8082639599999997 30.4804966099999994 2.5584097699999999 Au
atom 11.6611828899999992 30.3016590000000008 2.6986131900000001 Au
atom 14.4791855999999992 30.6649403099999986 2.5559226900000001 Au
atom 17.2625824600000009 30.6165506200000017 2.7872280200000001 Au
atom 20.4331764299999996 30.4069378099999987 2.6871717700000000 Au
atom 22.8435949700000016 30.4028247699999987 2.6523579700000002 Au
atom 25.6829062400000012 30.4299037400000003 2.5677422800000000 Au
atom 0.3669384400000000 30.4379548399999997 2.7111486199999999 Au
atom 3.3305328200000002 30.4607802499999991 2.7017669500000001 Au
atom 6.0999490500000002 30.4696019299999996 2.6299337399999998 Au
atom 7.3908485400000004 32.9121203799999975 2.5540711900000002 Au
atom 10.3491787100000003 32.7956726600000010 2.6882269900000000 Au
atom 13.1254690000000007 32.8642916900000017 2.5438067900000001 Au
atom 15.9527434699999997 32.9912782899999968 2.6729376000000000 Au
atom 18.8773259099999997 32.9619581800000034 2.5426206300000000 Au
atom 21.6510747600000002 32.8919870100000011 2.7410059300000000 Au
atom 24.5242049000000009 32.8356342100000020 2.5557660100000001 Au
atom 27.3759143199999997 32.7568325100000024 2.7647712499999999 Au
atom 1.9451346300000001 32.8582377700000023 2.4650794999999999 Au
atom 4.6778075899999996 32.9337635600000027 2.6786600300000001 Au
atom 8.9108647199999993 35.2018287100000009 2.6548934399999999 Au
atom 11.6313583900000008 35.3319278399999988 2.5522824900000001 Au
atom 14.5004585400000003 35.5108154899999988 2.7599303599999998 Au
atom 17.2717242900000016 35.2600612000000027 2.6437163799999999 Au
atom 20.1446684699999992 35.4966887699999987 2.7224228699999999 Au
atom 22.9057028500000008 35.4889182900000009 2.5244369299999998 Au
atom 25.8930457300000008 35.4555162199999998 2.4937597500000002 Au
atom 0.5047417600000000 35.5690329899999966 2.6217196399999998 Au
atom 3.3412052299999999 35.3583014499999990 2.6807594899999998 Au
atom 6.1234312600000003 35.3588198500000033 2.5978481599999999 Au
atom 7.5753096099999997 38.0221471099999988 2.7660608099999999 Au
atom 10.2561847400000001 37.7567678899999990 2.6560071100000000 Au
atom 13.1450980499999996 37.6963839599999986 2.6787076100000000 Au
atom 15.8360494999999997 37.8830031299999987 2.6843296699999999 Au
atom 18.8590032200000017 37.9909666100000010 2.7129090499999999 Au
atom 21.3504407000000000 37.8694927399999983 2.6082257700000002 Au
atom 24.4330923999999996 37.8023207000000028 2.4465136799999998 Au
atom 27.2487772799999988 37.8718862999999999 2.6800961499999998 Au
atom 2.0386005800000002 37.8429130399999991 2.3863856800000001 Au
atom 4.8704674299999997 37.8328750000000014 2.4953464699999999 Au
atom 8.9118466499999993 1.0058443600000000 2.7035690200000002 Au
atom 11.6650465099999998 0.8529832100000000 2.6372271399999998 Au
atom 14.4195503299999999 0.8143353100000000 2.7506662400000002 Au
atom 17.3223064899999990 0.8648470500000000 2.6191905400000000 Au
atom 20.3250968199999988 1.0989049399999999 2.8281456299999999 Au
atom 23.1016154299999990 0.8261094700000000 2.7841014999999998 Au
atom 25.6585996700000010 0.7641774800000000 2.7482336200000002 Au
atom 0.5728916500000000 0.8917861400000000 2.7289740800000000 Au
atom 3.1418763699999999 0.7911418099999999 2.7720829199999999 Au
atom 6.3217349900000004 0.7095505000000000 2.7260093200000002 Au
atom 7.6716796000000000 3.1608943500000000 2.6461514099999999 Au
atom 10.5193955300000006 3.3748332099999998 2.5338175299999999 Au
atom 12.9890615700000005 3.5270307399999998 2.6424038500000000 Au
atom 16.0221334000000013 3.3052632100000001 2.5634216900000002 Au
atom 18.8089096100000006 3.2382130400000002 2.6627290200000000 Au
atom 21.5862744199999987 3.2238287600000000 2.4936623400000002 Au
atom 24.3042154400000001 3.4338740200000002 2.6256383300000001 Au
atom 27.2317199199999997 3.3470125099999999 2.5134491900000002 Au
atom 1.9390095599999999 3.2157401600000002 2.6966587700000000 Au
atom 4.6533051900000002 3.1260999300000001 2.6780357700000001 Au
atom 9.1067236699999992 5.8141870800000000 2.7114362700000001 Au
atom 11.6599255999999993 5.9664073200000001 2.9733692999999999 Au
atom 14.6035046299999998 5.7989082800000000 2.7657654800000002 Au
atom 17.4363145199999998 5.7056575599999997 2.7810868000000002 Au
atom 20.1889382899999994 5.9316588200000000 2.7869401400000000 Au
atom 23.1866049399999987 5.8667123300000004 2.6288622899999998 Au
atom 25.8903140100000009 5.8814007500000001 2.7208415700000002 Au
atom 0.5865475300000000 5.6684693900000003 2.7417188600000002 Au
atom 3.3776652999999999 5.7536957099999997 2.6842057499999998 Au
atom 6.1660930599999997 5.6385410299999998 2.6710924999999999 Au
atom 7.4271666500000002 8.4328872700000002 2.8310930100000000 Au
atom 10.3328454300000008 8.1014219799999996 2.6742579100000001 Au
atom 13.0939483800000005 8.1570521199999995 2.8120902100000000 Au
atom 15.8598756499999993 8.1827709800000008 2.6217215399999998 Au
atom 18.8060028000000017 8.4933218799999999 2.4109917599999999 Au
atom 21.5059384099999988 8.4659479700000002 2.6947716000000002 Au
atom 24.4974801199999987 8.1918271399999991 2.6756993499999999 Au
atom 27.2505784200000001 8.2660563899999993 2.5659157900000000 Au
atom 1.9393907800000001 8.4272029100000001 2.7956019500000000 Au
atom 4.8328313600000001 8.2918249799999995 2.6836779300000000 Au
atom 8.8771915900000007 10.7499228000000002 2.7097483900000001 Au
atom 11.7707664199999993 10.6883974399999992 2.6022365800000000 Au
atom 14.5798088499999992 10.7334885799999995 2.5402955600000001 Au
atom 17.5329251399999997 10.7485288899999993 2.4688097500000001 Au
atom 20.1811450800000003 10.5412899200000005 2.8604679000000002 Au
atom 23.0721898100000011 10.7841332500000000 2.7703195300000001 Au
atom 25.8053448199999984 10.7344098100000007 2.5217925900000000 Au
atom 0.5436132400000000 10.5812744300000006 2.7500928700000000 Au
atom 3.2061206599999998 10.7209928199999993 2.6910062300000002 Au
atom 6.0806887400000003 10.6832052199999996 2.4390364400000002 Au
atom 7.5505397199999997 13.3076403200000009 5.6108966699999998 Cl
atom 7.5953977999999998 15.9806570600000004 8.5773451499999993 Cl
atom 7.5963373399999998 13.0801118400000007 8.2979211999999993 Na
atom 7.4875883099999996 16.1044407400000011 5.7830262299999999 Na
atom 7.4100455099999998 18.6075394299999992 5.5813864600000000 Cl
atom 7.4738433700000000 21.5698192300000002 8.5611937299999994 Cl
atom 7.5416726399999998 18.9070486399999993 8.3959708400000004 Na
atom 7.4980480900000002 21.7223727599999989 5.6970392600000004 Na
atom 7.4818351400000003 24.3493100799999986 5.8284342999999996 Cl
atom 7.3410526999999997 27.2317417299999995 8.5472053100000007 Cl
atom 7.5202289100000002 24.3785716800000003 8.4914048900000001 Na
atom 7.4977005099999996 27.1059518600000011 5.9400597199999998 Na
atom 7.5424159800000004 30.2481822700000009 5.9380141499999999 Cl
atom 7.5227173399999998 32.7593678699999984 8.8798184300000003 Cl
atom 7.6101922999999996 30.1701744299999994 8.3272947800000008 Na
atom 7.2102208299999999 32.8559477000000015 5.8359753300000001 Na
atom 7.5760009000000004 35.8612642000000008 5.6995733000000000 Cl
atom 7.5652259400000004 38.5488807500000021 8.5148051900000006 Cl
atom 7.6168405899999998 35.7434096400000030 8.1090254999999996 Na
atom 7.6884410599999997 38.5710060999999982 5.8043012000000003 Na
atom 7.5944223500000003 1.9332428600000000 5.6558158100000000 Cl
atom 7.3139653999999998 4.5709609300000000 8.7557806700000000 Cl
atom 7.3117203599999998 1.8908933699999999 8.4209975099999994 Na
atom 7.5083979699999999 4.7687629100000004 5.8536408099999999 Na
atom 7.5900665800000002 7.3712342099999999 5.7169678700000004 Cl
atom 7.3349973999999998 10.3577060400000001 8.5021674199999993 Cl
atom 7.4100688699999999 7.5890307200000002 8.2761686799999996 Na
atom 7.6260812400000004 10.3617682400000000 5.7653330599999997 Na
atom 10.3118506700000001 13.1948826500000003 6.0250203500000001 Na
atom 13.1264969300000001 13.0604021800000005 5.7234851999999998 Cl
atom 10.4004851100000000 16.0428014899999987 8.5430160599999994 Na
atom 13.2436148599999992 16.0532717600000012 8.6722174499999998 Cl
atom 13.1316172099999999 12.9693600799999995 8.3135170100000000 Na
atom 10.2225500700000005 13.0613023399999992 8.5587627200000007 Cl
atom 13.1515897600000002 15.9953371600000001 5.7573403599999997 Na
atom 10.2259433800000004 16.0161119399999983 5.6312246300000002 Cl
atom 10.2876799800000001 18.9388284300000009 5.9079923599999997 Na
atom 13.1272961600000002 18.9894673099999984 5.7311433999999997 Cl
atom 10.3420529899999991 21.5501623100000010 8.2977513300000005 Na
atom 13.0665622599999995 21.6955980000000004 8.7584420400000003 Cl
atom 13.1465605500000002 18.8069083799999994 8.3217699700000001 Na
atom 10.1333965700000004 18.9158638600000018 8.5735081700000002 Cl
atom 12.9753389200000004 21.5968428699999997 5.9051403000000002 Na
atom 10.4304861700000000 21.6529553999999997 5.7746126999999996 Cl
atom 10.2617455000000000 24.6400840000000017 5.6971738299999997 Na
atom 13.1061141499999998 24.2815495699999992 5.8802634400000002 Cl
atom 10.2814859599999995 27.0776485099999995 8.3538060400000003 Na
atom 13.2165681900000003 27.2238544000000005 8.6295166800000001 Cl
atom 13.2220006899999998 24.3598041800000011 8.2070982299999997 Na
atom 10.4079670400000008 24.3969618900000000 8.5025539099999996 Cl
atom 13.3491397299999992 27.1998349099999999 5.8546557600000000 Na
atom 10.2789397600000001 27.2535225200000006 5.7006826400000001 Cl
atom 10.4626383000000001 30.0823531300000013 5.7206245400000002 Na
atom 13.0300535800000006 30.2469757199999982 5.8653614599999999 Cl
atom 10.1286315400000007 32.9433072899999999 8.2373163999999992 Na
atom 13.1073301999999998 32.8608626299999997 8.5234063800000008 Cl
atom 13.2075994399999992 30.1462853499999994 8.6333808100000002 Na
atom 10.1851648099999998 30.2252205799999984 8.7570839300000003 Cl
atom 13.1246610399999994 32.9247058300000006 5.8371105200000004 Na
atom 10.1824565400000004 32.8999093299999998 5.7214927299999996 Cl
atom 10.2823999799999992 35.7524140000000017 5.9221009200000001 Na
atom 13.0639260099999994 35.6992550900000012 5.6962979100000002 Cl
atom 10.2952049199999998 38.6808351199999976 8.5012778099999995 Na
atom 13.0986793099999996 38.6053923400000016 8.5748864499999993 Cl
atom 13.1640113499999991 35.7453385700000013 8.3380764400000000 Na
atom 10.3144766699999995 35.7686010400000001 8.7622382000000005 Cl
atom 12.8492979500000004 38.7520461100000020 5.8498238400000000 Na
atom 10.4490991500000003 38.5636355099999975 5.8438748199999999 Cl
atom 10.3845548900000004 1.7885339000000000 5.7432575300000002 Na
atom 13.0470187000000006 1.8647039000000001 5.6703971400000004 Cl
atom 10.3347109600000007 4.6944293699999999 8.4994912500000002 Na
atom 13.0822957199999994 4.6724695299999999 8.6557346099999997 Cl
atom 13.1638096499999993 2.2271258399999998 8.3533041099999998 Na
atom 10.1647857599999991 1.9834212300000000 8.6699083300000002 Cl
atom 13.2785402500000007 4.7452260300000004 5.8434274300000002 Na
atom 10.3031913100000008 4.8948668199999998 5.8349261500000003 Cl
atom 10.4927464199999996 7.5240424700000004 5.9448325999999998 Na
atom 13.3152370799999993 7.4920837499999999 5.7587382299999996 Cl
atom 10.2549865100000002 10.2512816299999994 8.3832011299999998 Na
atom 13.1882601699999995 10.5239550200000007 8.4231751100000007 Cl
atom 13.1072694799999994 7.4337389500000004 8.4342241399999995 Na
atom 10.3052138099999997 7.4933528599999999 8.7215300899999999 Cl
atom 13.0206651900000008 10.2487638600000004 5.7514947000000003 Na
atom 10.3454245300000007 10.5695629499999999 5.7636552099999996 Cl
atom 15.8855358300000002 13.2537319300000007 5.9011050500000000 Na
atom 18.9033431199999988 13.1188745099999995 5.6920087099999996 Cl
atom 15.9695974500000002 15.8864619000000005 8.2775866400000009 Na
atom 18.5999367599999985 15.9063341400000002 8.4556646200000003 Cl
atom 18.8270180899999993 13.1565372099999998 8.3592936299999998 Na
atom 15.9952916500000004 13.0724329200000007 8.5620005999999993 Cl
atom 18.8090983399999985 16.0681334100000015 6.0449426400000004 Na
atom 15.9260751599999999 16.0254164699999997 5.7026260200000003 Cl
atom 16.1200809599999992 18.9462346199999985 5.7102915799999998 Na
atom 18.7125671199999992 18.7246441099999998 5.6562546999999999 Cl
atom 16.0172071799999998 21.6844219699999989 8.3163731599999995 Na
atom 18.9204586600000013 21.6888747899999998 8.5213910800000008 Cl
atom 18.7360197600000014 18.8265618799999999 8.3090753300000006 Na
atom 16.0029657400000005 18.6125368500000015 8.6258199100000006 Cl
atom 18.6363532899999989 21.7925685000000016 5.8980379200000002 Na
atom 15.9445084000000001 21.6271784199999999 5.8240557500000003 Cl
atom 15.8837867799999994 24.2541174700000006 5.9036125200000003 Na
atom 18.7231673799999996 24.6884069199999985 5.7594120300000000 Cl
atom 16.0916860700000015 27.2509643399999995 8.4600670299999994 Na
atom 18.7631758700000013 27.1961671900000006 8.5779648399999999 Cl
atom 18.7035676500000001 24.5609424899999986 8.3275164000000004 Na
atom 16.0025238099999996 24.4001857700000002 8.5135012400000001 Cl
atom 18.6342073500000005 27.1091860400000009 5.6230525000000000 Na
atom 16.0280122799999987 27.1134793199999997 5.6391077500000000 Cl
atom 15.9996579499999996 30.1105181199999983 5.8395307100000000 Na
atom 18.8022122799999991 30.1300437199999998 5.5848088599999999 Cl
atom 15.7511537599999993 32.8565249999999978 8.4153015199999999 Na
atom 18.7057268500000013 32.8524054100000029 8.5748380700000002 Cl
atom 18.7353590799999985 30.2189094900000015 8.4237977700000002 Na
atom 15.9084510100000003 30.2110365399999985 8.4726828500000000 Cl
atom 18.8464150600000018 32.7659838800000003 5.9841730699999998 Na
atom 15.9669837000000001 32.7569586999999984 6.0142674500000002 Cl
atom 16.0641825000000011 35.5914129399999979 5.8022632800000000 Na
atom 18.7533969700000007 35.7265540000000001 5.9068100699999997 Cl
atom 15.9239253699999992 38.6717127100000013 8.5715990600000005 Na
atom 18.8586761799999998 38.4714111400000007 8.5580606100000001 Cl
atom 18.7369525199999991 35.6636250000000032 8.3188295900000000 Na
atom 15.9073721700000004 35.7971445800000012 8.5638070499999994 Cl
atom 18.6361785699999984 38.6370211600000033 5.6748950300000001 Na