#===============================================================================
# Created using the Atomic Simulation Environment (ASE)

# Tue Dec 23 21:42:12 2025

#=======================================================
lattice_vector 28.1999999999999993 0.0000000000000000 0.0000000000000000 
lattice_vector 0.0000000000000000 39.4799999999999969 0.0000000000000000 
lattice_vector 0.0000000000000000 0.0000000000000000 62.3296083400000001 
atom 7.5661390199999996 14.7025124399999996 -0.3751055900000000 Au
atom 10.4022397600000005 14.8860072199999998 -0.4152281800000000 Au
atom 13.2329496300000002 14.9180720000000004 -0.2108315300000000 Au
atom 15.9745365800000005 14.8796928200000007 0.1705139800000000 Au
atom 18.7679617800000003 14.7844321099999991 -0.0565312800000000 Au
atom 21.7241411100000015 14.7928452999999998 -0.1470047900000000 Au
atom 24.5234441799999985 14.6962722800000005 -0.2431968000000000 Au
atom 27.2304669500000003 14.7593295300000005 -0.0406454300000000 Au
atom 1.8077524500000000 14.9805317799999997 -0.3098535400000000 Au
atom 4.6540852299999997 14.8805235699999994 -0.3949372000000000 Au
atom 8.8729164199999992 17.3713015800000008 -0.3287021300000000 Au
atom 11.7750924300000008 17.3170314900000015 0.0015882800000000 Au
atom 14.5972807299999996 17.3567340100000003 0.1577010800000000 Au
atom 17.3760745599999993 17.3341774499999985 -0.0126093400000000 Au
atom 20.2156969199999992 17.2469208899999984 -0.0439601700000000 Au
atom 23.0431492099999993 17.3119830099999987 -0.0865988900000000 Au
atom 25.8087501000000010 17.2517242199999998 -0.0864826600000000 Au
atom 0.3564617100000000 17.3762982400000006 -0.3176137300000000 Au
atom 3.2014976399999999 17.4568651400000014 -0.6449576700000000 Au
atom 6.1457429200000000 17.1416847499999996 -0.2219196400000000 Au
atom 7.4175863399999997 19.8044914299999988 0.0017431800000000 Au
atom 10.2521229799999993 19.7504222700000014 0.0442522700000000 Au
atom 13.1143061099999994 19.8264620499999999 0.1635959000000000 Au
atom 15.9393475099999993 19.7523470299999993 0.2399205500000000 Au
atom 18.7815909099999985 19.7110939199999997 -0.1485362600000000 Au
atom 21.6104161899999987 19.8500248900000003 0.0276705900000000 Au
atom 24.3846542100000008 19.8127437200000003 -0.1260417800000000 Au
atom 27.2313150200000003 19.7891640500000001 -0.3084436700000000 Au
atom 1.8214685399999999 19.7927545199999990 -0.4247572400000000 Au
atom 4.6557767400000003 19.8500049400000016 -0.5071769000000000 Au
atom 8.8700193800000005 22.2070633800000010 -0.0383542900000000 Au
atom 11.7783969400000004 22.1278310400000002 -0.2525987400000000 Au
atom 14.5805314799999994 22.2127383700000003 -0.1206645200000000 Au
atom 17.3927785600000000 22.2161695799999990 0.1441353100000000 Au
atom 20.2769831899999993 22.2052849999999999 -0.0582592200000000 Au
atom 23.0558053100000002 22.2496395000000007 -0.2350144000000000 Au
atom 25.8353090999999999 22.2695963500000005 -0.1970745800000000 Au
atom 0.4876894700000000 22.2963127700000001 -0.2236166600000000 Au
atom 3.2913077400000001 22.2763669700000015 -0.4583930800000000 Au
atom 6.0873236400000001 22.2284233899999997 -0.2546112600000000 Au
atom 7.4241654800000001 24.5958567799999983 0.0730180700000000 Au
atom 10.3253538000000002 24.5670178099999994 -0.0807239700000000 Au
atom 13.1367500300000000 24.5970329599999999 -0.0243589200000000 Au
atom 15.9726327799999996 24.6385407799999996 0.3093884300000000 Au
atom 18.7445079999999997 24.7485427899999983 -0.0431333500000000 Au
atom 21.6145427699999999 24.6254059299999994 0.0824345900000000 Au
atom 24.5055439799999988 24.7097707699999987 0.0688951800000000 Au
atom 27.2237338599999994 24.6828063200000010 0.0993180900000000 Au
atom 1.8277609699999999 24.6759141200000016 -0.2852283200000000 Au
atom 4.6993058400000001 24.7267076999999986 -0.5714638399999999 Au
atom 8.8568864999999999 26.9961682600000010 0.0106335500000000 Au
atom 11.6979182000000002 27.0875001299999987 0.0357423100000000 Au
atom 14.5517433100000009 27.0486808799999991 0.1662868000000000 Au
atom 17.4026556700000015 27.1494665799999986 0.1125924300000000 Au
atom 20.1792658600000010 27.0292499399999997 -0.0799933300000000 Au
atom 23.0902629799999985 27.1576683500000016 0.1245264400000000 Au
atom 25.7912724500000010 27.2143727599999998 0.2896794600000000 Au
atom 0.4619661300000000 27.1392680400000010 0.0857577700000000 Au
atom 3.2376547000000002 27.0868952100000016 -0.2693048800000000 Au
atom 6.0416488599999996 27.1276909300000000 -0.1084962700000000 Au
atom 7.6064498499999997 29.5395345499999991 -0.0861456100000000 Au
atom 10.3189203200000001 29.4269317299999997 0.0076848700000000 Au
atom 13.1669040600000002 29.5573011900000004 0.0974813900000000 Au
atom 15.9656269200000001 29.6183948599999987 -0.1636647400000000 Au
atom 18.8649598000000012 29.5894428199999986 -0.0578978900000000 Au
atom 21.6428761899999991 29.4538840700000009 -0.0513510800000000 Au
atom 24.3595165899999984 29.6917022999999993 0.0071181400000000 Au
atom 27.2074586200000006 29.6021988900000004 0.1851436900000000 Au
atom 1.9222080500000001 29.6317856999999982 -0.1917887600000000 Au
atom 4.8113200100000002 29.5460789300000002 -0.0074890000000000 Au
atom 8.9220298800000002 32.0953043600000001 -0.1339322100000000 Au
atom 11.8393877900000000 32.0727611399999972 0.0403100200000000 Au
atom 14.6014919299999999 32.0300059400000023 0.1585516200000000 Au
atom 17.4333072800000011 32.0526067099999992 0.0752956300000000 Au
atom 20.2901149799999985 32.0410087899999994 0.0266485200000000 Au
atom 23.0088948900000005 32.0997341799999987 -0.0788326900000000 Au
atom 25.8546097999999986 32.1959531899999973 -0.2822723400000000 Au
atom 0.5105845900000000 32.0663699500000021 0.0420528800000000 Au
atom 3.3714105900000000 32.1251546100000027 -0.0616992500000000 Au
atom 6.1555404300000003 32.0286492199999984 0.0622477100000000 Au
atom 7.6501144700000001 34.5794533500000014 -0.0497200200000000 Au
atom 10.4677358700000003 34.4700341499999965 0.1868114200000000 Au
atom 13.2093968299999993 34.5773420800000011 0.1208098800000000 Au
atom 16.0579408100000016 34.5239356299999969 0.0632986600000000 Au
atom 18.8617148599999993 34.5035521900000006 0.1490220300000000 Au
atom 21.7140936700000005 34.6396111199999979 0.2850674800000000 Au
atom 24.4819895800000005 34.6450259000000003 -0.1751583500000000 Au
atom 27.3460404100000005 34.5929536499999983 -0.0958218900000000 Au
atom 2.0343893899999999 34.4913347199999976 -0.1380130200000000 Au
atom 4.8656405400000002 34.4937772800000033 0.2100994800000000 Au
atom 9.0408151799999992 37.0131065699999979 0.2311490400000000 Au
atom 11.8594288799999994 37.0961346300000017 0.3268528700000000 Au
atom 14.7128157999999996 37.0048693499999999 0.2835505700000000 Au
atom 17.4911367599999998 37.0299920499999971 0.0330735100000000 Au
atom 20.2306214799999999 37.0483249799999967 0.0594988400000000 Au
atom 23.0314603200000008 37.0730249200000017 0.2015442400000000 Au
atom 25.8720359100000010 37.1459110799999976 -0.0191012500000000 Au
atom 0.5536177700000000 37.0014985099999976 0.1853966800000000 Au
atom 3.4408624699999999 37.0204519500000018 0.1107039900000000 Au
atom 6.1843220900000002 36.9673322000000013 0.4807942900000000 Au
atom 7.6059820599999997 -0.0563835400000000 0.3706465100000000 Au
atom 10.4610712400000008 -0.0252274500000000 0.4638784600000000 Au
atom 13.2801379799999992 -0.0203663000000000 0.4368032100000000 Au
atom 15.9985374799999995 0.0863034400000000 0.2809942800000000 Au
atom 18.7377964000000006 0.1980233800000000 0.1220873600000000 Au
atom 21.4913714899999988 0.0792380000000000 0.3863633200000000 Au
atom 24.4285649800000009 0.0767983300000000 0.3432045700000000 Au
atom 27.3531823699999990 -0.0378094100000000 0.1964352600000000 Au
atom 1.9291673499999999 -0.0377777100000000 0.0751978300000000 Au
atom 4.7975574600000002 -0.0230282500000000 0.2020103800000000 Au
atom 9.0360475600000001 2.4062729300000001 0.5484322600000000 Au
atom 11.7778862100000001 2.3220876000000001 0.4755101900000000 Au
atom 14.6856989900000006 2.4815592700000000 0.4123836700000000 Au
atom 17.4191122100000015 2.5841791600000001 0.2204685600000000 Au
atom 20.1564142299999993 2.5826420400000001 0.3543151500000000 Au
atom 22.9869657899999993 2.4856131399999999 -0.0203423900000000 Au
atom 25.8888027200000010 2.4514103299999999 0.1397148000000000 Au
atom 0.5236662000000000 2.5123145099999999 0.0276316300000000 Au
atom 3.4171684600000001 2.4612362399999999 0.3239494900000000 Au
atom 6.1948758100000001 2.4174459000000001 0.6888513800000000 Au
atom 7.5309499600000001 4.8599940899999998 0.2286363700000000 Au
atom 10.2726341699999999 4.8625433100000004 0.3727838600000000 Au
atom 13.0737614799999999 4.8065174099999997 0.2615985300000000 Au
atom 15.9605763799999991 5.0064621699999998 0.2526336400000000 Au
atom 18.8377569700000009 5.0653804400000002 0.3515382500000000 Au
atom 21.7085842800000002 5.0077135000000004 0.2030639000000000 Au
atom 24.4459254399999999 4.9144810799999998 -0.0417231300000000 Au
atom 27.2470979200000016 4.9518003600000000 -0.0359754000000000 Au
atom 1.8788856300000001 4.8786598000000003 -0.0007147300000000 Au
atom 4.7495121500000002 4.9445809900000004 0.1555945800000000 Au
atom 8.9215561000000001 7.2346957099999996 0.1164713100000000 Au
atom 11.8165920700000004 7.2974025500000002 0.0501763600000000 Au
atom 14.5002556800000004 7.3311255199999996 0.1501852600000000 Au
atom 17.4181891799999988 7.4621665200000002 0.2509831800000000 Au
atom 20.1609733400000017 7.4225776200000002 0.2783246000000000 Au
atom 22.9910479800000012 7.4032387300000000 0.2619469100000000 Au
atom 25.8103076599999994 7.3461143299999998 -0.0630261900000000 Au
atom 0.4964839300000000 7.3781555200000000 -0.2713148200000000 Au
atom 3.3413884000000000 7.4190034799999998 -0.1748820600000000 Au
atom 6.2252499300000004 7.4197092199999997 0.1392758400000000 Au
atom 7.5662195399999996 9.8881317800000001 0.2542421000000000 Au
atom 10.3548706799999994 9.8919826299999993 -0.1619145800000000 Au
atom 13.1464683400000002 9.8934493200000002 0.0579090500000000 Au
atom 15.8588540200000008 9.8575976099999991 0.0550260000000000 Au
atom 18.7453787799999994 9.8720744299999996 -0.0014081200000000 Au
atom 21.5249826000000013 9.8520153700000002 -0.1499854600000000 Au
atom 24.3592774200000015 9.7643960799999991 -0.0396673000000000 Au
atom 27.1945252099999983 9.9452989800000005 -0.2055586700000000 Au
atom 1.9312833899999999 9.8596348700000007 -0.1746404500000000 Au
atom 4.7162835400000001 9.9346282000000006 -0.1676470100000000 Au
atom 8.9502787399999999 12.3151244000000002 0.0085728500000000 Au
atom 11.8419983599999998 12.5161204300000009 -0.0776263400000000 Au
atom 14.6662951300000000 12.4811582500000000 -0.0949465100000000 Au
atom 17.4281839000000005 12.3078255599999995 0.0302500300000000 Au
atom 20.1627768200000013 12.3674115699999998 -0.0849616300000000 Au
atom 23.0514103100000014 12.2366199000000009 -0.2084391300000000 Au
atom 25.8724872099999992 12.3178943600000004 -0.1585941600000000 Au
atom 0.5210995899999999 12.3219236399999996 -0.3516900800000000 Au
atom 3.3619072100000000 12.4535410700000000 -0.2575951200000000 Au
atom 6.1811683000000004 12.2875891999999993 -0.1967232600000000 Au
atom 7.5680712699999999 13.2155520000000006 2.5541256799999998 Au
atom 10.3754671599999995 13.3796393299999998 2.3291569800000000 Au
atom 13.2376457500000004 13.2640513299999991 2.3461153100000001 Au
atom 16.0520571499999996 13.2379226699999997 2.6195151999999999 Au
atom 18.9216663199999999 13.2764753100000004 2.5694845900000001 Au
atom 21.7288237200000012 13.2576895100000005 2.5354393499999999 Au
atom 24.4082806999999988 13.3309360399999992 2.5213091699999999 Au
atom 27.2827200599999991 13.2648543199999995 2.4834351899999998 Au
atom 1.8832496800000000 13.2584018100000005 2.4073051400000001 Au
atom 4.7159211799999996 13.3106455700000001 2.1952260699999999 Au
atom 8.8503976099999999 15.7427594699999993 2.2943791800000000 Au
atom 11.7520230899999998 15.7511392200000007 2.4807279900000001 Au
atom 14.5404244899999995 15.6631540400000002 2.8032822999999998 Au
atom 17.4904710500000000 15.7184986000000002 2.5362711199999999 Au
atom 20.2682272700000006 15.7074771500000008 2.6237684799999998 Au
atom 23.1005402199999992 15.7151480200000009 2.4623949999999999 Au
atom 25.8880695000000003 15.7247684099999994 2.5091403200000002 Au
atom 0.5600490299999999 15.7514842200000000 2.4106620300000001 Au
atom 3.3958508200000002 15.7162915499999993 2.2153650900000001 Au
atom 6.1365626100000004 15.6223155100000000 2.4066729499999999 Au
atom 7.4180300099999998 18.1523272400000018 2.5315059199999999 Au
atom 10.3095330300000008 18.1494760500000005 2.6298546699999998 Au
atom 13.1363890899999998 18.1553520400000004 2.8713935899999998 Au
atom 16.0702549200000000 18.1283391499999986 2.7882910700000001 Au
atom 18.9107950600000017 18.1168528000000002 2.5765277499999999 Au
atom 21.7000960800000016 18.1842476799999986 2.4960369000000000 Au
atom 24.4277624899999992 18.1929150300000018 2.5562036400000001 Au
atom 27.3014106800000000 18.1117448000000003 2.3939438700000002 Au
atom 1.9000314500000000 18.2024855599999995 2.0308239499999998 Au
atom 4.7124752200000000 18.1944956600000012 2.1070301900000001 Au
atom 8.8402055199999996 20.6624025399999987 2.5601051899999998 Au
atom 11.6513443999999993 20.6010053299999996 2.6743072799999998 Au
atom 14.5755316799999992 20.5505464499999988 2.7738385000000001 Au
atom 17.4759448900000010 20.5271736400000009 2.6533320499999999 Au
atom 20.2806700000000006 20.6146994200000009 2.6341122100000001 Au
atom 23.1764177300000007 20.6010813000000006 2.6396308899999998 Au
atom 25.8879915899999986 20.5283973999999994 2.5749151800000001 Au
atom 0.4053936400000000 20.6009677899999986 2.4593069500000002 Au
atom 3.2035619999999998 20.6060277099999993 2.1999350600000001 Au
atom 5.9642214700000000 20.6624714999999988 2.5310091799999999 Au
atom 7.3928376199999999 23.1200179000000006 2.7522469200000002 Au
atom 10.2602198500000004 22.9862506400000015 2.2901290699999999 Au
atom 13.2140007399999995 22.9296192900000015 2.4464869700000000 Au
atom 16.0719152899999997 23.0664130800000002 2.7745239000000002 Au
atom 18.8378408300000011 23.1162408900000003 2.4314326999999998 Au
atom 21.7065838100000015 23.0373130000000010 2.4717693700000001 Au
atom 24.4249926600000009 23.1161686300000007 2.3602796700000002 Au
atom 27.1593233199999986 23.0567113799999994 2.6647246299999998 Au
atom 1.7648992299999999 23.0627167899999996 2.2891496199999999 Au
atom 4.5902036300000004 23.0905466600000011 2.1319818900000000 Au
atom 8.8787248699999992 25.6047778100000016 2.7960099600000001 Au
atom 11.6795805999999995 25.3906699499999995 2.7310645299999998 Au
atom 14.4982475199999996 25.4968530899999983 2.7230360299999998 Au
atom 17.2113320999999999 25.5981432700000013 2.7279409299999999 Au
atom 20.1706091399999998 25.5820736699999998 2.6080815799999999 Au
atom 22.9354908399999999 25.5415960099999992 2.7892576700000000 Au
atom 25.8417271799999995 25.4824914900000010 2.7049128200000001 Au
atom 0.4840926900000000 25.4482156099999983 2.5711733699999999 Au
atom 3.2679396600000001 25.5386228600000003 2.1898608300000002 Au
atom 5.9559602399999996 25.5019356299999984 2.4718735800000000 Au
atom 7.3152682799999997 27.9577150400000001 2.5965512999999998 Au
atom 10.2520907300000008 27.9864719199999996 2.6371011800000002 Au
atom 13.0651270000000004 27.8756577199999995 2.6074102199999998 Au
atom 15.9550998699999997 28.0397962400000011 2.6072639799999999 Au
atom 18.7130655600000004 28.0359160100000011 2.5123033299999999 Au
atom 21.5289998000000011 27.9689370100000012 2.6914427100000000 Au
atom 24.3521168500000016 27.9446782700000007 2.7781150299999999 Au
atom 27.2576874899999986 27.9267907499999986 2.9020647199999998 Au
atom 1.8237785799999999 28.0706265500000001 2.4873750100000001 Au
atom 4.5805608199999996 27.9831248200000005 2.4989691500000002 Au
atom 8.9265185799999998 30.4034389400000009 2.5020533500000002 Au
atom 11.7088309699999993 30.4254243200000012 2.5964664900000001 Au
atom 14.5402415299999994 30.4528387100000018 2.6646563400000001 Au
atom 17.3469620400000011 30.4734381499999998 2.5397988900000001 Au
atom 20.1355617799999997 30.4986333000000016 2.5761921900000000 Au
atom 22.9448744500000004 30.3779072300000017 2.5550333900000002 Au
atom 25.7483921299999992 30.3680113399999989 2.6515679099999998 Au
atom 0.4088835700000000 30.4606561400000011 2.6945155600000001 Au
atom 3.2636133300000001 30.5264217400000000 2.4958741000000000 Au
atom 6.0373790100000004 30.4664463800000007 2.7283113800000001 Au
atom 7.5383708699999996 32.8157903999999974 2.5055184900000000 Au
atom 10.2927861200000006 32.8718831999999992 2.7442836000000002 Au
atom 13.2028701900000005 32.8433244499999972 2.6513143100000001 Au
atom 15.9952023299999997 32.9354026600000012 2.8604421900000001 Au
atom 18.7492395199999997 32.9268466700000033 2.5883905299999999 Au
atom 21.6240861500000001 32.8868363400000021 2.6002083800000002 Au
atom 24.4841762199999984 32.9200893900000011 2.4578497200000000 Au
atom 27.2449045800000000 32.8369435500000009 2.4570663100000001 Au
atom 1.8729311099999999 32.9843868800000024 2.5773271200000001 Au
atom 4.7314751900000003 32.8862651700000015 2.7681988999999998 Au
atom 8.9643566000000003 35.4471655099999978 2.6079586899999998 Au
atom 11.8173017999999992 35.3544913300000019 2.8157953000000000 Au
atom 14.6680392899999994 35.3738361799999979 2.7832214700000000 Au
atom 17.5079363199999989 35.4052681000000007 2.7461651100000002 Au
atom 20.2548090099999989 35.4305319699999970 2.7710226300000000 Au
atom 23.1546771999999983 35.4162283300000027 2.8706748499999999 Au
atom 25.9708577600000012 35.4059779199999980 2.6143001600000000 Au
atom 0.5014278599999999 35.3818887600000025 2.6350465999999999 Au
atom 3.3451449900000001 35.3599693299999984 2.6558409200000002 Au
atom 6.1425838700000002 35.3070566099999965 2.9850305399999999 Au
atom 7.5928087700000004 37.8745765000000034 3.0122469999999999 Au
atom 10.3848055299999995 37.8025951500000019 2.9570273399999998 Au
atom 13.2404881200000002 37.9031487299999981 3.0082912600000000 Au
atom 16.1834734000000005 37.8801332099999968 2.9616882400000000 Au
atom 18.9295155999999984 37.9197171799999992 2.6988070099999999 Au
atom 21.6974492900000016 37.8848045000000013 2.9428576999999998 Au
atom 24.4728287699999996 37.8344745400000022 2.7149432299999998 Au
atom 27.3246071199999996 37.9166515900000007 2.8809555900000001 Au
atom 2.0710752600000002 37.8494808800000015 2.7679071600000000 Au
atom 4.8019226100000001 37.8472049499999983 2.8826480800000001 Au
atom 8.9814129800000000 0.8754227000000000 3.0241381199999999 Au
atom 11.7455957400000006 0.8792256600000000 3.2499993900000002 Au
atom 14.5917422400000003 0.8158021300000000 3.0242766300000001 Au
atom 17.4655567100000013 0.8710707300000000 2.7837335799999998 Au
atom 20.2569792000000000 0.9338489600000000 3.0596676899999999 Au
atom 23.1163589800000011 0.8365956200000000 2.9768729899999999 Au
atom 25.9820814800000015 0.7318653100000000 2.7887731800000002 Au
atom 0.7112280400000000 0.8513112000000000 2.7016790799999999 Au
atom 3.4255044099999998 0.8948618200000000 2.9032390499999998 Au
atom 6.1961738100000003 0.7410330899999999 3.1008310300000002 Au
atom 7.5791768299999998 3.3122725800000001 3.1468248900000000 Au
atom 10.3673343399999993 3.3562832500000002 2.9760313100000002 Au
atom 13.1234414899999994 3.3746490699999998 2.9863188599999999 Au
atom 16.0821648800000006 3.3426435900000002 2.9120758300000000 Au
atom 18.8518198599999991 3.3795820499999998 2.9195847100000001 Au
atom 21.8136953300000016 3.2328116100000002 2.8112247300000002 Au
atom 24.6418307900000002 3.2499387700000000 2.6455619700000002 Au
atom 27.3915460000000017 3.3584185500000001 2.6463949200000001 Au
atom 2.0654491500000001 3.3023470200000000 2.8351520600000000 Au
atom 4.7591097800000002 3.4187871500000000 3.1306868899999998 Au
atom 8.9274893100000003 5.8215051700000000 3.0725779400000000 Au
atom 11.7307738399999995 5.8682163200000002 2.8870406200000001 Au
atom 14.5759647999999995 5.7799085600000000 2.9367334800000000 Au
atom 17.3907712100000005 5.7997477399999999 2.8733910400000000 Au
atom 20.2930641700000010 5.7463877600000002 2.9825955500000001 Au
atom 23.1142398900000003 5.6691876700000003 2.7341015500000001 Au
atom 25.9716484299999983 5.8727946400000004 2.7193903200000000 Au
atom 0.5482401900000000 5.7782490700000002 2.5561972300000000 Au
atom 3.3587024099999998 5.9271296299999996 2.5540073099999998 Au
atom 6.1242609999999997 5.7732700599999998 2.7200758000000000 Au
atom 7.4330825500000000 8.2574962000000003 2.8644107000000001 Au
atom 10.3022608099999999 8.2815497800000006 2.5374294900000001 Au
atom 13.0633951699999997 8.3539560000000002 2.6375444500000000 Au
atom 15.8948622499999992 8.2940541299999992 2.7863880999999999 Au
atom 18.9381491699999991 8.2973759600000001 2.9841962700000000 Au
atom 21.7578948099999998 8.2782001199999993 2.7755528799999998 Au
atom 24.5577629600000016 8.2520455300000002 2.7209765400000001 Au
atom 27.3120580500000010 8.3777189399999994 2.4782787200000000 Au
atom 1.7824232000000000 8.3640489200000001 2.4377581899999998 Au
atom 4.5631239199999998 8.3500686799999997 2.4423661000000001 Au
atom 8.8648751299999997 10.7974463000000007 2.7301474400000001 Au
atom 11.6686032100000006 10.8928453100000002 2.4720662199999999 Au
atom 14.5595520599999997 10.8192199099999993 2.6375470700000001 Au
atom 17.3596130100000003 10.7588999399999992 2.8364048099999999 Au
atom 20.2334698199999998 10.7059308499999997 2.4317951199999999 Au
atom 23.1961771900000002 10.8007564899999995 2.4549469300000002 Au
atom 25.8441516000000000 10.7287233000000004 2.4473145999999999 Au
atom 0.4429044000000000 10.8373768300000002 2.3497868400000002 Au
atom 3.3319631099999998 10.8992505099999999 2.3547170199999998 Au
atom 6.1113715800000001 10.7873022299999999 2.6661114100000001 Au
atom 7.1899114700000002 13.1672077999999999 5.4356723699999998 Cl
atom 7.1781254099999998 15.9565779200000009 8.3471357600000005 Cl
atom 7.2701932899999999 13.2264528499999994 8.1290502000000000 Na
atom 7.2574756000000002 15.8862902300000002 5.5729019199999996 Na
atom 7.1756215599999997 18.6505209399999998 5.5838438100000003 Cl
atom 7.2811460099999996 21.6253717899999991 8.4385220000000007 Cl
atom 7.2276462800000001 18.8521653200000010 8.0821625400000006 Na
atom 7.1343452699999999 21.3930028300000004 5.7725261799999998 Na
atom 7.3012685700000004 24.4389987399999988 5.6411687400000003 Cl
atom 7.1393655200000001 27.2585204899999987 8.3120049599999994 Cl
atom 7.2187676800000000 24.4393142099999992 8.2518466499999992 Na
atom 7.1624963499999996 27.2531065300000002 5.6561750200000001 Na
atom 7.1518892899999997 30.1360356100000004 5.6367302700000002 Cl
atom 7.1533141699999998 32.7684052500000007 8.5831055400000000 Cl
atom 7.2145025199999999 29.9506860999999986 8.2079268600000006 Na
atom 7.1521502300000002 33.0120644799999994 5.9291788199999997 Na
atom 7.1886171900000004 35.8638011299999988 5.9728597399999996 Cl
atom 7.1256937599999999 38.6767200099999968 8.9627220399999992 Cl
atom 7.1162660000000004 35.6644333400000022 8.5755877900000002 Na
atom 7.1367165200000002 38.6765756599999975 6.0934921600000003 Na
atom 7.2409114900000002 1.7727495499999999 6.1501196599999997 Cl
atom 7.1980288100000003 4.7415578299999996 8.9038726500000003 Cl
atom 7.2834127899999999 1.9178752900000000 8.8412027000000002 Na
atom 7.1607637300000002 4.7002562599999997 6.2174030800000004 Na
atom 7.2430913200000004 7.3789978100000004 5.8640367600000003 Cl
atom 7.1349327999999996 10.4331185299999998 8.3031921799999999 Cl
atom 7.2222849000000000 7.5808739200000002 8.5787921300000001 Na
atom 7.2804439399999996 10.3590399099999999 5.4997407100000002 Na
atom 10.0304987299999997 13.0060955000000007 5.6988916700000001 Na
atom 12.8441347100000005 12.9846139899999997 5.6246809899999999 Cl
atom 9.9793614700000006 15.9166644999999995 8.1433479400000000 Na
atom 12.8016219699999994 15.8428730400000006 8.3374965900000007 Cl
atom 12.8507701399999998 13.0039489800000005 8.4565657699999992 Na
atom 10.0991145299999996 13.1216137100000001 8.5377267099999994 Cl
atom 12.7982279099999996 15.7874740899999999 5.5962727599999997 Na
atom 10.0196793100000008 16.0334753100000000 5.4335189399999999 Cl
atom 9.9204358999999993 18.7859478600000003 5.6641436399999998 Na
atom 12.6754028299999995 18.8614950400000012 5.5355939599999999 Cl
atom 9.9401907699999992 21.6514730499999999 8.2015046599999994 Na
atom 12.7150686200000003 21.5704085600000006 8.5280221899999997 Cl
atom 12.6787051399999999 18.7243305800000002 8.1440466899999997 Na
atom 10.0736242399999991 18.6737606900000017 8.5178419200000004 Cl
atom 12.8235685299999993 21.6320422800000003 5.9009924099999997 Na
atom 9.9609655099999994 21.4212016600000013 5.6034923499999998 Cl
atom 9.9909207900000006 24.4090145999999990 5.4779138700000001 Na
atom 12.8431511500000006 24.5428588199999993 5.7520621099999998 Cl
atom 9.8895958799999999 27.2400497600000016 8.2667648200000006 Na
atom 12.6613816499999992 27.2927613200000003 8.6394555299999993 Cl
atom 12.6973430000000000 24.4861826499999999 8.5063692100000008 Na
atom 9.9353507899999993 24.5472850300000012 8.5354762599999994 Cl
atom 12.9352094599999994 27.3591702599999991 5.9343633200000001 Na
atom 10.0162521200000008 27.3107983599999997 5.7139616899999996 Cl
atom 10.0649869100000000 30.1173061500000010 5.7559391900000003 Na
atom 12.8371952500000006 30.1709655699999999 5.8079541399999997 Cl
atom 9.9477791700000004 33.0079294900000022 8.4105119500000001 Na
atom 12.7903451500000003 32.8352198199999989 8.6153464599999996 Cl
atom 12.6672466799999999 30.1009248700000001 8.5043683100000003 Na
atom 9.8632670499999993 29.8712975800000002 8.4227841500000000 Cl
atom 12.7138977600000000 32.9146450300000026 5.9203363199999997 Na
atom 10.0276206000000006 33.0100221200000021 5.8361636700000004 Cl
atom 9.8669049799999993 35.8064341099999979 5.8611917599999996 Na
atom 12.7611644500000008 35.8305955200000028 5.8290293200000001 Cl
atom 9.8452938400000001 38.5224416599999984 8.5526489100000003 Na
atom 12.7720442500000004 38.3511018399999983 8.8395819400000004 Cl
atom 12.8873339300000005 35.7172934000000026 8.5101758200000006 Na
atom 9.9311909099999998 35.7271341900000010 8.7414995999999991 Cl
atom 12.8046523200000006 38.5388904100000005 6.0880562600000001 Na
atom 10.0639718400000007 38.4921683000000030 5.9245540400000003 Cl
atom 9.9236143000000006 1.8425565100000001 6.0647282300000001 Na
atom 12.9831708999999993 1.7849908999999999 5.9186539500000004 Cl
atom 10.0984786500000006 4.7310604400000003 8.5327670399999995 Na
atom 12.8882458799999995 4.7780485700000002 8.7513143600000003 Cl
atom 12.8626786000000006 1.8179537500000000 8.6550215599999998 Na
atom 10.1577690599999997 1.9418087300000000 8.8020654900000004 Cl
atom 13.0042484500000004 4.6644522600000000 6.1293487899999999 Na
atom 9.9158183300000005 4.7661441900000003 5.9599173499999996 Cl
atom 9.9480375900000002 7.5283781100000002 6.0657236499999998 Na
atom 12.8338007600000008 7.3292513000000001 5.7722897299999998 Cl
atom 9.9256710399999992 10.3618609300000006 8.3480812100000001 Na
atom 12.7838402900000006 10.2452707000000007 8.6459675100000002 Cl
atom 12.8980830300000004 7.5999392099999996 8.4184192299999996 Na
atom 9.8626462900000007 7.5656240300000004 8.7873794499999995 Cl
atom 12.8668863200000008 10.3022074400000001 5.8980599199999997 Na
atom 10.1051152200000001 10.1601117399999996 5.6956535500000003 Cl
atom 15.6366645900000005 12.7704833000000004 5.7401176600000001 Na
atom 18.4991255300000006 12.8984073000000006 5.5692552700000002 Cl
atom 15.4623263800000004 15.8007043700000001 8.1096004500000003 Na
atom 18.6645134599999984 15.8784657199999995 8.3210632600000007 Cl
atom 18.5900412300000006 12.9992323200000008 8.1578996299999993 Na
atom 15.7512040199999994 13.0432899700000000 8.4184868999999996 Cl
atom 18.5083746100000006 15.8175907900000006 5.5932468300000000 Na
atom 15.7280403900000003 15.8795731700000005 5.5724746800000000 Cl
atom 15.5366716900000004 18.8769791299999987 5.4718397100000002 Na
atom 18.5579346399999991 18.6731365800000013 5.5200362399999996 Cl
atom 15.7999018499999995 21.4989657799999989 8.4242933799999999 Na
atom 18.5164721999999990 21.6107141499999997 8.0981458600000007 Cl
atom 18.4453872399999987 18.5067448299999988 8.2648518499999994 Na
atom 15.6964524999999995 18.6689969900000001 7.9882330100000001 Cl
atom 18.5844891099999998 21.5344929699999987 5.6387727500000002 Na
atom 15.7175439699999995 21.7207743099999995 5.6693619599999998 Cl
atom 15.6446926800000004 24.3763227399999991 5.6931273400000002 Na
atom 18.3772310200000000 24.4989899700000002 5.4491107200000002 Cl
atom 15.7526651999999991 27.3612660699999992 8.4934012100000000 Na
atom 18.6456320600000005 27.1799765399999984 8.3823879899999998 Cl
atom 18.5839470300000009 24.2637184800000014 8.2683972200000007 Na
atom 15.4573754000000001 24.5657579800000008 8.3809098599999992 Cl
atom 18.4625253899999997 27.2249829500000011 5.6274316100000004 Na
atom 15.7879478899999999 27.5193160699999986 5.6329602200000002 Cl
atom 15.6394209899999996 30.2744043100000013 5.8590498200000001 Na
atom 18.5175821399999982 30.3591383400000012 5.7935153899999996 Cl
atom 15.6805736600000003 32.8902053699999968 8.4670758399999997 Na
atom 18.4170870499999992 32.8888492000000028 8.6519686599999996 Cl
atom 18.6669536399999991 30.0290771999999997 8.3632423800000009 Na
atom 15.5746245099999996 30.0357011500000013 8.4990551199999995 Cl
atom 18.4789251999999991 33.1696951300000009 5.8863839799999997 Na
atom 15.4555638700000006 33.0334464600000004 5.7744398600000002 Cl
atom 15.6248615100000006 35.7988189100000014 5.9737023499999999 Na
atom 18.5828809700000015 35.7930402799999996 5.8200301000000003 Cl
atom 15.6694146500000002 38.4337634999999977 8.5548384100000003 Na
atom 18.4496733400000004 38.5372703000000030 8.8842246500000002 Cl
atom 18.6210239400000006 35.8172464299999973 8.4488256499999999 Na
atom 15.6535407699999993 35.7362753700000013 8.8318830500000001 Cl
atom 18.4095545700000010 38.5749455400000016 6.0349024299999998 Na