#===============================================================================
# Created using the Atomic Simulation Environment (ASE)

# Tue Dec 23 22:26:50 2025

#=======================================================
lattice_vector 28.1999999999999993 0.0000000000000000 0.0000000000000000 
lattice_vector 0.0000000000000000 39.4799999999999969 0.0000000000000000 
lattice_vector 0.0000000000000000 0.0000000000000000 62.3296083400000001 
atom 7.5751806999999998 14.6827219200000005 -0.0098852800000000 Au
atom 10.2891475900000007 14.7628640499999992 0.0145503200000000 Au
atom 13.0539084100000000 14.7265265400000001 -0.0395898500000000 Au
atom 15.8772690900000004 14.8143005799999994 0.0019722900000000 Au
atom 18.7466910099999993 14.7439399499999997 -0.1393542400000000 Au
atom 21.4789098100000011 14.7892951600000000 -0.1103196800000000 Au
atom 24.2166367700000009 14.7609116799999995 0.1457509300000000 Au
atom 27.0751035199999990 14.8480488099999999 0.2583351100000000 Au
atom 1.6800196400000000 14.7854484399999997 -0.0700172700000000 Au
atom 4.6480744100000004 14.7944045200000005 -0.0364855200000000 Au
atom 8.8557245099999999 17.3772239199999987 0.0428068700000000 Au
atom 11.6774166600000004 17.1837696099999988 0.0780540700000000 Au
atom 14.4469040199999998 17.3749116400000005 0.0284470300000000 Au
atom 17.2958233800000016 17.3313818200000007 -0.0675766400000000 Au
atom 20.1371509899999985 17.2002230300000001 0.0535578800000000 Au
atom 22.9207549700000008 17.1896942499999987 -0.0027505700000000 Au
atom 25.6711737699999993 17.1626046300000006 -0.1570664200000000 Au
atom 0.3476856500000000 17.3678293900000007 0.0501716000000000 Au
atom 3.1419408199999999 17.1387116900000009 -0.0763586000000000 Au
atom 6.0954703500000003 17.2405776199999998 -0.1293245200000000 Au
atom 7.3718052800000002 19.7508162499999997 -0.0629294000000000 Au
atom 10.2906895600000006 19.6934481000000012 0.1815411900000000 Au
atom 13.0989849300000003 19.7195048700000015 0.0019894800000000 Au
atom 15.9612337499999999 19.8041492699999999 -0.0412071100000000 Au
atom 18.8360583000000013 19.5902516499999990 -0.0884507100000000 Au
atom 21.6182269299999987 19.7295337800000006 0.0747586300000000 Au
atom 24.3904880499999983 19.7692417200000001 -0.0880362700000000 Au
atom 27.2264079099999989 19.4933815099999990 -0.2388227700000000 Au
atom 1.7298343800000000 19.6619495300000011 0.3369243200000000 Au
atom 4.6334017400000000 19.6413825300000013 -0.1496282600000000 Au
atom 8.7773824099999995 22.2407415700000008 -0.1864369900000000 Au
atom 11.7428010500000006 22.2151458899999987 0.2991477100000000 Au
atom 14.4043194200000002 22.2088702500000004 0.1353618400000000 Au
atom 17.3193497799999996 22.2003887999999989 -0.3044663600000000 Au
atom 20.1488520000000015 22.2216459200000003 0.1440934800000000 Au
atom 22.8296396199999982 22.1630968300000006 0.0103763700000000 Au
atom 25.8251177699999985 22.0744951500000006 -0.0379693400000000 Au
atom 0.3259287400000000 22.0071838100000008 0.3813099200000000 Au
atom 3.1566868900000000 22.0433670900000003 -0.0666874500000000 Au
atom 5.9167759100000001 22.1928566399999987 -0.0920698900000000 Au
atom 7.3524666900000000 24.6037394300000010 -0.1912198400000000 Au
atom 10.2930440399999998 24.6702573299999983 -0.2504672000000000 Au
atom 13.1841091299999995 24.6553986700000003 -0.3244697700000000 Au
atom 15.9328153900000000 24.7074681100000006 -0.1028131000000000 Au
atom 18.7024464899999998 24.7057304699999989 0.0200863500000000 Au
atom 21.5883386799999997 24.6412763999999989 -0.0483336400000000 Au
atom 24.2937667499999996 24.6008426100000008 -0.1652797100000000 Au
atom 27.1358535299999986 24.5955529999999989 -0.4379258800000000 Au
atom 1.7240325900000000 24.5203905499999983 -0.1833113400000000 Au
atom 4.5271662099999999 24.6906444000000000 -0.1261456800000000 Au
atom 8.9131610200000004 27.1794489400000003 -0.1977789000000000 Au
atom 11.6858930900000004 27.1726621900000005 -0.3453347900000000 Au
atom 14.4992036599999992 27.1205798400000013 0.0424876900000000 Au
atom 17.2721585699999984 27.0821772799999998 0.2385174800000000 Au
atom 20.0892167700000002 27.1002718400000013 -0.1166514100000000 Au
atom 22.9982677700000018 27.0856707999999990 -0.2760397900000000 Au
atom 25.8302359999999993 26.9662788300000003 -0.1145982600000000 Au
atom 0.4373295900000000 27.0354756700000003 -0.4024108700000000 Au
atom 3.2126975899999999 27.0848185100000016 0.1427684600000000 Au
atom 5.9975950100000004 27.1274721999999997 -0.1767801900000000 Au
atom 7.3940535299999999 29.7069736700000000 -0.1966559100000000 Au
atom 10.2700755899999994 29.6904543499999996 -0.3019295400000000 Au
atom 13.0942078700000000 29.6082459200000017 -0.1848318200000000 Au
atom 15.8740487199999993 29.5659317199999983 -0.1616851800000000 Au
atom 18.7942967600000017 29.4619429699999991 0.1239292800000000 Au
atom 21.6389121300000014 29.5428817200000005 -0.1042941700000000 Au
atom 24.4987591800000004 29.4808209199999993 0.1499263800000000 Au
atom 27.1906895199999994 29.6475317199999999 -0.2938872300000000 Au
atom 1.7916749300000001 29.5498107300000008 0.1094130500000000 Au
atom 4.5154087199999999 29.5162473299999988 0.0730597500000000 Au
atom 8.7962285300000005 32.1994915000000006 -0.2842682000000000 Au
atom 11.6389910600000004 32.1080225299999995 -0.3510967300000000 Au
atom 14.5312938999999997 32.0247285399999981 -0.0557764700000000 Au
atom 17.3092851199999984 31.9234978699999985 -0.0427708300000000 Au
atom 20.1353302800000016 31.8897664799999987 -0.2880159400000000 Au
atom 23.0198395500000004 31.9188991000000009 -0.2286621400000000 Au
atom 25.7315992300000005 32.0061361300000016 -0.1430208100000000 Au
atom 0.3724086400000000 32.1127830100000011 -0.0615352600000000 Au
atom 3.1138146099999999 32.0954020599999978 -0.1784269700000000 Au
atom 5.9556144900000003 32.1044212600000023 -0.1143733300000000 Au
atom 7.4974997099999996 34.6093247700000006 0.1691300100000000 Au
atom 10.2536224800000006 34.6503090400000033 -0.3311931700000000 Au
atom 13.0035041200000006 34.5242900399999968 -0.0435447100000000 Au
atom 15.8479738799999996 34.4007349000000033 0.0769801200000000 Au
atom 18.7521223799999994 34.4606310699999980 -0.2301894800000000 Au
atom 21.4915632000000016 34.4500280900000035 -0.3640473700000000 Au
atom 24.2628782500000000 34.4657154599999984 -0.1687819800000000 Au
atom 27.1020711900000002 34.5139708900000031 0.5096288400000000 Au
atom 1.7188505800000000 34.5667197300000026 0.1353882400000000 Au
atom 4.6822980500000000 34.5033852500000009 0.0664649500000000 Au
atom 9.0637583399999997 36.9803534300000010 -0.1757225800000000 Au
atom 11.9478297599999994 37.1375109399999985 0.2341324600000000 Au
atom 14.6142495100000005 36.9523974499999994 0.2269735400000000 Au
atom 17.3494752400000003 36.9395240899999990 0.1185462600000000 Au
atom 20.0488846500000015 36.9181594499999974 -0.1868069300000000 Au
atom 22.9637813000000008 36.8595385699999980 0.1226661700000000 Au
atom 25.8110752999999988 36.9154162600000006 0.1327958900000000 Au
atom 0.4805870600000000 36.9123815900000025 0.2621022500000000 Au
atom 3.2998282400000001 36.9935754099999983 0.0309822100000000 Au
atom 6.1526987000000002 37.0793616899999989 0.0800122400000000 Au
atom 7.4443607399999996 0.0344894500000000 0.2940387900000000 Au
atom 10.3154153599999994 0.0279977400000000 0.0181117800000000 Au
atom 13.1856226299999992 -0.0169808500000000 0.2219819600000000 Au
atom 16.1475074599999999 -0.0413010500000000 0.2177414800000000 Au
atom 19.1445965200000003 -0.0928622200000000 0.0603721700000000 Au
atom 21.7861645300000006 -0.1171257000000000 0.3008249900000000 Au
atom 24.5664817999999983 -0.1451872900000000 -0.2392166300000000 Au
atom 27.1639274399999984 0.0158184500000000 0.2551050200000000 Au
atom 1.9066666500000000 -0.0532518500000000 0.0281828500000000 Au
atom 4.5975269699999997 0.1270984000000000 0.2496126800000000 Au
atom 8.8361156600000008 2.4958137100000002 0.2075878100000000 Au
atom 11.6069829400000000 2.4502890599999998 0.1703956000000000 Au
atom 14.6112434800000006 2.3803770200000001 0.3050095300000000 Au
atom 17.3985784400000014 2.3802136200000001 0.1867991400000000 Au
atom 20.1545783199999988 2.4723582799999999 0.0061357300000000 Au
atom 23.0056404400000005 2.3304853400000001 0.1046528400000000 Au
atom 25.8326800399999996 2.4039142999999998 0.2425506500000000 Au
atom 0.4047377600000000 2.5416665500000000 0.3369936100000000 Au
atom 3.2298464600000001 2.5841223800000002 0.1663176500000000 Au
atom 6.1493785900000004 2.6102028900000001 -0.0425864100000000 Au
atom 7.5630245699999996 4.9981064599999998 -0.0340140500000000 Au
atom 10.4041546900000004 4.9813707799999998 0.1058277200000000 Au
atom 13.2242753799999999 4.7934919599999999 -0.1881237400000000 Au
atom 16.0301148399999995 4.8730238100000003 0.2860529900000000 Au
atom 18.7946549099999984 4.9476837800000002 0.0797673700000000 Au
atom 21.7197802700000011 4.8543640400000001 0.0168537500000000 Au
atom 24.3866261999999985 4.7813726000000001 0.0584618400000000 Au
atom 27.1576498400000013 4.9319563000000004 0.3044410000000000 Au
atom 1.8936820400000001 4.9897930099999996 0.2531584300000000 Au
atom 4.6679921300000000 5.1010370500000004 0.1283992800000000 Au
atom 9.0090711399999996 7.4946825500000003 0.0095508500000000 Au
atom 11.7880585700000005 7.3715854800000002 0.2549789200000000 Au
atom 14.6884988799999991 7.3458920499999998 -0.2562052800000000 Au
atom 17.4155668299999995 7.4219347300000003 0.0515189000000000 Au
atom 20.2392943500000015 7.4483722500000002 0.0448764100000000 Au
atom 23.0864182699999994 7.3925358399999999 0.3268619300000000 Au
atom 25.8176356200000008 7.4021478800000002 -0.1108260900000000 Au
atom 0.4218573200000000 7.2365091000000001 0.2298047500000000 Au
atom 3.3119949200000001 7.4511526999999997 -0.0223681600000000 Au
atom 6.1506274400000001 7.3648994200000004 -0.0687967900000000 Au
atom 7.4495282400000002 9.8318258400000005 -0.0617581000000000 Au
atom 10.3898127299999992 9.8731840500000008 -0.0903087300000000 Au
atom 13.2522771400000003 9.8720117700000003 0.1446769200000000 Au
atom 15.9756307599999996 9.8097438900000000 -0.1239481500000000 Au
atom 18.8298416300000007 9.8447016600000001 -0.1119443800000000 Au
atom 21.7989244400000004 9.7748542900000004 -0.1176375800000000 Au
atom 24.5109087899999984 9.9155749800000006 0.2972258700000000 Au
atom 27.2360425500000005 9.7174314699999993 0.2921491800000000 Au
atom 1.8034556799999999 9.8871939399999995 -0.1404400700000000 Au
atom 4.6456045599999998 9.8659318799999998 -0.1782947000000000 Au
atom 8.9013995900000005 12.2955959999999997 -0.0602609600000000 Au
atom 11.7320232499999992 12.3702222800000001 -0.0721386900000000 Au
atom 14.5188098900000000 12.3077427400000001 -0.0268639600000000 Au
atom 17.3015308099999991 12.2273064500000004 -0.0494730000000000 Au
atom 20.1677857399999994 12.2428400600000007 -0.0872313800000000 Au
atom 22.9055348800000012 12.2687558699999997 -0.0430708800000000 Au
atom 25.7432304800000011 12.2281636400000000 0.2622381900000000 Au
atom 0.3888660200000000 12.3333187300000002 0.2147494300000000 Au
atom 3.2511758700000000 12.2354475399999991 0.1587904500000000 Au
atom 6.1726887200000000 12.2749841699999998 -0.0487440200000000 Au
atom 7.4356243400000004 13.0752289800000003 2.7611086500000002 Au
atom 10.1965271200000007 13.1085321799999992 2.4240247099999999 Au
atom 13.1161624999999997 13.1941380899999992 2.7120293100000001 Au
atom 16.0055501800000002 13.1168090399999997 2.6032982699999998 Au
atom 18.7884476400000011 13.2801013700000006 2.5523321999999999 Au
atom 21.5810472500000010 13.2577269300000005 2.4693424799999999 Au
atom 24.3645695800000013 13.2692286199999998 2.7317558499999999 Au
atom 27.2255427099999991 13.1149207499999996 2.9322906899999999 Au
atom 1.8223493099999999 13.0584325900000007 2.5808098400000001 Au
atom 4.7248553099999997 13.1247283499999998 2.6250391600000000 Au
atom 8.8015675099999999 15.6883586699999995 2.5431833300000002 Au
atom 11.6976407899999995 15.5602193300000007 2.7376982100000000 Au
atom 14.5350368000000003 15.5968472499999997 2.6971654500000000 Au
atom 17.3026672099999992 15.7437460700000003 2.6980746799999999 Au
atom 20.0893508700000005 15.7310241600000005 2.5371467399999998 Au
atom 22.9645819300000014 15.6404707100000007 2.7592298999999998 Au
atom 25.8101473199999987 15.6789093800000003 2.6847070400000002 Au
atom 0.4426721400000000 15.4548743700000006 2.7325899100000002 Au
atom 3.1396682400000002 15.5977168200000005 2.6918436899999998 Au
atom 5.9897100600000002 15.5618436100000004 2.6434993100000002 Au
atom 7.3643340899999998 18.1179895799999997 2.8285420999999999 Au
atom 10.3026769500000004 18.0201607899999985 2.6962216099999998 Au
atom 13.1815922899999993 18.0748520699999986 2.5577155100000000 Au
atom 16.0011451499999993 18.2487559700000013 2.6314365500000001 Au
atom 18.7579124600000000 18.1379151800000002 2.6011800100000002 Au
atom 21.6293381800000013 18.1127147700000002 2.7664138299999999 Au
atom 24.4055015900000001 18.0916592700000010 2.5321263200000002 Au
atom 27.2550224900000018 18.0961838300000011 2.5764179999999999 Au
atom 1.8336592300000001 18.1150277799999984 2.9252533700000001 Au
atom 4.6894743600000002 18.0707714700000004 2.4103761800000001 Au
atom 8.9116221099999997 20.5403281900000003 2.7721287299999999 Au
atom 11.7577263399999996 20.5831776799999986 2.8328576900000000 Au
atom 14.4849212400000003 20.6318755299999985 2.5285107199999999 Au
atom 17.3391282199999992 20.6300661599999984 2.4219419100000001 Au
atom 20.1941934100000005 20.5927544599999983 2.6680567599999998 Au
atom 23.0341812899999994 20.5576052599999990 2.8114583799999999 Au
atom 25.8372482300000001 20.5272167500000009 2.4796320600000001 Au
atom 0.3985668700000000 20.4874785199999998 3.0830788299999998 Au
atom 3.2457476700000001 20.5951408100000002 2.5197868699999999 Au
atom 6.0804351800000003 20.5293697900000005 2.5858161399999999 Au
atom 7.3401383800000000 22.9663530700000003 2.5392107600000000 Au
atom 10.1639662400000006 22.9777100300000008 2.5206588600000002 Au
atom 13.0683717700000006 23.0396703800000004 2.8881232099999998 Au
atom 15.9477954400000002 23.0941132200000006 2.4903293000000000 Au
atom 18.7030071299999996 23.0418792500000009 2.5154046499999998 Au
atom 21.5261361099999995 23.0759704600000006 2.7404560800000000 Au
atom 24.4102735399999986 23.0476608399999989 2.6358818099999999 Au
atom 27.2187194199999993 22.9633063499999999 2.8734889799999999 Au
atom 1.8745180500000000 23.0010644100000015 2.4964571900000001 Au
atom 4.5853079599999997 22.9817478199999989 2.4839704500000002 Au
atom 8.8626383000000004 25.4677869799999996 2.3510636599999999 Au
atom 11.6524053799999994 25.5222209900000010 2.2459515400000001 Au
atom 14.5393621300000007 25.5596839699999983 2.4589948300000000 Au
atom 17.3631805800000016 25.4264987399999995 2.7012782600000000 Au
atom 20.1153122700000004 25.4436150800000007 2.4779441200000001 Au
atom 23.0289250999999986 25.5373441999999997 2.4962802900000001 Au
atom 25.8464907199999985 25.4496886599999996 2.4781960000000001 Au
atom 0.4786643700000000 25.5888140200000009 2.2610007200000002 Au
atom 3.2818944000000001 25.4396050900000006 2.5545382900000000 Au
atom 6.1018552499999998 25.5036174100000004 2.5319679399999999 Au
atom 7.4713847299999996 28.0228554699999997 2.3760547399999998 Au
atom 10.3123301600000001 27.9543991200000015 2.3521750199999998 Au
atom 13.1302142100000001 28.0090354800000014 2.4818982900000002 Au
atom 15.9103706700000007 27.9535369699999983 2.7822237099999998 Au
atom 18.7948941000000005 27.9118780199999996 2.7966142100000000 Au
atom 21.5721166500000017 27.9552098099999995 2.4907062500000001 Au
atom 24.4034147200000007 27.9547403199999991 2.6443106900000002 Au
atom 27.3241671799999999 27.8984497900000008 2.0316234899999999 Au
atom 1.7745797900000000 27.9098737700000008 2.6646416099999999 Au
atom 4.6906464100000003 27.9695832700000011 2.7785195699999998 Au
atom 8.8720447000000000 30.5297340400000010 2.3346448000000000 Au
atom 11.6188828199999996 30.5929749400000013 2.3081991199999998 Au
atom 14.4855068599999992 30.4478808200000017 2.5216371700000000 Au
atom 17.1966939600000011 30.3606426200000001 2.4226079399999998 Au
atom 20.1416662799999990 30.4288466799999995 2.4535686399999999 Au
atom 23.0325623899999989 30.4563403800000003 2.4403162799999998 Au
atom 25.8549241199999997 30.3907665099999988 2.4989292000000001 Au
atom 0.4470732100000000 30.4758499100000009 2.8552412199999999 Au
atom 3.2492030600000001 30.3649349199999996 2.6434640699999998 Au
atom 6.0760639999999997 30.4575706000000004 2.5719488300000002 Au
atom 7.4359884100000002 32.8579749600000000 2.4501748600000002 Au
atom 10.2172747400000006 32.9165244799999996 2.0419098400000002 Au
atom 13.0493974500000007 32.9751417800000013 2.6020229200000000 Au
atom 15.8963410700000001 32.8085184600000019 2.6976742200000001 Au
atom 18.6458455000000001 32.8037459399999989 2.3697787099999998 Au
atom 21.5184029599999995 32.7713473499999992 2.2859351100000000 Au
atom 24.3983253699999985 32.8938942899999986 2.2978506200000002 Au
atom 27.2537592400000008 32.8551316799999995 2.8273672099999998 Au
atom 1.8665860700000001 32.9267753099999965 2.7349919699999998 Au
atom 4.6229685199999997 32.9126085799999970 2.7337108699999999 Au
atom 8.8962898599999995 35.3559146400000017 2.6758062100000002 Au
atom 11.5838904100000004 35.3829124499999992 2.5343261600000000 Au
atom 14.5592089999999992 35.4071808599999969 2.8700469800000001 Au
atom 17.3729197400000004 35.3124470599999967 2.4274608799999999 Au
atom 20.1718133799999997 35.2399224199999992 2.3048602900000001 Au
atom 22.8824284200000001 35.3267232299999989 2.5621190999999999 Au
atom 25.6377533900000003 35.2026881500000002 2.9574492900000000 Au
atom 0.2795692800000000 35.3850181899999967 2.9321007400000001 Au
atom 3.1986475900000002 35.3310060399999983 2.7673171000000001 Au
atom 5.9843558500000000 35.3178248199999985 2.6869489999999998 Au
atom 7.3577621400000002 37.8159602699999979 2.8396622100000002 Au
atom 10.3707575100000007 37.8653277000000017 2.8269131900000000 Au
atom 13.0498388599999995 37.9646842000000007 2.7482380399999999 Au
atom 15.8841896699999996 37.7961358399999980 2.6759489200000002 Au
atom 18.4004333799999991 37.8071650300000002 2.4951910599999998 Au
atom 21.3204267300000012 37.7524677199999985 2.6407925400000001 Au
atom 24.3698204199999999 37.7958113800000035 2.5137020400000001 Au
atom 27.1263955999999986 37.7634945300000027 2.9540085399999998 Au
atom 1.8622593999999999 37.6205355999999966 2.8662266199999999 Au
atom 4.9262962799999999 37.7552986700000019 2.8978568600000001 Au
atom 9.0432214999999996 0.7975444699999999 2.7031054900000000 Au
atom 12.0196356800000004 0.9983212500000000 2.9365092200000000 Au
atom 14.6838557900000009 0.8725287600000000 3.1646965100000002 Au
atom 17.3687578500000015 0.9173175500000000 2.8511413100000000 Au
atom 20.1206434200000004 0.7347484900000000 2.8046580400000001 Au
atom 22.8136533499999992 0.7813397700000000 2.7224202499999999 Au
atom 25.9648664700000005 0.6584779700000000 2.9029223399999999 Au
atom 0.4303839000000000 0.8827424900000000 2.9487825100000000 Au
atom 3.3707635499999999 0.7724880300000000 2.7820298700000001 Au
atom 6.1796392200000003 0.8918941500000001 2.5747383400000001 Au
atom 7.4775311899999997 3.3534508700000001 2.7998550600000001 Au
atom 10.2847909099999999 3.3250927400000001 2.6551449100000002 Au
atom 13.2215538099999996 3.4310920100000000 2.5591071699999999 Au
atom 15.9181452700000001 3.3567943499999999 2.8684320600000000 Au
atom 18.7853246899999995 3.3547346400000002 2.8158431700000000 Au
atom 21.5512167199999993 3.2098764300000000 2.5602636599999999 Au
atom 24.3813466599999984 3.3295883499999999 2.5788318100000001 Au
atom 27.2290616099999987 3.0747071699999999 2.7195850899999998 Au
atom 1.8273151000000001 3.2762605100000002 2.8175675600000001 Au
atom 4.6707292599999999 3.3909460400000002 2.7633212199999999 Au
atom 8.9238873099999996 5.8399463999999996 2.4193705599999999 Au
atom 11.8169277299999997 5.7928434700000002 2.8421976000000000 Au
atom 14.5022211700000003 5.9042267300000004 2.5850513899999998 Au
atom 17.3685295900000014 5.7807503100000002 2.7034880600000002 Au
atom 20.2647153099999997 5.6734757000000000 2.4629335299999999 Au
atom 22.9958911000000015 5.7580929999999997 2.8323008999999999 Au
atom 25.7749185800000014 5.8149755000000001 2.6361686899999999 Au
atom 0.3842744700000000 5.7632126200000000 2.8358829100000000 Au
atom 3.2005364699999999 5.8173885700000003 2.6897605699999998 Au
atom 6.1049105199999998 5.8279384099999998 2.6131499699999998 Au
atom 7.5665200700000002 8.2896243500000004 2.5928236600000001 Au
atom 10.4222344000000007 8.2602599500000000 2.6606874800000000 Au
atom 13.2402627800000001 8.3914038800000004 2.5211587199999999 Au
atom 16.0104094699999990 8.2584596000000001 2.5474779800000000 Au
atom 18.8207416199999997 8.3175992999999995 2.6130028300000001 Au
atom 21.5172487500000003 8.3651695499999992 2.6769650800000000 Au
atom 24.3202064799999995 8.2596459499999995 2.8931120699999999 Au
atom 27.2163816099999991 8.2387366300000000 2.5712314799999998 Au
atom 1.7801663400000001 8.1905569800000002 2.7913831899999999 Au
atom 4.7950083599999997 8.1277556799999999 2.3251648000000000 Au
atom 8.9662806499999999 10.6883129100000005 2.5073814400000001 Au
atom 11.7716959600000006 10.7413927600000001 2.7058155199999998 Au
atom 14.6883006500000004 10.6917765199999995 2.5039755399999999 Au
atom 17.5023413000000012 10.8027926799999996 2.6399983699999998 Au
atom 20.2405161500000013 10.8120324199999995 2.4568336999999998 Au
atom 22.9731977399999998 10.8597896699999996 2.6556033100000001 Au
atom 25.7056386100000012 10.6633380800000008 2.9074727500000002 Au
atom 0.3124729000000000 10.4993565300000000 2.6418948800000002 Au
atom 3.2886730800000001 10.5460008999999992 2.5556228499999998 Au
atom 6.1136457000000002 10.6400977500000007 2.5340830500000000 Au
atom 7.9113972800000001 13.3617575500000001 5.8645856800000002 Cl
atom 7.8419356999999996 16.3797913299999998 8.5921240999999995 Cl
atom 7.8332771499999998 13.1757005399999994 8.3400721900000008 Na
atom 7.7570635799999996 16.1566648700000002 5.8171170200000004 Na
atom 7.7919645400000004 19.1934432800000003 5.6325612700000001 Cl
atom 7.7925318399999997 22.0500095700000003 8.6036604600000004 Cl
atom 7.7819808000000004 19.1631202199999997 8.4166771199999992 Na
atom 7.7646206500000003 22.0119709700000001 5.8195766000000004 Na
atom 7.8609141400000002 24.8282229500000007 5.5259716299999999 Cl
atom 7.6321405799999997 27.7032049200000010 8.7314769800000001 Cl
atom 7.8749321999999999 24.9358812400000005 8.1883703899999993 Na
atom 7.7843584200000002 27.6206029999999991 5.7940375599999996 Na
atom 7.6659414200000002 30.2900037399999995 5.6910905600000001 Cl
atom 7.8172162600000004 33.1788695899999979 8.6568969100000004 Cl
atom 7.9020463300000001 30.3970094499999988 8.3391588799999994 Na
atom 7.7933718100000000 33.1054976799999991 5.7637263599999997 Na
atom 7.6659903099999998 35.9687988499999989 5.6501877199999999 Cl
atom 7.8950340800000003 38.7497084099999967 8.6117090500000000 Cl
atom 7.9413324300000001 35.9619445000000013 8.2786577200000000 Na
atom 7.7286933900000001 39.0621410899999972 5.9590140900000002 Na
atom 7.8753254799999999 2.2021010099999998 5.7315247300000003 Cl
atom 7.6830395100000004 4.8962526400000002 8.4918835599999998 Cl
atom 7.7351951500000000 2.1568129300000001 8.4455821300000000 Na
atom 7.9079337000000001 4.9076112299999997 5.7654837199999998 Na
atom 7.8734453400000000 7.5447867400000002 5.5838161399999997 Cl
atom 7.8341367300000000 10.4648652700000007 8.6556121899999994 Cl
atom 7.7438627999999996 7.5644768700000000 8.2980785099999999 Na
atom 7.8749449000000000 10.5104141999999996 5.7828550500000002 Na
atom 10.6574073699999996 13.5200389100000002 5.6385762899999996 Na
atom 13.6383505799999991 13.5420112600000007 5.5834586699999997 Cl
atom 10.7221343299999994 16.0759835899999999 8.3232802100000001 Na
atom 13.5100939800000006 16.1220917200000002 8.5290103500000001 Cl
atom 13.5476441100000002 13.2413617000000006 8.1583363599999998 Na
atom 10.7105229000000008 13.3146120700000008 8.4603007899999998 Cl
atom 13.4141842899999997 16.4102522200000003 5.8692037700000004 Na
atom 10.5679073100000007 16.3617192399999993 5.6626470199999996 Cl
atom 10.6523163600000004 19.2077513400000015 5.7916881099999999 Na
atom 13.3492980600000006 19.1307049999999990 5.6567130700000003 Cl
atom 10.6113864299999996 21.8701856899999996 8.5044932200000005 Na
atom 13.5384919400000001 21.7523310999999993 8.6626629800000003 Cl
atom 13.4445159600000004 19.0542335700000010 8.5374814000000008 Na
atom 10.6068457200000008 18.8966395200000008 8.4952283899999994 Cl
atom 13.4336101899999996 21.7863655999999999 5.7891403600000002 Na
atom 10.6405238499999992 21.9314743900000018 5.8980064600000004 Cl
atom 10.6391828000000004 24.7353582400000001 5.6217114400000003 Na
atom 13.4016593600000000 24.6290577000000006 5.5174539800000000 Cl
atom 10.6223034500000004 27.5058816300000011 8.2900539799999997 Na
atom 13.4259965799999996 27.5448561100000013 8.4005200200000001 Cl
atom 13.4258750700000000 24.6186136900000001 8.2293223799999993 Na
atom 10.5898569899999995 24.6844680200000006 8.5301655099999998 Cl
atom 13.5862774700000006 27.5015865700000006 5.7759600600000001 Na
atom 10.6040805599999999 27.6205802300000016 5.7499975200000000 Cl
atom 10.8192065199999998 30.2622377000000000 5.7114737599999996 Na
atom 13.4994574099999998 30.4942083500000010 5.5171214900000001 Cl
atom 10.4878591399999994 33.2430305600000011 8.1978700799999995 Na
atom 13.3378615200000006 33.2581047999999981 8.3909947200000001 Cl
atom 13.4351580100000003 30.2489945999999996 8.2663639900000003 Na
atom 10.6736606700000003 30.3655139399999996 8.3605175400000000 Cl
atom 13.4010786199999998 33.2722115799999969 5.6714004300000003 Na
atom 10.4454100299999997 33.3020967200000015 5.5930448699999999 Cl
atom 10.5606970100000002 36.2255781699999986 5.7588439500000002 Na
atom 13.5221018300000004 36.2038454099999996 5.7096158199999998 Cl
atom 10.5991529100000008 38.7234029299999989 8.5667895900000008 Na
atom 13.7027217599999993 38.8051576800000007 8.7616940099999994 Cl
atom 13.5667329399999996 36.0986759299999989 8.3315470200000004 Na
atom 10.7345895099999993 35.9794642900000028 8.4863899899999993 Cl
atom 13.4313025800000005 38.9035743000000025 5.7388524299999997 Na
atom 10.8668606499999996 38.8706303000000020 5.6680010599999999 Cl
atom 10.6405183900000004 2.1377490799999999 5.8983449500000003 Na
atom 13.5585780800000002 2.1970178699999998 5.8141069800000000 Cl
atom 10.7355998100000001 4.9189350799999998 8.4262637399999996 Na
atom 13.6230799699999992 4.8762681099999998 8.6209743000000003 Cl
atom 13.3488765300000001 2.2063860399999999 8.5060341400000006 Na
atom 10.7315467899999994 2.1735535700000002 8.6790895300000006 Cl
atom 13.4366517600000002 4.8525206200000000 5.8528567799999998 Na
atom 10.7110195899999994 4.8790210099999998 5.8394848499999998 Cl
atom 10.6210988900000007 7.6867599999999996 5.8305645500000001 Na
atom 13.5099538999999993 7.7014096600000004 5.8097515000000000 Cl
atom 10.7007406899999999 10.4742568800000004 8.2389685900000007 Na
atom 13.5530875300000009 10.4750888500000006 8.4341593300000000 Cl
atom 13.6021147300000003 7.6524892199999996 8.3930678000000007 Na
atom 10.4371883499999996 7.8055900100000004 8.5449356600000002 Cl
atom 13.4872849600000002 10.4819043099999991 5.6403175499999998 Na
atom 10.6318772599999996 10.4287738300000008 5.6506294400000003 Cl
atom 16.2416531999999982 13.4820488399999991 5.8083050299999996 Na
atom 18.9863487000000006 13.3204915699999997 5.8154093099999997 Cl
atom 16.2043084600000000 16.1394318400000003 8.3479212500000006 Na
atom 18.9953619600000003 16.1912070099999994 8.5133251800000007 Cl
atom 19.2443072000000015 13.3082358299999992 8.4866279599999999 Na
atom 16.3041203299999999 13.1650522999999993 8.5100277299999991 Cl
atom 18.8972614300000004 16.0726133100000013 5.8700134799999999 Na
atom 16.1335167300000002 16.2600292099999990 5.7512851400000002 Cl
atom 16.2386488500000006 19.1707908099999997 5.7343726000000004 Na
atom 19.0674458999999992 18.8058465300000002 5.6806546600000001 Cl
atom 16.3282318699999998 21.7740019300000007 8.2466388300000002 Na
atom 19.1506186499999984 21.8548457300000010 8.5123897100000008 Cl
atom 18.9716308500000004 19.0307728599999990 8.2497948399999999 Na
atom 16.1696489800000016 19.0856865199999994 8.5574423599999996 Cl
atom 19.1638678200000001 21.9810713399999997 5.7535093200000000 Na
atom 16.4263909999999989 21.7719680999999987 5.5338913500000002 Cl
atom 16.3159892599999985 24.7837644200000007 5.6567217899999997 Na
atom 19.1086244500000006 24.6914567500000004 5.5591726699999997 Cl
atom 16.2941736000000006 27.5047910999999985 8.4287611800000004 Na
atom 19.2918812300000013 27.6598425399999996 8.4494577799999995 Cl
atom 19.0515299999999996 24.5505859300000004 8.2935200800000004 Na
atom 16.3705770599999987 24.5939809899999986 8.4177585900000000 Cl
atom 19.1591637199999987 27.3789014900000005 5.8418583599999998 Na
atom 16.2586599900000017 27.5089628600000005 5.6850291500000001 Cl
atom 16.2326492800000004 30.4544643700000002 5.7304842899999997 Na
atom 19.1000352400000004 30.4572568299999986 5.5518625699999999 Cl
atom 16.1938555800000010 33.2073451300000002 8.2693803199999998 Na
atom 19.1458085300000000 33.1721129000000019 8.3505500599999998 Cl
atom 19.1021996300000012 30.4739387599999993 8.0947883800000007 Na
atom 16.1935151700000013 30.3970237400000016 8.4567354899999998 Cl
atom 19.1895276700000004 33.3453288099999980 5.5906574800000000 Na
atom 16.4459457100000002 33.4194703200000021 5.6219114499999998 Cl
atom 16.1811701399999990 35.9808137099999996 5.7324720500000002 Na
atom 18.9515512299999997 36.1098350600000018 5.7315239800000004 Cl
atom 16.1998349499999996 38.7978720999999993 8.4290657499999995 Na
atom 19.3818866700000001 38.8053924800000019 8.5642329499999992 Cl
atom 19.1077722200000011 35.9940206400000022 8.4217755000000007 Na
atom 16.3369106700000017 35.8765609100000020 8.5596440099999995 Cl
atom 19.0964571099999993 38.7126729599999990 5.8645709200000002 Na