#===============================================================================
# Created using the Atomic Simulation Environment (ASE)

# Tue Dec 23 22:26:06 2025

#=======================================================
lattice_vector 28.1999999999999993 0.0000000000000000 0.0000000000000000 
lattice_vector 0.0000000000000000 39.4799999999999969 0.0000000000000000 
lattice_vector 0.0000000000000000 0.0000000000000000 62.3296083400000001 
atom 7.5134853899999996 14.6998213999999994 -0.0644325900000000 Au
atom 10.1362896300000003 14.9591268500000005 0.0018041800000000 Au
atom 13.3137299299999992 14.6344872899999991 -0.0608958900000000 Au
atom 15.9271471600000005 14.7941652900000005 0.1480296100000000 Au
atom 19.0087201499999985 14.8004769300000003 0.0133651900000000 Au
atom 21.5005676600000015 14.8798768500000005 -0.0535776800000000 Au
atom 24.3676967200000014 14.7825566300000002 -0.1956720000000000 Au
atom 27.2018649600000018 14.8888697499999996 0.1980455100000000 Au
atom 1.8580970699999999 14.8953273300000006 0.0250994100000000 Au
atom 4.8982017400000002 14.7102511699999994 -0.0665187000000000 Au
atom 8.9255228500000001 17.1772396900000004 -0.1147765200000000 Au
atom 11.8269049099999997 17.2947621600000012 0.1407106800000000 Au
atom 14.7214212900000003 17.2796417899999994 0.0072326600000000 Au
atom 17.5297379699999993 17.1472063299999995 0.3312629100000000 Au
atom 20.3653684199999994 17.2181392899999999 -0.1087486200000000 Au
atom 23.0333369999999995 17.3321302300000006 0.0097450000000000 Au
atom 25.7482375200000000 17.2603915500000014 -0.2748605800000000 Au
atom 0.4287725000000000 17.4490393899999994 -0.0811170300000000 Au
atom 3.2933868600000000 17.2670108099999986 0.1041364800000000 Au
atom 6.1280680700000003 17.2011445300000005 0.0575809100000000 Au
atom 7.5625034900000001 19.7057841399999987 0.2540171500000000 Au
atom 10.3550141000000000 19.7101042299999989 -0.1142240100000000 Au
atom 13.2617393600000000 19.8596446299999982 0.1486617400000000 Au
atom 15.9487239899999995 19.8149337500000016 -0.0370285900000000 Au
atom 18.8517170299999997 19.4645565800000000 0.0358647600000000 Au
atom 21.7344956099999997 19.7923806599999992 -0.0908736900000000 Au
atom 24.5185390800000000 19.7586540799999995 -0.0657346600000000 Au
atom 27.1513769399999987 19.6400101900000017 -0.3003927500000000 Au
atom 1.7107911300000000 19.7244320000000002 0.0430684700000000 Au
atom 4.6685973399999998 19.7683589200000007 -0.1975628000000000 Au
atom 8.9790038800000005 22.2105031500000010 0.2139750300000000 Au
atom 11.6703046900000000 22.2365929599999994 0.1082160200000000 Au
atom 14.4660845899999995 21.9932634200000017 0.1884445600000000 Au
atom 17.2756493599999992 22.2700802099999997 -0.1323233200000000 Au
atom 20.1101355200000000 22.1522738600000011 0.1267879800000000 Au
atom 22.9925883900000017 22.2899977999999983 -0.0303953600000000 Au
atom 25.8108601899999996 22.1887667800000017 0.2646964900000000 Au
atom 0.4387174300000000 22.1104636799999987 -0.0085759400000000 Au
atom 3.1978092199999999 22.1828377400000001 0.0956829600000000 Au
atom 5.9912671000000000 21.9887559500000016 0.2255123200000000 Au
atom 7.4984326200000000 24.4832033100000004 0.0050999300000000 Au
atom 10.2887953299999992 24.3602045499999988 0.0990343500000000 Au
atom 13.0056228100000002 24.7136180400000001 0.2004691000000000 Au
atom 15.9897497400000006 24.6069313500000000 0.1667360200000000 Au
atom 18.6880932199999990 24.9353109000000011 -0.0100830000000000 Au
atom 21.4902709700000010 24.8540231899999995 0.1025155300000000 Au
atom 24.4686616599999986 24.6397140099999987 0.2178759300000000 Au
atom 27.1539253699999996 24.7985368599999987 0.4459661100000000 Au
atom 1.8280973100000000 24.5719327199999995 0.1873946000000000 Au
atom 4.7145188700000000 24.7994117799999998 -0.0026265700000000 Au
atom 8.8676353999999993 27.2015813400000006 0.1466861300000000 Au
atom 11.8403439000000006 27.1564828100000000 -0.0144881300000000 Au
atom 14.4491299099999999 27.0350479399999983 0.1283786000000000 Au
atom 17.3024177600000009 27.1832316700000014 0.2042065100000000 Au
atom 20.2475688100000006 27.2032613499999982 0.0549276100000000 Au
atom 23.0702390299999998 27.0856105300000003 0.1035171100000000 Au
atom 25.8253800799999986 27.1539813800000012 0.2253257900000000 Au
atom 0.3313544900000000 27.1271080799999993 0.0420373200000000 Au
atom 3.3071801500000002 27.2495418500000000 0.1686610000000000 Au
atom 5.9898279499999996 27.4181258399999983 0.0701146700000000 Au
atom 7.4818447299999997 29.7069150700000009 0.0306130000000000 Au
atom 10.4151245299999999 29.5646851599999998 -0.0498819800000000 Au
atom 13.1099548499999994 29.5915126999999991 -0.0097469200000000 Au
atom 15.9878657200000003 29.7608680999999997 -0.1481071800000000 Au
atom 18.7379185300000017 29.4555895999999997 0.1653962100000000 Au
atom 21.6551679499999992 29.6113388300000011 -0.1428192900000000 Au
atom 24.3350515799999982 29.7737858600000003 0.1925210200000000 Au
atom 27.2681344900000013 29.5753663700000011 0.1406328700000000 Au
atom 1.8665624300000001 29.7750194999999991 -0.0361432000000000 Au
atom 4.7525826200000001 29.6805903899999990 0.0028922300000000 Au
atom 8.8401399999999999 32.1317847899999975 0.0541105000000000 Au
atom 11.8555255899999992 32.0073130600000013 0.0199105500000000 Au
atom 14.5763388500000008 32.2200925400000031 -0.0960254700000000 Au
atom 17.3582866500000002 32.0012503900000027 -0.0620377400000000 Au
atom 20.1770206399999985 31.9739471000000002 0.1194754800000000 Au
atom 22.9635098699999993 32.1370463000000015 -0.0305379700000000 Au
atom 25.9942168400000000 32.2386560200000005 0.0259734200000000 Au
atom 0.4289063200000000 32.1485257100000013 -0.1538986600000000 Au
atom 3.2921409100000001 31.9660992499999992 0.0909038400000000 Au
atom 5.8988959200000002 32.0779249699999980 -0.0347217000000000 Au
atom 7.5548222899999997 34.7496974000000023 0.0583385500000000 Au
atom 10.1801957600000001 34.4730992400000034 0.0240375400000000 Au
atom 13.2149273699999998 34.5416294300000004 0.0108557400000000 Au
atom 15.9299300099999996 34.5524229999999974 0.0546706200000000 Au
atom 18.7146356000000011 34.4673119799999981 -0.0803015900000000 Au
atom 21.6507915199999985 34.6338041099999998 0.0095208100000000 Au
atom 24.4628198700000006 34.6801001199999988 -0.0291361700000000 Au
atom 27.1836804500000007 34.7327692100000007 0.0270356800000000 Au
atom 1.7691473799999999 34.6100044399999973 -0.0714321900000000 Au
atom 4.9493677900000002 34.6525125399999965 -0.0174605600000000 Au
atom 8.9412973999999998 36.8667038700000020 0.1453568600000000 Au
atom 11.7682133699999998 37.0688881000000023 0.0580945100000000 Au
atom 14.5256758200000000 37.0155486100000033 0.1656649900000000 Au
atom 17.4668261499999993 36.9565361499999980 -0.0888548800000000 Au
atom 20.3281212999999994 36.9761752900000005 0.0539185000000000 Au
atom 23.1607287200000016 37.1352119499999986 -0.0003083100000000 Au
atom 25.9138292800000016 37.0772610599999979 0.1626356700000000 Au
atom 0.5771949300000000 37.2607507900000030 0.1241582900000000 Au
atom 3.3900267999999998 36.9343851200000017 0.1866270000000000 Au
atom 6.0638432900000003 37.1740572900000004 -0.1179322600000000 Au
atom 7.7864174400000001 -0.0538912600000000 -0.2157293700000000 Au
atom 10.3434236700000000 0.0385465200000000 0.1555882700000000 Au
atom 13.1868983499999999 0.0445339900000000 0.1452815800000000 Au
atom 15.9378809900000000 0.2620869300000000 -0.0172925800000000 Au
atom 18.8989955199999997 0.0867087800000000 0.1699783400000000 Au
atom 21.6915121000000006 0.0019765600000000 0.0299705900000000 Au
atom 24.2770677900000003 0.0284969800000000 0.0875959500000000 Au
atom 27.2607507799999986 -0.0093248100000000 0.0555159700000000 Au
atom 1.8941889500000000 0.0030396400000000 0.0146083300000000 Au
atom 4.8169311099999996 -0.0309943900000000 -0.0137591400000000 Au
atom 9.0021038900000008 2.4914838300000000 0.2178115300000000 Au
atom 11.8177417800000004 2.5290284900000000 0.1296224100000000 Au
atom 14.4091551899999999 2.6107630600000000 -0.2393177700000000 Au
atom 17.3866808400000004 2.4930773400000001 0.0959641200000000 Au
atom 20.0017712199999984 2.5578559699999999 -0.1329513900000000 Au
atom 22.9519044799999996 2.5006739100000002 -0.0077801600000000 Au
atom 25.7235201400000015 2.4912760600000001 0.0609167800000000 Au
atom 0.6270566500000000 2.3708520700000002 -0.0749828900000000 Au
atom 3.3501723900000000 2.4563318900000000 -0.0294501800000000 Au
atom 6.1595773600000001 2.4754235900000001 0.0331029300000000 Au
atom 7.5909682900000002 4.8064652499999996 0.0587843800000000 Au
atom 10.2903862799999999 4.7902668700000000 0.0563695100000000 Au
atom 13.2281538300000001 4.9319816400000001 0.0395894100000000 Au
atom 15.8541811500000005 4.9739210099999998 0.1957530400000000 Au
atom 18.6115065699999995 4.8032932600000002 -0.0248451500000000 Au
atom 21.5747051899999995 4.8741798000000003 0.0777266500000000 Au
atom 24.3974907899999991 4.8448612799999999 -0.1811022200000000 Au
atom 27.1624059399999993 4.8666406799999997 0.1512439800000000 Au
atom 1.9917187300000001 4.8971178599999998 0.2425865400000000 Au
atom 4.6940817499999996 4.9741917100000004 0.2158365700000000 Au
atom 9.0214044799999993 7.4053627600000000 0.0767811900000000 Au
atom 11.7630586899999994 7.2708529500000001 -0.0404952000000000 Au
atom 14.7358243200000008 7.5417581100000000 -0.1132461900000000 Au
atom 17.4782280099999987 7.5289042899999998 -0.0747121900000000 Au
atom 20.1924571800000017 7.4276100400000002 -0.0190155900000000 Au
atom 22.8919287300000001 7.2729948699999998 -0.0045455100000000 Au
atom 25.9387999200000010 7.4715588500000001 -0.0622218000000000 Au
atom 0.4782884600000000 7.3646507200000002 0.0590368600000000 Au
atom 3.2461342000000002 7.4784678500000004 -0.0737076000000000 Au
atom 6.0711060400000001 7.4163735900000001 -0.0238438500000000 Au
atom 7.5082980099999999 9.8332582100000003 0.1249729600000000 Au
atom 10.1417849699999998 9.9929378000000000 0.1103849500000000 Au
atom 13.0114508799999999 9.8538064199999997 0.0633241900000000 Au
atom 15.8658355400000008 9.8662210199999993 0.1774315600000000 Au
atom 18.6837587099999993 10.0348606700000005 0.1418413600000000 Au
atom 21.4840032000000001 9.9362322899999995 -0.0150286400000000 Au
atom 24.4683086400000001 9.8259456800000002 0.1851223500000000 Au
atom 27.2813208500000002 9.9658475099999997 -0.1651695300000000 Au
atom 1.9345155400000000 10.0274030799999991 -0.0027602500000000 Au
atom 4.7300814899999999 9.8632306900000000 -0.1039146200000000 Au
atom 8.7021695799999996 12.2198102300000002 0.0307345900000000 Au
atom 11.5389061999999996 12.4777287300000008 0.0374599900000000 Au
atom 14.7347262000000008 12.4014618900000002 0.0237343200000000 Au
atom 17.4476833999999990 12.3667512199999994 -0.0360491100000000 Au
atom 20.1917370299999988 12.3746590899999998 0.0743063800000000 Au
atom 22.9056326400000003 12.3360361899999997 -0.0990486300000000 Au
atom 25.8125770699999997 12.2844093099999991 0.0124987300000000 Au
atom 0.4759955000000000 12.3054651100000001 0.0400562000000000 Au
atom 3.1977783799999999 12.2499259100000000 -0.1097638200000000 Au
atom 6.0288206600000001 12.3485801399999993 0.0574122200000000 Au
atom 7.6156861700000000 13.2914385999999993 2.4607214700000002 Au
atom 10.4663734399999999 13.1397011799999994 2.4686357700000001 Au
atom 13.0895369200000005 13.2635483799999996 2.6745734600000000 Au
atom 16.0805642599999992 13.0776345000000003 2.5997725400000000 Au
atom 18.6097841799999983 13.1104380599999999 2.7353563799999998 Au
atom 21.6720795600000002 13.2200180199999995 2.3761189699999998 Au
atom 24.2230174399999996 13.1908340200000005 2.5161937100000000 Au
atom 27.2177394899999996 13.3501421699999998 2.6009665599999998 Au
atom 1.8579965599999999 13.1971588499999992 2.8150277400000001 Au
atom 4.5714004399999997 13.1816827599999993 2.5524224000000002 Au
atom 8.8652996200000000 15.5294434199999998 2.3029146800000002 Au
atom 11.7677444900000001 15.5813240700000009 2.6597422100000001 Au
atom 14.6094176900000008 15.7859701300000008 2.4851207899999999 Au
atom 17.2702066000000016 15.4842407200000007 2.8002274599999999 Au
atom 20.2477337199999994 15.4863576399999996 2.5565093999999999 Au
atom 23.0379445999999994 15.5060293399999996 2.3906344900000001 Au
atom 25.9274836600000000 15.7787077700000005 2.5533170500000000 Au
atom 0.3319303900000000 15.6810761999999997 2.6071891900000002 Au
atom 3.0616524699999998 15.7020704999999996 2.4124515899999999 Au
atom 6.0012208800000000 15.6412121099999997 2.5601717499999999 Au
atom 7.3783637999999998 18.2900180699999986 2.7918317899999998 Au
atom 10.3350393599999997 18.2641694699999988 2.5559128300000000 Au
atom 13.1076171899999991 18.0549825300000002 2.5362798999999998 Au
atom 15.9679101800000005 18.1069925299999994 2.4314418099999999 Au
atom 18.7378629900000000 18.1763298900000017 2.7901500700000001 Au
atom 21.6040580599999998 18.2115708800000000 2.6386032500000001 Au
atom 24.3850315000000002 18.1542834800000001 2.7831411199999998 Au
atom 27.2587260499999999 18.0364756799999988 2.6151355500000002 Au
atom 1.9126309800000001 18.1978688599999998 2.8004346899999999 Au
atom 4.5970881800000001 18.3304703700000005 2.4763763800000000 Au
atom 9.0053164900000002 20.5924253499999992 2.7277220700000000 Au
atom 11.9118338000000001 20.5110387699999990 2.4297803400000002 Au
atom 14.6414087199999994 20.6183557600000000 2.6041257799999999 Au
atom 17.5188374700000011 20.5759958099999984 2.6394562600000002 Au
atom 20.0855524699999997 20.5266781199999997 2.7245770000000000 Au
atom 22.9026578799999996 20.6559143100000000 2.8571772700000002 Au
atom 25.8352386600000017 20.3397846000000015 2.5882002499999999 Au
atom 0.3730487800000000 20.4491001499999996 2.8761032599999998 Au
atom 3.3601728899999999 20.6763379600000015 2.6936738400000002 Au
atom 6.0848853500000004 20.6673560700000003 2.4758223300000002 Au
atom 7.5807647200000003 23.0491936399999986 2.6675735899999999 Au
atom 10.1275035700000000 22.9523553100000015 2.6027231799999999 Au
atom 13.0048010499999993 23.1353519600000013 2.6239697299999998 Au
atom 15.9866422400000001 23.2317132099999988 2.6041297100000000 Au
atom 18.7213676299999996 23.0357103599999995 2.7953659100000001 Au
atom 21.5303059300000008 22.8442202799999983 2.6297835200000002 Au
atom 24.3687460499999986 22.9908214499999985 2.7746491299999998 Au
atom 27.1277490599999993 23.0909328999999985 2.7750069000000002 Au
atom 1.8102486799999999 23.0570315599999986 2.5272284500000000 Au
atom 4.7591099200000002 22.9692283199999991 2.7809216900000000 Au
atom 8.9692136500000004 25.5231712000000002 2.8314700799999999 Au
atom 11.7107494100000000 25.5171765700000002 2.6735711400000000 Au
atom 14.6333682399999994 25.6800670500000017 2.6418974899999998 Au
atom 17.3623472899999989 25.7307245500000015 2.7128976400000000 Au
atom 20.3169412999999999 25.6693496900000007 2.7409160899999998 Au
atom 23.1679023199999996 25.5163483100000015 2.7718379500000001 Au
atom 25.9743762800000013 25.5452829199999982 2.8087792100000000 Au
atom 0.4793589900000000 25.4739433099999992 2.8077139299999998 Au
atom 3.4228003000000000 25.6497823800000013 2.7301757699999998 Au
atom 6.0322562099999999 25.5796063400000016 2.7898444599999999 Au
atom 7.4430045099999997 27.9935489500000010 2.7017736399999999 Au
atom 10.4476299600000004 27.8613163700000008 2.5680091500000000 Au
atom 13.0935954500000005 27.9681884300000014 2.6231920099999999 Au
atom 15.9192735299999999 28.0511000800000012 2.6787164200000002 Au
atom 18.8046858599999993 28.0460990800000012 2.6583037300000001 Au
atom 21.6245240800000005 28.0079607999999993 2.8115047099999999 Au
atom 24.6424732199999994 27.9807099599999987 2.5324103500000001 Au
atom 27.3079770099999983 28.0571720199999994 2.8254105699999998 Au
atom 1.8025250700000000 27.9484607800000013 2.6234571799999999 Au
atom 4.6023210199999998 28.0431762499999984 2.8430964500000000 Au
atom 8.8568992299999998 30.4884187500000010 2.5221585000000002 Au
atom 11.6544245899999996 30.3094054100000001 2.6577438600000001 Au
atom 14.5258663000000006 30.3531805100000014 2.4827155500000000 Au
atom 17.1682241900000001 30.5237114100000007 2.5833051299999998 Au
atom 20.2118586399999991 30.5030425500000000 2.4428485700000002 Au
atom 22.9827832299999990 30.5068883200000016 2.6427422100000002 Au
atom 25.9925510600000003 30.4135998799999996 2.7776326700000000 Au
atom 0.4411511500000000 30.3917223599999993 2.4832556299999999 Au
atom 3.2448899700000000 30.5139364499999992 2.9067594300000001 Au
atom 5.9091937100000003 30.4794276099999983 2.4932471800000000 Au
atom 7.5023806899999999 32.9658923000000001 2.6238899899999999 Au
atom 10.4706154599999994 32.6765093799999988 2.7787149599999998 Au
atom 13.2621182399999995 32.8341701100000023 2.5548137500000001 Au
atom 16.0912641699999988 32.8595647400000033 2.7389993100000001 Au
atom 18.8600447399999993 32.8496555999999984 2.4371245400000001 Au
atom 21.7447347999999998 32.8504527500000023 2.7423273899999998 Au
atom 24.5640627000000009 32.8624441400000009 2.4805781300000000 Au
atom 27.2760786999999993 33.1173410800000028 2.6525231300000001 Au
atom 1.6903525800000001 33.0231471099999965 2.6260460900000000 Au
atom 4.6686980000000000 33.0241771000000028 2.7324838499999999 Au
atom 8.9039422899999998 35.5635597099999998 2.7232363300000002 Au
atom 11.7365970599999994 35.3127515299999999 2.3111722800000001 Au
atom 14.5929972100000001 35.3476075399999985 2.7865773300000001 Au
atom 17.3992129599999998 35.4315911999999997 2.7146245400000000 Au
atom 20.2099146199999993 35.4934132599999970 2.7256505600000001 Au
atom 23.1490363799999983 35.3875404599999968 2.4448494200000002 Au
atom 26.1115958200000016 35.3190659999999994 2.7649476399999999 Au
atom 0.3965378900000000 35.4583149199999994 2.5232146499999999 Au
atom 3.3461393600000000 35.2930816100000015 2.5047755999999999 Au
atom 6.0499398299999996 35.3407473099999976 2.5428812800000000 Au
atom 7.6277792000000000 37.7071306300000018 2.5180537400000000 Au
atom 10.2402513499999994 37.8229189799999972 2.8451080000000002 Au
atom 13.1311831199999993 37.7376601200000010 2.7340390000000001 Au
atom 15.9386162999999996 37.9351970900000026 2.8426654700000000 Au
atom 18.8086697200000010 37.9958902600000030 2.5906770400000001 Au
atom 21.6904514800000001 37.9642493799999983 2.7229854599999999 Au
atom 24.5143554500000000 37.8477995599999986 2.6299133800000001 Au
atom 27.1853729800000004 37.8022099599999990 2.5803177700000002 Au
atom 2.1407111200000002 37.9105320000000034 2.6748565800000002 Au
atom 4.6133755399999998 37.6897962600000014 2.5543882600000001 Au
atom 8.9264822000000006 0.7617823100000000 2.7276110000000000 Au
atom 11.7830322699999996 0.9069474199999999 2.7097048500000001 Au
atom 14.6184540700000003 0.8439617500000000 2.6873735800000000 Au
atom 17.1938957600000002 0.8502245400000000 2.7543956700000001 Au
atom 20.1589607800000010 0.9255205000000000 2.7423697100000002 Au
atom 22.9756411199999988 0.8914288299999999 2.7137605800000002 Au
atom 25.8266941000000010 0.9609688900000000 2.8369405200000002 Au
atom 0.5572029900000000 0.6614413800000000 2.6086742699999999 Au
atom 3.3161548500000002 0.8401554600000000 2.4653946300000000 Au
atom 6.1970936500000002 0.8636296400000000 2.5744298500000000 Au
atom 7.5169858500000002 3.3237295200000001 2.7290735399999999 Au
atom 10.3080860800000007 3.2116430100000000 2.6045585899999999 Au
atom 13.1431237500000009 3.2378971100000000 2.6899083199999998 Au
atom 15.8151822099999997 3.2268481100000002 2.6542592100000002 Au
atom 18.6539524300000004 3.5615920600000002 2.7157457500000000 Au
atom 21.5785017600000018 3.3814697300000001 2.7731612399999999 Au
atom 24.5186700000000002 3.1139687899999999 2.3703565900000001 Au
atom 27.3407511099999994 3.3889589899999999 2.5331365099999998 Au
atom 1.7125625600000001 3.2634666000000001 2.6143606199999998 Au
atom 4.6539995400000000 3.4848123100000001 2.5772139300000001 Au
atom 8.8460025600000005 5.5798324900000003 2.6110353399999999 Au
atom 11.7277558800000001 5.8297886800000001 2.8704025600000000 Au
atom 14.4309766699999997 5.9080544899999996 2.6642049700000001 Au
atom 17.3539810900000013 5.7986461199999999 2.7313641500000001 Au
atom 20.3909662500000017 5.6107235299999996 2.7334068500000002 Au
atom 23.3462698000000017 5.9160003999999997 2.8252022299999999 Au
atom 25.7942224300000014 5.8195516899999999 2.8999605300000000 Au
atom 0.5137307500000000 5.7212929099999998 2.8517000299999999 Au
atom 3.2372451899999999 6.0019997399999996 2.4877204100000001 Au
atom 5.9278688500000003 5.9102171200000004 2.4678125600000000 Au
atom 7.4215248799999998 8.3360798500000008 2.8511291700000001 Au
atom 10.5837652799999997 8.2830512800000005 2.6961244099999999 Au
atom 13.0679807799999992 8.3291788400000009 2.7431108000000002 Au
atom 15.9941505199999998 8.3473715300000002 2.7525282099999999 Au
atom 18.8206999400000008 8.2828083400000008 2.6465537000000001 Au
atom 21.7348632299999984 8.3572757600000003 2.6418568100000002 Au
atom 24.4193749099999984 8.2945437500000008 2.7010367799999999 Au
atom 27.1909483600000002 8.3667646900000001 2.6605524300000001 Au
atom 1.8791929800000000 8.2316267500000002 2.7881748300000000 Au
atom 4.7535744900000001 8.4236639100000001 2.5659005300000000 Au
atom 8.8334369600000002 10.7447320000000008 2.8612197300000002 Au
atom 11.6021753000000007 10.5611769399999993 2.6934644300000001 Au
atom 14.5528159000000006 10.7653034400000003 2.6891079599999999 Au
atom 17.5022045900000016 10.8882097499999997 2.8304673999999999 Au
atom 20.2937410699999994 10.6052438400000000 2.6857976899999998 Au
atom 22.9312248499999995 10.8013018499999998 2.5373544600000000 Au
atom 25.7695709800000010 10.7891200499999993 2.5570396199999998 Au
atom 0.5546294500000000 10.7635868499999994 2.5012864700000002 Au
atom 3.2976107400000001 10.7188365000000001 2.6238673800000001 Au
atom 5.9652944200000002 10.8130584200000008 2.5377182399999998 Au
atom 7.4178078100000002 12.9460699100000003 5.8783989700000001 Cl
atom 7.4777743900000004 15.9821658699999993 8.6622993800000003 Cl
atom 7.5740898000000003 12.9048261499999999 8.5520673299999999 Na
atom 7.3091967499999999 15.8998835900000000 5.5397895699999999 Na
atom 7.3753527099999996 19.1048670999999999 5.6589278099999998 Cl
atom 7.4447904200000004 21.4950411400000014 8.2874390600000005 Cl
atom 7.3704846999999996 18.6393483099999990 8.2217018900000003 Na
atom 7.4520422300000000 21.6987763800000018 5.7352268899999999 Na
atom 7.2255767899999999 24.4290870799999986 5.8196906100000003 Cl
atom 7.3288114899999997 27.5524903999999999 8.6646713099999992 Cl
atom 7.4601901100000001 24.5787346999999983 8.4817201200000003 Na
atom 7.4257627399999997 27.1766144499999989 5.6999164000000002 Na
atom 7.4213888199999998 30.1774140799999984 5.6632554400000004 Cl
atom 7.3505440799999997 32.8504375799999977 8.5135915299999994 Cl
atom 7.3800583900000003 30.1669212800000004 8.4969743500000003 Na
atom 7.2454175200000002 32.9294934099999992 6.0095335700000003 Na
atom 7.3907808499999996 35.8808811999999975 5.5038920999999998 Cl
atom 7.4297053799999997 38.4409607500000021 8.6046247000000005 Cl
atom 7.4854613800000003 35.9186189099999993 8.4196080999999996 Na
atom 7.5491554499999998 38.7260118700000007 5.7875019900000000 Na
atom 7.4825675000000000 1.7384414399999999 5.9845080399999997 Cl
atom 7.3221295900000003 4.6001575700000004 8.7898021400000008 Cl
atom 7.4991818800000001 2.0109955899999998 8.4908687100000009 Na
atom 7.4797095200000001 4.6031212999999997 5.7582866299999997 Na
atom 7.7380127099999996 7.3630172700000003 5.8430296400000001 Cl
atom 7.5219374200000004 10.3021126699999996 8.5949187899999995 Cl
atom 7.6090530899999997 7.5493997700000000 8.5613087900000000 Na
atom 7.6629970700000003 10.1897977399999995 5.9653211600000002 Na
atom 10.1365301399999996 13.1431606500000004 5.9717687799999997 Na
atom 13.2282992400000001 12.8177783299999994 5.9160151599999997 Cl
atom 10.3206214500000009 16.0767838999999988 8.8430032999999995 Na
atom 13.3031464199999991 16.0932502699999986 8.2803048700000002 Cl
atom 13.0452100200000007 13.2863654100000002 8.4924900799999996 Na
atom 10.2528720500000006 13.0466555599999996 8.9120679900000006 Cl
atom 13.1805390500000001 15.8591729800000003 5.5755346000000001 Na
atom 10.3851546100000007 15.8313428199999997 5.5474672199999997 Cl
atom 10.2255891699999992 18.9084619200000006 5.5619960600000002 Na
atom 13.1734539300000009 18.8951187699999998 5.4784558099999998 Cl
atom 10.1834236100000002 21.7015033099999997 8.2078055200000009 Na
atom 13.1401424200000001 21.7398663600000006 8.1574965299999995 Cl
atom 13.1387560800000003 18.8930464499999999 8.1620781099999995 Na
atom 10.3265511500000002 18.9227879200000011 8.3730685099999995 Cl
atom 12.9990673200000000 21.9981425699999988 5.2610561100000002 Na
atom 10.0137448300000003 21.7434593300000003 5.3520789600000001 Cl
atom 10.2932232300000006 24.5707575100000000 5.5995232799999997 Na
atom 13.0920062599999998 24.5391311099999996 5.5676765000000001 Cl
atom 10.1941790500000007 27.2157722000000000 8.2294025200000007 Na
atom 13.2582427299999992 27.2227502100000009 8.2615246500000001 Cl
atom 13.2397482300000000 24.4325945299999994 8.2894646099999996 Na
atom 10.4773978099999994 24.3344709299999984 8.2804731700000005 Cl
atom 13.0864898000000007 27.3389151099999985 5.6799687099999998 Na
atom 9.9296763000000006 27.4159688899999985 5.5657985200000004 Cl
atom 10.1091004600000005 30.4838875899999984 5.8367872600000004 Na
atom 12.8601049300000003 30.1797184799999982 5.6440710100000002 Cl
atom 10.3817508299999997 33.0450946899999991 8.4135916700000006 Na
atom 13.1277411599999994 33.0985768399999998 8.6160279600000003 Cl
atom 13.2089604200000004 30.0622840899999986 8.1852989699999998 Na
atom 10.3287348899999998 30.1613304800000002 8.7349269599999992 Cl
atom 12.9368559300000001 33.2124567299999995 5.9144683499999999 Na
atom 10.2058404199999995 33.1648226599999987 5.7901732600000004 Cl
atom 10.3912260300000003 35.6513500000000008 5.8872461899999999 Na
atom 13.1300689100000003 35.5974426900000012 5.7207106699999999 Cl
atom 10.3919120199999995 38.4936190600000003 8.3720322800000009 Na
atom 13.1691012799999996 38.5802062200000009 8.5459943099999993 Cl
atom 13.2014098999999998 35.7893213400000008 8.6712124999999993 Na
atom 10.2849153199999996 35.9805448500000011 8.5990392500000006 Cl
atom 13.1228301799999993 38.4404893700000017 5.8241225900000000 Na
atom 10.4114607600000006 38.4209453499999967 5.5546877700000001 Cl
atom 10.4315389500000002 2.0939171999999999 5.8834195300000003 Na
atom 13.1534121299999995 1.9635762400000001 5.8287915500000000 Cl
atom 10.4744177399999998 4.7572697699999997 8.3803628200000002 Na
atom 13.1772103600000001 4.7548279899999999 8.6777584700000006 Cl
atom 13.1503749499999998 1.9903250800000001 8.5576084699999999 Na
atom 10.3555531399999996 1.9135132300000000 8.7721661500000003 Cl
atom 13.2485879000000004 4.7380938700000002 5.7398172699999996 Na
atom 10.2545991700000005 4.6242672799999998 5.6353829199999996 Cl
atom 10.4163859300000006 7.5252069400000003 5.8431753600000000 Na
atom 12.9827783100000005 7.5811906200000001 5.9111864299999999 Cl
atom 10.2033423299999999 10.1256191399999995 8.8440868199999993 Na
atom 13.0902632800000003 10.0877485799999995 8.6546737300000007 Cl
atom 13.1258958600000000 7.7215122100000002 8.4241511399999993 Na
atom 10.2792950100000002 7.3940718199999997 8.4903786399999994 Cl
atom 13.0884854399999995 10.0165279900000002 5.9083924799999998 Na
atom 10.0952663600000001 10.2789102600000000 5.7782595499999996 Cl
atom 16.1870061999999990 13.0289585799999994 5.6544598900000000 Na
atom 19.0160762000000005 13.0873802099999992 5.9218805300000001 Cl
atom 16.0938580400000006 15.9907243000000001 8.2684753099999995 Na
atom 18.8907898900000006 15.9850068200000006 8.2559657800000004 Cl
atom 18.8383390499999983 13.1967253600000003 8.3217316500000003 Na
atom 16.1047257799999990 13.1706841699999995 8.2863763200000005 Cl
atom 18.9484675500000002 15.9187939600000004 5.7314717000000002 Na
atom 15.8823834099999992 15.7973406000000001 5.6575452300000002 Cl
atom 15.9195554900000005 18.8291996700000013 5.5727729699999999 Na
atom 18.9762236100000017 18.9600160299999985 5.7701896300000000 Cl
atom 15.7260749900000008 21.8134922799999984 8.1662882099999994 Na
atom 18.5635648599999996 21.3001744700000017 8.3912560000000003 Cl
atom 18.9196144599999982 19.1033690500000013 8.3522741400000005 Na
atom 16.0287453400000004 18.6741996000000015 8.0961531799999999 Cl
atom 18.6918643499999995 21.7465744600000015 5.6801284900000004 Na
atom 16.0258988600000016 21.6910694399999997 5.1721939099999998 Cl
atom 15.9613679800000003 24.5357450399999983 5.7899286700000001 Na
atom 18.9416951900000008 24.5664627600000003 5.5074456600000001 Cl
atom 15.7910770700000000 27.2793972199999999 8.5524318400000006 Na
atom 18.8084760899999992 27.1172931400000010 8.4285552199999998 Cl
atom 18.8496816799999998 24.5572915099999989 8.5991512300000004 Na
atom 15.9164544299999999 24.1889190599999999 8.3255073100000008 Cl
atom 18.9444374700000004 27.3407691600000007 5.5970502399999997 Na
atom 15.7998169100000005 27.3442497899999992 5.8375091299999999 Cl
atom 16.1126164799999998 30.0647733099999996 5.7394623899999999 Na
atom 18.7813332300000013 30.1599611299999992 5.7847030400000001 Cl
atom 15.9266708300000008 32.9873864600000033 8.4073684300000000 Na
atom 18.5808146699999988 33.0251954200000029 8.6611545400000001 Cl
atom 18.8004911399999983 29.9266120800000017 8.5917031500000007 Na
atom 16.1251001100000018 30.0423304800000004 8.4404828799999994 Cl
atom 18.8213543200000011 33.1582829299999986 5.7433286499999996 Na
atom 15.9605404800000006 33.1960783299999989 5.6749061999999997 Cl
atom 15.9626187599999998 35.7313848499999978 5.7761237100000002 Na
atom 18.8644953199999996 35.8422382999999982 5.7252579199999998 Cl
atom 15.8846744599999994 38.6075979299999972 8.3764191799999992 Na
atom 18.8361245900000007 38.5266695199999987 8.6205387400000006 Cl
atom 18.8192934299999983 35.7158256299999977 8.3471120400000007 Na
atom 16.0478948000000017 35.5063972900000024 8.5737191199999998 Cl
atom 18.7234305600000006 38.6394259200000008 5.7307065399999999 Na