#===============================================================================
# Created using the Atomic Simulation Environment (ASE)

# Tue Dec 23 22:26:37 2025

#=======================================================
lattice_vector 28.1999999999999993 0.0000000000000000 0.0000000000000000 
lattice_vector 0.0000000000000000 39.4799999999999969 0.0000000000000000 
lattice_vector 0.0000000000000000 0.0000000000000000 62.3296083400000001 
atom 7.4713999900000001 14.7634510799999994 -0.1688334100000000 Au
atom 10.3283457599999995 14.7648681300000000 -0.2171533000000000 Au
atom 13.1175438199999999 14.8037226400000002 -0.1890087600000000 Au
atom 16.0043982299999996 14.8187226400000007 -0.0113264500000000 Au
atom 18.7829498500000014 14.8117167399999996 0.0639138400000000 Au
atom 21.6147431300000008 14.7842557800000005 -0.0172760700000000 Au
atom 24.4297551700000000 14.7745601200000003 -0.0480937500000000 Au
atom 27.2160944700000016 14.8085121399999995 0.0309168700000000 Au
atom 1.8497954500000000 14.7925491200000003 -0.0006145900000000 Au
atom 4.6524638600000001 14.8038187099999998 -0.1538267100000000 Au
atom 8.9127652400000006 17.2286857900000001 -0.0973837600000000 Au
atom 11.7374141299999994 17.2779599399999988 -0.2055560300000000 Au
atom 14.5595489899999997 17.2696038200000004 -0.1384683900000000 Au
atom 17.3739407499999992 17.3339366999999989 0.0344737300000000 Au
atom 20.1982137000000002 17.2664616799999990 -0.0766465500000000 Au
atom 23.0788692500000003 17.2794449899999982 -0.0633715800000000 Au
atom 25.8403620799999985 17.2783494600000012 0.0697949300000000 Au
atom 0.4583130900000000 17.2296721200000000 0.0656843600000000 Au
atom 3.2748634999999999 17.2676773600000004 -0.0298517500000000 Au
atom 6.1194927699999999 17.2572244099999992 -0.0831367100000000 Au
atom 7.4872043100000001 19.7287398200000013 0.0215666000000000 Au
atom 10.2867830500000004 19.7465938899999998 0.0190890200000000 Au
atom 13.1861131799999995 19.7672081199999994 0.0004761700000000 Au
atom 16.0010409299999985 19.7739091199999990 -0.0129249900000000 Au
atom 18.7698869100000003 19.7568742099999994 0.1018407300000000 Au
atom 21.6333989200000012 19.7186490799999987 0.0210465500000000 Au
atom 24.4359445400000013 19.7948990100000017 0.0236156100000000 Au
atom 27.2560311800000008 19.7521961099999999 0.0791252200000000 Au
atom 1.8322868699999999 19.7244457599999983 0.0935124400000000 Au
atom 4.6605775700000001 19.7614132200000014 0.0327306600000000 Au
atom 8.8813912500000001 22.1746198300000010 0.0438521900000000 Au
atom 11.7336356300000002 22.1753758500000018 0.0458956300000000 Au
atom 14.5570282500000001 22.2488305400000002 0.0128297200000000 Au
atom 17.3922545000000000 22.2294174200000008 -0.0974462500000000 Au
atom 20.2431266699999988 22.2227634700000003 -0.0200692700000000 Au
atom 22.9934467399999996 22.2671880999999985 0.0774428100000000 Au
atom 25.8418454599999983 22.2351163499999984 0.1618904600000000 Au
atom 0.4588266400000000 22.2420368400000008 0.0192465700000000 Au
atom 3.2362560299999998 22.1934593299999996 0.0506119300000000 Au
atom 6.0414473400000004 22.1895120299999995 0.0823756800000000 Au
atom 7.4290294499999998 24.6085374100000003 0.1908360800000000 Au
atom 10.2686366899999992 24.6029860900000017 0.0331539200000000 Au
atom 13.0739819700000002 24.6539862200000002 0.0258922600000000 Au
atom 15.9416754100000002 24.7010358900000000 -0.0309813400000000 Au
atom 18.8181860999999984 24.7118942299999986 -0.0950893900000000 Au
atom 21.6863127400000018 24.6778674600000016 0.0417746500000000 Au
atom 24.4746198100000001 24.7233965600000012 0.1513424400000000 Au
atom 27.2385539700000017 24.7029358399999985 0.0994203000000000 Au
atom 1.8139046800000000 24.6764290899999992 0.0600343500000000 Au
atom 4.6255766100000004 24.6225203199999996 0.2160314200000000 Au
atom 8.9058478999999995 27.0575753100000007 0.0603557300000000 Au
atom 11.7475092799999992 27.1220503099999988 0.0380619700000000 Au
atom 14.5874331300000009 27.1222038999999988 -0.0636693300000000 Au
atom 17.4084131000000006 27.1551674200000015 -0.0149760200000000 Au
atom 20.2568903200000001 27.2115066500000005 0.0064093000000000 Au
atom 23.0341898799999996 27.2094332700000017 0.0004277000000000 Au
atom 25.8762114700000012 27.1894370300000006 0.0246674500000000 Au
atom 0.4483069700000000 27.2064364000000012 0.0403280000000000 Au
atom 3.2717853400000001 27.1372743199999995 0.1046600600000000 Au
atom 6.0605460000000004 27.1542385300000007 0.0436969300000000 Au
atom 7.4777702000000001 29.5492418100000016 -0.0265663100000000 Au
atom 10.3267750599999992 29.5380747700000015 0.0745563900000000 Au
atom 13.1332079200000003 29.6114152100000005 -0.0295682700000000 Au
atom 15.9652802400000002 29.5754022100000000 0.0249320300000000 Au
atom 18.7964696400000015 29.6049593199999990 -0.0382447300000000 Au
atom 21.6281564999999993 29.6543869700000009 0.1250081700000000 Au
atom 24.4196944800000004 29.6192505699999984 0.0951598100000000 Au
atom 27.2430296399999996 29.6958101300000017 0.0681778000000000 Au
atom 1.8537015200000000 29.6357269099999989 0.0237661300000000 Au
atom 4.6469552399999996 29.6359799300000013 0.0339241700000000 Au
atom 8.9225601399999999 32.0046665400000023 -0.0629906700000000 Au
atom 11.7358674300000008 32.0221475600000005 0.0900777100000000 Au
atom 14.5983310199999998 32.0904053399999967 0.0225292000000000 Au
atom 17.3970626899999985 32.1177751800000024 0.0085859500000000 Au
atom 20.1945061700000004 32.0756700000000023 -0.0632597300000000 Au
atom 23.0643184000000012 32.0761971900000020 -0.0627234000000000 Au
atom 25.8556967600000007 32.1264614899999970 0.0546704600000000 Au
atom 0.4705273800000000 32.1447283799999965 -0.1127613600000000 Au
atom 3.3032686500000001 32.1242407900000018 -0.0389976000000000 Au
atom 6.0850082499999996 32.0386809499999998 -0.0336507600000000 Au
atom 7.5380465200000000 34.5494606299999987 0.0146635100000000 Au
atom 10.3622040599999998 34.4879260700000003 0.0941678800000000 Au
atom 13.1682609399999997 34.4947554000000025 0.0563743500000000 Au
atom 15.9602788899999997 34.5708924099999990 0.0060779400000000 Au
atom 18.7971016800000008 34.5969921900000017 0.0430897200000000 Au
atom 21.6062953200000010 34.5586462400000016 -0.0841592800000000 Au
atom 24.3986960400000008 34.6243722099999971 0.0050576900000000 Au
atom 27.2751339299999991 34.5703891300000024 0.0159896100000000 Au
atom 1.9257804500000000 34.5746627600000025 -0.0764531700000000 Au
atom 4.7639557699999999 34.5719702100000035 0.0980525200000000 Au
atom 8.9162835400000002 36.9829966699999986 -0.0662865000000000 Au
atom 11.7236024499999996 36.9763317600000008 0.0098434300000000 Au
atom 14.5546439200000002 37.0056375500000030 0.0425317700000000 Au
atom 17.4138470500000011 37.0265782900000033 -0.0362335900000000 Au
atom 20.1769800299999993 37.0575011500000002 -0.0242630900000000 Au
atom 22.9886205500000003 37.0967808600000026 0.0358693300000000 Au
atom 25.8524092900000007 37.0190865400000035 0.0107821600000000 Au
atom 0.4237698600000000 36.9900424100000009 -0.0220039300000000 Au
atom 3.2891858100000002 37.0507082199999971 0.0156916300000000 Au
atom 6.0927778100000003 37.0461391699999965 -0.0465495600000000 Au
atom 7.5762353200000003 0.0277416300000000 0.0068823800000000 Au
atom 10.3665094100000008 -0.0054127700000000 0.0638713700000000 Au
atom 13.1485485099999995 -0.0256520900000000 0.1433077700000000 Au
atom 15.9917656699999995 -0.0071299500000000 0.0947406400000000 Au
atom 18.8064004800000006 0.0101130100000000 0.0422496600000000 Au
atom 21.6125373299999985 0.0305927300000000 0.1758498600000000 Au
atom 24.4409740199999987 0.0281818900000000 -0.0413738000000000 Au
atom 27.2019217200000014 0.0015408300000000 0.1337172400000000 Au
atom 1.8972278499999999 0.0120316300000000 0.0136211300000000 Au
atom 4.6972157100000000 0.0243174700000000 0.2112708400000000 Au
atom 8.9393334800000002 2.4627140199999999 0.1031696500000000 Au
atom 11.7574796300000006 2.4036384700000002 0.0293210700000000 Au
atom 14.6076576800000009 2.4397014900000000 0.1054014500000000 Au
atom 17.3670728099999998 2.4857902400000000 0.0940556000000000 Au
atom 20.1724587799999995 2.5170341700000001 0.0240259900000000 Au
atom 22.9926342000000012 2.4863389699999998 0.0121863900000000 Au
atom 25.8026739200000002 2.5021755099999998 0.0854177700000000 Au
atom 0.4519693700000000 2.4602462200000002 0.0518122600000000 Au
atom 3.2835742899999998 2.4966837499999999 0.0801137100000000 Au
atom 6.1140284600000001 2.5020327299999998 0.2023961700000000 Au
atom 7.5835533799999997 4.9415808300000004 0.0383102200000000 Au
atom 10.3437546499999993 4.9390326900000003 -0.0280115400000000 Au
atom 13.1199350900000002 4.9048835000000004 0.1665018300000000 Au
atom 15.9764177099999998 5.0020834199999999 0.1460707200000000 Au
atom 18.8059437500000008 5.0172378300000000 0.0456231000000000 Au
atom 21.6063119300000004 4.9559739699999996 0.0561241000000000 Au
atom 24.4332123900000013 4.9933130200000004 0.1073979800000000 Au
atom 27.2370027599999993 4.8906921399999996 0.1254582000000000 Au
atom 1.9252390399999999 4.8909578700000003 -0.0817045100000000 Au
atom 4.7488117900000004 4.9480459799999998 0.2326214900000000 Au
atom 8.9424324399999993 7.3697552999999996 0.0367419100000000 Au
atom 11.7389319299999997 7.3728532600000003 -0.0049180600000000 Au
atom 14.5589309799999995 7.3842185599999999 0.0546849000000000 Au
atom 17.3942048500000013 7.4607971600000003 0.0669721600000000 Au
atom 20.2100501900000005 7.4510760899999999 0.0294017900000000 Au
atom 23.0306322100000003 7.4681068000000002 0.1524122700000000 Au
atom 25.8194768199999984 7.3934538400000003 0.0830869700000000 Au
atom 0.4452488000000000 7.3536446499999997 0.0939776900000000 Au
atom 3.2611058399999999 7.4113358099999997 0.0878293400000000 Au
atom 6.0704574600000001 7.3773912299999997 0.0447403700000000 Au
atom 7.5067596999999999 9.8636898100000003 -0.1029404600000000 Au
atom 10.3567090600000000 9.8334996399999994 0.0646920500000000 Au
atom 13.1308745299999998 9.8366648500000000 0.0914279500000000 Au
atom 15.9898385899999997 9.8745535699999998 -0.0114684400000000 Au
atom 18.7885497100000016 9.8999805799999994 -0.0413139800000000 Au
atom 21.6298503900000014 9.8733085200000001 0.0424597100000000 Au
atom 24.4446721700000005 9.8876384200000000 0.0617333100000000 Au
atom 27.2768360100000002 9.7962816799999999 0.0608343300000000 Au
atom 1.8587420100000001 9.8429152700000007 0.0707570200000000 Au
atom 4.6818997500000004 9.8585282900000006 0.0454497200000000 Au
atom 8.9184634200000001 12.3181216800000009 0.0016253600000000 Au
atom 11.7706792500000006 12.2837400300000006 -0.0418324200000000 Au
atom 14.5734657900000002 12.3598141199999993 -0.0415911900000000 Au
atom 17.3880897200000000 12.3186239999999998 0.0219117500000000 Au
atom 20.2172665599999988 12.3603254099999997 -0.0317969400000000 Au
atom 23.0332786700000014 12.2805610900000008 0.0037885600000000 Au
atom 25.8590442699999983 12.3138981399999992 -0.0683825300000000 Au
atom 0.4508572100000000 12.3375848500000007 -0.0018326000000000 Au
atom 3.3058255200000000 12.3291036100000007 -0.1090210000000000 Au
atom 6.1152181399999996 12.3474757200000003 -0.0123343900000000 Au
atom 7.5127208599999999 13.1772174199999998 2.5819444200000001 Au
atom 10.3378796099999999 13.1482074799999999 2.4892849899999998 Au
atom 13.1866262600000006 13.1761472299999998 2.5248665899999998 Au
atom 15.9951134699999997 13.1487732899999994 2.4853819599999998 Au
atom 18.8295909899999998 13.2039069700000002 2.6491976099999999 Au
atom 21.6359748200000013 13.2054116100000005 2.6153503300000001 Au
atom 24.4786672100000011 13.1373142600000001 2.5573401100000002 Au
atom 27.2483569699999997 13.1446772700000007 2.6085304900000001 Au
atom 1.8567135200000000 13.1581683799999993 2.6203289900000000 Au
atom 4.7050413100000004 13.1572678799999991 2.5235349700000000 Au
atom 8.9316994300000001 15.5972902900000001 2.5439222500000001 Au
atom 11.7458682700000008 15.6165401799999994 2.3727412800000001 Au
atom 14.5228716000000002 15.6132515800000000 2.5296842700000002 Au
atom 17.4033876300000010 15.6304570999999992 2.6751914000000001 Au
atom 20.2507540299999995 15.6531056799999995 2.5759941199999998 Au
atom 23.0344941900000002 15.6315651800000008 2.5257832900000001 Au
atom 25.8395110700000004 15.6285716200000007 2.6800426700000002 Au
atom 0.4702294900000000 15.6198575999999996 2.6403920300000001 Au
atom 3.2587319699999999 15.6713669400000004 2.5776399300000001 Au
atom 6.1060033400000000 15.6021128600000001 2.4617427599999999 Au
atom 7.5604070200000004 18.0765585000000009 2.5999253900000001 Au
atom 10.3946706500000001 18.0577953399999984 2.4634541599999999 Au
atom 13.1725628300000004 18.0808163200000003 2.5058327100000000 Au
atom 15.9840619700000008 18.0937448100000005 2.4506514500000001 Au
atom 18.8133046099999994 18.0673482400000012 2.6669796600000000 Au
atom 21.5958415399999986 18.1019196300000011 2.4994236700000001 Au
atom 24.3920011000000017 18.0672509499999983 2.6934799100000002 Au
atom 27.2362779699999997 18.0972487800000010 2.6385166000000000 Au
atom 1.8727350300000001 18.1021806400000003 2.7481345199999998 Au
atom 4.6947149799999996 18.1388141699999998 2.6008291799999999 Au
atom 8.9108728300000006 20.6002843300000009 2.6130053000000002 Au
atom 11.7106624999999998 20.5471814399999992 2.5995268600000001 Au
atom 14.5564068100000004 20.5397704499999989 2.5999860600000000 Au
atom 17.4044671199999996 20.5685909699999989 2.6112525600000001 Au
atom 20.2365250400000001 20.6043997599999997 2.5859690099999999 Au
atom 23.0648379900000009 20.5737821300000014 2.6228561600000000 Au
atom 25.8630890800000017 20.5455858000000013 2.6855340700000001 Au
atom 0.4596899100000000 20.5706264499999989 2.6675122000000000 Au
atom 3.2805787099999999 20.5795179300000015 2.6063871100000000 Au
atom 6.1146921200000000 20.5773313900000012 2.6426308000000001 Au
atom 7.4873791900000004 23.0681611400000008 2.6789256099999998 Au
atom 10.3405993800000005 23.0658381000000006 2.7125942300000001 Au
atom 13.1694632200000008 23.0655830399999999 2.6737380399999999 Au
atom 15.9579441600000003 23.1832375599999985 2.5093150799999999 Au
atom 18.8060219900000014 23.0645546599999989 2.4677075700000000 Au
atom 21.6374722800000008 23.1173926099999996 2.6735609999999999 Au
atom 24.4419005100000000 23.0759478199999997 2.7336910099999998 Au
atom 27.2775529799999994 23.0952735900000015 2.6726557700000000 Au
atom 1.8721035800000001 23.0511253600000003 2.6426405900000001 Au
atom 4.6772063099999999 23.0247128500000002 2.7710007900000000 Au
atom 8.9181061699999997 25.5029231000000003 2.7360563700000000 Au
atom 11.7592478499999995 25.5544591700000012 2.6282943500000000 Au
atom 14.5479706300000000 25.5769844500000012 2.6235882099999999 Au
atom 17.3980255899999996 25.5730517999999982 2.5888051200000000 Au
atom 20.2180671799999985 25.5275134399999999 2.5082072900000001 Au
atom 22.9656277200000005 25.5381124799999988 2.7100240900000001 Au
atom 25.8555452899999985 25.5905173099999992 2.7093568900000000 Au
atom 0.4525724600000000 25.6032875699999991 2.6623369499999998 Au
atom 3.2010431600000002 25.5114435700000008 2.7149019000000001 Au
atom 6.0681869800000001 25.5652169200000010 2.8186482100000001 Au
atom 7.5156355499999998 27.9646483500000009 2.5907001599999999 Au
atom 10.3367538900000007 28.0189537699999995 2.7046557500000001 Au
atom 13.1687508300000005 28.0127149499999994 2.4817060799999999 Au
atom 15.9526880700000007 28.0375392400000010 2.7148437099999998 Au
atom 18.8362909999999992 27.9945861399999991 2.5401529900000002 Au
atom 21.5834512899999993 28.0951246499999989 2.7085439899999999 Au
atom 24.3914324799999989 27.9772900000000000 2.6540746700000000 Au
atom 27.2387957199999988 28.0730279600000010 2.7099857400000000 Au
atom 1.9003621100000001 28.0026453300000000 2.5616455100000000 Au
atom 4.6947325400000004 28.0175421900000003 2.7140348900000002 Au
atom 8.9168269200000001 30.4395308299999989 2.5681595300000000 Au
atom 11.7095963500000000 30.4767493700000003 2.7302632999999998 Au
atom 14.5392275000000009 30.4881812200000013 2.5730233700000000 Au
atom 17.3648938999999984 30.4559407899999997 2.6588062400000001 Au
atom 20.1824042599999984 30.5044019999999989 2.6736828600000000 Au
atom 23.0116228599999992 30.5367075800000016 2.6876324199999999 Au
atom 25.8096347900000005 30.4763608700000006 2.6460439099999999 Au
atom 0.4550465300000000 30.4883040899999997 2.5756839299999998 Au
atom 3.2747835400000000 30.4570339799999985 2.6309051900000000 Au
atom 6.1078779900000004 30.4396412400000003 2.5763493199999998 Au
atom 7.5397977699999998 32.8986435200000003 2.5026448299999999 Au
atom 10.3455518200000007 32.9001615199999975 2.7017500100000000 Au
atom 13.1193697500000006 32.9152400600000021 2.6186956100000001 Au
atom 15.9888326400000000 32.9388755399999980 2.6567830500000000 Au
atom 18.7762382300000006 32.9573709499999978 2.6072785700000001 Au
atom 21.6005559399999996 32.9957371599999973 2.5854603500000000 Au
atom 24.4346793700000013 32.9619726900000032 2.5344866900000000 Au
atom 27.3090337900000009 32.9799366599999999 2.6605497599999999 Au
atom 1.9040310000000000 32.8892418200000023 2.5206100000000000 Au
atom 4.7037330800000001 32.8776403900000034 2.6951194799999998 Au
atom 8.8475330400000001 35.3706890599999966 2.6805474600000001 Au
atom 11.7036444100000008 35.3642711399999996 2.6421288100000000 Au
atom 14.5244716100000009 35.3509506600000023 2.6614864800000002 Au
atom 17.3531663199999997 35.4438676199999989 2.5898425600000001 Au
atom 20.1913285800000004 35.4522535400000010 2.6241373100000001 Au
atom 23.0506067799999990 35.4007663399999970 2.6314568800000000 Au
atom 25.8582752199999995 35.3939294700000033 2.5915650900000000 Au
atom 0.4801451200000000 35.4389647499999967 2.5594549400000002 Au
atom 3.3028712900000001 35.3760567599999973 2.6244231999999998 Au
atom 6.1158055100000004 35.3609562700000026 2.7066818600000002 Au
atom 7.4859460999999996 37.8765343000000030 2.6184096000000001 Au
atom 10.2914791000000001 37.8190262299999986 2.5505498100000001 Au
atom 13.1328882599999996 37.8045503700000012 2.6430413100000001 Au
atom 15.9458477100000007 37.8334678200000027 2.6183171800000000 Au
atom 18.8171597499999983 37.8814773499999973 2.6274144200000000 Au
atom 21.6186547900000008 37.8696893400000008 2.6957303499999998 Au
atom 24.4728410399999987 37.8376865400000000 2.6071637200000000 Au
atom 27.2434767099999995 37.8832344799999987 2.6908332200000000 Au
atom 1.8671415000000000 37.8582630200000025 2.5898353200000002 Au
atom 4.6897723700000000 37.8238071800000029 2.7076487800000000 Au
atom 8.9400444700000001 0.8159058800000000 2.6720339300000000 Au
atom 11.7536711999999994 0.8017323600000000 2.7852896899999999 Au
atom 14.6070949500000005 0.8452295200000000 2.8375972400000000 Au
atom 17.4277546200000018 0.8240299100000000 2.6363561799999999 Au
atom 20.2225929899999990 0.8365813700000000 2.7319432699999999 Au
atom 23.0190635700000001 0.8344102500000000 2.7016722199999998 Au
atom 25.8177256700000015 0.8219495100000000 2.6901950299999999 Au
atom 0.4950350500000000 0.8754884900000000 2.7058157199999999 Au
atom 3.2684742700000000 0.8488315100000000 2.6981116300000001 Au
atom 6.1491614600000002 0.8497049300000000 2.7307469900000001 Au
atom 7.5679781600000000 3.3917039500000001 2.7304435699999998 Au
atom 10.3562323099999993 3.2779691099999999 2.6239963700000000 Au
atom 13.2065264100000004 3.2914164200000000 2.7012311699999998 Au
atom 15.9869515100000008 3.2989837500000001 2.6458615100000000 Au
atom 18.8056690599999996 3.3977021700000001 2.6975095400000000 Au
atom 21.6217193399999985 3.2812827300000000 2.6407193499999999 Au
atom 24.4081812800000009 3.2850068200000000 2.6648863000000000 Au
atom 27.2016698199999993 3.2971121900000000 2.7857068699999998 Au
atom 1.8394714900000000 3.3836290199999999 2.5424300299999998 Au
atom 4.6724024200000001 3.2946278599999999 2.7793003299999999 Au
atom 8.9671582799999996 5.8230593400000004 2.7876479999999999 Au
atom 11.7925582000000002 5.7420258100000003 2.6860447299999999 Au
atom 14.5870871799999993 5.8013509100000000 2.7814007500000000 Au
atom 17.4082028199999996 5.7476130200000002 2.7841823200000002 Au
atom 20.1940288099999989 5.8249321199999997 2.6359279000000000 Au
atom 23.0340239300000000 5.7667241000000002 2.7330250600000001 Au
atom 25.8186809299999993 5.7867315100000001 2.6703767699999998 Au
atom 0.4728944800000000 5.8254390200000001 2.6319692500000000 Au
atom 3.2897242400000000 5.8301904200000001 2.7035013399999999 Au
atom 6.1004867400000000 5.8596511700000002 2.7715763600000001 Au
atom 7.5532174500000000 8.2873422699999999 2.5470183999999998 Au
atom 10.3550732300000004 8.2046282399999999 2.6283323200000002 Au
atom 13.1168718700000007 8.2602881299999993 2.6851069700000001 Au
atom 15.9774141699999994 8.2564949599999995 2.6562726099999998 Au
atom 18.7755565000000004 8.2848231200000004 2.6147007000000002 Au
atom 21.6289934300000013 8.2590576900000006 2.7609487800000001 Au
atom 24.4070492799999990 8.2571954999999999 2.7438051500000000 Au
atom 27.2427757899999996 8.2384068399999997 2.6733578599999999 Au
atom 1.8584648100000001 8.2775802600000006 2.7888424700000001 Au
atom 4.6882279300000000 8.2918835299999998 2.6678684000000001 Au
atom 8.9070281999999992 10.6803185999999997 2.6277570200000002 Au
atom 11.7496194799999998 10.7367598100000006 2.6848318299999998 Au
atom 14.5627477600000006 10.7367945599999999 2.5804179100000000 Au
atom 17.4003221400000001 10.7614315699999992 2.6302548799999999 Au
atom 20.1523520599999983 10.7053523700000000 2.5726621900000000 Au
atom 22.9664153199999994 10.7244564499999999 2.6402013000000002 Au
atom 25.8385544299999985 10.6812242699999995 2.6043883200000000 Au
atom 0.4884676200000000 10.7274828099999997 2.6133759799999998 Au
atom 3.2845367099999998 10.7423090299999995 2.6179862200000001 Au
atom 6.0984141999999997 10.7020590999999996 2.5527515300000001 Au
atom 7.1582957299999999 13.0867745299999996 5.7040309499999999 Cl
atom 7.2882533299999999 16.0460173399999988 8.5671698299999992 Cl
atom 7.4758464399999998 13.2064758100000006 8.3753091200000007 Na
atom 7.4147866599999999 15.8657407199999998 5.8323956399999997 Na
atom 7.2697265800000004 18.6054092400000002 5.7869887599999998 Cl
atom 7.3470450600000001 21.7299495399999998 8.4363622199999995 Cl
atom 7.4523845399999997 18.7396598300000008 8.3319973800000007 Na
atom 7.2344202900000001 21.6030290600000008 5.7146451799999998 Na
atom 7.2964130000000003 24.5809661900000016 5.9719170100000003 Cl
atom 7.4954203799999997 27.3248447900000002 8.5944710900000008 Cl
atom 7.3691932299999996 24.5205159899999998 8.1055815199999994 Na
atom 7.4227747099999997 27.3321604399999991 5.8792640299999999 Na
atom 7.4020143999999997 30.1356697999999987 6.0974139599999999 Cl
atom 7.4868181199999997 32.9067322900000008 8.5918792400000008 Cl
atom 7.4500699099999999 30.1578937700000012 8.0017776999999999 Na
atom 7.4285465799999999 32.9885814900000014 5.7220343500000004 Na
atom 7.3893837800000002 35.9430793100000017 5.4382076699999997 Cl
atom 7.3925595900000003 38.6241579000000002 8.6871834999999997 Cl
atom 7.4639921999999999 35.8092236600000007 8.7271654499999993 Na
atom 7.3536626500000004 38.6347048700000002 5.8863392000000001 Na
atom 7.3302370400000001 1.9047045000000000 5.6217731899999999 Cl
atom 7.3498513100000000 4.6221756400000000 8.7805187300000007 Cl
atom 7.4161008099999997 1.9122572300000000 8.7867726800000003 Na
atom 7.4341579800000002 5.0126397599999999 5.9749420100000004 Na
atom 7.4274610000000001 7.0668086600000004 5.7864053799999997 Cl
atom 7.3902428000000002 10.1950348799999997 8.6179884500000004 Cl
atom 7.4417347300000003 7.4433811700000003 8.4762855199999994 Na
atom 7.4250553899999998 10.2231649400000002 5.8245234899999998 Na
atom 10.0764233799999996 13.1404088500000000 5.8897311900000000 Na
atom 12.7996721999999998 13.2429940599999991 5.7347599499999999 Cl
atom 10.3442948200000000 15.9305478199999992 8.3348210999999992 Na
atom 13.1870353399999996 16.0740749799999989 8.6890688899999997 Cl
atom 12.9905520499999998 13.2043502400000001 8.4182474900000006 Na
atom 10.2187298500000008 13.2773559900000002 8.2750515100000008 Cl
atom 13.0548055900000008 15.9196338900000001 5.7045615800000000 Na
atom 10.1199480099999999 15.7183240099999999 5.5355026699999996 Cl
atom 10.1353886200000005 18.5306899200000004 5.7624230900000004 Na
atom 12.8211788099999993 18.7141791799999986 5.7602908399999997 Cl
atom 10.1856077000000003 21.6141807200000002 8.1707715499999996 Na
atom 12.7713053199999997 21.5461236700000001 7.9756045899999997 Cl
atom 13.0779535300000003 18.7860103500000015 8.0991861899999993 Na
atom 10.3274918699999994 18.8810681500000008 8.5181566899999996 Cl
atom 12.8882232600000002 21.4779090500000009 6.0537352699999998 Na
atom 10.0886768700000005 21.6465881899999992 5.5416402099999997 Cl
atom 10.1566726999999997 24.4433212100000006 5.7636219200000003 Na
atom 13.0779967500000005 24.3543681200000002 5.8534934099999996 Cl
atom 10.2651033999999992 27.3050240299999984 8.2664499399999993 Na
atom 12.9925066400000002 27.3933867500000012 8.5804633300000006 Cl
atom 12.8311136200000000 24.4552273400000004 8.1304871999999992 Na
atom 10.1570856599999999 24.4365781899999988 8.4903395899999996 Cl
atom 13.1752511000000005 27.1172326099999985 5.7865068700000002 Na
atom 10.2050344299999995 27.2892453699999997 5.6959279199999999 Cl
atom 10.2721643900000004 30.0756788999999998 5.6986352599999996 Na
atom 13.1607237999999995 30.0511266799999994 5.5499012299999997 Cl
atom 10.2031390200000001 32.8887099299999974 8.3849231100000008 Na
atom 13.1370207299999997 32.9340661800000021 8.4813379500000003 Cl
atom 13.1258414999999999 30.2375389299999995 8.3740615500000004 Na
atom 10.2264090700000008 30.1624477800000008 8.5542053800000009 Cl
atom 13.0868459999999995 32.9355578300000005 5.7130037299999996 Na
atom 10.2330401200000001 33.0663758299999984 5.6555816500000002 Cl
atom 10.2316026699999991 35.8259619299999983 5.8230279300000003 Na
atom 13.0206130000000009 35.7960794600000014 6.0650332100000002 Cl
atom 10.2703089700000003 38.5412742199999983 8.4384800999999996 Na
atom 13.1203837700000001 38.5978037100000009 8.7105951000000008 Cl
atom 13.0755514999999995 35.7255003000000002 8.0727817599999998 Na
atom 10.2769680500000007 35.8150751700000001 8.5922920600000001 Cl
atom 13.1177117499999998 38.6007114000000016 5.9393425999999998 Na
atom 10.2427295399999991 36.5741495500000013 5.7372544100000002 Cl
atom 10.1693771700000006 3.9617083100000001 5.9360901799999999 Na
atom 13.0585599699999992 1.9223273100000000 5.7902342800000000 Cl
atom 10.2666639899999996 4.6882003699999997 8.4844562400000001 Na
atom 13.1250429600000000 4.6073864100000002 8.7265852499999994 Cl
atom 13.1310702999999993 1.8385415700000001 8.5501252700000006 Na
atom 10.2802139100000005 1.8355824300000001 8.7358498499999993 Cl
atom 13.0313556599999991 4.6407056100000004 5.9706702900000002 Na
atom 10.1842468600000000 4.5969936200000001 5.9025085300000004 Cl
atom 10.2798481699999993 7.6445628699999997 5.9248726999999999 Na
atom 13.1106826900000009 7.3933740300000004 5.9045570500000002 Cl
atom 10.2714542600000005 10.3893246099999992 8.7662071800000003 Na
atom 13.0887676600000002 10.1587600600000005 8.6046692000000000 Cl
atom 13.0811145900000003 7.4666998900000001 8.3609095700000005 Na
atom 10.2625025300000008 7.5393590000000001 8.6467776099999991 Cl
atom 12.9640389799999998 10.2949096499999992 5.8538807600000000 Na
atom 10.1707496899999992 10.3235149899999996 5.8154801100000002 Cl
atom 15.8218982700000002 13.0304097900000002 5.6946756199999999 Na
atom 18.8098169099999986 13.0628264699999992 5.7224924300000000 Cl
atom 16.0507986799999998 15.9498128000000001 7.7292102500000004 Na
atom 18.7853180500000008 16.0173580999999992 8.3425540300000005 Cl
atom 18.7363378099999984 13.1279013700000000 8.1971348400000004 Na
atom 15.9524770999999994 13.0020109900000005 8.3252730499999998 Cl
atom 18.8129369900000007 16.0821149299999995 5.5799916600000001 Na
atom 16.0110068199999986 15.8637547100000003 5.4946773200000001 Cl
atom 15.7390946399999994 18.8118492699999997 5.7425389400000002 Na
atom 19.0093346799999985 18.8494188700000009 5.3669436599999996 Cl
atom 15.9675739100000005 21.3569833899999999 8.4874841399999994 Na
atom 18.5866177800000010 21.2109429499999997 8.4744146100000002 Cl
atom 18.6513550499999994 19.2692137499999987 8.2603590699999998 Na
atom 15.9368657500000008 18.7583568199999995 7.9801973600000000 Cl
atom 18.9838243400000017 21.5557641800000006 5.7281808300000003 Na
atom 15.5524999499999996 22.5192140000000016 5.6956287000000003 Cl
atom 15.8138468099999994 24.1680600299999995 5.7856479900000002 Na
atom 18.5212101599999990 24.5213939299999986 5.9891087299999999 Cl
atom 15.9139496999999999 27.1266900699999987 7.8546281599999999 Na
atom 18.7500257200000000 27.3176983699999987 8.4895683599999998 Cl
atom 18.4072570800000008 24.4119915700000014 8.2455975899999991 Na
atom 15.9226403100000002 24.7273333599999994 8.5047667400000009 Cl
atom 18.8120428799999999 27.1170767099999992 5.8148927300000004 Na
atom 16.0156343600000000 27.1471974899999999 6.1647156100000000 Cl
atom 15.9318619500000000 29.8432117000000012 5.2754444999999999 Na
atom 18.8598489200000010 30.1024361899999988 5.6667157599999998 Cl
atom 15.9250494499999995 32.8290027099999975 8.5084111799999995 Na
atom 18.6713240700000007 32.8469870999999998 8.5952351199999999 Cl
atom 18.7469995999999988 29.9899817300000002 8.4059746799999999 Na
atom 15.9759345300000000 30.1146034299999990 8.8781136899999993 Cl
atom 18.8203412300000004 32.9018206499999977 5.8979615699999997 Na
atom 15.9240527499999995 33.0069796900000014 5.5664832700000000 Cl
atom 15.8949535399999995 35.7613758700000020 5.8056735000000002 Na
atom 18.9038436800000014 35.7327447400000011 5.7427894799999999 Cl
atom 15.9865936600000005 38.5816974299999984 8.3763770500000003 Na
atom 18.8687741299999985 38.5294148799999974 8.6456915599999995 Cl
atom 18.7311860599999989 35.7584461200000021 8.4349693800000001 Na
atom 15.9038398700000005 35.7495618499999992 8.5313121800000005 Cl
atom 18.8317508499999988 38.5778656999999967 5.8495890299999997 Na
atom 16.0202300400000013 38.6329821699999982 5.8286302000000001 Cl