#===============================================================================
# Created using the Atomic Simulation Environment (ASE)

# Tue Dec 23 22:27:05 2025

#=======================================================
lattice_vector 28.1999999999999993 0.0000000000000000 0.0000000000000000 
lattice_vector 0.0000000000000000 39.4799999999999969 0.0000000000000000 
lattice_vector 0.0000000000000000 0.0000000000000000 62.3296083400000001 
atom 7.5165736200000000 14.8774500300000003 0.1117461000000000 Au
atom 10.1866587899999992 14.7951403399999997 0.0584693300000000 Au
atom 13.1918255999999996 14.7966248700000005 0.0511638700000000 Au
atom 15.8269560400000007 14.7388625900000001 -0.1101895300000000 Au
atom 19.1946399899999989 14.9614645799999995 -0.1653258500000000 Au
atom 21.6756243799999986 14.8504676300000007 0.0879085900000000 Au
atom 24.4776305399999998 14.8949834800000005 0.1062592900000000 Au
atom 27.2792935999999990 14.8362803599999999 -0.1326419200000000 Au
atom 1.7875707900000000 14.8671395000000004 0.0617686600000000 Au
atom 4.5882417000000002 14.8675714699999997 0.1836678600000000 Au
atom 9.0028115999999994 17.2272880700000002 0.1784262100000000 Au
atom 11.8552156699999998 17.1376561900000013 -0.1020653000000000 Au
atom 14.6570611799999995 17.3278332199999987 -0.0968832100000000 Au
atom 17.5350828300000003 17.3548133200000017 -0.0905419800000000 Au
atom 20.2639785900000007 17.4149869099999997 0.0860958200000000 Au
atom 23.1048507900000004 17.4066991599999987 0.2024966000000000 Au
atom 25.8328857800000016 17.3565335300000001 -0.1117813700000000 Au
atom 0.5412679700000000 17.4715842600000002 -0.0254801800000000 Au
atom 3.4767947600000002 17.2779191999999995 0.0271093900000000 Au
atom 6.0982355899999998 17.1849620799999983 0.1285398600000000 Au
atom 7.5777439299999996 19.7395082100000003 0.1134645700000000 Au
atom 10.5027599100000000 19.6713067399999986 0.1143646500000000 Au
atom 13.3608041199999992 19.6075872400000009 0.1655230200000000 Au
atom 16.0767954999999994 19.7516184599999995 0.0525223900000000 Au
atom 18.8119276500000012 19.6890348300000007 0.1836488100000000 Au
atom 21.5759261000000002 19.6547516100000017 0.2303827700000000 Au
atom 24.5132854100000017 19.7377013699999999 -0.1066455100000000 Au
atom 27.2320963899999988 19.7935046800000016 0.1272890800000000 Au
atom 1.8003426000000000 19.7536299699999987 0.0562332100000000 Au
atom 4.8049450800000004 19.7614425300000001 0.2550213400000000 Au
atom 8.7416725399999997 22.1883636499999994 0.3651508500000000 Au
atom 11.6997131999999997 22.2307362499999996 0.0966110100000000 Au
atom 14.7244667600000003 22.1498722999999984 0.2198352800000000 Au
atom 17.4521963599999985 22.0125197300000011 0.2671796100000000 Au
atom 20.1031400900000001 22.0686344100000014 0.2091522000000000 Au
atom 22.8566667199999998 22.3311666200000012 0.2054964500000000 Au
atom 25.9931378200000012 22.3054607000000011 0.0707279600000000 Au
atom 0.3823218100000000 22.3495437999999993 -0.0561016600000000 Au
atom 3.3184877099999999 22.2556010999999998 0.1324525900000000 Au
atom 6.0843846399999997 22.2209254600000001 0.0327262000000000 Au
atom 7.6197550300000003 24.6230808199999984 0.1821199600000000 Au
atom 10.3399802800000007 24.8232345700000003 0.1999126300000000 Au
atom 13.1325035600000000 24.5200537800000014 0.0430616400000000 Au
atom 16.1347376500000017 24.5596587900000003 0.2424081600000000 Au
atom 18.6989584700000009 24.6848896999999994 0.3950185900000000 Au
atom 21.8271444899999985 24.6985954700000008 0.3103108200000000 Au
atom 24.3813900600000011 24.8860133899999987 0.3460126400000000 Au
atom 27.1750033699999989 24.8448500500000016 0.0215640600000000 Au
atom 1.9877502100000000 24.6434257599999995 0.0021147200000000 Au
atom 4.7287648899999999 24.6623310300000007 -0.0240995600000000 Au
atom 9.1320486699999996 26.9670831500000006 -0.0442069200000000 Au
atom 11.8438881699999996 27.2041602100000013 0.0734566000000000 Au
atom 14.6564446499999992 27.0485813999999998 0.1111686700000000 Au
atom 17.2633532199999991 27.2180983199999993 0.1658493400000000 Au
atom 20.2793163999999990 27.1060210400000017 0.1827116300000000 Au
atom 23.1346333400000006 27.2429212599999993 0.0124375200000000 Au
atom 25.8932649599999998 27.1488543799999995 0.2692894300000000 Au
atom 0.5011684800000000 27.2037827599999993 0.2158767100000000 Au
atom 3.3608172199999999 27.2100280599999991 0.1560142800000000 Au
atom 6.3357229700000000 27.1137794899999989 -0.0469455700000000 Au
atom 7.5403527600000002 29.6091547599999991 -0.1367930600000000 Au
atom 10.1315626299999995 29.4749388199999984 -0.1560217000000000 Au
atom 13.1209097099999994 29.4433039299999990 -0.1391447900000000 Au
atom 15.9798579099999998 29.8648667799999998 0.0974984200000000 Au
atom 18.5546546100000000 29.3576037800000016 -0.0987245600000000 Au
atom 21.5405080700000013 29.6058237099999992 0.0851513200000000 Au
atom 24.2860247099999995 29.5254782599999999 0.0729813000000000 Au
atom 27.2762515400000005 29.7958667099999985 0.0024771800000000 Au
atom 1.8061888200000000 29.6818631699999997 -0.1361091700000000 Au
atom 4.5851233300000001 29.8025693700000005 0.0544668600000000 Au
atom 9.1267741900000008 32.0188339299999996 -0.1823314200000000 Au
atom 11.5864296200000005 31.8719450900000005 -0.2440039100000000 Au
atom 14.4713218700000006 31.8695435200000006 -0.2219345300000000 Au
atom 17.3555343999999998 31.9351638999999992 0.0456253600000000 Au
atom 19.9655398400000017 32.1080018299999992 -0.1616409600000000 Au
atom 22.7992128799999989 31.9277549200000017 0.0849913500000000 Au
atom 25.8291091000000002 32.0770716700000023 0.0101511900000000 Au
atom 0.5929937199999999 32.2460921699999972 -0.0971662200000000 Au
atom 3.2119526000000000 32.1093426699999966 0.3499285100000000 Au
atom 6.2778523699999997 32.0053713799999997 -0.1234378000000000 Au
atom 7.5018609400000003 34.5228662000000028 0.0664803600000000 Au
atom 10.4120139300000005 34.4846577699999983 -0.1493247000000000 Au
atom 13.0721245100000001 34.6325318199999970 -0.0853602900000000 Au
atom 15.8653920300000006 34.4627479700000023 -0.0735651500000000 Au
atom 18.6723790600000008 34.5274386800000030 -0.0426113300000000 Au
atom 21.6258150100000002 34.3536991400000034 -0.3726223400000000 Au
atom 24.3226620999999987 34.3563418600000006 0.0232081000000000 Au
atom 27.2228234600000008 34.5369432700000019 -0.1362016200000000 Au
atom 1.9163819400000000 34.5070171999999999 -0.0746676800000000 Au
atom 4.6894254399999999 34.4598133000000004 0.0613006200000000 Au
atom 8.8472457099999993 37.0395374900000007 -0.1191253300000000 Au
atom 11.7021431200000006 36.9715577999999994 -0.0967306500000000 Au
atom 14.3859869800000002 37.0938869100000019 -0.0443016700000000 Au
atom 17.2760424499999985 37.0145784899999981 -0.1112937600000000 Au
atom 20.3202800100000012 36.9212844199999992 -0.0173395200000000 Au
atom 22.9329571799999989 36.9774475400000000 0.0261603400000000 Au
atom 25.7560665399999991 36.9338642499999992 -0.0244831300000000 Au
atom 0.3578999500000000 37.1873961399999970 0.0465122700000000 Au
atom 3.4097100500000002 37.0642579800000007 0.0730793400000000 Au
atom 6.1543529899999996 37.0454399300000006 -0.0878273400000000 Au
atom 7.5875186599999997 0.1361448600000000 -0.0705351000000000 Au
atom 10.3421004599999993 -0.1377175400000000 0.2258617100000000 Au
atom 13.1066680600000005 -0.2164548500000000 0.0371620500000000 Au
atom 15.9829987599999992 -0.0884101500000000 0.0871895100000000 Au
atom 19.0934952200000012 -0.0584484100000000 0.0334692500000000 Au
atom 21.6909222100000001 -0.0724434500000000 0.0750583700000000 Au
atom 24.3552521099999986 0.0717977500000000 0.0035152400000000 Au
atom 27.3580002100000002 -0.0118234000000000 0.0437745900000000 Au
atom 1.8354474999999999 0.0719163100000000 0.0109419800000000 Au
atom 4.8025430099999999 -0.0689312100000000 0.0676502400000000 Au
atom 8.8899834000000002 2.4766425600000002 -0.0311935000000000 Au
atom 11.8590778100000005 2.3172546100000000 0.1020772900000000 Au
atom 14.8054766400000002 2.4910369800000001 0.2133602600000000 Au
atom 17.3479581399999994 2.6451627300000000 0.0193971000000000 Au
atom 20.1736056499999989 2.5237729700000000 0.0164949300000000 Au
atom 23.1240435099999999 2.5040215699999999 0.0995501900000000 Au
atom 25.9539615400000017 2.5596312700000001 -0.0995209700000000 Au
atom 0.5272213000000000 2.4849856799999999 0.1398634900000000 Au
atom 3.0794193000000001 2.4350733099999999 0.0521331800000000 Au
atom 6.1521192600000001 2.5625183499999999 -0.0795811100000000 Au
atom 7.4830922800000002 4.8136258600000001 0.0814755400000000 Au
atom 10.1388833500000004 4.9499356299999997 0.0404548500000000 Au
atom 13.1635244100000008 4.9041207800000004 0.1775659300000000 Au
atom 15.9917841599999999 4.8155663500000001 0.2643722500000000 Au
atom 18.8747682200000000 4.8201417299999996 0.1090407100000000 Au
atom 21.6355649099999994 4.9192398800000001 0.3993180500000000 Au
atom 24.6755694900000009 4.9683928899999996 0.2689246000000000 Au
atom 27.0860712200000009 5.1494412699999996 0.1992629100000000 Au
atom 1.7777180200000000 5.1550729300000002 0.3019589500000000 Au
atom 4.4317554499999998 4.7778381400000001 0.1184101900000000 Au
atom 8.9549933100000008 7.3593712099999999 -0.0136242000000000 Au
atom 11.7305403899999998 7.3678164600000002 0.2469426800000000 Au
atom 14.6011304600000003 7.3012062100000001 0.0182954600000000 Au
atom 17.4160792099999995 7.3131782599999999 0.1095787700000000 Au
atom 19.9901007799999988 7.4858743399999996 0.0660652800000000 Au
atom 22.9626353399999985 7.3619640500000001 0.1136596400000000 Au
atom 25.7900891200000011 7.2749066100000004 0.0690768000000000 Au
atom 0.2623274800000000 7.6375675500000000 -0.0002215700000000 Au
atom 3.3779153000000002 7.3766472900000002 0.3942629300000000 Au
atom 6.1304526399999997 7.3670096899999997 0.1377474300000000 Au
atom 7.6680244999999996 9.9375797800000001 -0.1024520000000000 Au
atom 10.3766818700000005 9.7244947400000008 0.1082924400000000 Au
atom 13.2764313000000005 9.8484318799999997 0.1604526700000000 Au
atom 15.9962118100000001 9.7619766099999996 0.0796205100000000 Au
atom 18.7977513999999992 9.8912102700000002 -0.1126225100000000 Au
atom 21.7112387300000016 9.8459424700000007 0.0042637900000000 Au
atom 24.3866578300000008 9.9007363300000009 0.0585764700000000 Au
atom 27.2086675400000004 10.0975265200000006 0.3209932600000000 Au
atom 2.0116406100000002 9.9405422199999993 -0.0371791900000000 Au
atom 4.6714719899999997 9.8871585799999995 -0.1476060000000000 Au
atom 8.8675121400000005 12.3557287900000006 -0.1154582900000000 Au
atom 11.7597288399999993 12.4510728400000001 -0.0060109300000000 Au
atom 14.7624071200000007 12.3663688100000009 -0.0342200600000000 Au
atom 17.5075514400000003 12.3072369699999999 -0.0140151500000000 Au
atom 20.3819892299999985 12.4860130100000006 0.1378140200000000 Au
atom 23.2395254499999986 12.3832765600000005 -0.1827316500000000 Au
atom 25.8894514999999998 12.2921272399999992 0.0477846700000000 Au
atom 0.4482345100000000 12.5937020099999994 -0.0813872600000000 Au
atom 3.2002355100000002 12.2900974000000005 -0.0222226200000000 Au
atom 6.2169961100000002 12.3570671500000007 0.0061559000000000 Au
atom 7.6748148100000000 13.1286607199999992 2.7988773500000002 Au
atom 10.2588058300000000 13.1258374100000008 2.3884191499999998 Au
atom 13.1856468400000004 13.1815260700000003 2.6138219399999998 Au
atom 16.0843849600000013 13.1033032400000007 2.5806204300000002 Au
atom 18.8634290000000000 13.0715955200000007 2.7210857800000001 Au
atom 21.4424186699999986 13.1882945899999999 2.7357645300000000 Au
atom 24.5387129799999997 13.1281444000000000 2.5304860900000001 Au
atom 27.1591213099999997 13.2918540000000007 2.5129125900000000 Au
atom 1.8643158399999999 13.2112094300000003 2.7394877900000001 Au
atom 4.5058162599999996 13.1929381699999997 2.4658840000000000 Au
atom 8.9878247000000009 15.6798040299999997 2.8074913600000002 Au
atom 11.8263973000000000 15.6069622799999994 2.5254367400000000 Au
atom 14.5836472900000000 15.5561109799999997 2.4433871699999998 Au
atom 17.4344241999999987 15.6533385200000001 2.3652142000000000 Au
atom 20.3730834200000004 15.6454012900000006 2.8858284699999999 Au
atom 23.0135691899999983 15.6909462499999997 2.7724096100000000 Au
atom 25.7561686799999983 15.5406563999999996 2.5567619000000001 Au
atom 0.4830662600000000 15.6173366700000003 2.4407793400000002 Au
atom 3.3565480000000001 15.6171071999999995 2.7349592000000000 Au
atom 6.0118268700000002 15.6502733400000000 2.7478860200000002 Au
atom 7.4950033500000002 18.1858893600000009 2.7287065600000000 Au
atom 10.4016884699999999 18.1658517900000014 2.6280772500000000 Au
atom 13.3046218300000003 17.9925009399999993 2.4648024999999998 Au
atom 16.0338652900000014 18.2031611399999989 2.4755620399999998 Au
atom 19.0051451299999989 18.0733165000000007 2.7097971400000000 Au
atom 21.6754837199999990 18.2062467499999983 2.7589977900000000 Au
atom 24.4235870499999983 18.2313958300000003 2.6707536900000002 Au
atom 27.3196282799999999 18.1188234199999982 2.5471068200000002 Au
atom 2.0329084599999998 18.0762466800000006 2.7390197500000002 Au
atom 4.7179202399999998 18.0137096200000002 2.6187442999999999 Au
atom 8.9397190399999999 20.5451523800000011 2.7479922600000002 Au
atom 11.7556537799999994 20.4854544099999991 2.7689783200000000 Au
atom 14.3947250199999992 20.7622449300000014 2.8437950299999999 Au
atom 17.3974174499999990 20.6934246699999989 2.7938472200000000 Au
atom 20.3160899800000010 20.7423448800000010 2.6851137999999999 Au
atom 22.9975079999999998 20.9618842299999990 2.5519388699999999 Au
atom 25.7868419099999997 20.6851378500000003 2.7179977200000001 Au
atom 0.4948100600000000 20.5505718399999999 2.6033614599999999 Au
atom 3.2222708700000000 20.6534133299999993 2.6553398000000001 Au
atom 6.0896880099999997 20.5290675100000009 2.8432578300000002 Au
atom 7.4180769800000004 23.1753518400000011 3.0025515999999999 Au
atom 10.3551124300000001 23.1067758000000012 2.8916183499999999 Au
atom 13.1347971599999997 23.3035209300000012 2.8604597200000002 Au
atom 16.0138906100000007 22.9858575499999986 2.9060125900000000 Au
atom 19.0086189200000000 22.9052139799999992 2.9418730499999999 Au
atom 21.6907220699999996 23.1021773900000014 2.8589213800000000 Au
atom 24.5040857000000010 23.3591609899999995 2.7287110600000002 Au
atom 27.3205324199999993 23.0317069299999986 2.7750783000000001 Au
atom 1.9271420100000001 23.2372584400000015 2.8667955200000002 Au
atom 4.7208271100000001 22.9951789600000005 2.6259633500000001 Au
atom 8.8508532399999993 25.3984433199999984 2.9368501100000000 Au
atom 11.8483280900000008 25.6609685499999998 2.9521908899999998 Au
atom 14.3918108199999999 25.6062623500000015 2.8864288700000000 Au
atom 17.3672306399999989 25.5647063500000016 2.7048913200000002 Au
atom 20.1795017700000017 25.6077914900000003 3.1216814899999998 Au
atom 23.1853166000000002 25.4273556999999997 2.9865390000000001 Au
atom 25.8198763299999996 25.7500021100000005 2.6996017000000001 Au
atom 0.5162936700000000 25.5393247000000017 2.6568074099999999 Au
atom 3.2354667899999998 25.5167533700000000 2.6505994199999998 Au
atom 6.0813672499999996 25.6661156000000013 2.6586827600000000 Au
atom 7.3348659400000003 28.1215377800000006 2.7304033900000002 Au
atom 10.1674174500000003 27.9835917599999995 2.5268165499999999 Au
atom 13.0184109400000008 27.9958600100000012 2.6095737600000000 Au
atom 15.9136401200000002 27.9546278000000008 2.4554214399999998 Au
atom 18.9021424899999992 27.9019916300000013 2.5081644999999999 Au
atom 21.6692461899999991 27.9211885299999985 2.8130854599999999 Au
atom 24.4744291800000013 27.9409826999999993 2.6491003700000002 Au
atom 27.1485707500000011 28.0820113300000003 2.7678266800000002 Au
atom 1.9714332000000001 28.1015511899999986 2.6980686100000000 Au
atom 4.5519662299999997 28.1378863999999993 2.4391549200000000 Au
atom 8.9507774500000004 30.6215835699999985 2.6485994200000000 Au
atom 11.6931477299999997 30.3518738900000002 2.5738392600000002 Au
atom 14.4977515500000003 30.3752840699999993 2.5128110900000000 Au
atom 17.2737607799999999 30.2799978199999984 2.6457107999999998 Au
atom 20.2815899799999997 30.3761064500000018 2.5773461900000001 Au
atom 23.1315676600000018 30.3787097199999998 2.5369901900000000 Au
atom 25.8301010700000013 30.6087072499999984 2.7993030999999999 Au
atom 0.4517376300000000 30.4395997200000004 2.6104856600000002 Au
atom 3.2930256199999999 30.5885789099999990 2.4604886800000001 Au
atom 6.2421187299999996 30.4907272099999993 2.3410325200000002 Au
atom 7.5565603299999999 32.9841149299999969 2.5431730500000000 Au
atom 10.3368712299999999 32.8828457899999975 2.3986529499999998 Au
atom 13.1661997300000007 32.5222578600000034 2.3651411800000002 Au
atom 15.9154157699999992 32.8502999099999968 2.4499317500000002 Au
atom 18.7822282499999993 32.7497395600000019 2.7680593299999998 Au
atom 21.5209639999999993 32.8522314699999995 2.7368455599999999 Au
atom 24.2787492900000004 33.0089351600000001 2.4989649799999998 Au
atom 27.4514265399999999 32.7895335199999991 2.4696475499999999 Au
atom 1.9102767000000000 32.9567502900000022 2.8347144599999998 Au
atom 4.8136961899999999 33.0027838000000031 2.7217634799999999 Au
atom 8.9404745200000004 35.5554689800000006 2.4558171400000002 Au
atom 11.6568710099999997 34.9523448400000021 2.5038163700000000 Au
atom 14.5065630300000006 35.3414086399999974 2.6065152600000001 Au
atom 17.2960835000000017 35.2722781699999999 2.5451544300000002 Au
atom 20.1398625500000001 35.2526228199999991 2.5127567300000000 Au
atom 22.9800424599999999 35.3038735900000020 2.4135849899999999 Au
atom 25.7883031199999984 35.3706634699999967 2.4368217200000002 Au
atom 0.4213952200000000 35.4616765900000033 2.5446868399999998 Au
atom 3.2855897700000001 35.5484371200000027 2.7281895100000000 Au
atom 5.9414643500000004 35.3794141600000032 2.3480228099999998 Au
atom 7.4784470100000000 37.8021339100000020 2.4906402999999999 Au
atom 10.3681163099999996 37.5388410999999991 2.5880892300000000 Au
atom 13.0543080099999997 37.6341089800000006 2.6592165500000000 Au
atom 15.9691658099999998 37.8901348200000001 2.6310411500000002 Au
atom 18.7770705999999983 37.6343721300000027 2.5554792900000001 Au
atom 21.4806928799999994 37.8376041400000034 2.7702138100000000 Au
atom 24.2458997600000004 37.7852646999999990 2.5969427500000002 Au
atom 27.3322217700000003 37.5990308399999975 2.4867099100000001 Au
atom 1.8976045100000001 37.8833527299999986 2.5030790000000001 Au
atom 4.5208691700000001 37.7202803500000030 2.7662176999999999 Au
atom 8.8979714600000008 0.8178145300000000 2.7650588500000000 Au
atom 11.8291885499999996 0.7131407900000000 2.8009167900000000 Au
atom 14.3942751500000004 0.9175466900000000 2.5392267999999998 Au
atom 17.3330977200000014 0.8797684400000000 2.6156200599999999 Au
atom 20.1812187200000004 0.8440697200000000 2.7164586300000000 Au
atom 22.9655320900000000 0.9859265000000000 2.6348418300000001 Au
atom 25.9339161800000007 0.8451591300000000 2.7556587299999999 Au
atom 0.3748657300000000 1.0192820800000000 2.6682284699999999 Au
atom 3.4037292400000001 0.7643459400000000 2.7336053699999998 Au
atom 6.0390584100000000 0.8608821400000000 2.5822632500000000 Au
atom 7.6050252800000004 3.2668548899999998 2.7638425199999999 Au
atom 10.2135046700000007 3.3966830500000000 2.9469433399999998 Au
atom 13.2207449500000003 3.4818879500000000 2.6476744499999998 Au
atom 15.9227222899999994 2.9545565100000002 2.6426977100000002 Au
atom 18.6293373699999982 3.3433825700000002 2.7114044499999999 Au
atom 21.3363061999999992 3.3634631499999998 2.6919674900000001 Au
atom 24.3448030200000005 3.2717059700000002 2.4379627699999999 Au
atom 27.2650241800000011 3.4199587400000002 2.6445238999999998 Au
atom 1.9272180900000000 3.3643223899999999 2.7270604199999999 Au
atom 4.8459223500000004 3.0632134400000002 2.7224146199999999 Au
atom 8.8088022699999993 5.5560341700000002 2.7781836000000002 Au
atom 11.7439774999999997 5.6825175500000000 2.5183173900000000 Au
atom 14.6606170000000002 5.8318747999999996 2.8171859499999998 Au
atom 17.4716981000000011 5.7998704700000001 2.9549267200000000 Au
atom 20.6119075699999996 5.8360965699999996 2.8216442700000002 Au
atom 23.0422935699999982 5.9543895700000000 2.9079944599999998 Au
atom 25.8392481899999993 5.8516480099999999 2.8011603900000002 Au
atom 0.6043859300000000 5.8800395099999996 2.7967123100000002 Au
atom 3.2989155499999998 5.7665753600000000 2.7559191099999998 Au
atom 5.9924364399999996 5.8005104100000002 2.8500607599999999 Au
atom 7.4105293799999998 8.3342951000000003 2.5871855400000001 Au
atom 10.3323711700000000 8.1485934800000006 2.8019907200000000 Au
atom 13.1531910700000001 8.2095020499999993 2.6880980200000000 Au
atom 15.9447334299999994 8.1639568300000001 2.5227421400000001 Au
atom 18.6394451799999992 8.2941047399999999 2.8793911500000000 Au
atom 21.5208401900000013 8.2551166600000006 2.7350772100000000 Au
atom 24.6567781400000001 8.4150171900000004 2.7910659000000000 Au
atom 27.4252468399999998 8.3323048300000000 2.8464551400000002 Au
atom 2.0483985499999999 8.2323220999999993 2.7617776200000002 Au
atom 4.6604245300000002 8.1666095500000004 2.6083682600000002 Au
atom 8.7747252400000004 10.5851115999999994 2.6709692199999999 Au
atom 11.7828494300000006 10.7001089799999995 2.5183164400000000 Au
atom 14.4723857500000008 10.5777027700000001 2.5656793900000001 Au
atom 17.5892955099999995 10.5924046399999998 2.8184067399999999 Au
atom 20.2209448099999989 10.7098447199999995 2.5902409400000002 Au
atom 23.1153069699999989 10.7360101799999992 2.4507812900000001 Au
atom 25.8765059199999996 10.8669703900000005 2.6756533000000000 Au
atom 0.6834913800000000 10.8312899799999993 2.4452650000000000 Au
atom 3.2976494600000001 10.5393466000000000 2.7665054300000000 Au
atom 6.0249423699999998 10.8507804900000000 2.4773921799999998 Au
atom 7.2474149499999996 13.2266987199999999 5.7388779699999999 Cl
atom 7.2922574300000003 15.9732238300000002 8.5537940500000005 Cl
atom 7.5558222400000004 13.1922178399999996 8.4079731300000002 Na
atom 7.4224616100000000 16.0451034200000002 5.7304037699999997 Na
atom 7.3548531300000004 18.9865532799999990 6.0007589299999999 Cl
atom 7.3558992800000000 21.7949838800000002 8.8689065700000000 Cl
atom 7.3339934299999996 18.8888376200000003 8.4923093200000004 Na
atom 7.5075209699999998 21.5424145899999999 5.9134418100000001 Na
atom 7.0930095700000004 24.6611188900000009 5.8680395599999997 Cl
atom 7.3027598200000003 27.5472436899999984 8.3132156300000002 Cl
atom 7.2881177399999997 24.7126195899999992 8.5353797500000006 Na
atom 7.3412865700000003 27.0970740300000017 5.7055307500000003 Na
atom 7.2195835199999996 30.1364826900000011 5.6928535800000004 Cl
atom 7.4102031799999999 33.0726358300000030 8.4556720599999995 Cl
atom 7.3353434799999997 29.9945979700000009 8.3441420199999996 Na
atom 7.3389430000000004 33.0030615699999998 5.8731040900000000 Na
atom 7.3931415700000001 35.9908991300000025 6.0533841700000002 Cl
atom 7.2936451499999997 38.6120608200000035 8.7099432399999994 Cl
atom 7.1834510199999997 35.7721162200000009 8.2867962399999993 Na
atom 7.1644829799999998 38.7554080800000023 6.0048005499999997 Na
atom 7.4107177399999999 1.9805328600000001 5.7952029600000001 Cl
atom 7.5847508699999997 4.7001053199999996 8.5763113900000008 Cl
atom 7.3664112399999997 1.8531519100000000 8.4553869200000005 Na
atom 7.4205348000000004 4.8343760700000002 5.8318744599999999 Na
atom 7.4161663300000003 7.7206725900000004 5.9398725800000003 Cl
atom 7.3815058100000002 10.3302037700000007 8.5216279499999992 Cl
atom 7.3304333000000002 7.5735297399999997 8.6850119699999997 Na
atom 7.5380217500000004 10.4269998699999995 5.7070259500000002 Na
atom 10.3442777600000007 13.2389846700000007 6.0213254100000002 Na
atom 13.0665724500000007 12.9854936799999994 5.6757932300000000 Cl
atom 10.0526696700000002 16.0819698899999999 8.3665819399999997 Na
atom 12.9652875900000009 15.8959870300000006 8.4077341299999997 Cl
atom 12.9495958200000008 13.4894759299999993 8.1516036900000000 Na
atom 10.3824973699999994 13.0765562000000006 8.4947247600000004 Cl
atom 13.1102501900000004 16.0227864400000009 5.5953433199999996 Na
atom 10.1702212900000006 16.2384175400000004 5.7577870300000003 Cl
atom 10.0458559699999999 18.9347440200000001 6.0124458199999999 Na
atom 12.8062261900000003 18.9219520999999986 5.6487703500000004 Cl
atom 10.0367454200000008 21.6668289399999985 8.5240519900000002 Na
atom 13.0838606899999998 21.5370412599999987 8.7092253900000003 Cl
atom 12.7309468199999998 18.7897446700000010 8.2486855899999991 Na
atom 10.1964811199999996 18.7318570199999996 8.4943633199999997 Cl
atom 12.9570807499999994 21.7954818999999986 5.8967776599999997 Na
atom 10.0408841700000000 21.7471553299999982 5.7451368699999996 Cl
atom 10.1312359700000005 24.4712315999999994 5.9931882999999999 Na
atom 12.9256599199999993 24.6642986999999998 6.1355519799999998 Cl
atom 10.2540519099999994 27.4350753199999993 8.4288258999999996 Na
atom 12.8349639300000007 27.4479975899999999 8.8159593100000002 Cl
atom 12.8300034200000006 24.4357311400000015 8.7464952199999999 Na
atom 10.0882270100000007 24.5333292400000005 8.8388177900000002 Cl
atom 13.0609606100000004 27.2196067200000016 5.8657677200000000 Na
atom 10.0977158599999992 27.2153877299999998 5.7145054100000001 Cl
atom 10.1942853099999997 30.1854627499999992 5.7407153500000003 Na
atom 13.2412765799999992 30.2239003900000007 5.5943035999999999 Cl
atom 10.2935789500000006 33.0080457700000025 8.2608423099999992 Na
atom 13.2292965900000006 32.9234613599999975 8.5502630199999992 Cl
atom 12.9234726599999998 30.1765317000000017 8.3111164599999992 Na
atom 10.2415701800000001 30.4372747900000000 8.3792906100000000 Cl
atom 12.9433246700000009 33.0929287200000033 5.6088793900000002 Na
atom 10.0831679100000002 33.1778452699999988 5.7528905200000002 Cl
atom 10.2229073199999991 35.7159583199999986 5.4711642600000001 Na
atom 13.0316945700000009 35.7019341700000012 5.5139167000000002 Cl
atom 10.1765983900000005 38.6265570199999999 8.2590909999999997 Na
atom 13.1199240899999996 38.5508115200000034 8.5751479100000001 Cl
atom 13.1741053299999997 35.5725948099999982 8.2906029700000001 Na
atom 10.0630590200000007 35.8733324499999995 8.4931771699999992 Cl
atom 13.0838265099999997 38.6564200400000004 5.8062509400000000 Na
atom 10.2181034499999992 38.6795509100000032 5.8267659500000004 Cl
atom 10.2234099399999998 1.7890971700000000 5.9398074400000000 Na
atom 12.9140227200000002 1.7106467200000000 5.7464347099999999 Cl
atom 10.3288062400000005 4.6741009699999996 8.5350430500000005 Na
atom 13.0922504899999996 4.7070520499999997 8.4939532900000003 Cl
atom 13.2246885499999998 2.0923823000000001 8.3726855899999997 Na
atom 10.4700763299999995 1.7233858000000000 8.6559469599999996 Cl
atom 13.4141962899999996 4.7506673099999999 5.8312287800000000 Na
atom 10.3661388300000006 4.6732346199999997 5.9813295000000002 Cl
atom 10.1530258199999999 7.3439514399999997 6.0089679900000004 Na
atom 13.0876646399999998 7.3930105199999998 5.7176340000000003 Cl
atom 10.3443144500000006 10.5438943999999992 8.4975736299999998 Na
atom 13.1425137799999998 10.1932427699999995 8.2097720499999998 Cl
atom 13.1804323500000002 7.5552143699999998 8.4160093800000002 Na
atom 10.2828005000000005 7.6275531499999998 8.5373083199999993 Cl
atom 13.0004733300000002 10.3921254100000002 5.6181724099999997 Na
atom 10.2492039300000002 10.3653703000000004 5.8223639800000004 Cl
atom 15.8256726000000008 13.3030020899999997 5.6538349300000004 Na
atom 18.7778469100000009 13.2290022000000000 5.6455242900000000 Cl
atom 15.8373653300000008 15.6674534899999998 7.9538389399999998 Na
atom 18.5842880400000006 16.1008787200000008 8.4182858199999995 Cl
atom 18.6150120100000009 13.0725552700000005 8.5529160199999996 Na
atom 15.8216296199999995 13.0265815800000002 8.3805175199999997 Cl
atom 18.4993550599999992 15.9796582300000001 5.5734896100000002 Na
atom 15.7811765899999994 16.2729915500000004 5.7130247599999997 Cl
atom 15.8704101899999994 18.9691505400000011 5.4437233999999997 Na
atom 18.7434787999999983 18.8542810199999984 5.6140627199999997 Cl
atom 15.9207687199999999 21.5727749300000013 8.3956324200000001 Na
atom 18.7862489199999985 21.7749150799999995 8.4778606900000000 Cl
atom 18.6283303099999991 18.7565486899999989 8.2309662299999999 Na
atom 15.7233347600000002 18.7824551100000008 8.4110933699999997 Cl
atom 18.6547951900000015 21.7992082899999993 5.8169141800000004 Na
atom 15.7302893800000003 21.7412201500000002 5.7575487799999996 Cl
atom 15.8718189699999996 24.6216929299999983 6.1044052600000001 Na
atom 18.6053150800000004 24.3336626600000017 5.8913755900000000 Cl
atom 15.6925130599999996 27.3058288400000002 8.5690901299999993 Na
atom 18.7463963900000010 27.3890707099999986 8.6385097500000008 Cl
atom 18.6918832600000009 24.5943511900000011 8.4151679900000005 Na
atom 15.7546137999999996 24.4952950399999985 8.7724582299999998 Cl
atom 18.5688810599999989 27.2328538199999990 5.9914617500000000 Na
atom 15.6381695300000008 27.2729802700000015 5.8129635000000004 Cl
atom 15.6820433500000007 30.0111535700000012 5.8524413800000001 Na
atom 18.8985586499999982 30.1768750600000004 5.8230192399999998 Cl
atom 15.9307016800000003 33.2349658600000026 8.5441405699999997 Na
atom 18.6491732500000005 32.8587284099999977 8.4153757700000007 Cl
atom 18.6534090500000005 29.9776547499999992 8.6439505499999996 Na
atom 15.8404218900000000 30.3063903199999984 8.8242331200000006 Cl
atom 18.7623563500000010 32.9949646600000008 5.7818838799999996 Na
atom 16.0477415800000003 33.1029693199999997 5.6695447100000003 Cl
atom 15.6725985899999998 35.5003158900000031 5.5609516399999999 Na
atom 18.6721259599999989 35.8587393199999980 5.5907307099999999 Cl
atom 15.8544126300000006 38.3610437999999974 8.4408777100000005 Na
atom 18.6853407300000001 38.3396235399999981 8.6038517799999994 Cl
atom 18.7235860400000007 35.7971497799999980 8.4318755599999999 Na
atom 15.8842847599999999 35.6267990899999987 8.3969424200000002 Cl
atom 18.9343941399999984 38.6311652400000014 5.8961705499999999 Na