#===============================================================================
# Created using the Atomic Simulation Environment (ASE)

# Tue Dec 23 22:26:44 2025

#=======================================================
lattice_vector 28.1999999999999993 0.0000000000000000 0.0000000000000000 
lattice_vector 0.0000000000000000 39.4799999999999969 0.0000000000000000 
lattice_vector 0.0000000000000000 0.0000000000000000 62.3296083400000001 
atom 7.4965852799999997 14.7934172700000008 -0.1012039400000000 Au
atom 10.3747905599999992 14.8248356200000000 -0.1924441700000000 Au
atom 13.1825662900000005 14.7634421600000003 0.0587163400000000 Au
atom 15.9720457200000006 14.8386619900000003 0.0024983300000000 Au
atom 18.7926305000000013 14.8101394000000006 -0.0108435800000000 Au
atom 21.5965141199999984 14.8356882900000002 -0.0766366000000000 Au
atom 24.3912343800000002 14.8463842800000005 0.0371469300000000 Au
atom 27.1944719399999997 14.8157587599999996 -0.3131406500000000 Au
atom 1.8598004900000000 14.7918302199999996 0.0093058000000000 Au
atom 4.6665621300000000 14.8038499100000003 -0.1193220700000000 Au
atom 8.9019458599999997 17.2842460799999991 -0.0982348300000000 Au
atom 11.7617598599999997 17.3091998899999986 -0.0742439800000000 Au
atom 14.5765436299999998 17.2669964299999990 -0.0315110600000000 Au
atom 17.3738640099999984 17.2996492699999997 0.0632701400000000 Au
atom 20.2389250199999999 17.3189290800000002 0.0844638200000000 Au
atom 23.0192719500000003 17.3127994600000008 0.0035576900000000 Au
atom 25.7801924199999988 17.2926566100000016 0.1069710400000000 Au
atom 0.4388172200000000 17.1906806100000011 -0.0215304600000000 Au
atom 3.1970606799999999 17.2530655400000015 0.0456381900000000 Au
atom 6.0713479100000001 17.3164045699999996 -0.0186782400000000 Au
atom 7.5291998400000004 19.6981135800000011 0.0580076900000000 Au
atom 10.3489477900000004 19.7787229300000007 -0.0291139700000000 Au
atom 13.1234976400000001 19.7740382699999984 0.1016370800000000 Au
atom 15.9620777300000007 19.7677772500000017 0.0165914500000000 Au
atom 18.7687991200000006 19.7226758699999998 0.0152131700000000 Au
atom 21.6660266800000016 19.8119344899999987 0.0494970900000000 Au
atom 24.4422250599999984 19.7554048699999996 0.0738013800000000 Au
atom 27.2363578500000010 19.7951920200000018 0.1934221000000000 Au
atom 1.8300432300000000 19.7463307499999985 0.1808532300000000 Au
atom 4.6790969100000002 19.7762994600000006 0.0808755000000000 Au
atom 8.9474968100000005 22.2437662200000013 0.0709116700000000 Au
atom 11.7071354099999994 22.2443970799999988 0.1158657600000000 Au
atom 14.5588297200000003 22.2733550899999990 -0.0125228800000000 Au
atom 17.3588195399999989 22.2107837100000012 0.0499430800000000 Au
atom 20.2038259400000015 22.2063156299999989 -0.0331697100000000 Au
atom 23.0350191100000004 22.2147546200000008 -0.0116710800000000 Au
atom 25.8211397600000012 22.3111397300000007 0.0501682800000000 Au
atom 0.4750969000000000 22.3187330400000015 -0.0238232600000000 Au
atom 3.2517016399999998 22.2000472799999997 0.0813886100000000 Au
atom 6.1025837699999999 22.1654283300000010 0.1873993900000000 Au
atom 7.4306520799999998 24.7225170900000002 0.0593947300000000 Au
atom 10.3039948799999994 24.7205351799999988 0.1773126200000000 Au
atom 13.1382724700000004 24.7006641199999990 0.0710610300000000 Au
atom 15.9152211200000000 24.6819661299999993 0.0748646000000000 Au
atom 18.7600815099999991 24.6793303900000005 0.0811966100000000 Au
atom 21.6173688499999983 24.6117513499999987 0.1128270600000000 Au
atom 24.4123161499999988 24.7124269199999986 0.1261248200000000 Au
atom 27.2398761200000017 24.7881453600000015 -0.0421868300000000 Au
atom 1.8602396699999999 24.6536480699999991 0.1180557200000000 Au
atom 4.7265492699999996 24.7043231699999986 0.1158066600000000 Au
atom 8.8684553899999994 27.0942952199999993 0.0786028000000000 Au
atom 11.7362464899999992 27.1243978100000014 0.0567102100000000 Au
atom 14.5612528500000007 27.1298675500000002 0.0085857400000000 Au
atom 17.3897672999999990 27.0938042400000008 0.0190782600000000 Au
atom 20.1995399999999989 27.1511925000000005 0.0392502300000000 Au
atom 23.0048486600000004 27.1378340599999994 0.0843237200000000 Au
atom 25.8784781600000002 27.2061235199999985 0.0258596400000000 Au
atom 0.4154784400000000 26.9807639500000001 0.0791906300000000 Au
atom 3.3164470100000001 27.1602601399999983 0.0173502800000000 Au
atom 6.1051484800000004 27.1909352099999992 0.0137035300000000 Au
atom 7.4740510300000000 29.6262468299999995 -0.0616064000000000 Au
atom 10.3010197500000000 29.6290846200000004 0.0615753600000000 Au
atom 13.1383631199999993 29.5807109299999986 0.0646614300000000 Au
atom 16.0172801000000007 29.6017633599999996 0.1020552200000000 Au
atom 18.7962815799999987 29.6385979900000009 -0.0542838400000000 Au
atom 21.5934069599999994 29.6120840899999997 0.0257170600000000 Au
atom 24.4330002099999994 29.6443362000000015 -0.0906445300000000 Au
atom 27.2946272000000008 29.7198764199999985 0.0634522600000000 Au
atom 1.9249267000000001 29.6077676899999993 0.0262735500000000 Au
atom 4.7096365899999997 29.6030353899999987 0.0297750900000000 Au
atom 8.9540501599999995 32.0977040900000006 -0.0344571300000000 Au
atom 11.7385019699999997 31.9667284900000013 0.0165624300000000 Au
atom 14.5808639200000005 32.0305065599999992 -0.0198483300000000 Au
atom 17.3938240300000011 32.1065019999999990 -0.0928413100000000 Au
atom 20.1657842999999986 32.0719733800000029 -0.0221181700000000 Au
atom 23.0084481899999993 32.1021629299999987 -0.0481068600000000 Au
atom 25.7743440300000017 32.1013712600000005 0.0246351400000000 Au
atom 0.4918989100000000 32.0597804399999973 -0.0576982000000000 Au
atom 3.2362797900000002 32.0932201099999972 -0.0017348800000000 Au
atom 6.1187173399999999 32.1279240300000026 -0.0710832800000000 Au
atom 7.5081886999999998 34.5886515899999978 -0.0165164800000000 Au
atom 10.2685451400000005 34.5231650400000021 -0.0241932500000000 Au
atom 13.1453352700000003 34.5391417100000027 0.0149593800000000 Au
atom 15.9596061099999993 34.5334172700000011 -0.0050576500000000 Au
atom 18.8118660400000017 34.6276319999999984 -0.0470462300000000 Au
atom 21.5565006100000005 34.5608150199999997 0.0986987200000000 Au
atom 24.4220706199999995 34.5373607100000015 -0.0305860700000000 Au
atom 27.2775029800000013 34.7178420799999969 0.1991060000000000 Au
atom 1.8974900299999999 34.5050135700000027 -0.0789305200000000 Au
atom 4.6684842900000003 34.5226907300000008 0.0149692900000000 Au
atom 8.9032449099999997 37.0415745900000033 0.0005200700000000 Au
atom 11.5584723500000006 36.9939153700000034 0.0980235500000000 Au
atom 14.4174101199999996 36.9918193299999984 -0.1626804000000000 Au
atom 17.4337784000000013 37.0420744899999974 -0.0913027800000000 Au
atom 20.2712059199999999 37.0605371099999985 -0.0580788700000000 Au
atom 23.0780880900000014 36.9977633299999979 0.1560016000000000 Au
atom 25.7882376099999995 37.0788792900000033 0.0622365600000000 Au
atom 0.3845302600000000 37.0410281200000000 -0.0470928300000000 Au
atom 3.4376678500000000 37.0525865700000026 -0.2341885900000000 Au
atom 5.9685814300000004 37.0385958900000034 -0.1861261900000000 Au
atom 7.4492738200000002 0.0468190800000000 0.0032365600000000 Au
atom 10.4186165099999997 -0.0009752100000000 0.2601245100000000 Au
atom 13.2839469900000005 0.0216624100000000 0.1366182700000000 Au
atom 15.8887696999999992 0.0052371600000000 -0.0050197500000000 Au
atom 19.0703402799999999 0.0200777100000000 -0.0916588200000000 Au
atom 21.6925366299999993 0.0758811100000000 -0.0065277200000000 Au
atom 24.5315592799999997 0.0398144200000000 0.1893798100000000 Au
atom 27.3480370499999985 0.1365006600000000 -0.0368756000000000 Au
atom 1.7763046700000000 0.0620487300000000 0.1819150900000000 Au
atom 4.6743049799999996 0.0294381800000000 0.0201892000000000 Au
atom 8.8620545699999997 2.4419062700000000 0.0356655500000000 Au
atom 11.7004535799999996 2.5007734899999998 0.1135163700000000 Au
atom 14.5037944099999994 2.4213247400000002 0.1312909400000000 Au
atom 17.3923771199999990 2.4321755700000001 -0.0643717600000000 Au
atom 20.1886972299999989 2.5426759400000001 0.0624674900000000 Au
atom 23.0711683799999996 2.5058994800000001 -0.0026946700000000 Au
atom 25.8376099900000007 2.5019378300000001 0.0819658500000000 Au
atom 0.4798007800000000 2.4696015299999998 0.0936849500000000 Au
atom 3.2933475099999998 2.5313673799999998 0.0478736700000000 Au
atom 6.0802633699999999 2.4524555399999999 0.0664811900000000 Au
atom 7.4895447900000001 4.9464936799999997 0.1125663800000000 Au
atom 10.3239739000000004 4.9738337200000000 0.0674811000000000 Au
atom 13.1622092800000008 4.9685763200000004 0.1495034900000000 Au
atom 15.9289459200000003 4.9007023199999997 0.0028274100000000 Au
atom 18.7788631099999996 4.9649558799999998 0.0928912900000000 Au
atom 21.6169591700000012 4.9529116999999996 0.0992385100000000 Au
atom 24.4489935699999990 4.9643650800000003 0.0646916500000000 Au
atom 27.2598193900000005 4.7701038699999998 0.1254822100000000 Au
atom 1.8679066300000000 4.9378191500000002 0.0867965400000000 Au
atom 4.6955557900000002 4.9694228699999998 0.0357169200000000 Au
atom 8.9164315399999996 7.4247017399999997 0.0469100400000000 Au
atom 11.7613940699999997 7.4560063599999999 0.0421709500000000 Au
atom 14.5343293899999999 7.3854647000000000 0.0658336300000000 Au
atom 17.3629837599999988 7.3615061900000001 0.1289977600000000 Au
atom 20.1978347499999984 7.3643117800000004 0.1046178900000000 Au
atom 23.0284304199999994 7.4198813000000001 -0.0205759100000000 Au
atom 25.8191555999999984 7.4870650100000002 0.1107557300000000 Au
atom 0.4321976400000000 7.2158748900000003 0.0454688100000000 Au
atom 3.3016826099999999 7.4296469399999996 0.0735295300000000 Au
atom 6.0919587499999999 7.4453037699999998 0.0903798900000000 Au
atom 7.4995564100000003 9.8456987900000001 0.1060703900000000 Au
atom 10.4095090199999998 9.8757324200000003 -0.0531992700000000 Au
atom 13.1672691299999993 9.8500331400000007 -0.0150283200000000 Au
atom 15.9514359900000002 9.8249815700000003 0.0335732500000000 Au
atom 18.7864408199999993 9.8452908899999994 -0.0036303400000000 Au
atom 21.6030918700000001 9.8758149399999997 0.0302485200000000 Au
atom 24.3730666300000003 9.8617087500000000 0.1413348400000000 Au
atom 27.2582301700000009 10.0699515999999996 -0.0222069700000000 Au
atom 1.8690757300000000 9.8527841499999997 0.0658296600000000 Au
atom 4.6677668199999998 9.9071101499999994 0.0036856600000000 Au
atom 8.8726778500000005 12.2981278599999992 -0.1611342000000000 Au
atom 11.7626392600000003 12.3537730099999994 -0.0674553100000000 Au
atom 14.5920764999999992 12.3208093200000004 -0.0483025800000000 Au
atom 17.3956022600000004 12.2795836000000005 0.0016230200000000 Au
atom 20.1839142299999992 12.3416041900000000 0.0173315500000000 Au
atom 23.0536701700000002 12.3730539099999994 -0.0734871100000000 Au
atom 25.7700991100000003 12.3965139200000003 -0.1264342900000000 Au
atom 0.4925241900000000 12.3102345199999998 -0.0681294100000000 Au
atom 3.2405226800000002 12.3410045299999993 0.0363564200000000 Au
atom 6.0502404700000003 12.2888070000000003 -0.0132512000000000 Au
atom 7.5071330100000004 13.1895969399999995 2.5878226700000000 Au
atom 10.3143670099999998 13.1738081600000001 2.3113858500000002 Au
atom 13.1464824199999999 13.1332102299999995 2.6346073699999999 Au
atom 15.9824857799999993 13.1579214199999992 2.4470526100000001 Au
atom 18.7786880899999993 13.1416562100000007 2.6813353900000001 Au
atom 21.6067252600000010 13.1725271100000008 2.5376408600000002 Au
atom 24.4080864099999992 13.1738261300000001 2.6237514900000001 Au
atom 27.1669972500000014 13.1155123200000006 2.3673696099999999 Au
atom 1.8481295400000000 13.1546118100000005 2.7939007700000000 Au
atom 4.7298698400000001 13.1862576800000006 2.5291128500000002 Au
atom 8.9258025700000001 15.6349723300000001 2.4812589900000002 Au
atom 11.7132722400000002 15.6511189000000002 2.4791952700000000 Au
atom 14.5756450599999994 15.5671410199999993 2.6013780999999998 Au
atom 17.4298217700000002 15.6410692999999998 2.7003053399999999 Au
atom 20.2035374700000006 15.6492121700000002 2.5966371200000000 Au
atom 22.9383501500000015 15.6965681099999994 2.6597780200000001 Au
atom 25.8024668499999983 15.6491985299999996 2.6059862400000000 Au
atom 0.4536021600000000 15.5665918899999998 2.6568134200000002 Au
atom 3.2709109100000000 15.6220878699999997 2.6482386700000000 Au
atom 6.0737571099999998 15.6241743300000007 2.4479773800000002 Au
atom 7.5200734599999999 18.0774804600000003 2.7124356900000000 Au
atom 10.3221325000000004 18.0928582200000001 2.4757281099999999 Au
atom 13.1422810099999996 18.0698080700000006 2.6166698300000002 Au
atom 15.9179908000000001 18.0680419900000011 2.5680560899999998 Au
atom 18.7829262499999992 18.1139546500000002 2.6748129800000000 Au
atom 21.6334033199999993 18.1548436200000012 2.6202637200000001 Au
atom 24.3835213599999996 18.1239333100000017 2.7270113999999999 Au
atom 27.2696158299999993 17.9955856499999989 2.6643245300000000 Au
atom 1.8494657600000000 18.0543203199999986 2.8180815899999998 Au
atom 4.6937054700000003 18.0666619699999984 2.5984816099999999 Au
atom 8.9364926199999992 20.5666000500000017 2.6854902200000001 Au
atom 11.7289029500000002 20.5390194299999997 2.6678190499999999 Au
atom 14.5884049400000002 20.6005840900000017 2.5381916300000000 Au
atom 17.3591505400000017 20.5580385999999997 2.6366565799999999 Au
atom 20.1784709999999983 20.5782735099999989 2.6392968400000001 Au
atom 23.0291824500000004 20.5976992999999986 2.6819846500000000 Au
atom 25.7963094400000017 20.5543161699999999 2.7258884700000001 Au
atom 0.4581913000000000 20.5368764100000014 2.7925182400000002 Au
atom 3.3113717800000000 20.5399394599999994 2.7915255999999999 Au
atom 6.1131634699999999 20.5691358499999986 2.7849403399999999 Au
atom 7.5018868899999998 23.0485281600000000 2.6805938700000000 Au
atom 10.3412178299999997 23.0462385599999990 2.7580280799999999 Au
atom 13.2028768900000006 23.0385890999999994 2.6705252399999999 Au
atom 15.9613191400000005 23.0798620700000008 2.6190449299999998 Au
atom 18.7685463699999993 23.0655931900000013 2.5697565899999999 Au
atom 21.5922829800000002 23.0726016099999995 2.6632280900000000 Au
atom 24.4327862499999995 23.0660870100000004 2.6443192000000000 Au
atom 27.2209529500000009 23.1957579900000006 2.7918691600000001 Au
atom 1.8851471500000001 23.0599983299999991 2.6155044699999999 Au
atom 4.6722703799999996 23.0580569000000004 2.7033625799999998 Au
atom 8.8941143500000006 25.4776438600000006 2.7378370799999998 Au
atom 11.7739959800000005 25.4925487400000002 2.6827627500000002 Au
atom 14.5622257600000005 25.5129271099999997 2.5886708299999999 Au
atom 17.3833253600000006 25.5354576199999990 2.6628765200000002 Au
atom 20.1967265900000008 25.5687018200000011 2.7369694099999999 Au
atom 23.0317273600000014 25.5218157599999991 2.7189673499999998 Au
atom 25.8618520799999985 25.5095499299999986 2.5401802600000001 Au
atom 0.4418935300000000 25.6049012800000000 2.6507912999999999 Au
atom 3.3036443100000001 25.5658300700000005 2.6311466100000001 Au
atom 6.1188897799999999 25.5290409800000013 2.7500946800000001 Au
atom 7.5491371100000002 28.0557760000000016 2.6681769300000000 Au
atom 10.2867734800000008 28.0075504399999993 2.7257039000000001 Au
atom 13.1334295700000006 27.9839461900000011 2.6305035700000001 Au
atom 15.9810375600000008 28.0030759399999987 2.7567891200000001 Au
atom 18.7348744300000014 28.0140330000000013 2.5581629200000000 Au
atom 21.5812447700000014 27.9620169300000008 2.7021696099999999 Au
atom 24.3750585099999988 27.9976856500000011 2.6759002700000001 Au
atom 27.2208140599999986 28.0104992400000015 2.6025453500000002 Au
atom 1.8890355400000001 28.0435130000000008 2.6396926900000000 Au
atom 4.7074759000000004 28.0225630099999989 2.6165901599999999 Au
atom 8.8980373700000008 30.4951623199999986 2.6239096800000001 Au
atom 11.7182075099999992 30.4398636399999987 2.6244133000000001 Au
atom 14.5179910400000001 30.4496368699999991 2.6551181800000001 Au
atom 17.4059146899999995 30.5108305599999987 2.6683543300000001 Au
atom 20.1879705600000001 30.5128428300000003 2.5816572999999998 Au
atom 23.0131738500000012 30.4769056099999993 2.6852383700000000 Au
atom 25.8848798000000002 30.4025143600000014 2.6102529099999998 Au
atom 0.5155840100000000 30.4605308000000008 2.5236109600000001 Au
atom 3.2950317199999999 30.5521602899999998 2.6702851299999999 Au
atom 6.0684770200000004 30.4989673799999998 2.6040679700000000 Au
atom 7.4812366800000003 32.9809543100000013 2.5427773199999999 Au
atom 10.3360594799999994 32.9014601100000021 2.6762035100000001 Au
atom 13.1636232399999997 32.8849754399999981 2.5466371699999999 Au
atom 15.9631484900000000 32.9633388000000025 2.6378724500000001 Au
atom 18.7481600099999994 32.9952648100000019 2.4686949199999999 Au
atom 21.6003343299999990 32.9140867300000011 2.6241317500000001 Au
atom 24.3942362099999990 32.9373594199999999 2.6316164299999998 Au
atom 27.2789068999999991 32.8123693900000006 2.7748241299999998 Au
atom 1.8725427500000000 32.9211633000000035 2.5661701600000000 Au
atom 4.7015512700000004 32.9333213299999983 2.6284899199999998 Au
atom 8.9060441600000004 35.4158638099999976 2.6427788099999998 Au
atom 11.7482657699999997 35.3580694699999967 2.5809546000000001 Au
atom 14.5200590300000005 35.3521370599999969 2.5760159800000002 Au
atom 17.3938405500000002 35.4519052300000013 2.5692606900000001 Au
atom 20.2058276100000000 35.4365005300000036 2.6147516000000000 Au
atom 23.0258802899999999 35.3520788800000005 2.6942702600000001 Au
atom 25.8202946599999983 35.5074842200000020 2.7014943499999999 Au
atom 0.4942262900000000 35.2927514499999972 2.6733901200000001 Au
atom 3.3040709599999998 35.3649854499999989 2.6684980199999999 Au
atom 6.0729160200000001 35.3901304099999976 2.5538549800000001 Au
atom 7.5447336900000002 37.8359460599999977 2.4661825099999999 Au
atom 10.1070783500000001 37.8520352000000031 2.6441185400000000 Au
atom 13.0775293700000006 37.8353974799999975 2.5809461699999998 Au
atom 15.8021802600000001 37.8435818399999988 2.5339227100000001 Au
atom 18.6746130999999984 37.8457567600000004 2.7976084900000000 Au
atom 21.7305735099999993 37.8703308099999987 2.6805536399999998 Au
atom 24.2848612700000004 37.8647993499999984 2.2980125000000000 Au
atom 27.3779912000000003 37.9640386599999999 2.5921774200000001 Au
atom 1.7856100800000001 37.8593119800000011 2.6534409600000002 Au
atom 4.7281205699999997 37.8011673500000001 2.6820883900000001 Au
atom 8.8980815500000006 0.8425081300000000 2.7064285699999999 Au
atom 11.7862091699999993 0.8273717400000000 2.6030666899999999 Au
atom 14.4517393900000002 0.8350825200000001 2.7767154700000001 Au
atom 17.3519586600000011 0.8303143400000000 2.7435650300000001 Au
atom 20.1240774999999985 0.8190255100000000 2.6549376200000001 Au
atom 22.9235281999999998 0.8680520400000000 2.6519848700000002 Au
atom 25.9329758699999999 0.8410957600000000 2.7921441200000001 Au
atom 0.3049152900000000 0.8961617700000000 2.5007540399999999 Au
atom 3.2254726400000000 0.8677692700000000 2.7434954100000000 Au
atom 6.1515783900000001 0.8302579400000000 2.6031574100000001 Au
atom 7.4868285999999999 3.3078144500000000 2.6945207000000000 Au
atom 10.3306551700000000 3.3339916399999998 2.7016853099999998 Au
atom 13.1855806900000001 3.3138806700000001 2.7369213100000001 Au
atom 16.0101684700000000 3.2999522799999998 2.6378197200000000 Au
atom 18.7690038699999988 3.3873354299999998 2.6192593500000001 Au
atom 21.6385536099999989 3.3849842500000000 2.7080306200000002 Au
atom 24.4160026300000013 3.3171463900000000 2.7356346800000000 Au
atom 27.2585862399999996 3.1556149800000002 2.7166475999999999 Au
atom 1.9295289000000000 3.3251897900000000 2.6751290900000000 Au
atom 4.6690212400000002 3.2893678400000002 2.6669060899999999 Au
atom 8.9790685499999991 5.7923047199999997 2.7083241700000000 Au
atom 11.7363501100000001 5.7795450500000003 2.6440847299999999 Au
atom 14.5774458599999992 5.7789340800000000 2.7642263699999998 Au
atom 17.3359626499999990 5.7512496700000000 2.6945709799999999 Au
atom 20.2637728899999985 5.8741568600000003 2.7517874700000000 Au
atom 23.0656278800000010 5.8089137099999997 2.7326911200000001 Au
atom 25.8597672900000006 5.7867143299999997 2.6723697199999998 Au
atom 0.4883130600000000 5.7664040200000004 2.7052152000000000 Au
atom 3.2990945599999999 5.8181238899999999 2.6690495900000002 Au
atom 6.1520679800000000 5.7889293700000000 2.7251260199999998 Au
atom 7.5181230499999998 8.2545619299999995 2.6946002400000002 Au
atom 10.3621296699999998 8.2979287599999996 2.5401506999999999 Au
atom 13.1861144499999998 8.2333035799999994 2.6548857699999999 Au
atom 15.9660643800000006 8.3029322200000006 2.6876953700000001 Au
atom 18.7804836199999983 8.2632646100000002 2.6432641000000001 Au
atom 21.7126250399999989 8.2738656000000006 2.5371894899999998 Au
atom 24.4283090200000004 8.2165193399999996 2.8269012500000001 Au
atom 27.2680610899999998 8.0853324700000009 2.6761125200000002 Au
atom 1.8692017900000000 8.2703895200000002 2.7907732900000002 Au
atom 4.6918774499999998 8.2198300100000008 2.6934397300000001 Au
atom 8.9005690899999994 10.7430150199999996 2.6427223099999999 Au
atom 11.7407758599999994 10.7268024400000002 2.6174291699999999 Au
atom 14.5439965200000003 10.7501619399999999 2.6904410500000000 Au
atom 17.3652330200000016 10.7514861300000000 2.6695165599999999 Au
atom 20.1846847499999988 10.7212827199999996 2.6264907900000001 Au
atom 22.9830567200000004 10.7301987000000008 2.6939582700000000 Au
atom 25.8177420300000016 10.7106564700000000 2.7375125200000001 Au
atom 0.4412641700000000 10.6704795000000008 2.6430319899999999 Au
atom 3.2604185800000001 10.7794634800000004 2.5608515299999999 Au
atom 6.0898425800000000 10.7148507199999994 2.6301194400000001 Au
atom 7.4543537300000002 13.1490168999999995 5.7797080000000003 Cl
atom 7.5612846999999999 15.9151580799999994 8.6348152500000008 Cl
atom 7.3668587800000003 13.0339939299999994 8.4052517600000005 Na
atom 7.4699119400000002 15.8928543100000006 5.5440458499999998 Na
atom 7.1798352899999998 19.0207062499999999 5.5815830599999998 Cl
atom 7.5570143999999999 21.5356802400000014 8.5397615299999998 Cl
atom 7.5252645600000001 18.7543721300000001 8.2119338600000003 Na
atom 7.2876902599999998 21.7644047799999996 5.7689198099999999 Na
atom 7.3235791199999998 24.5894499800000013 5.7861150200000004 Cl
atom 7.5246879099999999 27.2517528800000015 8.6995065399999998 Cl
atom 7.4825513800000003 24.4359855300000000 8.5186677199999998 Na
atom 7.4028293600000001 27.3913665799999997 5.8975013299999999 Na
atom 7.4477966999999996 30.1018308099999992 5.6973751200000002 Cl
atom 7.4415423399999998 32.8345988599999998 8.6595662499999992 Cl
atom 7.5252113999999999 30.1211908199999989 8.4599368699999999 Na
atom 7.4930467600000004 32.9308500599999974 5.8702296799999996 Na
atom 7.5157167999999999 35.7474311599999979 5.7607450900000003 Cl
atom 7.5585856299999996 38.6211595400000007 8.6961651399999997 Cl
atom 7.4752722699999996 35.7663569799999976 8.4393600600000003 Na
atom 7.7518703499999999 38.6023528300000009 5.7239377200000003 Na
atom 7.6124704999999997 1.9035453000000000 5.8861521100000003 Cl
atom 7.4122890400000001 4.6241937200000001 8.6463224699999994 Cl
atom 7.4731230200000001 1.8553045500000001 8.3923748899999993 Na
atom 7.4010563100000004 4.5944004700000001 5.9488871899999998 Na
atom 7.4857759599999998 7.3272376799999996 5.8585904700000002 Cl
atom 7.5036246000000002 10.4396986599999995 8.4177229800000006 Cl
atom 7.4923367100000000 7.5897816499999999 8.4367859299999992 Na
atom 7.3183243500000001 10.2683143099999992 5.7054678900000004 Na
atom 10.1836650500000001 13.1933875999999994 5.9730329600000003 Na
atom 12.9878283700000008 13.0671985700000004 5.6055924299999997 Cl
atom 10.2236793800000001 16.1508208999999994 8.8876875000000002 Na
atom 13.3163304100000008 16.0075438100000014 8.4950657700000001 Cl
atom 13.3098907099999995 13.0874583399999995 8.3114916300000008 Na
atom 10.3566735500000000 12.9284654000000003 8.7172050399999996 Cl
atom 12.9830500299999994 15.8778115599999996 5.7038291399999999 Na
atom 10.1755515400000007 15.8856268899999993 5.6024656899999998 Cl
atom 10.1867587499999992 18.7201915200000002 5.4762597399999997 Na
atom 13.2444609399999997 18.7116275999999999 5.5605344199999998 Cl
atom 10.2544004100000006 21.6563728799999993 8.2737117599999994 Na
atom 13.1079066799999993 21.7275552500000018 8.2300034400000008 Cl
atom 13.1667841400000007 18.7801936599999983 8.1713502099999999 Na
atom 10.3227353799999992 18.7778504999999996 8.4531341399999995 Cl
atom 13.0888199899999993 21.7131637300000016 5.4911409999999998 Na
atom 10.1316543899999996 21.7091380200000010 5.6099852300000004 Cl
atom 10.1586618699999995 24.5990720899999999 5.8021780600000001 Na
atom 13.2280769500000002 24.6077176900000012 5.6573139899999996 Cl
atom 10.3186685899999997 27.2308525699999997 8.4562453600000005 Na
atom 13.2140835400000007 27.2321088899999992 8.6667064000000007 Cl
atom 13.1315042300000009 24.5272679499999988 8.4067075800000008 Na
atom 10.3714365700000002 24.3961370899999999 8.5459223099999999 Cl
atom 13.1987296399999998 27.4540334000000001 5.8276115199999996 Na
atom 10.2752675799999995 27.4570301900000011 5.8311479700000000 Cl
atom 10.2758871200000002 30.2135078700000008 5.8811516199999998 Na
atom 13.0788304600000007 30.1798769100000008 5.7704417100000001 Cl
atom 10.2859198700000007 33.0205599599999999 8.4039148000000008 Na
atom 13.1412547899999996 33.0049382400000013 8.6399320300000007 Cl
atom 13.1270789499999996 30.1459034199999998 8.4356695399999992 Na
atom 10.2544283200000006 30.2156607900000012 8.6172507100000004 Cl
atom 13.1564585199999993 32.9885439500000004 5.8443827099999996 Na
atom 10.3298290200000000 32.9625763700000007 5.7409420600000001 Cl
atom 10.3164159800000004 35.7885670000000005 5.7981868700000003 Na
atom 13.1141864100000003 35.8517364900000004 5.8137397300000000 Cl
atom 10.3992175400000004 38.5841480799999985 8.5925561600000009 Na
atom 12.9603065999999991 38.5835042100000010 8.6881546800000002 Cl
atom 13.0407428200000002 35.7801024700000028 8.4169142000000008 Na
atom 10.2188059700000000 35.7769544100000019 8.5783482699999993 Cl
atom 13.3184246999999996 38.6295179099999970 5.9912072099999998 Na
atom 10.1561808199999994 38.6283956099999983 5.6085131300000004 Cl
atom 10.2132875199999997 1.9004655100000001 5.9566405700000002 Na
atom 12.9888892100000000 1.8924266000000001 5.7635352900000001 Cl
atom 10.1837025600000004 4.6892195900000004 8.4656772199999999 Na
atom 13.1331860599999999 4.6104290199999998 8.6899968199999993 Cl
atom 13.2186134800000001 1.8699865300000000 8.6450919699999993 Na
atom 10.3665223799999993 1.9047425800000000 8.5649481400000003 Cl
atom 13.1023723800000003 4.6245435500000003 5.9969600300000003 Na
atom 10.2910544599999998 4.6012620599999998 5.8512590600000003 Cl
atom 10.2124618700000003 7.5169370100000004 5.7975884999999998 Na
atom 13.1911811199999995 7.4366512199999999 5.7539204300000000 Cl
atom 10.3598668000000007 10.3120950400000009 8.5510931800000005 Na
atom 13.1348060800000006 10.3639542999999996 8.5673853199999996 Cl
atom 13.1185872299999993 7.5336081699999999 8.4121976099999998 Na
atom 10.3742893100000000 7.5032665300000003 8.5519911799999999 Cl
atom 13.1288347999999999 10.2821696700000000 5.6416255399999997 Na
atom 10.3144223000000004 10.4102793100000000 5.7460195699999996 Cl
atom 16.0662685900000000 13.0778486899999997 5.5515163400000000 Na
atom 19.0167813300000006 12.9480810700000006 5.7250785000000004 Cl
atom 16.0799903600000000 15.9767236199999996 8.2094989599999995 Na
atom 18.8732143599999986 16.0136971400000014 8.3995621299999996 Cl
atom 18.7661281600000009 13.1161090399999996 8.2724337000000006 Na
atom 16.0016460800000004 13.1896180199999993 8.3144750700000003 Cl
atom 18.8770259899999999 15.9414698399999999 5.5773102000000003 Na
atom 15.8834244499999997 15.7687191299999991 5.5221452700000002 Cl
atom 16.2218963400000007 18.8060200199999983 5.4395698200000000 Na
atom 19.1874576599999997 18.8960807799999984 5.6501121000000003 Cl
atom 16.0287022099999987 21.4970501700000014 7.9766290900000003 Na
atom 18.6946614999999987 21.4912470000000013 8.4018776099999997 Cl
atom 18.8693123400000005 18.7935434699999995 8.2863706500000003 Na
atom 15.9874590600000008 18.6654720999999988 8.0543050899999997 Cl
atom 18.9402180999999992 21.6656207199999997 5.6616051900000004 Na
atom 16.2219869999999986 21.7956223999999992 5.4566031099999996 Cl
atom 15.9717345300000009 24.5040853799999994 5.7591873299999996 Na
atom 18.8036300999999995 24.5468536600000000 5.6123081199999998 Cl
atom 15.9200541399999995 27.3517546799999991 8.5538689199999993 Na
atom 18.7126206699999997 27.1632649999999991 8.6646613000000006 Cl
atom 18.7954311999999994 24.4912825699999992 8.4647681699999993 Na
atom 15.9036490100000005 24.3555498499999992 8.5213977100000005 Cl
atom 18.7369584899999992 27.2649319699999992 5.7693662000000003 Na
atom 15.9900867699999996 27.2513641100000008 5.8385434500000004 Cl
atom 15.9591844599999995 30.2164661700000003 5.8507415500000004 Na
atom 18.8770737199999985 30.0924946999999996 5.7248974300000004 Cl
atom 15.9964145400000000 33.0396959500000023 8.4328863999999992 Na
atom 18.8087224199999987 32.9545206299999975 8.6656379799999996 Cl
atom 18.7609818200000014 30.1930826699999990 8.4192541700000003 Na
atom 16.0128989399999995 30.1002089400000017 8.6270599299999997 Cl
atom 18.8632346599999998 33.0102972199999982 5.8296882999999999 Na
atom 16.0031696399999994 33.0170184199999994 5.7985772300000002 Cl
atom 15.9389215899999996 35.9073957299999975 5.8287228100000004 Na
atom 18.6977421300000017 35.7807186599999980 5.7982705100000000 Cl
atom 16.0433817000000012 38.6079580700000022 8.3383435099999996 Na
atom 18.9645186300000006 38.5640944599999997 8.5766225400000007 Cl
atom 18.7950243199999996 35.7140637299999995 8.4147459700000002 Na
atom 15.9844217200000003 35.8792011800000026 8.6184483099999998 Cl
atom 18.6073966000000013 38.6020472900000016 5.8209821300000000 Na