#===============================================================================
# Created using the Atomic Simulation Environment (ASE)

# Tue Dec 23 22:26:50 2025

#=======================================================
lattice_vector 28.1999999999999993 0.0000000000000000 0.0000000000000000 
lattice_vector 0.0000000000000000 39.4799999999999969 0.0000000000000000 
lattice_vector 0.0000000000000000 0.0000000000000000 62.3296083400000001 
atom 7.4537876000000001 14.7760654999999996 -0.1599058000000000 Au
atom 10.2529098500000000 14.9155968300000001 -0.2531619500000000 Au
atom 13.2126639600000004 14.9162906799999995 -0.2809102800000000 Au
atom 15.9849582600000009 14.9073473799999991 -0.3298356000000000 Au
atom 18.7974034000000003 14.9016576999999995 -0.2478376300000000 Au
atom 21.6735145600000010 14.7276472399999996 -0.0173585300000000 Au
atom 24.4915115099999987 14.7615641499999999 0.1337054400000000 Au
atom 27.2995017199999985 14.8840617099999992 0.0722482100000000 Au
atom 1.8108715900000001 14.8272909300000002 0.0076126200000000 Au
atom 4.6181932600000000 14.7732020100000003 -0.1641280500000000 Au
atom 8.8888992499999997 17.3363092899999991 -0.2426587000000000 Au
atom 11.7319854499999998 17.4185990299999993 -0.2669769600000000 Au
atom 14.5907786000000002 17.3938569299999983 -0.4289899600000000 Au
atom 17.4122052700000012 17.4239544700000017 -0.3633945300000000 Au
atom 20.2259715500000006 17.3596064699999992 -0.1317170900000000 Au
atom 23.0106577299999984 17.2688211600000017 -0.0935206100000000 Au
atom 25.8008384500000005 17.2714668099999997 0.2656146300000000 Au
atom 0.4339559700000000 17.3857252699999982 0.1416413900000000 Au
atom 3.1724512200000001 17.1992722100000002 -0.0275129200000000 Au
atom 5.9111703499999999 17.2361431799999991 -0.1671941600000000 Au
atom 7.4248287499999996 19.7109989299999988 0.0190519800000000 Au
atom 10.2375636399999994 19.8391855100000001 -0.2756957900000000 Au
atom 13.0925267999999999 19.7941688000000013 -0.4369689300000000 Au
atom 15.9312822000000001 19.9142316800000003 -0.4339351000000000 Au
atom 18.7859287500000001 19.8355713400000013 -0.2474060800000000 Au
atom 21.5957025099999989 19.8541552999999986 0.1520725400000000 Au
atom 24.3706004999999983 19.7942510700000014 0.0803526600000000 Au
atom 27.3188213600000012 19.7541555299999985 0.2562681400000000 Au
atom 1.8878777200000001 19.7258478599999982 0.2119100600000000 Au
atom 4.6478892299999996 19.7760524199999992 -0.0868406800000000 Au
atom 8.8505092100000002 22.2359371000000010 0.0267371200000000 Au
atom 11.8198181099999999 22.2664236500000001 -0.1615265600000000 Au
atom 14.6024315999999992 22.2764699899999989 -0.4675467000000000 Au
atom 17.4211615199999983 22.2386995700000014 -0.2594267000000000 Au
atom 20.2333256000000006 22.2536054000000014 -0.0387356000000000 Au
atom 23.0417418400000003 22.1961754400000011 0.0490303800000000 Au
atom 25.8863146399999984 22.2258539500000012 0.2127924500000000 Au
atom 0.4908978400000000 22.1961466799999982 0.2565196400000000 Au
atom 3.2497726800000000 22.2342570299999984 0.0334564100000000 Au
atom 6.0752079099999996 22.1748407999999984 -0.0018706600000000 Au
atom 7.5434232300000001 24.7315294500000000 0.0296446800000000 Au
atom 10.2947807299999994 24.5976788199999987 -0.0995850300000000 Au
atom 13.1797603900000002 24.7683361499999997 -0.0323286000000000 Au
atom 15.9645062400000004 24.7583186300000015 -0.3485432800000000 Au
atom 18.7759119500000011 24.6437713500000015 -0.1989460600000000 Au
atom 21.6488248699999986 24.6661867400000006 0.1531907200000000 Au
atom 24.4445373000000004 24.6718759200000015 0.0730700000000000 Au
atom 27.3533537299999985 24.5808155100000008 0.2271423900000000 Au
atom 2.0570227499999998 24.6733988900000014 0.1758972100000000 Au
atom 4.7565342700000004 24.8038729499999988 0.2472844900000000 Au
atom 8.8605929799999998 27.1914294900000009 -0.0500043400000000 Au
atom 11.7024252299999993 27.0484258599999983 0.1422288400000000 Au
atom 14.6153912600000009 27.2011693100000009 -0.1183847000000000 Au
atom 17.4310954500000008 27.1871187600000006 0.0703690200000000 Au
atom 20.2860097300000000 27.1751254899999992 0.0673290000000000 Au
atom 23.0039308700000014 27.1318452999999984 0.2985042500000000 Au
atom 25.8917487800000004 27.1211192300000015 0.0560087900000000 Au
atom 0.5231603400000000 27.0812788600000012 0.2438589300000000 Au
atom 3.3052524399999998 27.1346617300000013 -0.1018560800000000 Au
atom 6.1114749599999998 27.1889205599999997 0.1991856100000000 Au
atom 7.5794061399999997 29.6432623399999997 -0.0663080900000000 Au
atom 10.3762780200000009 29.5058270399999998 0.1561458100000000 Au
atom 13.0925576800000005 29.6281635200000011 -0.3619804200000000 Au
atom 15.9560280999999993 29.5979852000000001 0.0148646000000000 Au
atom 18.8271970899999985 29.6308998800000012 0.0230544500000000 Au
atom 21.7433633300000011 29.6238814800000014 0.0410317100000000 Au
atom 24.4887080700000013 29.5115811699999995 0.0273273300000000 Au
atom 27.3464351100000016 29.5033445900000011 -0.1484573300000000 Au
atom 1.9353844499999999 29.7312156099999996 -0.0092526900000000 Au
atom 4.7227205300000001 29.6457206699999993 0.1691953000000000 Au
atom 8.9750344099999992 32.1388108299999971 -0.0898392800000000 Au
atom 11.7511219199999992 32.0391316500000016 -0.0096350500000000 Au
atom 14.5837026099999996 32.1010656300000008 0.0457347700000000 Au
atom 17.3876226100000011 32.0096045599999997 -0.0366754900000000 Au
atom 20.2294533200000011 32.0655264299999985 -0.0674355000000000 Au
atom 23.0894961800000011 32.1466799399999985 -0.0781456800000000 Au
atom 25.8767475900000008 32.1484216500000031 -0.2913990900000000 Au
atom 0.4305332200000000 31.8891035900000013 -0.3267984400000000 Au
atom 3.4218935699999999 32.0549571000000029 -0.1100544000000000 Au
atom 6.1334939200000003 32.1490147900000025 -0.3150816300000000 Au
atom 7.4871439999999998 34.6355331800000030 -0.0940442200000000 Au
atom 10.2315535299999993 34.5527811700000029 0.0134928700000000 Au
atom 13.1739660500000006 34.5396156899999980 -0.0760585300000000 Au
atom 15.8658696999999993 34.6337407899999974 -0.0683001400000000 Au
atom 18.6499184000000007 34.5402831999999975 0.1647157000000000 Au
atom 21.4784028300000003 34.5502199399999981 0.0596914100000000 Au
atom 24.3943795600000009 34.6064958700000034 -0.2712703700000000 Au
atom 27.2646404699999998 34.5827546699999999 -0.2020848600000000 Au
atom 1.8518238199999999 34.4986579799999973 -0.1268879100000000 Au
atom 4.7098835799999996 34.5114275899999967 0.0238017100000000 Au
atom 9.1105663499999991 37.0105911300000017 0.1173241600000000 Au
atom 11.7164079099999991 37.0727172499999966 -0.5006859200000000 Au
atom 14.5414196199999992 37.0669605900000008 0.0695100300000000 Au
atom 17.1525689700000008 37.0222715900000026 0.0971251500000000 Au
atom 20.1285341899999999 37.0256481899999983 0.0479779900000000 Au
atom 22.8852943999999994 37.0416994899999992 -0.0535988100000000 Au
atom 25.8391521900000001 37.0576932600000006 -0.3294340800000000 Au
atom 0.5082643300000000 36.8335976899999977 -0.0149200100000000 Au
atom 3.2043161800000002 37.0422913000000023 0.0015648100000000 Au
atom 6.0915492699999998 37.0087923900000035 0.3434882800000000 Au
atom 7.5289077100000004 -0.0025193600000000 0.0434199800000000 Au
atom 10.2111630000000009 0.1169321700000000 0.3885070200000000 Au
atom 13.0635120899999997 0.1295908700000000 0.0763579400000000 Au
atom 15.8748792000000005 0.0778630800000000 0.2678349800000000 Au
atom 18.5190473000000004 0.0530265700000000 -0.1152184400000000 Au
atom 21.4104160700000001 -0.0005320500000000 0.3722037600000000 Au
atom 24.4803385200000001 -0.0553430600000000 -0.0142144900000000 Au
atom 27.2110168799999990 0.0422161100000000 0.1589799700000000 Au
atom 1.8922001600000000 0.0038733400000000 -0.1027525100000000 Au
atom 4.4912002900000001 -0.0426806900000000 -0.0735978600000000 Au
atom 8.9111642799999995 2.5532645500000002 0.4254368400000000 Au
atom 11.6957199299999992 2.5991780000000002 0.1468978700000000 Au
atom 14.4780265299999993 2.5008438499999999 0.0441030300000000 Au
atom 17.2699495300000017 2.4648555200000000 0.3456757900000000 Au
atom 20.0962581699999987 2.4072759499999998 0.1043222600000000 Au
atom 22.9118538299999983 2.5052153100000001 -0.0857820600000000 Au
atom 25.7563810699999998 2.4054868300000001 -0.2377911700000000 Au
atom 0.4376323600000000 2.3321919000000002 0.0628580400000000 Au
atom 3.2178407299999998 2.4798787400000002 0.1454852700000000 Au
atom 6.0268791200000003 2.5349060200000002 0.2047328800000000 Au
atom 7.5116203500000003 4.9588644700000000 0.3090274700000000 Au
atom 10.3404561099999999 5.0321987699999999 0.1241627800000000 Au
atom 13.1451205800000004 5.0160641899999998 0.0962942700000000 Au
atom 15.9508810000000008 4.9539749899999999 0.1798392700000000 Au
atom 18.7959328100000000 4.9051429899999999 0.0561056400000000 Au
atom 21.5894040199999999 5.0039379999999998 -0.1460849600000000 Au
atom 24.3333496700000005 4.9939702400000003 -0.0353263700000000 Au
atom 27.1511351599999990 4.8895537899999999 -0.1512464100000000 Au
atom 1.8734971000000000 4.9522583400000002 -0.1611895800000000 Au
atom 4.6841451300000001 4.8676679600000003 0.3174797000000000 Au
atom 8.9048776400000005 7.5212482700000001 0.1885583100000000 Au
atom 11.6988514699999993 7.5039610000000003 0.1363792700000000 Au
atom 14.4871666000000001 7.4513093100000001 0.0588770100000000 Au
atom 17.3205060999999993 7.3609714400000001 0.0153901900000000 Au
atom 20.1621783999999984 7.4191209400000000 0.0976475000000000 Au
atom 22.9911193400000009 7.3615921000000002 0.1642731400000000 Au
atom 25.7505863499999990 7.4727227100000002 0.1186013100000000 Au
atom 0.3544959300000000 7.4364991500000004 0.0621842600000000 Au
atom 3.2301043300000001 7.3736857999999996 0.1350850300000000 Au
atom 6.1182258000000003 7.4400994400000000 0.2849404500000000 Au
atom 7.4756885799999999 9.9055016499999997 0.1542804500000000 Au
atom 10.2743850900000009 9.8905490199999999 -0.0607199600000000 Au
atom 13.0850213199999992 9.9214953500000007 -0.0216356800000000 Au
atom 15.9188374699999997 9.8524314600000000 -0.3150280000000000 Au
atom 18.7254781199999982 9.9033055500000007 -0.2353211400000000 Au
atom 21.5663578099999995 9.8284362299999994 0.0339831500000000 Au
atom 24.4416450699999999 9.8703400299999995 0.2352563900000000 Au
atom 27.1496775499999998 9.8766665200000006 -0.0350968600000000 Au
atom 1.8121029399999999 9.7802358799999993 0.1153167400000000 Au
atom 4.6584275200000000 9.8816349100000007 0.1594376800000000 Au
atom 8.9533052299999998 12.3264154399999999 0.0399070600000000 Au
atom 11.7864849899999999 12.4506233200000000 -0.0929447700000000 Au
atom 14.5713266899999994 12.3480775800000000 -0.3276137300000000 Au
atom 17.3032076500000009 12.3278900999999994 -0.1539599400000000 Au
atom 20.1168464399999998 12.3465930700000008 0.0750918400000000 Au
atom 22.9212207499999998 12.2295464200000001 -0.0503878100000000 Au
atom 25.7480256899999986 12.2722285600000003 -0.0938089200000000 Au
atom 0.4033962700000000 12.1496699800000005 -0.2511009900000000 Au
atom 3.2173774800000001 12.3061952199999993 0.0473965200000000 Au
atom 6.0856060200000002 12.3779929400000004 0.3004158000000000 Au
atom 7.5189407099999999 13.3174356199999995 2.7189071100000000 Au
atom 10.3080417900000008 13.3031472399999995 2.4196069400000000 Au
atom 13.1338686599999992 13.3050701300000007 2.2755582599999999 Au
atom 15.9033481200000004 13.3830777399999992 2.3950937799999998 Au
atom 18.6974995399999990 13.2312877800000006 2.4855119200000000 Au
atom 21.5206977299999984 13.1385465900000007 2.7216464100000000 Au
atom 24.2641317200000017 13.1552449100000004 2.5061103700000000 Au
atom 27.1090176700000001 13.3259039599999998 2.4594134099999998 Au
atom 1.7081354099999999 13.2598770800000008 2.6692927300000000 Au
atom 4.5525119800000002 13.1836289699999991 2.6153954700000002 Au
atom 8.8856514499999992 15.6977560000000000 2.3569434299999998 Au
atom 11.7629550900000002 15.6584062500000005 2.4606635600000000 Au
atom 14.5505739399999996 15.8065958700000007 2.2012204099999999 Au
atom 17.3519983499999988 15.7160964799999991 2.3367667900000000 Au
atom 20.1760897200000002 15.7035662400000007 2.4381705500000002 Au
atom 22.8920161299999982 15.6196934499999998 2.7291568900000001 Au
atom 25.6805537699999995 15.7226005700000009 2.7448867899999998 Au
atom 0.4206853400000000 15.6608851799999993 2.8494381400000002 Au
atom 3.1891483200000001 15.6780147700000008 2.4645137099999999 Au
atom 6.0698431199999998 15.6322141999999999 2.4673576100000001 Au
atom 7.4831519699999998 18.1203337600000012 2.4927793899999999 Au
atom 10.3248588399999992 18.1066958900000010 2.2465045099999998 Au
atom 13.1224227300000003 18.2872590600000002 2.2015495199999999 Au
atom 15.9684314999999994 18.2886991899999991 2.2667481899999999 Au
atom 18.6829384500000018 18.1394448900000000 2.5460768800000002 Au
atom 21.5904823599999993 18.1255626499999991 2.5899737799999998 Au
atom 24.3386985799999991 18.2533407899999993 2.6969948600000002 Au
atom 27.2683661899999983 18.3288129700000013 2.9495043100000000 Au
atom 1.8894424999999999 18.1382578300000006 2.7963474000000001 Au
atom 4.6239927999999999 18.0549632699999982 2.4624289300000002 Au
atom 8.8809675800000001 20.6107712599999999 2.5429005899999999 Au
atom 11.6753639899999992 20.6538725200000002 2.4186268000000002 Au
atom 14.5312841499999994 20.8039570599999983 2.1857795800000002 Au
atom 17.4198414700000015 20.6389942700000013 2.4823449499999999 Au
atom 20.1980392299999991 20.4776369699999989 2.5792074500000002 Au
atom 22.9415518300000016 20.6030985400000013 2.8144062800000000 Au
atom 25.8856981700000013 20.7199441499999999 2.4544091500000000 Au
atom 0.4792805900000000 20.6145037699999989 3.0593728599999999 Au
atom 3.3094583300000000 20.5627596200000013 2.5503672800000001 Au
atom 6.0580153299999999 20.5519765899999989 2.6674157699999999 Au
atom 7.5300166700000002 23.1504904700000012 2.6470127500000000 Au
atom 10.3587520099999999 23.1228091499999984 2.4740379099999998 Au
atom 13.1069381099999998 23.1182091999999990 2.4614374300000001 Au
atom 15.9439879500000004 23.1869187699999983 2.2824814199999999 Au
atom 18.8123834899999984 23.1182817699999994 2.4368069499999998 Au
atom 21.5109851100000000 23.0283880900000000 2.6279451900000002 Au
atom 24.3116836999999997 23.0488686099999995 2.8741928600000000 Au
atom 27.1881801799999998 23.0799500900000005 3.0270905799999999 Au
atom 1.8212623699999999 23.0448984400000008 2.8683315399999998 Au
atom 4.6228950400000004 23.0735304200000009 2.7108805399999998 Au
atom 8.9329175799999998 25.6422994200000005 2.5166849899999999 Au
atom 11.7485307300000006 25.4865941400000011 2.8561045100000002 Au
atom 14.5556800899999992 25.6059913799999990 2.4393467700000002 Au
atom 17.3565538199999985 25.5178685300000012 2.5225766599999999 Au
atom 20.1949866399999998 25.5148037499999987 2.6729529500000000 Au
atom 23.0068677100000016 25.5060338500000015 2.8341255400000001 Au
atom 25.7923979699999997 25.4798372700000009 2.6002543000000000 Au
atom 0.3986618500000000 25.6326316699999985 2.9799648599999999 Au
atom 3.3155009299999998 25.6086792099999982 2.9042340400000000 Au
atom 6.2307985500000003 25.6105400199999984 2.7052727700000001 Au
atom 7.6157477499999997 28.0484479200000010 2.5623941900000000 Au
atom 10.4013460400000000 28.0407577600000018 2.8283486199999999 Au
atom 13.1932444300000000 28.0526017199999984 2.3728846899999998 Au
atom 15.9264230799999993 28.0921522099999983 2.6774849500000002 Au
atom 18.7949158999999995 27.9612528599999983 2.5436341800000002 Au
atom 21.6435590900000001 27.9989639299999986 2.8576170500000000 Au
atom 24.5654820500000000 28.0181870999999987 2.7905108799999998 Au
atom 27.3447019699999991 27.9721274099999988 2.5044086299999999 Au
atom 1.9662703800000001 28.0384285700000007 2.5275056999999999 Au
atom 4.7040960700000003 28.0351221499999994 2.6246692899999999 Au
atom 9.0156077700000008 30.5157713199999989 2.4762487800000001 Au
atom 11.8236136799999993 30.5691849799999993 2.6637422700000002 Au
atom 14.5663086300000000 30.5549130300000016 2.6032155900000000 Au
atom 17.3151974799999984 30.4292667600000009 2.6798763900000000 Au
atom 20.2280714900000014 30.3561199200000011 2.6707049999999999 Au
atom 23.0849299099999996 30.5243225199999983 2.6595231899999998 Au
atom 25.9808945300000005 30.5006971900000003 2.6172011400000001 Au
atom 0.5550233900000000 30.3400872700000015 2.4411219399999999 Au
atom 3.3559685699999999 30.4787664400000011 2.6041018700000000 Au
atom 6.1908381099999996 30.4463568699999989 2.5855915399999998 Au
atom 7.5141123500000004 32.9431145799999996 2.4625059500000002 Au
atom 10.3268080999999992 32.9894724899999972 2.5713223200000002 Au
atom 13.1414057900000003 33.0306993499999990 2.7409803300000002 Au
atom 15.9749211899999999 33.0481844099999975 2.6415461699999998 Au
atom 18.8404695400000008 32.9098577500000005 2.5759509299999999 Au
atom 21.6412376900000005 32.9417966800000031 2.5913866200000002 Au
atom 24.4890557999999992 32.8291471499999972 2.3382602100000001 Au
atom 27.3577481300000009 32.9743849099999977 2.3766227199999999 Au
atom 1.9135980699999999 32.9799655999999999 2.4116851700000002 Au
atom 4.7191114399999998 32.8573480800000013 2.4827956200000001 Au
atom 8.8572735100000006 35.4037040600000026 2.7295297800000000 Au
atom 11.7643140600000002 35.4992464400000003 2.3535540500000001 Au
atom 14.5057023800000007 35.4337321300000028 2.7218143700000001 Au
atom 17.2274072499999988 35.4445978099999977 2.5741717600000000 Au
atom 20.1106739999999995 35.4143266600000004 2.7445802100000001 Au
atom 22.9842916300000013 35.3210657099999992 2.5078798600000001 Au
atom 25.7716318999999991 35.2760120499999985 2.2652508400000002 Au
atom 0.4498576700000000 35.3030354599999967 2.5726982399999998 Au
atom 3.2612456500000002 35.4185117299999987 2.5277795900000002 Au
atom 5.9752466499999999 35.2926212899999996 2.7055262999999998 Au
atom 7.9634421700000004 37.8344394900000012 2.5593249800000000 Au
atom 10.6379444400000001 37.8498799199999993 2.7029041399999998 Au
atom 12.8450895900000006 37.9680548099999982 2.7073147099999999 Au
atom 15.7914272300000000 37.9315170499999965 2.4499142500000000 Au
atom 18.6917767099999992 37.8240910999999969 2.8671716300000001 Au
atom 21.6090129699999984 37.7735942899999984 2.6371607099999999 Au
atom 24.4233872699999992 37.8713963499999977 2.5860686300000002 Au
atom 27.3310406700000001 37.7725636899999984 2.4780253800000001 Au
atom 1.9048046999999999 37.8705787099999966 2.7257479999999998 Au
atom 4.6072276600000004 37.8390166100000016 2.8032913200000000 Au
atom 8.7977206399999996 0.8887513000000000 2.9676339600000001 Au
atom 11.5922479900000006 0.9095327700000000 2.7982221200000001 Au
atom 14.4917501899999994 0.9191591099999999 2.8391804399999998 Au
atom 17.2830153799999984 0.7437266600000000 2.8191820900000000 Au
atom 20.1423646900000008 0.7762592900000000 2.7052835000000002 Au
atom 22.9234937499999987 0.8032367800000000 2.7640799700000001 Au
atom 25.7200913799999995 0.7881900900000000 2.5014188499999999 Au
atom 0.5077192900000000 0.8713764899999999 2.8281653499999999 Au
atom 3.1764489500000002 0.8493481600000000 2.6595918200000002 Au
atom 6.1270660599999998 0.8247117400000000 2.5971716100000002 Au
atom 7.4041211300000001 3.4298782100000000 2.9032998000000001 Au
atom 10.2812863399999994 3.4114110300000000 2.9717435499999998 Au
atom 13.0927402100000005 3.3653759999999999 2.6612370300000001 Au
atom 15.8995428600000004 3.3136985600000002 2.9377101200000002 Au
atom 18.7760465100000005 3.2845442500000002 2.7653912400000000 Au
atom 21.4997623500000010 3.2324113900000002 2.6494881900000000 Au
atom 24.3557178699999994 3.3107835500000000 2.5603873699999999 Au
atom 27.2412377799999987 3.3121553200000000 2.4676888400000001 Au
atom 1.8081712800000000 3.4286152500000000 2.5246637100000000 Au
atom 4.6341292400000000 3.3268209299999998 2.8508282199999999 Au
atom 8.9207381399999992 5.8499233899999998 2.7351764099999998 Au
atom 11.7538324700000008 5.8626688700000003 2.8829314500000001 Au
atom 14.6611119599999995 5.8661825600000004 2.7006714199999999 Au
atom 17.4462772100000016 5.8479388700000001 2.6148457899999999 Au
atom 20.2505314699999985 5.8050712899999999 2.6507962900000002 Au
atom 22.9437488599999995 5.6745681899999996 2.6594185100000001 Au
atom 25.7989322500000000 5.6948605099999998 2.6458410400000001 Au
atom 0.3702737400000000 5.8308587100000002 2.6081505599999999 Au
atom 3.2364387600000000 5.8503213000000001 2.8427727800000002 Au
atom 5.9816988200000001 5.8822757299999999 2.8843193299999998 Au
atom 7.4582468799999999 8.2960118600000001 2.8936007099999999 Au
atom 10.2432906599999995 8.3279231500000002 2.8035778599999999 Au
atom 13.1105912100000008 8.3239223399999993 2.5370748600000002 Au
atom 16.0367584299999990 8.3933839999999993 2.3732958399999999 Au
atom 18.7769542099999995 8.3202306400000001 2.5712295100000002 Au
atom 21.6810714400000002 8.2317623700000002 2.7366239299999999 Au
atom 24.4217552200000014 8.1909529499999998 2.8346818100000002 Au
atom 27.1558059999999983 8.2448743300000000 2.7474691199999999 Au
atom 1.7360086299999999 8.3454590900000003 2.8261717900000001 Au
atom 4.5172748599999997 8.3618174799999991 2.7353434800000000 Au
atom 8.8766036600000007 10.7999611400000006 2.7356157699999999 Au
atom 11.6708107000000005 10.7876941800000008 2.3811169400000001 Au
atom 14.6186781400000001 10.7825006999999999 2.3610896800000001 Au
atom 17.3991533300000008 10.7772270599999995 2.3820972700000000 Au
atom 20.1175098299999995 10.6734462699999995 2.5535442100000001 Au
atom 23.0041938700000017 10.6477513300000002 2.7742308900000001 Au
atom 25.7768081299999992 10.7214795800000005 2.7716485999999998 Au
atom 0.3590633300000000 10.7850765000000006 2.7037899200000002 Au
atom 3.1462981600000002 10.8168198600000007 2.6482451400000002 Au
atom 6.0153160200000002 10.7743046000000007 2.7336168999999999 Au
atom 7.6168070300000004 12.8316560600000003 5.6935146799999998 Cl
atom 7.8016997000000003 15.9309003199999992 8.2020818500000008 Cl
atom 7.8762996400000000 13.1461953699999992 8.3355610500000008 Na
atom 7.6281119400000001 15.8019646900000001 5.6524976400000000 Na
atom 7.6124929100000003 18.6483494400000005 5.5688923099999998 Cl
atom 7.7554064599999997 21.5040255699999996 8.3687413100000008 Cl
atom 7.7986103800000004 18.6644669500000013 8.1826755200000001 Na
atom 7.6246103400000003 21.4279515200000006 5.5554591000000002 Na
atom 7.7305179700000002 24.3049073399999997 5.7522502900000001 Cl
atom 7.7818903400000004 27.0987333799999988 8.5312681099999992 Cl
atom 7.7142759400000003 24.2871843600000012 8.3505802399999993 Na
atom 7.7105662300000004 27.1309176600000015 5.8354204200000002 Na
atom 7.8617166799999998 30.0020623999999998 5.6837084400000002 Cl
atom 7.6585363400000004 32.7857350100000033 8.6061743400000008 Cl
atom 7.6828836000000003 29.9733525999999983 8.3618556700000006 Na
atom 7.6423744500000002 32.9043463100000011 5.7839405099999999 Na
atom 7.7912147799999998 35.7187102400000001 5.6874312299999996 Cl
atom 7.6069774399999996 38.3809476400000023 8.5901493400000000 Cl
atom 7.7089543000000003 35.4912238499999972 8.3430958299999993 Na
atom 7.8220494699999996 38.6197941400000033 5.8800483200000002 Na
atom 7.7005109500000000 1.7916718100000000 5.7003001700000002 Cl
atom 7.6726011200000004 4.3873832899999998 8.5651248700000000 Cl
atom 7.6798010999999997 1.6375596299999999 8.4884893399999992 Na
atom 7.5429937499999999 4.4753342399999996 5.6969089400000001 Na
atom 7.7242597699999997 7.3118242599999999 6.0677972599999999 Cl
atom 7.8849387200000001 10.1370298900000009 8.5420834100000000 Cl
atom 7.8441876700000002 7.1212439600000002 8.6649573300000000 Na
atom 7.6794359999999999 10.0823835000000006 5.8978408699999996 Na
atom 10.4335857999999995 13.0733194000000008 5.5760668999999998 Na
atom 13.2676263599999995 13.0792346500000001 5.4228218500000001 Cl
atom 10.5954753700000008 15.8020732400000004 7.9520127799999996 Na
atom 13.3540987799999993 15.9394298200000009 8.3778542300000005 Cl
atom 13.3303574800000000 13.1091481699999992 8.3651903300000008 Na
atom 10.5885932199999999 13.0667653700000006 8.5896762399999993 Cl
atom 13.4063057400000005 15.9140192999999996 5.4685337699999996 Na
atom 10.5206030599999991 15.8233799899999994 5.4971823100000003 Cl
atom 10.5627762300000008 18.6543236899999982 5.7104435000000002 Na
atom 13.4629432500000004 18.8495038500000014 5.7789393499999999 Cl
atom 10.6534455300000008 21.5760870599999990 8.2021927199999993 Na
atom 13.5041381600000001 21.6175644100000000 8.4919858900000005 Cl
atom 13.5049915499999997 18.7746348099999985 8.3409496700000005 Na
atom 10.5154158399999993 18.8390861200000010 8.4292742799999996 Cl
atom 13.3730975099999991 21.6197894099999992 5.7884508600000002 Na
atom 10.5404938700000006 21.6276634299999984 5.5917517200000004 Cl
atom 10.4675454499999994 24.5079436900000012 5.8893305199999997 Na
atom 13.4392162699999993 24.4598517899999983 5.5576244800000003 Cl
atom 10.4833587700000006 27.3818938900000006 8.4724929499999995 Na
atom 13.2344426500000001 27.4281860100000010 8.6364081099999996 Cl
atom 13.4351359699999993 24.4913750199999996 8.5255030800000000 Na
atom 10.7247298200000003 24.3930946700000000 8.7428012600000002 Cl
atom 13.3913566999999993 27.0296846799999990 5.7261115100000000 Na
atom 10.5535125500000007 27.1300981099999987 5.8286341799999999 Cl
atom 10.6821275500000006 29.8791670099999997 5.7502509999999996 Na
atom 13.3147612500000001 29.9124519100000015 5.8345822399999996 Cl
atom 10.4278162800000000 32.7885828499999974 8.4203619500000002 Na
atom 13.4363958900000000 32.8115188700000004 8.5786353999999996 Cl
atom 13.1835357700000007 30.0666349400000001 8.4292381400000007 Na
atom 10.4795216900000003 30.1171632799999998 8.6685542400000006 Cl
atom 13.3406205199999999 33.0221067499999990 5.8568657499999999 Na
atom 10.5406367599999999 32.9909690200000014 5.8457922699999996 Cl
atom 10.4912229099999994 35.7164873199999988 5.7367977400000001 Na
atom 13.2360308399999997 35.7362647799999991 5.7423287199999997 Cl
atom 10.6470798999999996 38.3943156200000004 8.1755431499999993 Na
atom 13.3031752700000006 38.4044207900000032 8.4701833900000008 Cl
atom 13.3425833300000001 35.6870676500000030 8.3470976700000001 Na
atom 10.5488654700000009 35.5220182899999983 8.5645252099999993 Cl
atom 13.1523615399999994 38.3995621500000013 5.6359405899999997 Na
atom 10.5934706999999992 38.5736046299999984 5.8284539799999999 Cl
atom 10.4693776199999995 1.8900159299999999 5.7291582300000004 Na
atom 13.3332629600000008 1.7650485300000001 5.7781317500000000 Cl
atom 10.6067818299999992 4.6210811300000003 8.3750402400000006 Na
atom 13.4037004900000003 4.5275527499999999 8.6920136200000009 Cl
atom 13.2597391600000005 1.7334479100000000 8.5435489600000007 Na
atom 10.4205247700000001 1.6880899899999999 8.7306880099999997 Cl
atom 13.3182817799999995 4.4525476900000003 5.9851517000000003 Na
atom 10.4194648799999996 4.5562958199999999 5.7014199500000000 Cl
atom 10.4571376699999998 7.1763600900000002 5.8965186100000002 Na
atom 13.4765178799999994 7.3618699699999999 5.9214960999999997 Cl
atom 10.6366560799999998 10.2006452999999997 8.4582407100000001 Na
atom 13.4271319699999996 10.2673883600000000 8.5282788299999996 Cl
atom 13.4080880600000008 7.4068468300000001 8.5397532399999996 Na
atom 10.5837842900000005 7.3832373100000002 8.4996251600000008 Cl
atom 13.4069065700000003 10.2041996099999999 5.6793391000000000 Na
atom 10.5511067599999997 10.0496291400000004 5.5203142700000001 Cl
atom 16.1038494400000012 13.1802206200000001 5.6642139699999996 Na
atom 19.0035272699999993 12.9936328299999992 5.7383712600000001 Cl
atom 16.1210992600000012 15.9101862999999994 8.2167679600000003 Na
atom 18.9233467200000014 15.8513987000000007 8.3734944700000007 Cl
atom 19.0158810299999992 13.1145495299999997 8.2812105799999998 Na
atom 16.0542419699999996 12.9808747199999992 8.2972892399999996 Cl
atom 19.0055565100000017 15.7489593800000005 5.4911597199999997 Na
atom 16.1453792299999996 15.8662397700000000 5.5123711200000001 Cl
atom 16.2806398700000017 18.6930407900000013 5.7015875999999999 Na
atom 19.1407179499999991 18.5294959800000001 5.6466397099999996 Cl
atom 16.1401043999999985 21.4997252500000009 8.1233269900000007 Na
atom 18.9391938499999988 21.4915956799999996 8.4343646600000000 Cl
atom 18.9954667199999996 18.6055247199999982 8.3414885299999995 Na
atom 16.1761617999999991 18.6143209799999987 8.4621671700000007 Cl
atom 19.0378575300000001 21.4671076499999991 5.6818237800000002 Na
atom 16.1529350600000008 21.5462921499999993 5.5816104299999996 Cl
atom 16.1061936800000005 24.3557098900000000 5.6778566200000000 Na
atom 19.0518051899999996 24.3053450700000013 5.7665732700000003 Cl
atom 16.1571597800000006 27.2317635600000010 8.5898364500000000 Na
atom 18.8953702899999989 27.1622114199999984 8.4562942900000007 Cl
atom 18.9319071299999990 24.3653346900000010 8.3481608400000002 Na
atom 16.3188428200000004 24.2346942500000004 8.4343199000000002 Cl
atom 18.7587961400000012 27.1557627500000009 5.7100911800000000 Na
atom 15.9955732499999996 27.1054031600000016 5.8328734300000002 Cl
atom 16.0447709500000002 30.0154867900000006 5.8484287300000002 Na
atom 18.7708821400000012 30.0137760500000006 5.5876536799999998 Cl
atom 16.2192345700000011 32.8965583100000032 8.3408886199999994 Na
atom 18.8814699399999988 32.7933504100000022 8.4790304299999999 Cl
atom 19.0229479800000014 29.8565024200000018 8.3874303500000007 Na
atom 16.2043775200000013 30.0710158800000009 8.4633148100000000 Cl
atom 19.1089128799999983 32.7132961100000017 5.7152409600000000 Na
atom 16.0747151700000011 32.9338622799999996 5.6121606300000000 Cl
atom 16.0468649399999990 35.6112070699999990 5.7615434299999997 Na
atom 18.9693791500000017 35.6165428799999972 5.7127505799999998 Cl
atom 15.7996476300000008 38.3854819499999991 8.4394482600000007 Na
atom 18.9656621299999983 38.2995815299999975 8.6060299300000000 Cl
atom 18.9760318699999999 35.5218629100000030 8.3263359000000001 Na
atom 16.1671813600000007 35.6945039699999995 8.5577602499999994 Cl
atom 18.9480876299999998 38.5162451300000015 5.8679512000000003 Na