#===============================================================================
# Created using the Atomic Simulation Environment (ASE)

# Sat Nov  1 21:48:34 2025

#=======================================================
lattice_vector 28.1999999999999993 0.0000000000000000 0.0000000000000000 
lattice_vector 0.0000000000000000 39.4799999999999969 0.0000000000000000 
lattice_vector 0.0000000000000000 0.0000000000000000 62.3296083400000001 
atom 7.6025801599999996 14.6627919999999996 -0.0601283300000000 Au
atom 10.4183062199999998 14.9293827199999996 -0.2091586500000000 Au
atom 13.2411623699999996 14.7658078199999991 -0.0573492500000000 Au
atom 15.9637117300000000 14.6763202699999997 -0.0726052200000000 Au
atom 18.9306210399999983 14.8506032700000006 -0.0136841500000000 Au
atom 21.4427575099999999 14.8634286899999992 -0.0942031500000000 Au
atom 24.5420353400000018 14.8285788600000004 0.2138870100000000 Au
atom 27.1732272700000017 14.8828137799999993 -0.0176464400000000 Au
atom 1.9579324600000001 14.8055112100000006 0.1406035400000000 Au
atom 4.8127424400000001 14.7688570899999991 -0.0206670700000000 Au
atom 8.9705072900000005 17.2456254000000015 -0.0604150600000000 Au
atom 11.5380167100000008 17.3971377999999994 0.0744170100000000 Au
atom 14.6577209800000006 17.1527284999999985 -0.0025842500000000 Au
atom 17.3298982200000005 17.2398566899999999 -0.0712625300000000 Au
atom 20.1607832900000012 17.3128265100000007 -0.0307621500000000 Au
atom 22.8881932799999994 17.4004653599999983 0.0110716100000000 Au
atom 25.7651842199999983 17.2576036100000003 0.1113580200000000 Au
atom 0.3707867400000000 17.3764266200000002 -0.0306238200000000 Au
atom 3.2696436000000002 17.2772337799999995 -0.0494189900000000 Au
atom 6.0970074099999998 17.3591313599999992 0.0554131100000000 Au
atom 7.4970949899999999 19.6990492599999989 0.3070042100000000 Au
atom 10.3323177699999995 19.9013785600000013 0.0753260800000000 Au
atom 13.2186250300000001 19.8542503299999993 0.3342161600000000 Au
atom 15.8807048799999997 19.7070191399999999 0.1435825300000000 Au
atom 18.8670541199999988 19.8062171000000014 0.1205716000000000 Au
atom 21.6628136900000001 19.8407745800000015 0.0318258600000000 Au
atom 24.4957153699999992 19.8770355099999989 -0.0631772800000000 Au
atom 27.2128984000000003 19.6721867300000000 -0.0200568700000000 Au
atom 1.8135603400000000 19.8129682900000006 0.1043917700000000 Au
atom 4.6928878799999998 19.6860436000000014 0.0117713600000000 Au
atom 8.9363032600000007 22.3748256699999999 0.0395791800000000 Au
atom 11.8257830399999992 21.9855673899999999 0.0538132100000000 Au
atom 14.8076205499999993 21.9405779000000010 0.0216095600000000 Au
atom 17.4116269899999985 22.2577624599999986 0.0868099300000000 Au
atom 20.1548643200000015 22.2510803700000004 0.1289780100000000 Au
atom 22.9947081299999994 22.0595325799999991 -0.0446175800000000 Au
atom 25.9598308499999995 22.1415488600000003 -0.0747249600000000 Au
atom 0.5106171100000000 22.2035074200000011 0.2247789400000000 Au
atom 3.0674341900000002 22.2363013400000007 0.0613418300000000 Au
atom 5.9182146400000004 22.3200286400000003 0.0895209400000000 Au
atom 7.5959003899999997 24.6271229100000006 0.1898085900000000 Au
atom 10.3956343499999999 24.7190853699999984 0.0099660700000000 Au
atom 13.2143133400000004 24.7342769999999987 -0.0521978300000000 Au
atom 15.9838435499999996 24.6685845599999993 0.0712106300000000 Au
atom 18.8294605299999986 24.6499810400000001 0.0401337600000000 Au
atom 21.6338265700000001 24.8573811300000003 -0.0484240700000000 Au
atom 24.6234792999999996 24.5103958000000013 0.1784617400000000 Au
atom 27.1361124300000007 24.8752694199999986 0.1389846600000000 Au
atom 1.6930570599999999 24.8135253599999999 0.1361991100000000 Au
atom 4.5716828700000001 24.6296228200000016 0.2011012100000000 Au
atom 9.0137315400000002 27.0808009399999996 0.0404180600000000 Au
atom 11.5755949200000003 27.1806635599999993 0.0003788200000000 Au
atom 14.4588383199999999 27.1993489100000012 0.1135582400000000 Au
atom 17.4713554600000016 27.0577399000000014 -0.0083795100000000 Au
atom 20.3424198400000016 27.0783499499999998 -0.0014017800000000 Au
atom 23.0460618599999982 27.0811936200000005 0.1058619500000000 Au
atom 25.8315034600000004 27.2239858199999993 0.0341243000000000 Au
atom 0.5655113800000000 26.9518264899999984 0.0616174700000000 Au
atom 3.2786922299999999 27.1408701699999995 -0.0367268500000000 Au
atom 6.1076560799999999 27.2169589300000005 -0.0421128700000000 Au
atom 7.4636119000000001 29.6709865599999993 -0.0985479200000000 Au
atom 10.4114674899999997 29.8387538399999990 -0.0268725100000000 Au
atom 13.1143946099999997 29.5978714399999987 0.0276350900000000 Au
atom 15.8980560499999992 29.4232070899999982 -0.1089297800000000 Au
atom 18.9403102099999998 29.5968083100000001 0.0189313100000000 Au
atom 21.7017881700000004 29.5831624300000016 0.2261894800000000 Au
atom 24.3208376199999989 29.7127932799999996 -0.1961580900000000 Au
atom 27.3246642999999985 29.7566880800000000 0.1704833200000000 Au
atom 1.9392837300000001 29.7429449199999993 0.0615880600000000 Au
atom 4.6370545900000000 29.5982152200000002 0.1518021300000000 Au
atom 8.8850879700000007 32.3077624900000018 -0.0108591900000000 Au
atom 11.8754256100000006 32.0370636999999974 0.0510218400000000 Au
atom 14.5237136400000004 32.0637331399999965 -0.0269186100000000 Au
atom 17.3247681000000000 32.1364899699999995 0.1121241400000000 Au
atom 20.2470783999999995 32.2769988499999982 -0.0033874400000000 Au
atom 23.1258921899999983 31.9613957599999985 0.1182718300000000 Au
atom 25.7499328299999988 32.1539309699999976 -0.2156618700000000 Au
atom 0.3548249200000000 31.9887703200000004 0.1253108100000000 Au
atom 3.2435952299999999 32.0483020900000000 -0.0195558600000000 Au
atom 6.2255888300000004 32.0352015100000003 -0.0479470800000000 Au
atom 7.5868683199999998 34.7018098799999990 -0.0647009600000000 Au
atom 10.4613755299999998 34.6183694799999984 -0.0516126100000000 Au
atom 13.1060744600000003 34.5416842899999992 0.1291240700000000 Au
atom 15.9782822800000002 34.6008399899999972 0.1722324900000000 Au
atom 18.7964509699999986 34.5084313099999989 -0.0869289100000000 Au
atom 21.6321750500000007 34.3941611699999967 0.2270856600000000 Au
atom 24.4793598999999986 34.5944714500000003 0.0203461400000000 Au
atom 27.0346523199999993 34.5395106200000015 0.0287264600000000 Au
atom 1.6868779599999999 34.7699919699999995 0.1203323400000000 Au
atom 4.6203082300000000 34.5482805199999987 0.0913967600000000 Au
atom 8.7916091600000001 37.1207830800000025 0.1939078300000000 Au
atom 11.6874152299999992 36.9531534699999966 0.0573708900000000 Au
atom 14.4501982600000005 36.9722536499999990 -0.0129538800000000 Au
atom 17.6353910999999997 37.0211505500000015 0.2001949900000000 Au
atom 20.2826332899999997 37.2263962899999967 0.1478207000000000 Au
atom 23.0611944300000005 37.1101533599999982 0.0242627200000000 Au
atom 25.9447374599999989 37.1127912299999991 -0.1574804100000000 Au
atom 0.4152570100000000 37.0263872599999999 -0.0955023600000000 Au
atom 3.2419982599999999 36.9720736499999987 0.1517569600000000 Au
atom 6.1770840700000003 36.9087253900000007 -0.0022626900000000 Au
atom 7.3527311400000004 0.0509833600000000 0.0271866200000000 Au
atom 10.1592593600000001 -0.1549480100000000 0.0197974700000000 Au
atom 13.1312817800000001 0.0585829700000000 0.0712187100000000 Au
atom 16.1029458400000003 0.0180253900000000 0.1421685600000000 Au
atom 18.9269681799999994 0.0810471200000000 0.0244383100000000 Au
atom 21.6493696399999997 -0.1191923400000000 -0.0366053500000000 Au
atom 24.4049446199999984 0.0871043800000000 0.1535926200000000 Au
atom 27.2178468199999983 0.0902163400000000 0.0185120600000000 Au
atom 1.8238674600000000 0.1409577900000000 -0.0046106600000000 Au
atom 4.7721698899999998 -0.1544528200000000 0.2172116600000000 Au
atom 8.9319802300000006 2.6572756900000001 0.2321475600000000 Au
atom 11.6214209299999993 2.6713342700000000 0.2209221700000000 Au
atom 14.3080902099999996 2.3859422100000001 0.1556256900000000 Au
atom 17.3536579499999988 2.5671678500000001 -0.0915904900000000 Au
atom 20.0892518299999985 2.3650528899999999 -0.0636757700000000 Au
atom 23.1159615100000018 2.5485149200000001 -0.0539306600000000 Au
atom 25.8993176900000002 2.4785194000000002 -0.0844973600000000 Au
atom 0.4745930900000000 2.4333672000000002 0.1390311200000000 Au
atom 3.3455920099999998 2.3583644499999998 0.3575854000000000 Au
atom 6.2146574799999996 2.5543203499999998 -0.0668984700000000 Au
atom 7.5136042700000001 5.1063458300000004 0.2492406600000000 Au
atom 10.5207722500000003 4.8417790299999997 0.2588438200000000 Au
atom 13.1530901500000006 4.8948905900000002 0.0003931700000000 Au
atom 15.9452031299999994 5.1094302400000000 0.1087071300000000 Au
atom 18.7085563199999996 4.9425212199999997 -0.0987459300000000 Au
atom 21.5272598100000003 4.9330010099999999 0.1276293000000000 Au
atom 24.3907025699999984 4.9495813799999997 0.1320282500000000 Au
atom 27.1315889500000011 4.9050306499999996 0.1268589200000000 Au
atom 2.0582933400000001 5.0376263999999997 0.0962571400000000 Au
atom 4.7509990300000000 4.9633131300000004 0.1892462700000000 Au
atom 8.8125950199999998 7.4250323299999996 -0.1006240500000000 Au
atom 11.9118717499999995 7.4823850299999997 0.1589122200000000 Au
atom 14.4908801300000007 7.2478942799999997 0.1096436800000000 Au
atom 17.4483439999999987 7.4491290100000001 0.1968174000000000 Au
atom 20.1524879400000003 7.2799176799999996 0.0328337000000000 Au
atom 23.1386898999999993 7.3754555999999996 -0.0176341200000000 Au
atom 25.7908020899999997 7.3457460499999998 0.3611533500000000 Au
atom 0.3569712400000000 7.4731022200000004 0.0373449300000000 Au
atom 3.3429864000000000 7.4989502400000001 0.0956457300000000 Au
atom 6.0864631999999999 7.4859985800000004 0.1971617100000000 Au
atom 7.5947201800000004 9.9407606499999996 0.0394749400000000 Au
atom 10.2935127000000008 9.9876477000000001 -0.0775928300000000 Au
atom 13.0637320799999994 9.8055840100000005 0.0711766000000000 Au
atom 16.0279306400000010 10.1033832300000004 -0.1875016700000000 Au
atom 18.7185950900000009 9.8835356000000001 0.1535256800000000 Au
atom 21.8015679700000007 9.8654461599999994 -0.0125530800000000 Au
atom 24.4407495200000007 9.8478007999999999 0.1808546600000000 Au
atom 27.4036797700000001 9.8121306900000000 -0.0840220600000000 Au
atom 1.8630460300000000 9.7435319499999995 0.1540184200000000 Au
atom 4.6899815699999996 9.8013023399999994 0.0401068300000000 Au
atom 9.0097052800000004 12.2347932499999992 -0.0734862800000000 Au
atom 11.7177323399999995 12.2933000999999997 0.1342200000000000 Au
atom 14.4222149599999998 12.3977521599999996 -0.0548544600000000 Au
atom 17.2027057200000009 12.2847056800000001 -0.1954093200000000 Au
atom 20.0499526699999997 12.2819447200000003 -0.0723451900000000 Au
atom 22.9558763399999997 12.3534682100000008 -0.0621734900000000 Au
atom 25.8164512899999998 12.2928369600000007 0.1083578600000000 Au
atom 0.5082410400000000 12.3166699899999994 -0.0997086300000000 Au
atom 3.0773226999999999 12.3943657500000004 -0.0010725000000000 Au
atom 6.1874802100000004 12.5220138700000003 -0.1296070500000000 Au
atom 7.4823922100000004 13.1743851000000003 2.8139493799999999 Au
atom 10.2847080999999996 13.2269474400000000 2.6706377699999999 Au
atom 13.1863519599999997 13.0561427499999994 2.6771874100000002 Au
atom 15.9367046200000004 13.1382989099999996 2.4997680500000001 Au
atom 18.7147490900000015 13.0644920599999992 2.7560431500000000 Au
atom 21.5486791800000006 13.1836643700000007 2.5351035000000000 Au
atom 24.2746608899999998 13.2673350400000007 2.7327170399999998 Au
atom 27.3238115700000002 13.3311917999999991 2.6680180099999999 Au
atom 1.7643589000000000 13.3531510099999995 2.5877981499999998 Au
atom 4.6499374600000003 13.4070368999999996 2.6213499599999999 Au
atom 8.8319346500000009 15.6615735500000000 2.5930982100000000 Au
atom 11.7159082899999998 15.6157567999999998 2.7439380099999999 Au
atom 14.5575894899999998 15.7572659399999999 2.7301807999999999 Au
atom 17.3147855799999988 15.5211719299999995 2.8552386200000002 Au
atom 20.0566932999999992 15.6725793200000005 2.5850221400000000 Au
atom 22.9573774700000008 15.7862453699999996 2.7583845500000002 Au
atom 25.7867081399999982 15.7061609000000004 2.6862531900000000 Au
atom 0.1594277600000000 15.5520473700000004 2.5815841300000000 Au
atom 3.1292656399999998 15.7695037199999994 2.6334061800000002 Au
atom 5.9822136800000001 15.6791520500000008 2.7653371899999999 Au
atom 7.4744254899999998 18.0104433600000000 2.6779069899999999 Au
atom 10.3289690200000006 18.1286990000000010 2.5969653600000000 Au
atom 13.3037906699999997 18.0384834500000011 2.6342134599999998 Au
atom 16.0300584000000015 18.0351321200000001 2.7629441500000000 Au
atom 18.7529705299999989 18.0120530499999987 2.7006898600000002 Au
atom 21.5349541199999983 17.8967440099999990 2.6543242700000000 Au
atom 24.4622950900000014 18.0207729599999986 2.5861872400000001 Au
atom 27.3404281299999994 17.9864946699999990 2.9253312000000000 Au
atom 1.8023531399999999 18.1259092899999992 2.6575835200000002 Au
atom 4.7361564700000001 18.2101007800000012 2.7279833800000000 Au
atom 8.8825666900000009 20.5472461899999992 2.7574472299999999 Au
atom 11.5978847300000005 20.3786441899999993 2.7818761900000002 Au
atom 14.5211154899999997 20.6485771500000013 2.5813818799999999 Au
atom 17.6233224200000009 20.7106603299999996 2.7114031500000002 Au
atom 20.1679393400000002 20.5688353799999994 2.5721579900000000 Au
atom 22.9098934199999995 20.6512845499999997 2.7431045100000002 Au
atom 25.8915488200000006 20.5184214099999984 2.7780042500000000 Au
atom 0.3477119900000000 20.5879550800000004 2.7765427300000001 Au
atom 3.2194943100000000 20.7136481900000007 2.6328214999999999 Au
atom 6.0291119399999999 20.6813239200000005 2.7499475300000000 Au
atom 7.3260538300000002 23.0233417699999983 2.5283179400000000 Au
atom 10.3495859299999999 23.0226161599999983 2.6665850299999998 Au
atom 13.2067517500000005 23.0563613200000006 2.5023932300000000 Au
atom 16.0062487599999983 23.1588093700000002 2.6937393900000002 Au
atom 18.7159024999999986 23.0784912999999996 2.5681697200000002 Au
atom 21.5594504700000016 23.1826539599999997 2.6824002600000001 Au
atom 24.4523219500000017 23.1123623199999990 2.6048616899999999 Au
atom 27.2223381000000018 23.2267941100000002 2.6719159700000001 Au
atom 1.8180046900000000 22.9825573699999985 2.6508052000000002 Au
atom 4.7205954300000004 22.9513233499999991 2.6694485600000002 Au
atom 9.1412982500000002 25.5308621600000016 2.9070318300000002 Au
atom 11.6593166299999993 25.7412390699999989 2.6854846999999999 Au
atom 14.4999133499999999 25.3981096899999983 2.7769518899999999 Au
atom 17.4503371700000010 25.6090557700000012 2.8442102299999998 Au
atom 20.2233907399999993 25.6154306699999985 2.7596082300000000 Au
atom 22.9067107700000001 25.4958889199999987 2.7300725500000000 Au
atom 25.6360115300000011 25.6514030400000017 2.7403720100000002 Au
atom 0.3665716800000000 25.4683618199999984 2.5609787700000002 Au
atom 3.2176578400000002 25.5574273800000000 2.5185117199999998 Au
atom 6.1644113899999997 25.5519200700000013 2.6453338899999999 Au
atom 7.3805177100000003 28.0231025500000008 2.6812289200000001 Au
atom 10.4208599000000000 27.9776382000000012 2.8510862100000001 Au
atom 13.2593044100000004 27.8495791500000003 2.5684175100000002 Au
atom 15.9263864000000002 28.0800697300000017 2.6260459500000000 Au
atom 18.8230086300000004 28.0345823799999998 2.6573675899999998 Au
atom 21.4696305299999999 28.0420413500000016 2.6746375100000002 Au
atom 24.5405568900000013 27.8633579699999991 2.5467852199999998 Au
atom 27.3149692199999983 28.0904850699999997 2.7824156100000002 Au
atom 1.9453854700000000 28.1030649299999986 2.5670187200000001 Au
atom 4.8274504000000000 27.9734113399999984 2.5978182799999998 Au
atom 8.9388470099999999 30.2975842100000001 2.5379541699999999 Au
atom 11.7645821300000009 30.4031126799999996 2.4466592999999999 Au
atom 14.5436878800000002 30.5904507700000003 2.5456203199999998 Au
atom 17.3855268400000007 30.4587490000000010 2.5903245400000001 Au
atom 20.2264063299999997 30.5442688999999987 2.7384576900000002 Au
atom 23.1601553899999999 30.5191686500000010 2.6621077099999999 Au
atom 25.6012083100000005 30.4496578800000002 2.6557209799999999 Au
atom 0.5627898800000000 30.4314251899999988 2.8329198199999999 Au
atom 3.2680928599999999 30.2904927499999985 2.4558649600000000 Au
atom 6.1784572000000004 30.4526218799999988 2.9919865300000001 Au
atom 7.4327991800000000 32.7414917400000007 2.5884064800000002 Au
atom 10.2129478999999996 33.0173080900000002 2.8721064900000002 Au
atom 13.1456871999999994 33.0236647199999993 2.6666811799999999 Au
atom 16.0588103599999990 32.9506135299999983 2.6917588800000001 Au
atom 18.7293530799999992 32.7523036999999988 2.5578325000000000 Au
atom 21.6501860499999985 32.9906578000000010 2.5336515600000000 Au
atom 24.3179835900000008 33.0038524100000004 2.7694929400000001 Au
atom 27.3728667200000011 32.8813295499999967 2.5355659099999999 Au
atom 1.8201099300000001 32.8060448299999976 2.4902584499999998 Au
atom 4.6660550199999999 32.9545988500000036 2.5706894100000000 Au
atom 9.0588519299999994 35.5901706399999966 2.7643022700000000 Au
atom 11.9033944799999993 35.3591239599999980 2.6999715200000001 Au
atom 14.5240894600000008 35.1843066799999988 2.6748119699999999 Au
atom 17.4742856199999999 35.2895157399999988 2.7196406099999999 Au
atom 20.2496316599999986 35.5554459199999968 2.6112302399999998 Au
atom 23.0709306500000011 35.3182031099999989 2.5556784299999999 Au
atom 25.8117395899999984 35.2891439099999999 2.6894815900000002 Au
atom 0.2729849100000000 35.4585155199999988 2.6228669600000001 Au
atom 3.2828826699999998 35.3360062200000016 2.5540311700000000 Au
atom 6.1144211799999999 35.3632223199999984 2.5956222699999998 Au
atom 7.5823455500000003 37.9832070100000010 2.4677327999999998 Au
atom 10.4027705600000004 37.7193197499999968 2.7884718300000002 Au
atom 13.1222700999999997 37.8708328100000031 2.6045876099999998 Au
atom 15.9254011700000007 37.9590944600000029 2.5477199399999999 Au
atom 18.7767882099999994 37.8582836200000017 2.4908866500000002 Au
atom 21.6380232799999987 37.9430033499999979 2.8896916500000001 Au
atom 24.4271045600000001 37.8374164499999992 2.7151369500000002 Au
atom 27.1077410599999986 37.8982909500000034 2.5889741499999999 Au
atom 1.8155479999999999 37.9278556499999979 2.6630786199999998 Au
atom 4.5516029800000002 37.9041072699999972 2.8946655799999998 Au
atom 8.9312012999999997 1.0579064499999999 2.7242404100000002 Au
atom 11.8208031400000007 0.9945468300000000 2.8384379700000002 Au
atom 14.5441088300000008 0.7283699700000000 2.7102430599999998 Au
atom 17.5971324399999993 0.8594260500000001 2.6247812800000001 Au
atom 20.0849410299999995 0.8183101400000000 2.6270918000000001 Au
atom 22.9218352699999990 0.8505747600000000 2.6248350500000002 Au
atom 25.9854210499999994 0.7864290000000000 2.7880314700000000 Au
atom 0.5442675300000001 0.6590303500000000 2.8209269899999998 Au
atom 3.4188942400000002 0.8412386600000000 2.7023609300000002 Au
atom 5.9630707899999997 0.8944194900000000 2.7149937400000002 Au
atom 7.3175482100000000 3.3669001100000000 2.6649351800000001 Au
atom 10.3242481500000007 3.4708184300000000 2.7469619500000002 Au
atom 13.1050336600000001 3.2085837000000001 2.6324622000000000 Au
atom 15.9814183900000000 3.0739959699999999 2.6110067400000001 Au
atom 18.6740111900000016 3.4424939800000001 2.7065231299999999 Au
atom 21.7112383999999992 3.3719324199999998 2.6216698900000002 Au
atom 24.4710151499999995 3.2196313000000001 2.6498043600000001 Au
atom 27.0918244500000007 3.3462980899999999 2.6877391500000001 Au
atom 1.7287577400000000 3.2065813300000001 2.5971703399999999 Au
atom 4.7074845400000003 3.3381551699999998 2.8221187799999998 Au
atom 8.9221642899999996 5.9415390400000003 2.7030380300000001 Au
atom 11.7122438700000000 5.7887174500000000 2.6007369699999998 Au
atom 14.5261563000000002 5.8001827700000002 2.6558596799999998 Au
atom 17.5307296299999997 5.9212386900000000 2.6244138100000001 Au
atom 20.1912779700000016 5.6548103999999997 2.7761748800000001 Au
atom 23.0519866600000007 5.8770834799999996 2.7336617500000000 Au
atom 25.7579542299999993 5.8140122600000002 2.6626899200000000 Au
atom 0.4328214100000000 5.5114685600000000 2.7560063900000000 Au
atom 3.4003490300000001 5.6524381699999999 2.6790855400000000 Au
atom 6.0201805400000001 5.6027557899999998 2.6548569000000000 Au
atom 7.4071826800000000 8.3505749500000004 2.4317254300000002 Au
atom 10.2172259899999993 8.2267252899999992 2.6729194700000001 Au
atom 13.2083791200000000 8.1840283300000003 2.7507298200000001 Au
atom 15.8751645999999997 8.0875310599999999 2.6947001500000001 Au
atom 18.8895017699999990 8.1486698499999992 2.6942962499999998 Au
atom 21.5821824599999985 8.1707448100000004 2.5848883800000002 Au
atom 24.3967267399999983 8.1504118099999996 2.8001422599999999 Au
atom 27.4228750900000016 8.3713137000000000 2.5745864900000002 Au
atom 1.7756268200000001 8.2587134399999993 2.7251128200000001 Au
atom 4.7697426800000002 8.2937289599999993 2.5394859500000000 Au
atom 8.8463799800000000 10.4485098799999996 2.5694105899999999 Au
atom 11.8500890299999995 10.9153630199999991 2.5332849199999998 Au
atom 14.5391257100000004 10.8181129200000008 2.5278277700000000 Au
atom 17.3091969699999986 10.6987516500000002 2.7410551800000000 Au
atom 20.1559633799999993 10.8425878000000004 2.7963127999999999 Au
atom 23.0223055999999993 10.9393080099999995 2.7966774700000001 Au
atom 25.7589756200000011 10.7192474400000002 2.5276599900000001 Au
atom 0.3580809900000000 10.7173380999999992 2.6050806999999998 Au
atom 3.1969662099999998 10.8199644100000008 2.7077558399999999 Au
atom 6.0381607800000001 10.6841314500000006 2.5856115100000001 Au
atom 7.6358518699999998 13.0554666499999996 5.7575380300000001 Cl
atom 7.6003737200000003 16.0027498799999996 8.5245090999999995 Cl
atom 7.4277480699999998 13.1710765300000006 8.4782530099999995 Na
atom 7.4570615800000004 15.9537669599999994 5.8845400899999998 Na
atom 7.4854571700000001 18.7771966299999988 5.5255538900000003 Cl
atom 7.5110139900000004 21.8388206599999997 8.3719330400000000 Cl
atom 7.5379168500000002 18.6708227099999995 8.3597952099999997 Na
atom 7.3392190700000004 21.7644915400000016 5.7725685100000002 Na
atom 7.3834959700000002 24.4472666499999995 5.7538281900000001 Cl
atom 7.4294241500000000 27.3294819699999998 8.5447107300000003 Cl
atom 7.5524567600000001 24.5764670800000005 8.3899565999999997 Na
atom 7.6696446700000003 27.3244463499999988 5.8004798400000004 Na
atom 7.6586785700000002 30.0929432199999987 5.7437866499999997 Cl
atom 7.4872844900000004 32.8265645899999967 8.5170145599999998 Cl
atom 7.5815643100000001 30.0155484900000005 8.2712368499999993 Na
atom 7.5029424999999996 32.8935206600000001 5.7968558200000002 Na
atom 7.4640220199999998 35.5299947600000010 5.7551964199999999 Cl
atom 7.5500327100000000 38.6991364300000029 8.7892889899999993 Cl
atom 7.4287242200000003 35.7692124000000007 8.3630860600000005 Na
atom 7.4600705200000004 38.5993579499999981 5.9078456800000003 Na
atom 7.5320470899999998 2.0414518699999999 5.7521276200000004 Cl
atom 7.4737851700000002 4.8879782000000001 8.5129535399999998 Cl
atom 7.3622618900000001 1.8763939199999999 8.4007772000000003 Na
atom 7.4123062300000004 4.7187581900000000 5.8241467499999997 Na
atom 7.3122073900000002 7.5421199999999997 5.8683415800000001 Cl
atom 7.4950168699999997 10.3654191400000002 8.4673027500000000 Cl
atom 7.3584513999999999 7.5078452400000000 8.2081283000000003 Na
atom 7.2865526899999997 10.4335081600000006 5.8230843500000002 Na
atom 10.4311805100000008 13.2079751000000005 5.7102931500000000 Na
atom 13.2895208999999994 13.0807099299999994 5.7384080700000002 Cl
atom 10.5259569699999993 15.9604599999999994 8.0954951000000008 Na
atom 13.1896783400000004 16.0419358099999982 8.4415499599999997 Cl
atom 13.1170711999999998 13.2877689900000000 8.1970734499999995 Na
atom 10.2467915800000000 13.2769274900000003 8.5618654599999999 Cl
atom 13.0309456600000004 15.9001988200000000 5.7251286199999996 Na
atom 10.2211401100000003 15.9484149199999994 5.8994576399999996 Cl
atom 10.4805065499999994 18.8324568600000006 5.8518489599999999 Na
atom 13.2454541399999997 18.8853238599999997 5.5680525000000003 Cl
atom 10.4080629899999995 21.5532090399999987 8.3241562400000007 Na
atom 13.2214304699999996 21.7063184500000013 8.5590326500000007 Cl
atom 13.1803035800000004 18.8407101700000013 8.2535573899999992 Na
atom 10.3382396599999993 18.8300972900000012 8.6442592999999999 Cl
atom 13.2529122600000004 21.6929091599999992 5.6271932500000004 Na
atom 10.3333517799999992 21.7434540799999994 5.8908235800000002 Cl
atom 10.2145036699999991 24.2491951800000010 5.8087345600000004 Na
atom 13.2630262099999996 24.5023681099999990 5.6914771699999998 Cl
atom 10.4242761999999995 27.5033779299999992 8.5491487199999998 Na
atom 12.9874175699999999 27.4251839000000004 8.6883226600000008 Cl
atom 13.2295572499999992 24.3532104800000013 8.2041680199999991 Na
atom 10.3830089200000000 24.4872715599999999 8.5052959399999999 Cl
atom 13.0462699700000009 27.3073850900000004 5.9821298299999999 Na
atom 10.3373279999999994 27.3758248399999999 5.8414907899999999 Cl
atom 10.3570296499999994 30.0100133199999988 5.8419336900000003 Na
atom 13.1363126300000008 29.9984220899999983 5.7580301599999997 Cl
atom 10.2117363300000008 32.9768944599999969 8.2901287099999994 Na
atom 13.1416108999999999 33.0402204399999988 8.4498230599999999 Cl
atom 13.2599906500000007 30.0264245699999996 8.1639844799999999 Na
atom 10.3726613299999997 30.2357240999999988 8.6213942400000008 Cl
atom 13.0970648900000004 33.0603535899999983 5.8619860299999997 Na
atom 10.2347155000000001 32.7493026799999996 5.7721431299999999 Cl
atom 10.3098575300000004 35.7310646199999979 5.7433833700000001 Na
atom 13.1843431199999994 35.7177853000000027 5.7937901500000004 Cl
atom 10.2736177699999995 38.5697547700000030 8.4507701100000006 Na
atom 13.2410265400000000 38.6061104599999965 8.7418285099999995 Cl
atom 13.2422599400000003 35.5990429499999976 8.5049690499999997 Na
atom 10.2646066000000005 35.6944959900000001 8.5903072399999996 Cl
atom 13.0247906199999992 38.6436389599999970 5.7968151299999997 Na
atom 10.1853584799999997 38.5489334600000007 6.0259053800000002 Cl
atom 10.2091761299999995 1.9537643400000000 6.0905573100000003 Na
atom 12.9960444400000004 1.8325674000000001 5.4396547999999996 Cl
atom 10.2377344299999997 4.6554826900000004 8.4424422099999994 Na
atom 13.1158809499999993 4.8451118099999997 8.7342987999999995 Cl
atom 13.1511326900000007 1.8029062800000000 8.3734371999999997 Na
atom 10.3288804200000008 1.9921659400000000 8.5953485799999996 Cl
atom 13.0862624499999995 4.6896096800000002 5.8149744800000001 Na
atom 10.4218308200000003 4.6480725899999999 5.7881094199999996 Cl
atom 10.3454467200000000 7.4802832099999996 5.9690528299999999 Na
atom 13.2207770500000006 7.4205047600000000 5.6078038799999996 Cl
atom 10.4345646300000006 10.4090092900000002 8.4197872999999994 Na
atom 13.0083368200000002 10.4243407399999999 8.4529900799999993 Cl
atom 13.2628699300000008 7.5115064599999997 8.3975429599999991 Na
atom 10.2600526399999996 7.4963639000000004 8.6584619499999995 Cl
atom 13.1612136599999996 10.3515999099999991 5.6977843400000001 Na
atom 10.3709157500000000 10.3978319799999994 5.6825217600000002 Cl
atom 16.0194529599999989 13.2491548800000007 5.7184984099999996 Na
atom 18.7097541499999984 13.2200556200000001 5.7469272599999996 Cl
atom 16.0781323299999990 15.9962622200000002 8.5572620900000000 Na
atom 18.5221470900000007 15.9381906600000001 8.3505883700000005 Cl
atom 18.9755139799999988 12.9620124499999996 8.3527388600000005 Na
atom 15.8898125700000001 13.1708434600000004 8.7061005300000005 Cl
atom 18.6533349800000003 15.9807674399999993 5.8406772699999996 Na
atom 15.9447143300000000 15.8926810500000002 5.5764405699999999 Cl
atom 15.8869252099999994 18.7765970899999992 6.0065375999999997 Na
atom 18.8730164100000017 19.0606902500000004 5.6347205499999999 Cl
atom 15.8173130299999993 21.4380072999999989 8.3653321500000004 Na
atom 18.7415891700000010 21.5413336300000005 8.6157347800000004 Cl
atom 18.7095481799999988 18.7325756199999987 8.4753977299999992 Na
atom 15.8981730900000002 18.8149458100000011 8.3759230299999992 Cl
atom 18.8575422599999989 21.7030005899999985 5.7551012100000003 Na
atom 16.1219287199999997 21.5809649300000004 5.7422101200000002 Cl
atom 15.8042380799999993 24.4316649099999985 5.8665204800000001 Na
atom 18.7144702000000009 24.5318460300000005 5.6917440099999999 Cl
atom 16.0379670200000000 27.3663655299999995 8.3073635899999996 Na
atom 18.7309748800000015 27.0974060700000017 8.5312794600000004 Cl
atom 18.7583785300000017 24.4419954200000014 8.3315008899999992 Na
atom 15.7823411700000005 24.4989776900000003 8.6745231700000005 Cl
atom 18.7414905000000012 26.9954370899999994 5.7207230700000000 Na
atom 15.9080723299999995 27.1932295800000006 5.7642156099999999 Cl
atom 15.8033303099999998 30.1247572000000012 5.8617336699999996 Na
atom 18.9137191099999988 30.1387841999999999 5.4772801299999996 Cl
atom 15.9849286799999994 32.7531260700000004 8.4066546899999999 Na
atom 18.8587271200000011 32.7927162900000013 8.5005018299999993 Cl
atom 18.8303967800000009 29.9567357399999992 8.2683343499999999 Na
atom 16.0124316700000016 30.3348850799999994 8.3313884100000006 Cl
atom 19.0051386600000001 33.0243379200000007 5.6450725100000003 Na
atom 15.9357959299999994 32.8837555599999973 5.6187718300000000 Cl
atom 16.1764532999999986 35.7687491000000009 5.9371248599999999 Na
atom 18.7264116399999985 35.7063158599999966 5.7865398700000004 Cl
atom 15.7628608200000002 38.4152338999999969 8.5075088099999991 Na
atom 18.7238836100000015 38.6410076000000018 8.5891769199999999 Cl
atom 18.6723177599999985 35.7944013700000028 8.3934864999999999 Na
atom 16.0421793500000014 35.7628139899999979 8.5624733499999994 Cl
atom 18.8067076299999982 38.6410461799999965 5.7991753299999997 Na