#===============================================================================
# Created using the Atomic Simulation Environment (ASE)

# Tue Dec 23 22:26:58 2025

#=======================================================
lattice_vector 28.1999999999999993 0.0000000000000000 0.0000000000000000 
lattice_vector 0.0000000000000000 39.4799999999999969 0.0000000000000000 
lattice_vector 0.0000000000000000 0.0000000000000000 62.3296083400000001 
atom 7.4660072599999996 14.7944139099999994 -0.1685904800000000 Au
atom 10.3092108499999995 14.7556287299999997 -0.2793603900000000 Au
atom 13.1514142900000000 14.8076460300000008 -0.2667238100000000 Au
atom 15.9641354799999995 14.8502583900000005 -0.3117169500000000 Au
atom 18.8133443199999988 14.7843195699999992 -0.2273427100000000 Au
atom 21.6069800299999990 14.8202863899999997 -0.2160567400000000 Au
atom 24.4539665299999989 14.7993686699999998 -0.0740733800000000 Au
atom 27.2389512300000014 14.6900777300000005 -0.1317401800000000 Au
atom 1.8526974400000000 14.7618607100000006 -0.0663517100000000 Au
atom 4.6774637999999999 14.7801749200000003 -0.1119781300000000 Au
atom 8.9112860999999999 17.2508543500000009 -0.2138259900000000 Au
atom 11.7267939099999996 17.2850526500000008 -0.3056928900000000 Au
atom 14.5525469699999999 17.2594900399999993 -0.3090759400000000 Au
atom 17.3766888100000010 17.2344020700000016 -0.2770272100000000 Au
atom 20.1909331399999985 17.3016194699999986 -0.2018670900000000 Au
atom 23.0173225899999991 17.2636990799999985 -0.1432414200000000 Au
atom 25.8544187000000001 17.2490619100000018 0.0064211600000000 Au
atom 0.4593316000000000 17.4613899799999999 0.0001133100000000 Au
atom 3.2484226100000000 17.2778538899999994 -0.0309553900000000 Au
atom 6.0692990499999997 17.2772891000000008 -0.1377863500000000 Au
atom 7.4696476299999999 19.7357632800000005 -0.1056952500000000 Au
atom 10.3289799900000006 19.7873132399999996 -0.2193725200000000 Au
atom 13.1213508099999991 19.7802745100000017 -0.2922242500000000 Au
atom 15.9701578600000005 19.7607371299999990 -0.3082299400000000 Au
atom 18.7969968099999996 19.7490604999999988 -0.2012608900000000 Au
atom 21.5993408199999983 19.7438797500000014 -0.1466181400000000 Au
atom 24.4133466400000003 19.7770374300000000 0.0209088600000000 Au
atom 27.2508739800000015 19.6886038399999990 -0.0719215400000000 Au
atom 1.8628659599999999 19.7637001499999982 0.0976160200000000 Au
atom 4.6422069600000002 19.7634478400000013 -0.0118829800000000 Au
atom 8.9437095600000003 22.2376181099999997 -0.1686816200000000 Au
atom 11.7320170699999995 22.2386962900000000 -0.2364422900000000 Au
atom 14.5896554700000003 22.2368399600000011 -0.2912064900000000 Au
atom 17.3790713399999994 22.2348654900000007 -0.2546175300000000 Au
atom 20.2109776299999986 22.1919724400000007 -0.2157012500000000 Au
atom 23.0248955600000009 22.2182427099999984 -0.0597570400000000 Au
atom 25.8695930599999997 22.1811735500000005 0.0479809400000000 Au
atom 0.4616294000000000 22.0195590699999997 0.0665266000000000 Au
atom 3.2564781500000000 22.1851183499999998 0.0281860600000000 Au
atom 6.0603954699999996 22.2198374700000016 -0.0308541500000000 Au
atom 7.4955209399999996 24.6611611300000000 -0.0379183100000000 Au
atom 10.3147088700000005 24.6913991599999996 -0.1540881100000000 Au
atom 13.1368421899999994 24.6935409200000002 -0.2311773400000000 Au
atom 15.9629797900000003 24.6904307900000006 -0.2348476400000000 Au
atom 18.7930874000000010 24.7206582300000015 -0.1808390100000000 Au
atom 21.5944308400000011 24.6825848699999995 -0.1093296800000000 Au
atom 24.4522324200000014 24.6684198300000013 0.0128941100000000 Au
atom 27.2302014800000016 24.5294329799999993 -0.1062358600000000 Au
atom 1.8436726600000000 24.6779529800000006 0.0909788300000000 Au
atom 4.6545739199999998 24.6648389200000011 0.0597859500000000 Au
atom 8.9062134600000000 27.1851449800000005 -0.1324187400000000 Au
atom 11.7458353500000001 27.1741755299999994 -0.2072809600000000 Au
atom 14.5424394600000007 27.1509052100000012 -0.2275057500000000 Au
atom 17.3772742600000001 27.1967305900000014 -0.2183483200000000 Au
atom 20.2210671499999997 27.1842535599999984 -0.1511303600000000 Au
atom 23.0382306399999983 27.1422668800000011 -0.0787000100000000 Au
atom 25.8472872199999983 27.1490352799999997 0.0435365300000000 Au
atom 0.4576666600000000 27.0356427100000012 -0.1101253500000000 Au
atom 3.2680153999999999 27.1653697600000008 0.0460255600000000 Au
atom 6.0814763599999999 27.1511132300000000 0.0090234400000000 Au
atom 7.4697692199999999 29.6472689699999989 -0.0693116500000000 Au
atom 10.3241071800000004 29.6362534800000006 -0.1903840700000000 Au
atom 13.1527738500000009 29.5936028600000007 -0.2669286600000000 Au
atom 15.9448393799999995 29.6599542300000003 -0.2435419800000000 Au
atom 18.7931559600000000 29.6492553200000017 -0.2176374500000000 Au
atom 21.6194283899999995 29.6338913499999990 -0.1121322900000000 Au
atom 24.4636340200000006 29.6007831800000005 -0.0447363400000000 Au
atom 27.2570549500000006 29.6943365800000016 0.1078547400000000 Au
atom 1.8464895699999999 29.5790320899999983 -0.0916289800000000 Au
atom 4.6790205399999998 29.6198271099999992 -0.0654623600000000 Au
atom 8.9620704900000003 32.1358442800000006 -0.1396506800000000 Au
atom 11.7298260600000006 32.1283812100000006 -0.1814227900000000 Au
atom 14.5415881099999993 32.0937931599999970 -0.2245229600000000 Au
atom 17.4058006700000014 32.1330591999999982 -0.2063253300000000 Au
atom 20.2188742599999998 32.0665814500000010 -0.1033551400000000 Au
atom 23.0373461800000001 32.0602907500000001 -0.0792197400000000 Au
atom 25.8539972899999988 32.0770614199999997 -0.0289382800000000 Au
atom 0.4502827700000000 32.1666002799999973 -0.1068679500000000 Au
atom 3.2762212100000001 32.0935664599999981 -0.0920678000000000 Au
atom 6.0796523899999997 32.1021879199999987 -0.1020941400000000 Au
atom 7.5227511099999997 34.5506802299999976 -0.0615118100000000 Au
atom 10.3552398100000005 34.5656754600000014 -0.0618629000000000 Au
atom 13.1502486800000007 34.6339782700000001 -0.1268010100000000 Au
atom 15.9639234000000005 34.5721604700000000 -0.1161613400000000 Au
atom 18.8207972099999985 34.5954817900000009 -0.1031230300000000 Au
atom 21.5964352899999987 34.5935350800000023 -0.0650859900000000 Au
atom 24.4037314199999997 34.5811829200000034 -0.0479352000000000 Au
atom 27.2356922399999988 34.6172231899999971 0.0168028300000000 Au
atom 1.8468125099999999 34.4845471499999974 -0.0426901300000000 Au
atom 4.6811737000000004 34.5434358500000016 -0.0098707700000000 Au
atom 8.7346377000000004 37.0255594200000004 0.1816512100000000 Au
atom 11.6256233000000009 37.0498922700000008 -0.0583279500000000 Au
atom 14.4675235900000008 37.0794361700000010 0.0877771000000000 Au
atom 17.4539369600000001 37.0689599700000016 0.1764237500000000 Au
atom 20.0772021599999988 37.0278188699999973 0.0867416800000000 Au
atom 23.0951586300000002 37.0261465299999983 0.0773470500000000 Au
atom 25.7780058300000015 37.0279498200000035 0.0806780400000000 Au
atom 0.4791893800000000 37.1065050899999989 0.0652730300000000 Au
atom 3.3108820699999999 37.0277853400000012 0.0745757200000000 Au
atom 6.1859460200000003 37.0621562600000019 0.1653525900000000 Au
atom 7.4408825399999996 0.0313216600000000 -0.2153094800000000 Au
atom 10.3494648999999992 0.0345669000000000 0.0858119100000000 Au
atom 13.1005356099999997 0.0398926800000000 -0.0610531600000000 Au
atom 16.1517859900000005 0.0660018600000000 0.2411890200000000 Au
atom 18.6592166599999985 0.0364593500000000 0.0308404600000000 Au
atom 21.5966063199999994 -0.0071137100000000 0.1549181800000000 Au
atom 24.3129759499999984 0.0448172100000000 0.0512219500000000 Au
atom 27.2472276300000011 0.0898919300000000 0.1852359400000000 Au
atom 1.8080199200000000 -0.0097965600000000 0.1672648300000000 Au
atom 4.8623477099999999 0.0183018900000000 0.1065309900000000 Au
atom 8.9578257899999993 2.5064485200000002 0.1059703500000000 Au
atom 11.7363019899999994 2.5171491200000000 0.1534605900000000 Au
atom 14.5254314699999991 2.5188990400000000 0.1376241400000000 Au
atom 17.3704655400000014 2.4996436399999999 0.1266853500000000 Au
atom 20.1803645799999991 2.4609143900000001 0.1314683000000000 Au
atom 23.0018975700000006 2.4904679399999998 0.1552990800000000 Au
atom 25.8363786699999984 2.5270913799999999 0.1006128500000000 Au
atom 0.4368735400000000 2.5963841699999999 0.2336610600000000 Au
atom 3.2435445100000000 2.4597302999999999 0.1352182800000000 Au
atom 6.0870282700000002 2.4634230800000001 0.1562181400000000 Au
atom 7.5079413700000002 4.9412536100000004 0.1843556700000000 Au
atom 10.3201625400000001 4.9487249899999997 0.1790976800000000 Au
atom 13.1438150300000007 4.9804614000000003 0.1557741700000000 Au
atom 15.9717778599999995 4.9756936300000003 0.1651837100000000 Au
atom 18.7818114099999995 4.9618402499999998 0.1376344400000000 Au
atom 21.6194911400000009 4.9773769000000003 0.1653336000000000 Au
atom 24.3977589299999984 4.9260184000000002 0.1498111500000000 Au
atom 27.2486886000000013 4.9044328300000002 0.2723426900000000 Au
atom 1.8520138100000001 4.8910541900000002 0.0912388300000000 Au
atom 4.6802194400000001 4.9583209899999998 0.1771514700000000 Au
atom 8.9249560599999995 7.3742356700000000 0.1578711600000000 Au
atom 11.7691641499999999 7.4237679900000000 0.1408708400000000 Au
atom 14.5402599699999993 7.4057353499999996 0.1121632700000000 Au
atom 17.4021903800000004 7.3993437899999996 0.0822151600000000 Au
atom 20.1932068300000012 7.3946743300000000 0.0782330400000000 Au
atom 23.0278594500000011 7.4010574900000003 0.0889553700000000 Au
atom 25.8237943799999989 7.3733337800000003 0.0857456800000000 Au
atom 0.4656958500000000 7.2986571400000004 0.1771714200000000 Au
atom 3.2781730100000002 7.3898775199999998 0.1298733700000000 Au
atom 6.1051781800000002 7.4182754199999996 0.1321364900000000 Au
atom 7.4908370399999997 9.8528445900000001 0.0832246500000000 Au
atom 10.3267816900000007 9.8922010399999998 0.0613539600000000 Au
atom 13.1547317699999997 9.8501920100000007 0.0224679900000000 Au
atom 15.9397566600000005 9.8505900700000009 -0.0259276800000000 Au
atom 18.7934496799999984 9.8683703099999995 0.0008543100000000 Au
atom 21.5779071500000015 9.8585597699999994 -0.0344543800000000 Au
atom 24.4317723499999992 9.8587339600000004 0.0240918900000000 Au
atom 27.2662186300000009 9.8852669300000002 0.2357849100000000 Au
atom 1.8856860799999999 9.8471535100000001 0.0425362500000000 Au
atom 4.6932696900000002 9.8512036599999995 0.0546080500000000 Au
atom 8.8840180800000006 12.3374980200000000 -0.0931779800000000 Au
atom 11.7533353799999993 12.3109020699999991 -0.1390807500000000 Au
atom 14.5733039899999994 12.3129161800000002 -0.1574990400000000 Au
atom 17.3794422500000003 12.3185967499999993 -0.1518954700000000 Au
atom 20.2164955900000010 12.3475805300000001 -0.1121750000000000 Au
atom 23.0454349500000006 12.3475776699999997 -0.0780885100000000 Au
atom 25.8085344200000009 12.2910435099999997 -0.0422801000000000 Au
atom 0.4597538400000000 12.2651373499999998 -0.0485331300000000 Au
atom 3.2490320200000000 12.3328907099999991 -0.0541538200000000 Au
atom 6.0538251599999997 12.3417505599999995 -0.0596715900000000 Au
atom 7.5043431399999996 13.2297992400000002 2.5216823800000001 Au
atom 10.3557445700000006 13.2329846999999994 2.4372907800000001 Au
atom 13.1446133799999991 13.2530346899999998 2.4209996600000001 Au
atom 15.9124043999999998 13.2907834299999994 2.3508735999999999 Au
atom 18.7995158999999994 13.2336460799999998 2.4279310299999999 Au
atom 21.6170232400000017 13.2020191199999992 2.4746604699999999 Au
atom 24.4376873699999990 13.1968630200000003 2.6106570599999999 Au
atom 27.2741562600000016 13.2337589999999992 2.4338484899999999 Au
atom 1.8118896099999999 13.1851602400000001 2.6513326199999998 Au
atom 4.7013626799999999 13.2001467199999993 2.4700107099999999 Au
atom 8.9230073399999998 15.6678378499999997 2.3645402799999999 Au
atom 11.7284848900000007 15.6735141400000000 2.2889618000000000 Au
atom 14.5616895900000003 15.6575826300000003 2.3146646899999999 Au
atom 17.3518057600000013 15.6422494499999996 2.3264683200000000 Au
atom 20.1821465199999999 15.6644329599999992 2.3427835799999999 Au
atom 22.9679021799999994 15.6609413100000001 2.4352474100000001 Au
atom 25.8565692499999997 15.5433689400000006 2.4853473699999999 Au
atom 0.4648570600000000 15.5836214700000006 2.5151834700000002 Au
atom 3.2547469599999999 15.6144718000000005 2.5318867900000002 Au
atom 6.1139744900000004 15.6682993499999998 2.4601576000000001 Au
atom 7.5330751400000002 18.0850180599999995 2.5308858800000000 Au
atom 10.3260599499999994 18.1370944600000001 2.3347053799999999 Au
atom 13.1402970600000000 18.1379264199999994 2.2950841999999998 Au
atom 15.9528818799999996 18.1639318699999990 2.2457049699999998 Au
atom 18.7927533500000017 18.1222688100000013 2.4003380000000001 Au
atom 21.6025612199999983 18.1123482699999983 2.4298364700000001 Au
atom 24.4051424600000004 18.1119319400000016 2.6008587900000002 Au
atom 27.2249557899999992 18.2125784800000012 2.5819925100000001 Au
atom 1.8361952100000001 18.0844399500000002 2.6956962899999999 Au
atom 4.7094179399999998 18.1156662699999984 2.5537445900000000 Au
atom 8.9347887700000008 20.6036599000000002 2.4618836700000002 Au
atom 11.7618307200000007 20.5986381200000004 2.3759799300000002 Au
atom 14.5643560599999997 20.6051712400000007 2.3793214100000002 Au
atom 17.3412708199999983 20.5983040099999997 2.3593751300000001 Au
atom 20.2269816800000015 20.6271152600000001 2.4721681800000002 Au
atom 22.9993436299999985 20.5919200300000007 2.5827927700000002 Au
atom 25.8226289599999994 20.5688716199999995 2.6064061700000001 Au
atom 0.4445907300000000 20.7039488899999995 2.6629174400000002 Au
atom 3.2758355600000000 20.5710280099999991 2.7027689300000000 Au
atom 6.1048411500000004 20.5982892900000003 2.5774897499999998 Au
atom 7.5067533900000001 23.0436652700000018 2.5245852800000002 Au
atom 10.3460999000000005 23.0740154799999999 2.3899384200000000 Au
atom 13.1452533799999998 23.0653475000000014 2.3276025599999999 Au
atom 15.9569997000000008 23.0727280999999991 2.3485895499999998 Au
atom 18.7693198700000003 23.0501369800000013 2.3490734899999999 Au
atom 21.5646983799999994 23.0810031900000006 2.4454052900000001 Au
atom 24.3846971600000018 23.0402800300000017 2.5654387999999999 Au
atom 27.2641679799999999 23.1814278999999992 2.5520201800000000 Au
atom 1.8594442400000000 23.0680273900000010 2.7051619599999999 Au
atom 4.6863742400000001 23.0905382000000010 2.6021955100000000 Au
atom 8.9126593500000002 25.5213177699999996 2.5109519499999999 Au
atom 11.7505926699999996 25.5422771500000003 2.4562436299999999 Au
atom 14.5672218400000002 25.5616283300000013 2.4021566900000000 Au
atom 17.3776556000000006 25.5537577899999988 2.4098584999999999 Au
atom 20.1727823000000015 25.5176689900000007 2.5209906599999998 Au
atom 22.9965564799999989 25.5256934700000002 2.5803807900000000 Au
atom 25.8339411299999995 25.4410713299999998 2.7359125999999998 Au
atom 0.4446230700000000 25.4858392199999990 2.6383628899999998 Au
atom 3.2836139100000001 25.5236965299999987 2.7055525399999998 Au
atom 6.1174235899999996 25.5496644900000014 2.6143870900000001 Au
atom 7.5444931799999999 27.9865525800000015 2.4588125000000001 Au
atom 10.3369718200000005 28.0199843100000017 2.4371315899999999 Au
atom 13.1357269399999996 27.9934371000000013 2.3126703900000001 Au
atom 15.9700183899999999 28.0185457599999985 2.4227724700000000 Au
atom 18.7492093900000008 27.9988060400000016 2.4030721100000001 Au
atom 21.5591693100000015 28.0247988200000009 2.5477931599999999 Au
atom 24.3701867400000012 27.9864943699999991 2.5527850900000000 Au
atom 27.2505092200000014 27.9407314999999983 2.5515264499999999 Au
atom 1.8954472300000000 27.9759261499999994 2.6101542599999998 Au
atom 4.7066068000000003 28.0071867800000014 2.6730492500000000 Au
atom 8.8905233900000002 30.4762662300000002 2.5012233199999998 Au
atom 11.7400644500000002 30.4651005400000017 2.3918306600000001 Au
atom 14.5831458400000002 30.4589484599999984 2.3590922900000000 Au
atom 17.3508625499999987 30.4790680899999984 2.3981208700000001 Au
atom 20.1796054100000006 30.4623805800000014 2.4487227499999999 Au
atom 23.0226228400000004 30.4315346899999994 2.4986956100000000 Au
atom 25.8249861699999990 30.4398371499999989 2.6024147900000001 Au
atom 0.4416600600000000 30.3818167199999998 2.6056498399999999 Au
atom 3.2557797599999998 30.4406718599999984 2.5891280999999999 Au
atom 6.0955392300000000 30.4820107500000006 2.5126470900000002 Au
atom 7.5025037499999998 32.9472082500000027 2.4888251700000001 Au
atom 10.3384316300000005 32.9075158999999999 2.5037580300000002 Au
atom 13.1343017300000007 32.9417815899999979 2.3894280200000000 Au
atom 15.9659464199999999 32.9199713599999981 2.4766990899999999 Au
atom 18.7780953599999982 32.9336927399999979 2.4118012599999998 Au
atom 21.5849460499999992 32.8891170599999967 2.5533304200000000 Au
atom 24.4135846600000015 32.9218280999999990 2.5106427500000001 Au
atom 27.2397126999999983 33.0581461399999981 2.8086788199999999 Au
atom 1.8820007700000001 32.9675212000000002 2.5013463599999999 Au
atom 4.7029544799999998 32.8956649499999969 2.5772181399999998 Au
atom 8.9034077600000003 35.3634067300000012 2.5872782100000000 Au
atom 11.7500988799999995 35.3873956999999990 2.5710593600000000 Au
atom 14.5408311300000008 35.3756105900000009 2.5258681900000002 Au
atom 17.4012827200000011 35.3917729899999998 2.5358964700000000 Au
atom 20.1896620300000009 35.3800036900000023 2.5953238600000001 Au
atom 22.9996047499999996 35.3810480699999985 2.5971830499999999 Au
atom 25.8121806000000014 35.4069732900000034 2.5144107099999999 Au
atom 0.4236796600000000 35.3413366799999977 2.6901601700000000 Au
atom 3.3096527700000000 35.3746422600000017 2.5645702699999999 Au
atom 6.0727787099999997 35.3820429399999981 2.5784878700000000 Au
atom 7.2848822300000000 37.8194743500000001 2.5166385500000001 Au
atom 10.3478135600000005 37.8189082499999998 2.4463041500000000 Au
atom 13.0863523700000002 37.8690184900000020 2.5353183100000001 Au
atom 15.8138633599999991 37.8259107200000031 2.5204977099999999 Au
atom 18.5908766700000001 37.8680065699999986 2.7400212700000002 Au
atom 21.7976082300000016 37.8448287800000003 3.0657124800000002 Au
atom 24.5142750300000003 37.8389476299999998 2.5731305899999999 Au
atom 27.8182856100000002 37.9254237999999972 2.8690067899999998 Au
atom 1.6205691099999999 37.9493518199999968 2.9855204700000000 Au
atom 4.5169804700000000 37.8204514900000035 2.3904689399999999 Au
atom 8.9278231399999992 0.8523901000000000 2.7199647900000001 Au
atom 11.7850098400000007 0.8769968500000000 2.8258526100000001 Au
atom 14.5512969200000004 0.8249421100000000 2.7901621900000002 Au
atom 17.3822452200000015 0.8545500000000000 2.7909179700000002 Au
atom 20.2016705399999985 0.8363855200000000 2.7036335600000001 Au
atom 23.0548805299999984 0.8639684500000000 2.8527377800000000 Au
atom 25.8309981999999998 0.8815362100000000 2.7236760900000001 Au
atom 0.3835565400000000 0.9199370100000001 2.8956032199999999 Au
atom 3.2878917599999999 0.8197512900000000 2.8171221900000001 Au
atom 6.1950543400000004 0.8591906499999999 2.7377554700000002 Au
atom 7.4743052199999997 3.3213878000000001 2.7383659599999999 Au
atom 10.3635571399999993 3.3558035500000001 2.7927816399999998 Au
atom 13.1595325800000005 3.3576812000000000 2.7322372800000001 Au
atom 15.9461027600000005 3.3121018100000001 2.7484639099999999 Au
atom 18.7961177200000016 3.3555708000000002 2.6956331499999999 Au
atom 21.5917667000000009 3.2837403699999999 2.6964602300000000 Au
atom 24.4213015700000007 3.3182934600000000 2.7228214799999999 Au
atom 27.2414199100000012 3.3874494300000002 2.6985832699999999 Au
atom 1.8906969400000000 3.2540660199999998 2.7896469499999998 Au
atom 4.6879629700000001 3.3079054900000000 2.7772920800000001 Au
atom 8.9198800600000006 5.8481550100000002 2.8207757999999998 Au
atom 11.7543448700000006 5.8501994399999999 2.7940380899999999 Au
atom 14.5608460399999995 5.8181218599999998 2.8070011699999999 Au
atom 17.3603973300000014 5.8184079700000000 2.7727283599999999 Au
atom 20.2126334700000001 5.8273725299999999 2.7519011799999999 Au
atom 23.0308650899999989 5.8095357800000000 2.7616179900000000 Au
atom 25.8515579899999999 5.7493773499999996 2.7444044700000001 Au
atom 0.4472133300000000 5.7152941899999998 2.9372725499999999 Au
atom 3.2696869899999998 5.7987733900000000 2.8125088900000002 Au
atom 6.1056429899999998 5.8284617799999996 2.7766587600000001 Au
atom 7.4927599699999998 8.2936503199999994 2.7732447400000000 Au
atom 10.3065545699999994 8.2657983300000009 2.7067522400000001 Au
atom 13.1423046899999996 8.3223354599999997 2.7492175099999998 Au
atom 15.9747672299999994 8.3487879100000004 2.6204855100000000 Au
atom 18.7777201600000012 8.2893143800000004 2.6668487600000002 Au
atom 21.6061614099999986 8.2995065399999994 2.6260950099999998 Au
atom 24.4318588599999984 8.2866734599999994 2.7195955100000000 Au
atom 27.2385993199999987 8.3584492800000003 2.5794741800000001 Au
atom 1.8498284700000001 8.2625307899999996 2.7477092600000002 Au
atom 4.6756861499999998 8.2744757999999994 2.6869183799999998 Au
atom 8.9185718600000001 10.7815315700000003 2.6660771400000001 Au
atom 11.7564875099999995 10.7749586799999992 2.6255512300000001 Au
atom 14.5295354900000007 10.7994290999999993 2.5860832600000001 Au
atom 17.3772261999999991 10.7741972700000002 2.5624756000000000 Au
atom 20.1954060300000009 10.8149308099999999 2.5613923199999999 Au
atom 22.9977149199999999 10.7242203600000003 2.6001408399999999 Au
atom 25.8513041100000009 10.7119256000000007 2.7005292800000000 Au
atom 0.4461082700000000 10.6642491100000001 2.5931464200000001 Au
atom 3.2508603500000000 10.7416381899999998 2.6119084400000001 Au
atom 6.0813796900000003 10.7433600100000000 2.6182511499999999 Au
atom 7.4626036500000001 13.1433515300000003 5.6022680899999999 Cl
atom 7.5056430599999997 16.0192659800000001 8.4094107400000002 Cl
atom 7.4526575599999996 13.2376028699999999 8.2577836999999992 Na
atom 7.4119362100000004 16.0154447100000006 5.6381341599999999 Na
atom 7.4309421999999996 18.8650391599999985 5.5643705099999998 Cl
atom 7.5118255999999999 21.6432088200000017 8.4641324000000004 Cl
atom 7.4833564700000004 18.8345165500000000 8.2144077400000004 Na
atom 7.4361861400000002 21.6733416400000003 5.6808515399999999 Na
atom 7.4353341500000001 24.4663057700000017 5.5859758599999996 Cl
atom 7.5066589600000002 27.2727249799999996 8.4495987199999991 Cl
atom 7.4702847999999999 24.4467020599999998 8.2259460600000001 Na
atom 7.4492581900000001 27.2580915600000004 5.6902035599999996 Na
atom 7.4288330299999998 30.1275358699999991 5.6117410799999998 Cl
atom 7.4703147000000003 32.9246073600000031 8.5002360299999999 Cl
atom 7.4701640200000003 30.0906033199999996 8.2450793800000000 Na
atom 7.4135120600000004 32.9349481799999992 5.7463331799999997 Na
atom 7.4713843899999999 35.7863716000000025 5.7151933300000000 Cl
atom 7.5427162900000004 38.5738605399999983 8.5318559300000008 Cl
atom 7.4627238100000000 35.7215995500000005 8.3497703100000003 Na
atom 7.3162809500000003 38.5948656099999994 5.7263333500000000 Na
atom 7.6089548899999997 1.9207386600000000 5.8524225599999999 Cl
atom 7.4704644699999996 4.7316651399999996 8.6941646499999994 Cl
atom 7.4488555700000001 1.8800870900000000 8.4474813999999991 Na
atom 7.4703167099999996 4.6980445299999998 5.9214878100000004 Na
atom 7.4849078400000000 7.5134897699999996 5.7920566200000003 Cl
atom 7.4711487500000002 10.4060470699999996 8.5612161499999999 Cl
atom 7.4751516000000002 7.5795797100000000 8.4918940200000002 Na
atom 7.4919710799999999 10.3103010699999995 5.8280646599999999 Na
atom 10.2937849400000001 13.0779778300000000 5.6828547699999996 Na
atom 13.1142454500000003 13.1410261599999991 5.5510522499999997 Cl
atom 10.3091405599999995 16.0669086800000009 8.1551378799999998 Na
atom 13.0928469300000003 16.0248490799999992 8.3777550099999996 Cl
atom 13.1250987299999995 13.1490340700000008 8.1509781399999994 Na
atom 10.2922156400000002 13.2694195100000005 8.3853336200000008 Cl
atom 13.1464937499999994 15.9522721099999991 5.5293832900000002 Na
atom 10.2843096400000000 16.0009054100000014 5.4945013600000001 Cl
atom 10.2574663099999999 18.8687881699999984 5.5368796199999997 Na
atom 13.0955793400000005 18.8290516399999994 5.4253108599999997 Cl
atom 10.3204889800000004 21.6709624900000009 8.1914136899999992 Na
atom 13.1237170600000006 21.6392412400000005 8.2935054099999999 Cl
atom 13.1062912800000007 18.8790122999999994 8.0798745499999995 Na
atom 10.3154145199999991 18.8446604600000001 8.3194742000000002 Cl
atom 13.1103536599999995 21.6565706700000007 5.5023424299999997 Na
atom 10.2856272000000004 21.6673564200000008 5.5057496199999996 Cl
atom 10.2583096600000001 24.5066552000000009 5.6217637299999996 Na
atom 13.0982201800000002 24.4575666900000002 5.4823537800000004 Cl
atom 10.2622242099999994 27.3038692999999988 8.1823140900000002 Na
atom 13.0824369399999991 27.2772852999999991 8.3240553800000008 Cl
atom 13.1031235600000002 24.4663129200000000 8.1152227200000002 Na
atom 10.3271219199999997 24.4592640800000005 8.3495957199999999 Cl
atom 13.0869115600000008 27.2969995700000005 5.5845374300000001 Na
atom 10.2477190300000007 27.2842730600000003 5.5160687900000003 Cl
atom 10.3043781499999998 30.1316816600000017 5.6039948600000002 Na
atom 13.0902273600000001 30.1158899200000008 5.5641305299999999 Cl
atom 10.2557168300000008 32.9124068100000002 8.2538150500000000 Na
atom 13.1035717799999993 32.8982736900000035 8.4245294099999999 Cl
atom 13.0910755499999993 30.1081688599999993 8.2187973999999997 Na
atom 10.3033640900000005 30.0923639399999985 8.3871462799999996 Cl
atom 13.0926229999999997 32.9439610299999970 5.6768803700000001 Na
atom 10.2638076999999992 32.9668896700000005 5.6554633399999998 Cl
atom 10.2821363500000000 35.8052163899999982 5.7476015100000000 Na
atom 13.1125243800000000 35.7949476599999983 5.6731652199999996 Cl
atom 10.4236685999999992 38.5352815899999968 8.3221260499999996 Na
atom 13.1396116000000003 38.5336504400000024 8.5563251200000003 Cl
atom 13.0890565599999995 35.7323071699999986 8.3241123199999993 Na
atom 10.3091139300000005 35.7226790699999981 8.5058504300000006 Cl
atom 13.1079571200000000 38.6114729000000025 5.9161133299999999 Na
atom 10.0180641300000008 38.6061052700000005 5.7158470000000001 Cl
atom 10.1464328399999992 1.9032218400000001 5.8485076300000003 Na
atom 13.1791427799999994 1.9376102500000001 5.8427271799999998 Cl
atom 10.2708484299999991 4.7056466900000000 8.4783881399999999 Na
atom 13.1257800899999992 4.7302319900000001 8.6814814899999995 Cl
atom 13.0351900599999997 1.8496010100000000 8.3963175499999991 Na
atom 10.3057122499999991 1.8733469000000000 8.5389435000000002 Cl
atom 13.1095451799999996 4.7174859900000001 5.9397908099999999 Na
atom 10.3016239400000007 4.7236293600000003 5.8832308199999996 Cl
atom 10.3065566799999999 7.4813282000000001 5.9785171400000001 Na
atom 13.0940519999999996 7.4710497699999996 5.7708682299999996 Cl
atom 10.3154977300000006 10.4188857200000005 8.5993784200000007 Na
atom 13.1947507900000005 10.4125304900000000 8.5361929100000005 Cl
atom 13.0833331000000008 7.5675462299999996 8.4174204699999997 Na
atom 10.3095441000000001 7.5442385200000004 8.6859551400000008 Cl
atom 13.1168234899999998 10.2927343199999992 5.7787438599999996 Na
atom 10.2865448399999995 10.3013718200000000 5.8427544200000003 Cl
atom 15.9415432599999995 13.1179517400000005 5.6315399900000003 Na
atom 18.7802266799999984 13.1374106000000008 5.5312065400000003 Cl
atom 15.9489127199999992 15.9815810799999998 8.0640727499999993 Na
atom 18.7394327999999994 16.0291639500000009 8.3553155100000005 Cl
atom 18.7615121400000007 13.1977526500000000 8.1948511699999997 Na
atom 15.9435644599999993 13.2321465499999995 8.4189274500000000 Cl
atom 18.7712945299999987 15.9980196499999998 5.5419876600000002 Na
atom 15.9208656400000006 15.9761664799999998 5.4886052999999997 Cl
atom 15.9258305000000000 18.8269448200000014 5.4603211700000003 Na
atom 18.7739750100000009 18.8241742800000011 5.4457984300000000 Cl
atom 15.9035549700000001 21.5818431299999993 7.9887234700000000 Na
atom 18.7359277599999992 21.6260322400000007 8.2889787199999994 Cl
atom 18.7501961000000001 18.8016684000000005 8.0952982999999996 Na
atom 15.9418356200000009 18.8142103399999989 8.2769969400000001 Cl
atom 18.7477829699999994 21.6958555599999983 5.5302698399999999 Na
atom 15.9464672800000002 21.6623758899999999 5.4192682000000003 Cl
atom 15.9252319100000008 24.5053329700000013 5.5112822699999997 Na
atom 18.7650599299999996 24.4692729699999987 5.5337416099999999 Cl
atom 15.9567097899999997 27.2654907000000009 8.1171284299999993 Na
atom 18.7212012700000017 27.2367998500000006 8.4137345999999997 Cl
atom 18.7289568200000005 24.4345627400000005 8.1779130299999991 Na
atom 15.9086854199999994 24.4510291100000003 8.3025357000000000 Cl
atom 18.7741696199999986 27.3277975799999986 5.6370178400000004 Na
atom 15.9216018399999992 27.2746530599999986 5.5022850500000002 Cl
atom 15.9236084699999996 30.1419126800000008 5.6168407599999997 Na
atom 18.7416906700000006 30.1078159300000010 5.5745769500000000 Cl
atom 15.9219044000000007 32.9083711299999990 8.2398841800000007 Na
atom 18.7309043200000005 32.8968063800000010 8.4509347500000001 Cl
atom 18.7120410399999990 30.1147181300000000 8.2378606600000008 Na
atom 15.8986966800000005 30.0878533799999985 8.3857416899999997 Cl
atom 18.7506511799999984 32.9209017000000017 5.7044235399999996 Na
atom 15.9192125099999995 32.9450311000000013 5.5625436800000001 Cl
atom 15.8950204300000006 35.7860512499999999 5.6771402399999999 Na
atom 18.7335843799999999 35.7938721100000024 5.7016623800000001 Cl
atom 15.9857288200000003 38.5061076799999995 8.6489050600000006 Na
atom 18.7475575200000009 38.5234309200000027 8.6460106499999991 Cl
atom 18.7531400099999992 35.7304625000000016 8.3536455400000005 Na
atom 15.9152491800000000 35.7070596000000009 8.5087006800000005 Cl
atom 18.8970235799999990 38.5991259199999988 5.7667070499999999 Na