#===============================================================================
# Created using the Atomic Simulation Environment (ASE)

# Tue Dec 23 22:26:17 2025

#=======================================================
lattice_vector 28.1999999999999993 0.0000000000000000 0.0000000000000000 
lattice_vector 0.0000000000000000 39.4799999999999969 0.0000000000000000 
lattice_vector 0.0000000000000000 0.0000000000000000 62.3296083400000001 
atom 7.4320678999999998 14.8518828099999993 0.0517746400000000 Au
atom 10.3167246000000006 14.7622495100000002 -0.1278380000000000 Au
atom 13.0839639200000004 14.9684661800000001 -0.5763090199999999 Au
atom 15.9498712400000002 14.8587258999999996 -0.5178137200000000 Au
atom 18.6967901099999985 14.8693818100000001 -0.4096931400000000 Au
atom 21.5782071100000010 14.7844109199999991 -0.2205259600000000 Au
atom 24.3859924200000009 14.6815579599999992 -0.0907757200000000 Au
atom 27.1902727099999986 14.7660938999999996 -0.0403383000000000 Au
atom 1.8110639600000000 14.7093454099999992 -0.1865778200000000 Au
atom 4.5726179399999998 14.8110272300000005 -0.2295530100000000 Au
atom 8.8473489700000005 17.2074782999999982 -0.1194266400000000 Au
atom 11.6572965300000000 17.4559956000000014 -0.1861735700000000 Au
atom 14.5239116500000005 17.4109093000000001 -0.4681056400000000 Au
atom 17.3926713699999986 17.4129863900000004 -0.4243708600000000 Au
atom 20.2329609700000006 17.2251665500000009 0.0227555700000000 Au
atom 22.9858417899999985 17.1565726100000013 -0.1021117300000000 Au
atom 25.8145851099999994 17.2960418400000009 -0.0448280800000000 Au
atom 0.4639237500000000 17.3675565600000006 0.0282166600000000 Au
atom 3.2607749600000000 17.3101105599999983 -0.0451380400000000 Au
atom 6.0888563500000004 17.2939432900000014 -0.1424798300000000 Au
atom 7.4462322399999996 19.7497456999999983 0.0000279300000000 Au
atom 10.2604084300000000 19.7407747100000002 -0.0419057100000000 Au
atom 13.1313045800000001 19.8566849400000009 -0.3879894200000000 Au
atom 16.0906971799999994 19.8407555900000006 -0.2572171100000000 Au
atom 18.8017774600000003 19.7519825500000010 0.2255862200000000 Au
atom 21.6309821199999988 19.6969938000000013 -0.0766672300000000 Au
atom 24.3988083499999995 19.7838607300000007 0.1361654000000000 Au
atom 27.1907818299999988 19.6183250399999984 0.2015303000000000 Au
atom 1.8418111399999999 19.7621675500000009 0.0415637100000000 Au
atom 4.5916141699999997 19.7479455500000007 -0.0514221500000000 Au
atom 8.9678072899999997 22.1733867199999999 -0.1393083800000000 Au
atom 11.7831433400000005 22.2096861399999987 -0.1989020200000000 Au
atom 14.6318054100000001 22.2742182200000016 -0.1318740900000000 Au
atom 17.4447916700000007 22.2756593999999986 0.0796054800000000 Au
atom 20.1910539600000014 22.2140290000000000 0.0469099100000000 Au
atom 22.9991902400000008 22.2364393599999985 -0.0984667000000000 Au
atom 25.7799833499999984 22.2371552699999988 0.2953773900000000 Au
atom 0.3247082600000000 22.3408429300000009 0.1984027700000000 Au
atom 3.2146686799999999 22.2064106899999985 -0.0281756900000000 Au
atom 6.1093180100000000 22.1347615900000001 -0.0082146100000000 Au
atom 7.5659790800000000 24.6739810199999994 -0.1688128800000000 Au
atom 10.4354003700000000 24.6293798499999994 -0.2796909300000000 Au
atom 13.1582501300000008 24.6414799699999989 -0.2535937100000000 Au
atom 15.9727488799999993 24.7489759300000003 0.1411830900000000 Au
atom 18.8063014899999992 24.6853981199999986 0.2246297000000000 Au
atom 21.5043114499999994 24.7416263000000001 -0.0460937900000000 Au
atom 24.3310233700000005 24.6700724800000017 0.3674750100000000 Au
atom 27.1663281800000007 24.7228162500000010 0.0362757800000000 Au
atom 1.9243348800000000 24.5333577699999985 0.1478018900000000 Au
atom 4.7101400499999997 24.6882074600000010 -0.0701079000000000 Au
atom 8.9888513999999997 27.0800015899999984 -0.2830640400000000 Au
atom 11.7947318100000000 27.1006662100000000 0.1074702600000000 Au
atom 14.5873000400000006 27.1757267999999996 -0.0530022500000000 Au
atom 17.3667161300000004 27.2176732100000009 0.0771720100000000 Au
atom 20.1511364800000017 27.1698970300000013 0.1221141400000000 Au
atom 23.0146016300000014 27.1018879599999991 0.1746996300000000 Au
atom 25.8276434100000003 27.1936252699999983 0.1249106800000000 Au
atom 0.3887492700000000 27.0891811099999984 0.0164720800000000 Au
atom 3.1554925100000002 27.1423522400000010 -0.0902970500000000 Au
atom 6.0758102899999997 27.0794719899999983 -0.0579765300000000 Au
atom 7.4385127700000000 29.5979508399999993 -0.2742558300000000 Au
atom 10.3583031200000004 29.5864217799999984 -0.0990816800000000 Au
atom 13.2231426899999995 29.5617948999999989 -0.1499579500000000 Au
atom 15.9662210899999994 29.6306830800000007 0.0992050700000000 Au
atom 18.7545488400000018 29.6321256200000001 0.1374856300000000 Au
atom 21.6145619999999994 29.6459351300000016 -0.0132453600000000 Au
atom 24.4680378300000001 29.6579245399999998 0.0276866100000000 Au
atom 27.2002971199999983 29.6824810499999998 0.0053485400000000 Au
atom 1.8384917700000001 29.6172929600000003 0.1001949100000000 Au
atom 4.6447032899999998 29.5457365799999998 -0.1752207700000000 Au
atom 8.9513762999999997 32.0647241300000019 -0.0443213000000000 Au
atom 11.8019429799999997 32.0666042200000021 -0.1133012100000000 Au
atom 14.5339160300000003 32.0760773100000023 -0.0189009300000000 Au
atom 17.2770448300000012 32.0746465799999996 -0.1557103300000000 Au
atom 20.0927222999999984 32.0950973300000015 -0.0605121200000000 Au
atom 23.0456116800000004 32.1078302199999968 0.0309731500000000 Au
atom 25.8671247199999996 32.1951805699999980 -0.2956569800000000 Au
atom 0.3742025800000000 32.0144011399999968 0.2581672000000000 Au
atom 3.2261751699999999 32.0505754100000004 -0.0539871200000000 Au
atom 6.0458689200000002 32.0349761399999977 -0.1513477000000000 Au
atom 7.4403532099999996 34.4940603599999989 -0.0133223900000000 Au
atom 10.2612163100000000 34.6276678099999984 -0.0619657900000000 Au
atom 13.0704312799999993 34.5410004200000031 0.1400347500000000 Au
atom 15.8810184000000003 34.5871125899999967 0.0028867600000000 Au
atom 18.7467154700000016 34.5306575500000008 0.1384882900000000 Au
atom 21.5766950400000006 34.5439702500000010 0.0940977300000000 Au
atom 24.4363214900000010 34.5850948499999973 0.0972736000000000 Au
atom 27.2540578300000007 34.4194960700000010 0.2222650900000000 Au
atom 1.8534964500000000 34.6377973499999996 -0.1610692700000000 Au
atom 4.6375070200000001 34.5127017699999996 0.0020407000000000 Au
atom 8.7633630900000004 37.0924370299999993 0.2224856600000000 Au
atom 11.6974312999999999 37.1265189300000031 0.0607951200000000 Au
atom 14.5325007300000006 37.1153619000000035 0.1822539500000000 Au
atom 17.2993422800000012 37.0517416799999992 0.1768225300000000 Au
atom 20.2121829499999990 36.9792063499999983 -0.2049068100000000 Au
atom 22.8524955100000007 37.0337032300000004 0.0581371300000000 Au
atom 25.5983190600000015 37.2123946700000019 0.1731524600000000 Au
atom 0.3753641200000000 37.1609139899999974 -0.0966020000000000 Au
atom 3.2462994200000002 36.9650871400000014 0.2262319600000000 Au
atom 6.1320512799999998 37.0307092500000010 0.0815012400000000 Au
atom 7.3617895999999998 0.0445048300000000 -0.0161325400000000 Au
atom 10.7236017500000003 0.0918728500000000 -0.1922984300000000 Au
atom 12.8896605700000002 0.0821789200000000 0.2393533600000000 Au
atom 16.0711316300000000 0.1082196200000000 0.0064087100000000 Au
atom 19.1238847099999987 0.0014495000000000 0.0608648600000000 Au
atom 21.5609999399999985 -0.0379656000000000 0.3535708300000000 Au
atom 24.4254092199999988 -0.0101353700000000 -0.1301387600000000 Au
atom 27.2980680599999985 0.0282914800000000 0.4159195000000000 Au
atom 1.6838104899999999 -0.0197300400000000 0.1665361100000000 Au
atom 4.6037489100000002 0.0158408400000000 0.2687209300000000 Au
atom 8.9095102300000004 2.4664067500000000 0.0491947200000000 Au
atom 11.7308950000000003 2.5257208000000002 0.1603894300000000 Au
atom 14.5163122199999997 2.5236975600000000 0.1753786700000000 Au
atom 17.2788428900000000 2.5312241900000001 0.1419171700000000 Au
atom 20.1566291900000003 2.4524117900000002 0.2495657500000000 Au
atom 22.9619506999999992 2.3978837600000000 0.0885980100000000 Au
atom 25.8207370000000012 2.4958486299999998 0.0044113300000000 Au
atom 0.3879103500000000 2.3462696699999999 0.4238513200000000 Au
atom 3.3165235700000002 2.4653855500000001 0.2503327500000000 Au
atom 6.0481102000000000 2.5110643900000000 0.0845199200000000 Au
atom 7.5120648699999997 4.9826909600000002 0.2003758500000000 Au
atom 10.3083724900000000 4.9515916500000001 0.3417284800000000 Au
atom 13.1277275499999995 5.0199869499999998 0.1155914900000000 Au
atom 15.9114280499999996 4.9711780599999997 0.2213427900000000 Au
atom 18.7902864799999989 4.9549938200000003 0.1818223400000000 Au
atom 21.6163615900000003 4.8780959599999996 0.2545815200000000 Au
atom 24.3968835400000010 4.9190807100000002 0.1402729200000000 Au
atom 27.2286231399999998 4.9033144699999998 0.2114120700000000 Au
atom 1.8575588100000000 4.8946569499999999 0.0677539400000000 Au
atom 4.6688391800000000 4.9577373600000003 0.0913690000000000 Au
atom 8.8851832000000002 7.4284271600000000 -0.0191383400000000 Au
atom 11.7477955000000005 7.4676062300000003 -0.0682949900000000 Au
atom 14.5963263899999998 7.3523697300000004 -0.0562676200000000 Au
atom 17.4595209900000015 7.4142451700000001 0.2044085500000000 Au
atom 20.1915701900000002 7.3909238000000004 0.0756329100000000 Au
atom 22.9584051900000006 7.3769800999999999 0.2192718700000000 Au
atom 25.8179398400000011 7.4769247500000002 0.0668119500000000 Au
atom 0.3791597600000000 7.5263327899999997 0.0056239400000000 Au
atom 3.1647061399999998 7.3734039600000001 0.0543856900000000 Au
atom 6.0949529099999999 7.3861206700000004 0.0082375800000000 Au
atom 7.3772406500000001 9.8819033300000001 -0.0033574200000000 Au
atom 10.2986497200000002 9.8763277299999999 -0.0465771500000000 Au
atom 13.1393044200000002 9.9253734799999993 -0.1648079800000000 Au
atom 15.9259328599999996 9.8101674200000009 -0.1559647300000000 Au
atom 18.7617240699999996 9.9228130100000005 0.1683298000000000 Au
atom 21.5853329800000004 9.8370879000000002 0.0921476900000000 Au
atom 24.3613889899999982 9.8122552899999995 0.2601374000000000 Au
atom 27.2438012900000004 9.8813977400000006 0.2187918200000000 Au
atom 1.8344633900000000 9.9026157500000007 -0.0075158200000000 Au
atom 4.6823427799999999 9.8366272099999996 0.0222244500000000 Au
atom 8.7944776800000000 12.3558109300000005 0.0483023100000000 Au
atom 11.6942374400000002 12.3802171800000007 -0.2397172800000000 Au
atom 14.5814887199999994 12.3891828400000001 -0.3880012500000000 Au
atom 17.3509300499999988 12.3231506500000005 -0.1337183800000000 Au
atom 20.1165190900000006 12.3850779499999994 0.0756874900000000 Au
atom 22.9215276599999989 12.3073156600000004 0.0155522400000000 Au
atom 25.7870962299999995 12.1669337500000001 -0.0205309600000000 Au
atom 0.4371304400000000 12.1707811199999991 -0.0885863900000000 Au
atom 3.3141637799999999 12.3233475000000006 -0.1766857300000000 Au
atom 6.0313213699999997 12.3557783000000008 0.1368661600000000 Au
atom 7.5894134299999996 13.1720138200000001 2.6302767000000000 Au
atom 10.4015906000000005 13.3070123799999998 2.5211386500000001 Au
atom 13.0817242799999995 13.3131756800000005 2.0782514999999999 Au
atom 15.9573488900000005 13.2609033400000005 2.3688762799999998 Au
atom 18.7456446399999983 13.1770742599999995 2.3728359299999999 Au
atom 21.5682967999999988 13.1780902799999993 2.6253549600000001 Au
atom 24.4258166900000013 13.2259527099999996 2.5016571299999999 Au
atom 27.3124409800000016 13.2472887299999993 2.4083482100000002 Au
atom 1.8953514600000001 13.1403754100000008 2.5017708399999998 Au
atom 4.7827176199999997 13.1122121499999995 2.5727403099999999 Au
atom 8.9229821999999999 15.7221214899999993 2.5698914700000000 Au
atom 11.7116556299999992 15.7372818500000005 2.3991596199999998 Au
atom 14.4871727400000001 15.6744225499999992 2.1275565900000002 Au
atom 17.3477825400000008 15.6058021799999995 2.2646074700000001 Au
atom 20.1443934099999993 15.5646039900000002 2.4131683200000000 Au
atom 22.9320491299999993 15.6231492700000008 2.5718627900000000 Au
atom 25.7469729600000008 15.6632291699999993 2.4597672799999999 Au
atom 0.4742302200000000 15.6944220199999993 2.6318247600000002 Au
atom 3.2347648800000002 15.6322044099999999 2.3542740100000001 Au
atom 6.0147876000000000 15.5896640600000005 2.4864521300000000 Au
atom 7.5448290000000000 18.1033207300000001 2.5035367300000000 Au
atom 10.3198556400000001 18.1220785699999993 2.4350998499999998 Au
atom 13.1473840000000006 18.1577628199999985 2.3851248100000002 Au
atom 15.9900395500000005 18.1394902000000009 2.2643382100000000 Au
atom 18.7687315599999991 18.0439981399999994 2.6365871300000001 Au
atom 21.6207335200000017 18.1202008399999990 2.5513467099999998 Au
atom 24.3452654799999983 18.0925558399999993 2.6354704899999999 Au
atom 27.2135857399999992 18.0189550099999991 2.4614258900000001 Au
atom 1.8816580500000000 18.1665880800000004 2.7130800200000000 Au
atom 4.7181392700000000 18.1052952599999983 2.5404155099999999 Au
atom 8.9208897399999998 20.6111288100000003 2.5780690200000000 Au
atom 11.8061891100000000 20.6104122600000004 2.3715568800000000 Au
atom 14.5830229500000002 20.5547442199999999 2.3906515200000000 Au
atom 17.3911662800000002 20.5492164200000005 2.7473639400000001 Au
atom 20.1247881500000005 20.5457556500000003 2.6551940699999999 Au
atom 23.0125939600000002 20.5819898799999983 2.7445710200000000 Au
atom 25.7692806300000008 20.6152782399999985 2.7862356799999999 Au
atom 0.4410316300000000 20.6191537300000007 2.6659452699999999 Au
atom 3.2182572500000002 20.6035430400000017 2.6304110800000000 Au
atom 6.1099725700000000 20.5519207100000010 2.6891038500000000 Au
atom 7.6066014199999996 23.0163750100000009 2.5768402899999998 Au
atom 10.4480321099999998 23.0823377600000015 2.3620015799999998 Au
atom 13.1923271500000006 23.0226779499999985 2.5415256500000001 Au
atom 15.9402294700000002 23.0735267600000000 2.6771757900000002 Au
atom 18.8416820899999991 23.0146099799999995 2.6890742400000001 Au
atom 21.6216616100000003 23.1279910199999996 2.5291082500000002 Au
atom 24.3301608599999994 23.0208564299999985 2.8848271400000001 Au
atom 27.1335079700000001 23.2752816100000004 2.7191432099999999 Au
atom 1.8064626699999999 23.0051519099999986 2.6307327100000002 Au
atom 4.7021426399999999 23.0793074999999988 2.6107345199999998 Au
atom 8.9551353099999993 25.5042751999999986 2.3162851400000002 Au
atom 11.7968024200000006 25.4413650400000009 2.5751960100000000 Au
atom 14.5809292599999996 25.5041996500000003 2.5930257200000000 Au
atom 17.3991966399999995 25.5105228199999985 2.8105259399999998 Au
atom 20.1624048100000017 25.4774361599999999 2.7017357099999999 Au
atom 23.0108560799999999 25.5477188300000009 2.8146067600000002 Au
atom 25.8719743700000002 25.4842549699999985 2.7141791300000002 Au
atom 0.4110412100000000 25.4057491800000008 2.6602315999999999 Au
atom 3.3070869100000002 25.4998547699999989 2.5052955799999999 Au
atom 6.1905518099999997 25.5048367399999982 2.6668884799999999 Au
atom 7.5734921000000002 27.9471340300000008 2.3720762500000001 Au
atom 10.3330237599999997 27.9049427399999992 2.5627219299999999 Au
atom 13.1263651100000001 27.9703413699999999 2.6703822499999998 Au
atom 15.8792671399999996 28.0451624399999986 2.6893813500000001 Au
atom 18.7660273300000000 28.0363785999999990 2.7795790399999998 Au
atom 21.5375862799999993 28.0100338399999984 2.6019768499999998 Au
atom 24.3754437700000004 28.0270254200000011 2.6935482400000001 Au
atom 27.2045817999999997 28.2564087700000002 2.4271251399999998 Au
atom 1.7982562700000000 27.9655042599999994 2.4674692999999999 Au
atom 4.6760343200000003 27.9335531199999991 2.7198282599999999 Au
atom 9.0276093399999997 30.3558521100000007 2.3495444000000001 Au
atom 11.8124036399999994 30.5188232699999986 2.4762374999999999 Au
atom 14.5358236800000000 30.4641845000000018 2.6664583199999998 Au
atom 17.3910005900000009 30.4600409499999998 2.6199623100000000 Au
atom 20.2502309199999999 30.4449725499999992 2.7650418800000001 Au
atom 23.0288047099999993 30.4751903099999986 2.5703837200000001 Au
atom 25.8230346900000001 30.4713649900000014 2.3442658700000001 Au
atom 0.5430287900000000 30.5786537000000003 2.7980240699999999 Au
atom 3.2867379300000001 30.4622465399999989 2.5554742799999999 Au
atom 6.0925736800000001 30.3942512899999997 2.3888649100000001 Au
atom 7.4724139899999997 32.8979674899999992 2.4703531000000001 Au
atom 10.3597266500000007 32.8396038899999994 2.5012905100000000 Au
atom 13.0918454000000004 32.9634368099999975 2.5800277800000000 Au
atom 15.9419470000000008 32.8187000599999976 2.5334768599999999 Au
atom 18.7819022999999987 32.8884711500000009 2.6293714700000002 Au
atom 21.5891512600000013 32.9345101999999983 2.6212405799999998 Au
atom 24.4622793099999996 32.9784935599999969 2.5317681799999998 Au
atom 27.2623558300000006 32.8956392199999996 2.6403261599999999 Au
atom 1.9380699200000000 32.9545382000000018 2.4954605500000002 Au
atom 4.6996096600000001 32.8799883300000033 2.5924171800000000 Au
atom 8.9146482900000006 35.3663599300000016 2.5904432399999999 Au
atom 11.6813119299999997 35.3827418300000005 2.6476103400000000 Au
atom 14.5665111700000001 35.3520344200000025 2.6285486400000000 Au
atom 17.3210075699999990 35.2885226900000006 2.6672421100000001 Au
atom 20.2239727800000004 35.3654813799999985 2.6736876399999998 Au
atom 23.0792800800000002 35.3796284700000001 2.6515442199999999 Au
atom 25.8691312300000007 35.4527028400000006 2.6575119300000001 Au
atom 0.4516393800000000 35.4224168800000001 2.6666357199999999 Au
atom 3.1943636799999999 35.3999097000000020 2.6860509499999998 Au
atom 6.0611872299999998 35.3711409900000007 2.5648740399999999 Au
atom 7.4227398400000002 37.8231512600000030 2.8497416000000002 Au
atom 10.5981006000000004 37.8920996399999979 2.8917737200000002 Au
atom 13.2492389399999997 37.8550405599999991 2.5120882999999998 Au
atom 16.0629681600000005 37.9301008300000007 2.5463165999999999 Au
atom 18.7265020299999989 37.7463989999999967 2.5332339099999999 Au
atom 21.6639336399999998 37.8700356000000014 3.0866908000000000 Au
atom 24.4892762300000015 37.8508797400000034 2.5279328900000002 Au
atom 27.1198188800000004 37.9486533399999999 2.9123721599999999 Au
atom 1.9397595800000000 37.9757547099999968 2.9876189300000000 Au
atom 4.3842279099999999 37.9030298200000004 2.9411405600000000 Au
atom 8.9466367800000004 0.8056921600000000 2.9838662899999999 Au
atom 11.6780619699999999 0.8263675100000000 2.7983227400000001 Au
atom 14.4813503299999997 0.8882015800000000 2.7984634599999998 Au
atom 17.4975993699999997 0.8594961100000000 2.7851535699999999 Au
atom 19.9985536999999987 0.8580356300000000 2.8362408399999999 Au
atom 23.1422403000000010 0.8964258000000001 2.6594944200000001 Au
atom 25.7562177800000001 0.9200541500000000 2.8260989200000002 Au
atom 0.4024126000000000 0.9235258000000000 3.0590410100000001 Au
atom 3.2843892700000001 0.8945884200000001 2.9750760399999998 Au
atom 5.9812666099999996 0.8732700500000000 2.7609497400000000 Au
atom 7.4836693299999997 3.3594720900000001 2.7180626399999999 Au
atom 10.2795907999999994 3.3118125100000002 2.8342245600000000 Au
atom 13.1631186400000004 3.3624162000000002 2.7852235900000002 Au
atom 16.0385873799999992 3.3514118200000000 2.8973956599999999 Au
atom 18.8101226100000005 3.3735167599999998 2.7880041599999998 Au
atom 21.5802477199999991 3.2883149199999999 2.7343445200000001 Au
atom 24.4004206900000007 3.3535237200000001 2.7153559899999999 Au
atom 27.2546474399999994 3.3697507500000001 2.7078674299999999 Au
atom 1.8786233000000001 3.2929372200000002 2.7709644899999999 Au
atom 4.7366702600000004 3.3923911200000001 2.7993370000000000 Au
atom 8.9541958099999999 5.8144035699999996 2.8728521200000001 Au
atom 11.7341628199999999 5.8510065700000000 2.7266433900000000 Au
atom 14.5252280900000006 5.8212455500000004 2.7815102000000000 Au
atom 17.3264762099999992 5.8265338599999996 2.8321340500000001 Au
atom 20.2212174000000005 5.8406295799999999 2.7035237799999998 Au
atom 22.9687482400000000 5.7915992100000002 2.9454917699999998 Au
atom 25.7963569700000015 5.8659575200000003 2.7890017700000000 Au
atom 0.5022021400000000 5.7262728000000003 2.6333356299999999 Au
atom 3.2407668900000002 5.7961953199999998 2.7484235699999999 Au
atom 6.1556641000000001 5.8358848700000001 2.6503901999999999 Au
atom 7.5723655599999997 8.2406878599999995 2.5964304500000002 Au
atom 10.4170412100000007 8.2947436999999997 2.6067022299999998 Au
atom 13.2393744299999998 8.3636398900000000 2.3788190600000001 Au
atom 15.9948683400000000 8.2780971799999996 2.6101399299999999 Au
atom 18.8015077200000000 8.3555133200000000 2.8056446700000000 Au
atom 21.6233719399999984 8.3056661599999995 2.7660986300000001 Au
atom 24.4425051499999988 8.1553527199999998 2.8469626699999999 Au
atom 27.3007006899999993 8.3254956799999995 2.7016350600000001 Au
atom 1.8948983500000001 8.2928628700000004 2.7746117400000001 Au
atom 4.7103312900000001 8.2109397800000004 2.6013439799999998 Au
atom 9.0249066300000003 10.7795870199999992 2.7230192799999999 Au
atom 11.7738188099999999 10.7997840899999993 2.4050559400000000 Au
atom 14.6080319700000008 10.8332538599999992 2.4083806399999999 Au
atom 17.2966541400000011 10.7429767799999993 2.5982283000000002 Au
atom 20.2130351700000013 10.7085410400000001 2.6671240699999998 Au
atom 23.0497726100000015 10.7689946100000000 2.7313649199999999 Au
atom 25.8479276400000018 10.7570268799999997 2.7719867100000002 Au
atom 0.4756123500000000 10.8232230000000005 2.6807319299999999 Au
atom 3.3558206799999999 10.7147256100000003 2.5568155799999999 Au
atom 6.1431367500000000 10.6743483300000008 2.7378677300000001 Au
atom 7.2938300900000002 13.1665158499999997 5.4477172500000002 Cl
atom 7.4652200600000000 15.9947642699999992 8.0941230399999995 Cl
atom 7.6602690600000001 13.2120833700000002 7.9976392900000004 Na
atom 7.4054991200000000 15.9319776100000006 5.5953324400000000 Na
atom 7.6102465199999996 18.7747713000000012 5.5046244800000004 Cl
atom 7.5455961000000000 21.7267513799999996 8.6785280199999999 Cl
atom 7.6325588800000004 18.6915548700000009 8.2653767800000004 Na
atom 7.4336205700000004 21.5451295999999992 5.7857488000000004 Na
atom 7.5674688799999998 24.4150264700000008 5.7439345199999998 Cl
atom 7.5401818199999999 27.3747732799999994 8.5738751299999993 Cl
atom 7.5437830699999999 24.5437955700000003 8.3882198599999995 Na
atom 7.8122231800000002 27.3406052600000002 5.8465270599999997 Na
atom 7.7532977299999999 30.0308976299999983 5.6627523100000001 Cl
atom 7.4986362499999997 32.9261609300000018 8.5266228900000005 Cl
atom 7.5151128099999998 30.0960730000000005 8.3431430500000001 Na
atom 7.5531954399999996 32.9142267499999974 5.7818369000000001 Na
atom 7.5974831600000003 35.7177406599999969 5.7207129400000003 Cl
atom 7.4793080999999999 38.6454668100000021 8.7234393000000008 Cl
atom 7.5942003700000003 35.7381387000000004 8.3353886199999998 Na
atom 7.7721017400000001 38.5591637699999978 5.8042158300000004 Na
atom 7.4432863700000000 1.8342844500000000 5.8743553899999998 Cl
atom 7.5728498300000000 4.8195630200000004 8.6560546400000007 Cl
atom 7.5627031100000002 1.8973228600000001 8.2481982699999996 Na
atom 7.4789490399999998 4.9185396900000002 5.8487778199999996 Na
atom 7.4528080399999999 7.6875840100000001 5.7560848000000000 Cl
atom 7.5341465400000001 10.5113024199999998 8.1433274299999994 Cl
atom 7.4525441499999996 7.6513882400000002 8.3233218200000003 Na
atom 7.4985075900000000 10.3950394700000004 5.6185065700000001 Na
atom 10.4607879399999995 13.2227871799999992 5.6658336199999999 Na
atom 13.3298239499999998 13.3449399999999994 5.6139199299999998 Cl
atom 10.3923720199999998 15.8517569900000002 8.2361103999999994 Na
atom 13.3234046599999996 16.0133749600000002 8.4118247200000003 Cl
atom 13.1579910699999996 13.1967143000000000 8.4176673500000003 Na
atom 10.1572645099999992 13.2289982599999991 8.3742008200000004 Cl
atom 13.3276351999999996 16.0927191399999998 5.7618344199999996 Na
atom 10.3574417800000003 15.9554201800000008 5.6215600099999996 Cl
atom 10.4773674400000001 18.7802950200000005 5.7898469300000004 Na
atom 13.1933196600000002 18.7744678699999987 5.5170574099999996 Cl
atom 10.3005304300000002 21.5836736500000015 8.4145603300000005 Na
atom 13.1913336999999995 21.6858841499999997 8.4161666000000004 Cl
atom 13.1710125999999992 18.8780848200000015 8.3267972799999992 Na
atom 10.3574527900000000 18.7308252400000015 8.6086991099999999 Cl
atom 13.1572648099999991 21.6419013400000004 5.7321128999999997 Na
atom 10.1124868499999998 21.6276311800000016 5.8582954599999999 Cl
atom 10.4207604299999996 24.4094246300000002 5.9117982800000002 Na
atom 13.1401073000000004 24.4904936599999985 5.5641578699999998 Cl
atom 10.2988092400000006 27.3741267999999991 8.5023616999999998 Na
atom 13.1925988800000002 27.0918722900000013 8.4793725999999996 Cl
atom 13.1652778200000000 24.3874192600000015 8.4548946699999998 Na
atom 10.4446966299999993 24.5247464499999985 8.5845347299999997 Cl
atom 13.1423763499999993 27.2578666299999988 5.7642727799999998 Na
atom 10.3739646099999998 27.2130157299999986 5.8369328300000003 Cl
atom 10.3484649900000001 30.2874354200000013 5.7927352799999996 Na
atom 13.1412283500000004 30.1181172599999982 5.7043423700000000 Cl
atom 10.3060340200000002 33.0927410099999975 8.4239885799999996 Na
atom 13.0733205399999992 32.9196382900000017 8.6143832099999997 Cl
atom 13.2086949499999999 30.0748074699999997 8.4022159599999995 Na
atom 10.4609417199999992 30.1750837999999995 8.6596460799999999 Cl
atom 13.2617047499999998 32.9389268099999981 5.8884832700000000 Na
atom 10.5293674700000004 33.0380141999999992 5.7098781599999997 Cl
atom 10.3624533400000001 35.7542985700000031 5.8990033300000002 Na
atom 13.1376202499999994 35.7838933499999996 5.7935480300000002 Cl
atom 10.3689240700000003 38.5577335400000010 8.4823355899999999 Na
atom 13.2744675999999995 38.6431265499999981 8.6756514700000000 Cl
atom 13.1717449999999996 35.7805067500000007 8.4998875700000003 Na
atom 10.3830518999999999 35.7959615799999966 8.6220620199999995 Cl
atom 13.0813881599999995 38.6148979499999996 5.9722276499999998 Na
atom 10.4842714899999994 38.4718300500000012 5.6144775700000000 Cl
atom 10.3480448000000003 1.9742492000000000 5.7707923399999999 Na
atom 13.0739145899999993 1.8712356699999999 5.8088487500000001 Cl
atom 10.2978082200000003 4.7532365199999997 8.4209634700000002 Na
atom 13.1935635300000005 4.8145548500000004 8.6375754899999997 Cl
atom 13.0148993900000001 2.0479829700000001 8.5815412099999993 Na
atom 10.4511248499999994 2.0621980899999999 8.6054942899999993 Cl
atom 13.1996913599999992 4.6315670000000004 5.8431374099999998 Na
atom 10.3549979800000003 4.7889188200000001 5.7566005000000002 Cl
atom 10.3965332700000008 7.4271570899999997 5.5961823300000004 Na
atom 13.1923081000000000 7.4276038299999998 5.5703407000000000 Cl
atom 10.2245715700000002 10.4294735799999998 8.4037119300000001 Na
atom 12.9963175000000000 10.5439009200000005 8.3558170900000004 Cl
atom 13.2051963400000005 7.3636084500000001 8.1553994900000006 Na
atom 10.4838405500000000 7.5226396500000003 8.3301287500000001 Cl
atom 13.3337283400000004 10.5224376599999996 5.5685182500000003 Na
atom 10.4509716600000004 10.5159839799999997 5.5883031499999998 Cl
atom 16.2000189900000002 13.3942515800000006 5.7941927099999999 Na
atom 18.9783929200000010 13.1787298899999996 5.5937166899999999 Cl
atom 16.0389750100000015 15.9149320000000003 8.2188020099999992 Na
atom 18.8581598499999998 15.9035521099999997 8.5215981700000007 Cl
atom 18.8760075600000015 13.1032732099999993 8.3733068900000003 Na
atom 16.0761245300000013 13.3370682699999996 8.5696317099999995 Cl
atom 18.8565947399999985 15.8916526000000005 5.7698990900000000 Na
atom 15.9710021999999991 16.1486727700000010 5.4992960899999996 Cl
atom 15.9437090300000008 18.7890028999999998 5.5436816400000000 Na
atom 19.0337908700000007 18.8051262799999996 5.7747501999999997 Cl
atom 16.2009873300000002 21.5347558799999987 8.2171154200000007 Na
atom 18.8582525899999993 21.7288074800000004 8.4835087599999994 Cl
atom 18.8462215499999992 18.7247867600000006 8.3324878099999999 Na
atom 16.0709360900000000 18.7179088100000008 8.4201224400000001 Cl
atom 19.0155607499999988 21.6246330899999997 5.6661629600000003 Na
atom 16.1351752899999994 21.5667712099999989 5.6770364700000000 Cl
atom 16.0072132799999984 24.3859077100000015 5.8164890600000003 Na
atom 18.8160603799999997 24.4000845700000006 5.7774085399999997 Cl
atom 15.9292173300000002 27.0876392899999985 8.7480033099999996 Na
atom 18.8509899599999997 27.1217626000000003 8.6385212700000000 Cl
atom 18.9348113600000012 24.4631568900000005 8.3811172799999998 Na
atom 16.0065736799999989 24.2371743500000001 8.4977766900000002 Cl
atom 18.7423808799999989 27.1378449900000014 5.8642018299999998 Na
atom 16.1641417800000013 27.1094467299999984 5.7198180599999997 Cl
atom 16.0547905399999991 30.0323818500000002 5.9214501400000001 Na
atom 18.8011169900000006 29.8936850700000001 5.9198679700000003 Cl
atom 15.9753189599999992 32.9559980399999972 8.3933163499999992 Na
atom 18.7455322799999990 32.8706943299999992 8.6752583899999998 Cl
atom 18.8370530500000015 29.9540812199999991 8.6786804600000007 Na
atom 16.0045132099999989 30.0803303500000005 8.5766470199999993 Cl
atom 18.8484560399999985 32.9511366300000006 5.9227034700000001 Na
atom 15.9344672599999999 32.8925015900000020 5.8600052600000003 Cl
atom 16.0255181799999988 35.7227123899999981 5.9358374899999999 Na
atom 18.8080865099999990 35.7459276700000004 5.7813666899999996 Cl
atom 16.1262966799999994 38.6464694900000012 8.3673802599999991 Na
atom 19.0434495900000016 38.5816468000000015 8.5758627000000001 Cl
atom 18.8422165700000015 35.6829157600000002 8.4763520200000002 Na
atom 16.0023708400000011 35.7033580599999993 8.6928356900000008 Cl
atom 19.0153277400000000 38.5838273700000016 5.8957403900000003 Na