#===============================================================================
# Created using the Atomic Simulation Environment (ASE)

# Tue Dec 23 21:43:01 2025

#=======================================================
lattice_vector 28.1999999999999993 0.0000000000000000 0.0000000000000000 
lattice_vector 0.0000000000000000 39.4799999999999969 0.0000000000000000 
lattice_vector 0.0000000000000000 0.0000000000000000 62.3296083400000001 
atom 7.5042566500000003 14.8381778999999998 -0.0242872200000000 Au
atom 10.3540471600000004 14.8064831800000007 -0.2788416000000000 Au
atom 13.1620983500000008 14.7704499400000007 -0.1287762200000000 Au
atom 15.9620347299999992 14.8129315699999999 -0.1142354800000000 Au
atom 18.7338965199999983 14.8102770499999998 -0.0299594600000000 Au
atom 21.5957595299999987 14.8742093499999992 -0.0303004900000000 Au
atom 24.4331453100000004 14.8517375200000004 -0.0278903100000000 Au
atom 27.2872613100000017 14.8091647200000001 -0.1207244100000000 Au
atom 1.8651048100000001 14.7740743099999996 -0.0660462900000000 Au
atom 4.6906233400000001 14.8287792100000004 -0.1275184800000000 Au
atom 8.8966966700000008 17.3219204500000004 -0.0208283300000000 Au
atom 11.7239365000000006 17.3028004700000011 -0.0682119300000000 Au
atom 14.5345096599999994 17.2265575099999992 -0.0417358700000000 Au
atom 17.3753061600000009 17.2934792100000010 -0.0799309800000000 Au
atom 20.1516179499999986 17.3285536499999999 0.1046423800000000 Au
atom 23.0638311899999984 17.2810618399999996 0.0547368100000000 Au
atom 25.8732516100000005 17.3357407099999996 0.0159498200000000 Au
atom 0.4672623300000000 17.2413209499999986 0.1371552700000000 Au
atom 3.3142197400000000 17.2704854499999989 -0.0066922200000000 Au
atom 6.0865373600000003 17.3450970399999989 0.0226565800000000 Au
atom 7.4952753899999998 19.7859930300000002 0.1628163000000000 Au
atom 10.2971683899999995 19.8027819600000008 -0.0439204300000000 Au
atom 13.1138959199999992 19.7182221300000009 -0.0126864300000000 Au
atom 15.9736720999999999 19.7679038700000014 -0.0084454500000000 Au
atom 18.7863071899999987 19.7410797699999989 0.1301509400000000 Au
atom 21.5821426800000005 19.6929732800000004 0.0943228700000000 Au
atom 24.4662204800000005 19.7701044900000014 0.0524344200000000 Au
atom 27.2723779600000000 19.7922148200000017 0.0905276800000000 Au
atom 1.8471017100000000 19.7140854899999987 0.1258664300000000 Au
atom 4.6759404499999997 19.7700052799999995 0.0397355400000000 Au
atom 8.9290787100000006 22.2390386400000004 0.0617218900000000 Au
atom 11.7583528499999996 22.2395395499999999 0.1088442800000000 Au
atom 14.5699778299999991 22.2106262100000009 -0.0145093300000000 Au
atom 17.3745641999999982 22.2509085999999989 -0.0412555300000000 Au
atom 20.1927437000000012 22.1554627000000011 -0.0413179400000000 Au
atom 22.9765240400000010 22.1781039699999987 -0.0410383900000000 Au
atom 25.8241016899999991 22.2377498899999999 -0.0089175700000000 Au
atom 0.4574628300000000 22.2369626700000005 0.0887540200000000 Au
atom 3.2709688600000000 22.1725506000000010 0.0924621200000000 Au
atom 6.1155265500000002 22.1914738000000007 0.0940202200000000 Au
atom 7.5222297300000003 24.6633656899999991 0.0866877600000000 Au
atom 10.3332231900000000 24.6533575999999996 0.0479387800000000 Au
atom 13.1609836199999997 24.7256272400000014 -0.0217576000000000 Au
atom 15.9296923899999996 24.7246314600000012 -0.0710164500000000 Au
atom 18.7999452699999985 24.6624023100000009 -0.0695950200000000 Au
atom 21.6321446900000005 24.6510352099999999 0.1118843700000000 Au
atom 24.4666584799999995 24.6990758799999988 0.1096579200000000 Au
atom 27.2217337099999988 24.7000524900000009 0.2321385200000000 Au
atom 1.9365662200000000 24.6458731499999999 0.1998775200000000 Au
atom 4.7283512999999999 24.6570623799999993 0.0762090400000000 Au
atom 8.8977223500000004 27.1354320400000013 0.1329553300000000 Au
atom 11.6878890299999991 27.2034215699999997 0.0980318600000000 Au
atom 14.5496435500000008 27.1480128799999996 0.1372174800000000 Au
atom 17.3613942100000003 27.1678196700000001 -0.0425824200000000 Au
atom 20.1782160300000015 27.1065096300000015 -0.0875089200000000 Au
atom 23.0284389999999988 27.1402689300000013 -0.0195012500000000 Au
atom 25.8604920599999986 27.1509611000000000 0.1450335600000000 Au
atom 0.4982084800000000 27.1350895500000000 0.0939874800000000 Au
atom 3.3517303100000002 27.1186901099999993 -0.0193006100000000 Au
atom 6.1039074900000001 27.1163160000000012 0.1060173300000000 Au
atom 7.5062681199999997 29.5960676000000014 -0.0777194700000000 Au
atom 10.3302096300000006 29.6363732999999989 -0.0227583500000000 Au
atom 13.1444233199999996 29.6268866300000013 -0.0248572800000000 Au
atom 16.0085598400000002 29.6602136700000010 0.0520170800000000 Au
atom 18.8510904100000012 29.6029061899999988 -0.1091568500000000 Au
atom 21.6654373999999983 29.5496134400000017 0.0679529400000000 Au
atom 24.4371379399999995 29.5869901499999983 0.1053988900000000 Au
atom 27.2547442900000014 29.6169752600000002 0.0035637700000000 Au
atom 1.8841673500000000 29.6288907299999984 -0.0029524700000000 Au
atom 4.7103266599999998 29.5973541299999994 -0.0589186600000000 Au
atom 8.9197910599999997 32.0617814699999997 -0.0078893600000000 Au
atom 11.7539523999999993 32.0998952699999975 -0.0544393600000000 Au
atom 14.6044944200000000 32.0918935799999971 0.0211108900000000 Au
atom 17.3683424200000012 32.1062304399999974 0.0315149800000000 Au
atom 20.2167624000000004 32.0358583100000018 -0.0794306400000000 Au
atom 23.0242652899999989 32.1099675000000033 -0.0020698300000000 Au
atom 25.8387858399999999 32.1013971900000001 -0.0070351200000000 Au
atom 0.4363182700000000 32.0693643700000024 0.0096429600000000 Au
atom 3.2733434799999999 32.0739270600000026 -0.0972138200000000 Au
atom 6.0845794000000000 32.0652704099999966 -0.0538874100000000 Au
atom 7.4724990800000004 34.5010353099999989 0.0387054000000000 Au
atom 10.3133153699999998 34.5201353699999984 -0.0026208500000000 Au
atom 13.1441181399999998 34.5348146400000005 -0.0666548300000000 Au
atom 15.9865617800000006 34.5588777500000006 0.0490284600000000 Au
atom 18.8016286000000008 34.5511764700000015 -0.0287669900000000 Au
atom 21.6145187900000018 34.5682111899999995 0.0039574500000000 Au
atom 24.4305603799999993 34.5824204899999970 -0.0069310100000000 Au
atom 27.2522091400000015 34.5568107400000031 -0.0163553900000000 Au
atom 1.8817512000000001 34.5486706800000007 0.0204909800000000 Au
atom 4.6682156499999996 34.5391467099999971 0.0798197200000000 Au
atom 8.9360116099999995 37.0288267999999974 0.0988993100000000 Au
atom 11.7123194000000002 37.0139519399999983 -0.0470329100000000 Au
atom 14.5531303500000000 37.0039566499999992 -0.0437199800000000 Au
atom 17.3329245900000011 37.0261240199999975 0.0033688000000000 Au
atom 20.1691325399999997 37.0269642700000006 -0.0219255400000000 Au
atom 23.0162250099999994 37.0532040499999979 0.0302129200000000 Au
atom 25.8553330400000014 37.0434064800000016 0.0454295100000000 Au
atom 0.4681181000000000 37.0635394099999971 0.0975664900000000 Au
atom 3.3129102000000001 36.9869952299999980 0.0975727500000000 Au
atom 6.1117642400000003 37.0405628500000006 0.0333379700000000 Au
atom 7.5108058399999997 0.0655401500000000 0.0956918000000000 Au
atom 10.3284822799999993 0.0027135800000000 0.1372543500000000 Au
atom 13.1635516900000002 0.0416548200000000 0.0444810400000000 Au
atom 15.9345971100000003 0.0217553200000000 0.1065197900000000 Au
atom 18.7342094199999991 0.0105626600000000 0.1085306300000000 Au
atom 21.5893832500000009 0.0058368400000000 -0.0099105200000000 Au
atom 24.4360928199999989 0.0834536200000000 0.0894565000000000 Au
atom 27.2628342500000009 0.0207357800000000 0.1134708400000000 Au
atom 1.8726183599999999 0.0136438100000000 0.0976245100000000 Au
atom 4.6556348900000000 0.0183325100000000 0.1846814800000000 Au
atom 8.9260116800000002 2.4614087800000002 0.1670923800000000 Au
atom 11.7165488599999996 2.4787224100000000 0.0766478000000000 Au
atom 14.5072877200000008 2.5375660899999999 0.1786826600000000 Au
atom 17.3656790900000004 2.4632622000000000 0.1070189800000000 Au
atom 20.1781845599999983 2.4338225000000002 -0.0453697800000000 Au
atom 22.9916277800000017 2.4990776499999998 0.0863706700000000 Au
atom 25.8394118400000004 2.4921732599999999 0.0392972200000000 Au
atom 0.4782829700000000 2.5118086900000001 0.0155847300000000 Au
atom 3.2736853600000000 2.5420750999999999 0.1463311800000000 Au
atom 6.0833134299999996 2.4931245000000000 0.1181500300000000 Au
atom 7.4884381900000001 4.9536359299999999 0.0249350800000000 Au
atom 10.3190673799999999 4.9455913699999998 0.1380988100000000 Au
atom 13.1394525699999996 4.9983038400000002 0.2552007500000000 Au
atom 16.0049021300000014 4.9552931400000002 0.1075333300000000 Au
atom 18.7949273599999991 4.9311119899999998 0.1402108200000000 Au
atom 21.5560125499999984 4.9366866700000003 0.0788813500000000 Au
atom 24.3966423699999986 4.9811395799999998 0.1357223400000000 Au
atom 27.1926736200000008 5.0299695000000000 0.0636077500000000 Au
atom 1.8501856400000001 5.0107192600000001 0.0355858300000000 Au
atom 4.6951062099999996 4.9179483800000003 0.0911637700000000 Au
atom 8.9059024200000003 7.3971457200000001 0.1319003200000000 Au
atom 11.7134501499999999 7.4290124700000000 0.0942821400000000 Au
atom 14.5288128800000003 7.3980995900000002 0.0323631500000000 Au
atom 17.3952168399999998 7.4096561300000001 0.1799177100000000 Au
atom 20.1768852099999982 7.3888938399999997 0.1668364900000000 Au
atom 23.0192891199999998 7.4265022199999997 0.0993331600000000 Au
atom 25.8323079200000016 7.4745931399999996 0.0743310600000000 Au
atom 0.4867071700000000 7.4431940799999996 0.0469627700000000 Au
atom 3.3107873600000000 7.4363562600000002 -0.1128508700000000 Au
atom 6.0916756200000002 7.3758089800000004 0.1005988700000000 Au
atom 7.4898763600000002 9.8881543700000005 0.0395089300000000 Au
atom 10.3088465500000002 9.8689666099999993 0.0257881700000000 Au
atom 13.1171506699999991 9.8847190800000000 0.0264921400000000 Au
atom 15.9086868500000005 9.8561138899999996 0.0832517000000000 Au
atom 18.7756846499999988 9.8650024500000004 0.0827935500000000 Au
atom 21.5840763399999993 9.8567928899999995 0.0054849400000000 Au
atom 24.3945948299999991 9.9449068000000000 -0.0131625500000000 Au
atom 27.2562743400000009 9.8971438700000007 0.0598790900000000 Au
atom 1.9163537300000000 9.8872423600000001 -0.0354382400000000 Au
atom 4.7637362400000001 9.8520493800000004 -0.0030854300000000 Au
atom 8.8952287499999994 12.3217244000000008 -0.0907484700000000 Au
atom 11.7336881399999999 12.3245087000000009 -0.0659915600000000 Au
atom 14.5602598699999994 12.3263493299999993 -0.0543043100000000 Au
atom 17.3575912599999995 12.3325552500000004 -0.0456463500000000 Au
atom 20.1734562500000010 12.3748733400000006 -0.0231237900000000 Au
atom 22.9969658999999993 12.3838387300000008 0.1071136300000000 Au
atom 25.8103944399999996 12.3873238400000005 0.0065785800000000 Au
atom 0.4268941400000000 12.3374449399999992 0.0388518100000000 Au
atom 3.2823945900000000 12.3387276600000000 -0.0927356600000000 Au
atom 6.0864921499999998 12.3576654500000007 -0.0576695300000000 Au
atom 7.5007717700000001 13.2003690299999992 2.6562777899999999 Au
atom 10.3192563100000001 13.1774097000000001 2.4310520300000000 Au
atom 13.1762300299999993 13.2302437400000006 2.7074352600000000 Au
atom 15.9667434600000000 13.2162887599999994 2.4431834700000001 Au
atom 18.7843092399999989 13.1761162600000006 2.6001373399999999 Au
atom 21.5986882300000005 13.1777466800000003 2.6003213299999999 Au
atom 24.4619814499999997 13.1864830299999998 2.6550723600000001 Au
atom 27.2838012100000000 13.2229786699999998 2.5484260000000001 Au
atom 1.8980621499999999 13.2146142799999993 2.6013133000000002 Au
atom 4.6897240599999996 13.1799675599999997 2.5069805500000002 Au
atom 8.9725917600000002 15.6347977100000008 2.5098830799999998 Au
atom 11.7081228399999997 15.6180563100000001 2.4079740799999998 Au
atom 14.5138952700000008 15.6772562200000003 2.5852082799999998 Au
atom 17.3482557499999999 15.6834120099999996 2.5488041899999998 Au
atom 20.1366000000000014 15.6017018699999994 2.5261718599999998 Au
atom 23.0775606899999985 15.6150773100000002 2.6013105200000002 Au
atom 25.8969619199999990 15.6771752699999993 2.5695625999999998 Au
atom 0.4876983800000000 15.6324176999999995 2.6421983600000001 Au
atom 3.2701793000000001 15.6503714699999996 2.5491418100000001 Au
atom 6.1125381399999998 15.6516861299999999 2.4894323300000001 Au
atom 7.5009144799999996 18.0665334199999990 2.7405486500000000 Au
atom 10.2806427199999995 18.0700197100000004 2.5102384500000001 Au
atom 13.1091535399999994 18.0737115099999990 2.5862309500000000 Au
atom 15.9945585700000006 18.1360222100000001 2.4489656100000001 Au
atom 18.7673422499999987 18.1112561599999999 2.6741236900000001 Au
atom 21.6543655100000016 18.0281154999999984 2.6615923800000001 Au
atom 24.4724737499999989 18.0930306799999983 2.6879913700000002 Au
atom 27.2801387999999996 18.1086605899999995 2.6636662499999999 Au
atom 1.8450416500000000 18.0466535700000001 2.8137454000000002 Au
atom 4.6661035399999999 18.1342772200000013 2.6305942400000002 Au
atom 8.8876478900000002 20.5688892299999999 2.7044758099999999 Au
atom 11.7322139500000002 20.5878784599999989 2.6467025000000000 Au
atom 14.5842313200000007 20.5855958799999996 2.5659400799999998 Au
atom 17.3872709800000003 20.6325986199999996 2.6330376200000001 Au
atom 20.1928440900000012 20.5558889899999997 2.6906629000000000 Au
atom 23.0208143400000012 20.5240351899999993 2.5963483100000002 Au
atom 25.8554036700000012 20.6208742600000008 2.7100780400000000 Au
atom 0.4470744500000000 20.5817883700000017 2.6961633200000001 Au
atom 3.2242939100000001 20.5643104200000018 2.7713035399999999 Au
atom 6.0377764899999997 20.5974170799999996 2.7337854899999998 Au
atom 7.4679783100000003 23.0585474499999989 2.6308150600000002 Au
atom 10.3671326100000005 23.0693963400000008 2.6690670100000000 Au
atom 13.2323110400000008 23.1084743400000008 2.5701331500000002 Au
atom 16.0415169900000016 23.1081822999999993 2.5679742999999999 Au
atom 18.8392712799999984 23.1075403600000016 2.5800156400000001 Au
atom 21.6206194799999984 23.0453080700000008 2.6427171899999999 Au
atom 24.4298152100000010 23.0311552599999985 2.5656868099999999 Au
atom 27.2673538399999984 23.0644546099999985 2.8167538599999999 Au
atom 1.8490686900000000 23.0933594800000002 2.7181424900000000 Au
atom 4.6496141499999997 23.0206148199999987 2.5733643700000002 Au
atom 8.9294896000000001 25.4810191999999986 2.6767616500000000 Au
atom 11.7736168699999997 25.5304974099999988 2.6328393499999998 Au
atom 14.5932145999999996 25.5976445099999985 2.6447946899999999 Au
atom 17.4482733000000003 25.5322932000000016 2.4993709200000001 Au
atom 20.2303213200000016 25.5720955600000011 2.6247251000000000 Au
atom 23.0634887100000014 25.5185002999999995 2.6798829400000002 Au
atom 25.8676853300000005 25.5515346500000007 2.8332504100000002 Au
atom 0.4802516000000000 25.6014826100000015 2.7510469899999999 Au
atom 3.2945596400000001 25.5331028499999988 2.7577023199999999 Au
atom 6.0810897099999996 25.5280494900000008 2.7495655499999998 Au
atom 7.5026715599999996 27.9975668400000011 2.6507135599999998 Au
atom 10.3036293699999995 28.0064631000000013 2.7563223500000000 Au
atom 13.1098306600000001 28.0222156099999999 2.6114765400000000 Au
atom 15.9631111899999993 28.0186994300000016 2.7683888600000000 Au
atom 18.7965021900000018 28.0341343499999986 2.4643692399999999 Au
atom 21.5978376200000000 28.0240811900000004 2.6668209300000001 Au
atom 24.4369097000000011 28.0102304000000011 2.6207622900000000 Au
atom 27.2304293699999995 28.0785814199999990 2.7028160600000000 Au
atom 1.8905374600000000 28.0503399299999998 2.6106544500000002 Au
atom 4.6739460599999996 27.9937557699999999 2.6278226600000001 Au
atom 8.8987008599999999 30.4523176999999983 2.5589820099999998 Au
atom 11.7128398100000002 30.4741245999999997 2.5951611200000002 Au
atom 14.5362287699999992 30.4391122600000017 2.6085531999999998 Au
atom 17.3608466800000016 30.4920432599999991 2.6450647300000001 Au
atom 20.1859117099999992 30.4960257500000012 2.5853019200000000 Au
atom 23.0025948299999996 30.4657704000000003 2.6596133800000001 Au
atom 25.8126320299999996 30.5071645499999988 2.6189792999999999 Au
atom 0.4745238900000000 30.4711276399999988 2.5916054800000001 Au
atom 3.2412511099999999 30.5002812799999994 2.5792641399999998 Au
atom 6.0833794299999999 30.4117475900000009 2.5593498200000000 Au
atom 7.4834598699999999 32.8905643699999999 2.5688927200000000 Au
atom 10.3397813999999997 32.8855970999999982 2.7194361100000002 Au
atom 13.1159001300000000 32.9268631400000018 2.5204917500000001 Au
atom 15.9481706800000005 32.9030999100000017 2.7086852399999999 Au
atom 18.7892540799999992 32.9556209799999991 2.5245851099999999 Au
atom 21.6013309599999985 32.9590556200000009 2.6573344799999998 Au
atom 24.4172982300000001 32.9753033599999981 2.5563214500000000 Au
atom 27.2109994399999984 32.9690858399999982 2.6290697000000001 Au
atom 1.8551883100000000 32.9536809800000015 2.5110909800000001 Au
atom 4.6543035499999998 32.9275345799999997 2.7078771700000002 Au
atom 8.9612538799999992 35.3464233099999987 2.6790841599999999 Au
atom 11.7329217400000001 35.3543640899999971 2.5815156099999998 Au
atom 14.5353581599999995 35.3287935700000020 2.5911976700000001 Au
atom 17.3356507899999990 35.3660491699999966 2.6151975099999998 Au
atom 20.1988528500000015 35.4208993800000016 2.5855107899999998 Au
atom 22.9873906800000007 35.3969841700000032 2.6760687500000002 Au
atom 25.8395771500000002 35.4478061900000014 2.5854925500000001 Au
atom 0.4049657000000000 35.4312370600000008 2.6143168999999999 Au
atom 3.2756381600000002 35.3727024499999985 2.7422563800000002 Au
atom 6.0892133399999997 35.3953630899999965 2.5467495699999998 Au
atom 7.5651754000000002 37.8230370300000018 2.6482990800000001 Au
atom 10.4084602200000003 37.8111170399999992 2.7246305099999999 Au
atom 13.1827865800000001 37.8022191499999991 2.4997007199999999 Au
atom 15.9729852799999996 37.8005679299999997 2.7303497999999999 Au
atom 18.7717521299999994 37.8274713400000024 2.6197087799999998 Au
atom 21.5881621999999993 37.8697218100000015 2.6334557099999998 Au
atom 24.4505750199999987 37.8880618499999997 2.6500487900000000 Au
atom 27.2516195000000003 37.8939616500000014 2.8122617499999998 Au
atom 1.8464096600000000 37.8407513399999971 2.6886180199999998 Au
atom 4.6935891700000001 37.8668225500000020 2.7125953799999998 Au
atom 8.9695996000000004 0.8393090200000000 2.7338700600000001 Au
atom 11.8047841299999998 0.8521252000000000 2.6727636299999999 Au
atom 14.5991972499999996 0.8306677500000000 2.7658140300000000 Au
atom 17.3886289100000013 0.7910330200000000 2.7502345199999998 Au
atom 20.1799606999999988 0.8512232700000000 2.6637819700000001 Au
atom 22.9645108499999999 0.8773405900000000 2.6297844399999999 Au
atom 25.8024595800000007 0.9202621000000000 2.7749943199999998 Au
atom 0.4567315000000000 0.8827955900000000 2.5841538900000001 Au
atom 3.2325871600000000 0.8624763100000000 2.7860718499999999 Au
atom 6.1331949799999999 0.8225486400000001 2.7134839799999999 Au
atom 7.4977075199999996 3.3140701699999999 2.6345496700000002 Au
atom 10.3491468300000005 3.3122432800000001 2.7250868200000000 Au
atom 13.2027127699999998 3.3256038800000001 2.7458191699999999 Au
atom 15.9632231200000003 3.2671130300000000 2.6997890199999999 Au
atom 18.7570010399999987 3.2808319300000002 2.7270330600000001 Au
atom 21.5361108500000000 3.3422049600000001 2.6215559599999998 Au
atom 24.4016160299999996 3.4181245900000001 2.6570834099999998 Au
atom 27.1952496799999999 3.3704908100000002 2.6551146000000001 Au
atom 1.8346160000000000 3.3803387699999998 2.6561283699999998 Au
atom 4.6829495300000001 3.2650392500000001 2.8113565399999998 Au
atom 8.8986466499999999 5.7889964300000001 2.6646885899999999 Au
atom 11.7225090499999993 5.8009402600000000 2.7568736199999999 Au
atom 14.5523047499999993 5.8368779799999997 2.7726135799999998 Au
atom 17.4076740000000001 5.7640514100000004 2.7561968999999999 Au
atom 20.1726574300000010 5.8137481199999996 2.8174008100000001 Au
atom 23.0081498099999990 5.8258572300000004 2.7165616300000002 Au
atom 25.8354239200000002 5.8862109499999997 2.7238816500000000 Au
atom 0.4244757400000000 5.8319772299999997 2.6723176899999999 Au
atom 3.2205713800000000 5.8024516700000000 2.6212276900000000 Au
atom 6.0991710899999996 5.7666261499999996 2.7322663299999999 Au
atom 7.4976642099999999 8.2951197099999998 2.7164369200000000 Au
atom 10.3344789299999995 8.2377141599999995 2.6965305499999999 Au
atom 13.1271405100000003 8.2800939299999996 2.6879192600000001 Au
atom 15.9579267599999994 8.2452823300000002 2.6352476299999998 Au
atom 18.8004170700000017 8.2639404699999996 2.8291950799999999 Au
atom 21.5983460399999991 8.2670863600000004 2.7031688800000002 Au
atom 24.4214230299999997 8.3485213700000003 2.7079861300000001 Au
atom 27.2942956400000014 8.3252097099999993 2.6491935600000001 Au
atom 1.8961175800000001 8.2767309299999994 2.5556528100000002 Au
atom 4.6517442200000003 8.2411009199999992 2.5577336800000001 Au
atom 8.9777091900000006 10.7476024799999994 2.6499315100000000 Au
atom 11.7715604000000003 10.7531269500000004 2.5615164799999999 Au
atom 14.5264886900000008 10.7534435199999994 2.6250975799999998 Au
atom 17.3585650300000012 10.7303147800000005 2.5842626000000002 Au
atom 20.1528729099999993 10.7082472499999994 2.6246807400000001 Au
atom 23.0144274600000003 10.7646014700000006 2.6180257800000000 Au
atom 25.8544955799999983 10.7990352600000001 2.6975560299999999 Au
atom 0.4881723200000000 10.7387518699999998 2.6391140300000000 Au
atom 3.2995696500000000 10.7474552100000000 2.5961433500000002 Au
atom 6.1150513799999997 10.7486025200000004 2.6570572000000001 Au
atom 7.5110533899999998 13.0936123000000002 5.9076976200000004 Cl
atom 7.3962078000000000 16.0625198000000005 8.7458211099999996 Cl
atom 7.5655198500000003 13.0166185399999996 8.5533182100000005 Na
atom 7.3898176500000003 15.7392798400000000 5.7686442800000002 Na
atom 7.3862788200000002 18.8385378999999986 5.6706547699999996 Cl
atom 7.5322252399999998 21.5530670800000017 8.5415097299999996 Cl
atom 7.2425380900000000 18.8559104600000005 8.2284428700000003 Na
atom 7.3594074899999997 21.6856836199999989 5.6407996699999998 Na
atom 7.3797653700000003 24.4296331600000016 5.6921702900000000 Cl
atom 7.4625227900000004 27.2301289799999999 8.5165645899999998 Cl
atom 7.4482356200000002 24.3969162100000005 8.3117144399999994 Na
atom 7.4990147699999996 27.2966766900000017 5.7456610799999996 Na
atom 7.4148059300000000 30.1652951899999984 5.7256194100000002 Cl
atom 7.4995941999999998 32.8683545000000024 8.6869012199999993 Cl
atom 7.4391878800000004 30.1035012000000002 8.4425445200000002 Na
atom 7.4417939200000003 33.0055597799999987 5.8986925000000001 Na
atom 7.4114006200000002 35.7848263699999976 5.7846879500000004 Cl
atom 7.5606651400000002 38.4363174499999971 8.6732292700000002 Cl
atom 7.4570809400000000 35.6807895700000017 8.4112476800000007 Na
atom 7.4780489899999996 38.5684911099999965 5.9296138500000000 Na
atom 7.4728876099999999 1.8109304200000000 5.8429066699999996 Cl
atom 7.4475546000000001 4.5827769600000003 8.7028028499999994 Cl
atom 7.5100166699999997 1.8109213799999999 8.5504659299999997 Na
atom 7.5070392000000004 4.6191443999999997 5.9351020700000001 Na
atom 7.4616448100000001 7.3586714000000004 5.8527888299999997 Cl
atom 7.2508460799999996 10.2243467100000007 8.7069793099999995 Cl
atom 7.4447084500000003 7.4153456699999998 8.5343239400000002 Na
atom 7.4901366300000003 10.2512994299999995 5.9315131200000000 Na
atom 10.2878261500000008 13.1806237199999998 6.1826767000000000 Na
atom 12.8622880300000002 13.1989854500000003 5.8905045100000004 Cl
atom 10.1438478300000003 15.9543387699999997 8.1267231100000004 Na
atom 13.2746458799999996 16.0648447200000000 8.6416628200000005 Cl
atom 13.0628670699999994 13.1820929200000005 8.4534373299999999 Na
atom 10.3429187599999999 13.1812385100000000 8.7633144499999993 Cl
atom 13.1128523700000006 15.9174490599999992 5.9941165200000004 Na
atom 10.2477224899999992 15.7993963100000006 5.6133567099999997 Cl
atom 10.2527495999999996 18.8154569800000004 5.6725188800000002 Na
atom 13.0685886300000007 18.7579672299999984 5.5136157099999998 Cl
atom 10.2716966400000000 21.4388836699999992 8.3327548999999994 Na
atom 13.0394815000000008 21.6736095999999989 8.2761631199999997 Cl
atom 13.1617903700000003 18.6843958000000008 8.1070848299999998 Na
atom 10.3615386199999993 18.8212621200000001 8.5986745500000001 Cl
atom 13.1008718500000008 21.6200160799999992 5.6827088400000001 Na
atom 10.1453446599999992 21.5530290399999984 5.7548787600000004 Cl
atom 10.3677217800000001 24.3882724599999996 5.6394575199999997 Na
atom 13.2371869400000008 24.6387360400000013 5.6791130100000000 Cl
atom 10.3071624600000007 27.2766388900000010 8.2278784100000006 Na
atom 13.0455520800000002 27.4374642299999998 8.6074676599999993 Cl
atom 13.0882743700000006 24.5468191699999991 8.1208398299999995 Na
atom 10.3106557700000003 24.4394650899999988 8.3917675599999999 Cl
atom 13.1989335800000003 27.3697740500000002 5.8212775800000003 Na
atom 10.3181225800000007 27.3107506200000003 5.6433777699999998 Cl
atom 10.2612812200000008 30.1088612600000012 5.7693839300000000 Na
atom 13.1853149199999997 30.1628280300000000 5.7515178000000002 Cl
atom 10.2904798199999998 33.0012090399999991 8.4125363100000001 Na
atom 13.1164216200000006 32.9203330400000027 8.6623282699999997 Cl
atom 13.1537234200000004 30.2600769900000017 8.4265156799999996 Na
atom 10.2899546199999996 30.0825744499999992 8.5453748500000000 Cl
atom 13.0728212399999997 32.9555796000000001 5.8881841100000001 Na
atom 10.2953253000000000 32.9272009199999971 5.7788725300000001 Cl
atom 10.3190878900000005 35.7880713500000027 5.8613637399999998 Na
atom 13.1840850799999991 35.7109968999999978 5.7351579700000004 Cl
atom 10.3766446099999996 38.5417495499999987 8.4550706000000009 Na
atom 13.0677962300000008 38.4536138899999997 8.6231107599999994 Cl
atom 13.0753874600000000 35.7480702300000033 8.3761632499999994 Na
atom 10.3326669599999992 35.7018115899999984 8.6328182299999998 Cl
atom 13.1255239699999997 38.4924839600000013 5.8624637999999996 Na
atom 10.3197451600000001 38.5598700199999982 5.7735032100000003 Cl
atom 10.3174367900000004 1.7714947299999999 5.9069074300000004 Na
atom 13.1757136199999998 1.8223674100000000 5.8681036999999998 Cl
atom 10.2277454599999995 4.6540918099999997 8.5049599199999992 Na
atom 13.1304113900000008 4.6482491300000000 8.7266434000000004 Cl
atom 13.0975171699999997 1.8266675200000000 8.4955882700000007 Na
atom 10.3238872500000003 1.7966332400000000 8.7151753299999992 Cl
atom 13.0854982999999994 4.6251171700000002 5.9703566600000002 Na
atom 10.3389472399999995 4.6193353600000000 5.8846319500000002 Cl
atom 10.2095523200000002 7.5719891099999996 5.9639086099999998 Na
atom 13.0051494800000000 7.4049334800000004 5.8308834799999998 Cl
atom 10.3546465899999998 10.2703406099999999 9.0119238799999994 Na
atom 13.3084192699999999 10.2086559999999995 8.5675693600000002 Cl
atom 13.0659923700000000 7.5066404899999997 8.4945605900000007 Na
atom 10.2917043800000005 7.5400949500000003 8.7280524499999999 Cl
atom 12.9703589800000003 10.3023209900000001 5.8832964800000003 Na
atom 10.2458419999999997 10.3003659299999999 5.9768825300000001 Cl
atom 15.8204425700000009 13.0216451400000004 5.6900203999999999 Na
atom 18.8309558300000006 12.9840662699999996 5.5205202399999997 Cl
atom 16.0955116599999997 15.9255563900000006 8.0068524399999994 Na
atom 18.7126949899999993 15.9582665200000005 8.2950686299999994 Cl
atom 18.7453676400000013 13.1364807700000004 8.1936867200000005 Na
atom 16.0563813700000004 13.0636388500000002 8.3571023199999992 Cl
atom 18.7204677799999999 15.9150846300000008 5.5042490700000002 Na
atom 15.8545039899999995 15.8979556100000003 5.3801267900000003 Cl
atom 16.0744306700000017 18.9334974000000003 5.5132166399999996 Na
atom 19.0434190799999996 18.9125508800000013 5.5511709600000003 Cl
atom 15.8719724099999997 21.8201916300000001 8.0393062499999992 Na
atom 18.7189986799999986 21.4850073700000017 8.5710067199999997 Cl
atom 18.7482745400000006 18.8245387300000004 8.1155131300000001 Na
atom 16.0945123800000012 18.8032578500000014 8.1957200100000005 Cl
atom 18.7781027099999989 21.7033525500000017 5.7282051500000000 Na
atom 16.0676584200000008 21.9620347600000017 5.4845295800000002 Cl
atom 16.0311572700000013 24.6050307500000009 5.7904523200000000 Na
atom 18.7995508499999993 24.4115245399999985 5.7469366800000001 Cl
atom 16.0263865800000005 27.1523269999999997 8.3951967199999995 Na
atom 18.9488353499999995 27.4207694000000011 8.4941794900000005 Cl
atom 18.7018361499999983 24.4173891400000009 8.3560480500000001 Na
atom 15.9951316800000001 24.4384801799999991 8.4326703599999995 Cl
atom 18.9285120099999986 27.2268323800000012 5.7985501700000004 Na
atom 16.0602777699999990 27.2641016399999998 5.7763894400000000 Cl
atom 16.0100341300000011 30.0339096699999999 5.8146991400000001 Na
atom 18.9485563399999997 30.1563402499999995 5.5914659300000000 Cl
atom 15.9531658099999998 32.9083031700000035 8.3895731300000005 Na
atom 18.7752144200000011 32.8393301600000029 8.6529840300000007 Cl
atom 18.8431552499999988 30.1394942899999982 8.2658984199999992 Na
atom 16.0586621799999989 30.1545923699999996 8.5121265400000006 Cl
atom 18.8044658300000016 32.9278511300000005 5.8865168600000004 Na
atom 16.0607055699999997 32.9188259200000033 5.7554688599999997 Cl
atom 15.9431877400000008 35.6899877199999978 5.9007521900000004 Na
atom 18.8038577999999994 35.7846497399999990 5.7616337199999998 Cl
atom 16.0084350300000011 38.5159936900000019 8.4967350199999991 Na
atom 18.7922987100000007 38.4683738399999982 8.7420384000000002 Cl
atom 18.6953635399999989 35.6575319199999967 8.4439190100000001 Na
atom 15.8743069999999999 35.7013569300000029 8.6726288199999999 Cl
atom 18.8103543100000010 38.5699802000000034 5.8917589299999999 Na