#===============================================================================
# Created using the Atomic Simulation Environment (ASE)

# Tue Dec 23 22:26:26 2025

#=======================================================
lattice_vector 28.1999999999999993 0.0000000000000000 0.0000000000000000 
lattice_vector 0.0000000000000000 39.4799999999999969 0.0000000000000000 
lattice_vector 0.0000000000000000 0.0000000000000000 62.3296083400000001 
atom 7.4975088200000002 14.7776662499999993 -0.2783056500000000 Au
atom 10.3199856000000008 14.7401984099999996 -0.2420161600000000 Au
atom 13.0659365699999999 14.8184809600000005 -0.3435813700000000 Au
atom 15.9514606400000005 14.8623255899999993 -0.3503536500000000 Au
atom 18.8019498700000014 14.8595296799999996 -0.3365837400000000 Au
atom 21.6004436200000001 14.8502594000000006 -0.5291742600000000 Au
atom 24.4092541199999999 14.8823475500000004 -0.3408480900000000 Au
atom 27.1804076799999983 14.8098155200000008 -0.4978070800000000 Au
atom 1.8015320699999999 14.8447660700000004 -0.0904259800000000 Au
atom 4.6553660900000002 14.8000578899999997 -0.1070489400000000 Au
atom 8.7952411200000000 17.2232825900000002 -0.2871715200000000 Au
atom 11.6059514099999994 17.2276340899999987 -0.4032589700000000 Au
atom 14.4619840300000000 17.2735924999999995 -0.4226938500000000 Au
atom 17.3678190800000003 17.3599366900000014 -0.2750809100000000 Au
atom 20.1119028600000007 17.2650912599999984 -0.2038488900000000 Au
atom 22.9753205700000009 17.2946814499999988 -0.1471096600000000 Au
atom 25.8428464700000013 17.3151336799999989 -0.1158231300000000 Au
atom 0.4332378200000000 17.4767508599999992 -0.0185388600000000 Au
atom 3.2793117399999998 17.2882083000000009 -0.0753234600000000 Au
atom 5.9752755799999999 17.3116022100000002 -0.2075572300000000 Au
atom 7.5863696100000002 19.7640990999999993 -0.0569130700000000 Au
atom 10.3423033400000008 19.7488267399999984 -0.5685914100000000 Au
atom 13.0547613899999995 19.7258081400000016 -0.3153208500000000 Au
atom 15.8800540199999993 19.8314480800000013 -0.2664768800000000 Au
atom 18.6968803299999990 19.7474784899999989 -0.1472307700000000 Au
atom 21.5691048400000014 19.8130536399999997 -0.0883353600000000 Au
atom 24.3299838299999998 19.7269580600000012 0.0324182100000000 Au
atom 27.2152524900000010 19.9461089200000004 -0.0325678100000000 Au
atom 1.9290984700000000 19.8122953499999994 0.1234510900000000 Au
atom 4.7384500699999998 19.8175042400000017 -0.1602733600000000 Au
atom 8.9725299399999994 22.3047610499999998 -0.1343674700000000 Au
atom 11.7294057400000007 22.2766506900000003 -0.2390323200000000 Au
atom 14.5405740699999999 22.2849591800000013 -0.2140449600000000 Au
atom 17.3315948099999986 22.2412784700000010 -0.0905685500000000 Au
atom 20.1816128200000016 22.2039197699999988 0.0947383800000000 Au
atom 22.9785423199999990 22.1904711399999997 0.1495687100000000 Au
atom 25.9080791700000006 22.2915803200000013 0.1844289900000000 Au
atom 0.5574030000000000 22.2857316599999997 -0.0094021200000000 Au
atom 3.3356875399999999 22.2945209599999998 0.0653329100000000 Au
atom 6.2051627900000002 22.2014962599999990 0.0737313700000000 Au
atom 7.5633819999999998 24.6835934399999992 -0.2662691400000000 Au
atom 10.3747400600000006 24.7816936900000009 -0.4168773900000000 Au
atom 13.1403117599999995 24.6921171000000008 -0.1128580000000000 Au
atom 16.0493911000000011 24.7408270299999984 -0.2662444200000000 Au
atom 18.8476239499999991 24.6406685600000017 0.3014309700000000 Au
atom 21.6098476099999992 24.6273864399999987 0.1424677100000000 Au
atom 24.4884381299999987 24.6197100999999989 0.1206357400000000 Au
atom 27.2673235600000012 24.5505898999999985 -0.2970787000000000 Au
atom 1.9817422899999999 24.6196431599999990 0.0819255300000000 Au
atom 4.8505447300000002 24.6254455400000012 0.2838713200000000 Au
atom 9.0532597300000006 27.2559828499999988 -0.2445385900000000 Au
atom 11.8592048499999994 27.1647584199999983 -0.1268364200000000 Au
atom 14.6482887000000002 27.3010645600000004 -0.1314209900000000 Au
atom 17.4244027400000014 27.1747149599999993 0.1667518800000000 Au
atom 20.3200944899999989 27.0897400300000015 0.3339154400000000 Au
atom 23.0391150700000011 27.1326433300000005 0.0423212500000000 Au
atom 25.9191493699999995 27.1700378100000002 -0.1150546800000000 Au
atom 0.5939433500000000 27.1651103499999991 -0.2704239300000000 Au
atom 3.3423284000000000 27.0537591999999982 0.0851343200000000 Au
atom 6.2167801499999999 27.0549871000000017 -0.0210913600000000 Au
atom 7.4820042300000003 29.7530614799999995 -0.0978680800000000 Au
atom 10.4297088700000007 29.6659138099999993 0.1784960500000000 Au
atom 13.1992512899999994 29.7867620399999993 -0.1562902300000000 Au
atom 15.9933690800000008 29.6979772100000012 0.2918940800000000 Au
atom 18.8770020900000013 29.6273398700000001 0.2256181200000000 Au
atom 21.7302305199999992 29.5702348700000002 0.0582367200000000 Au
atom 24.4762785799999989 29.6319429700000008 -0.0777016600000000 Au
atom 27.4051347900000017 29.3356056599999988 -0.0893890500000000 Au
atom 1.9941022100000001 29.5763568899999996 0.0451809200000000 Au
atom 4.6928559900000000 29.5598539799999998 -0.1218275700000000 Au
atom 8.8934820899999991 32.1667541500000027 0.0489054100000000 Au
atom 11.7607707000000001 32.2538800800000018 -0.0722794900000000 Au
atom 14.5854668899999993 32.2470643999999993 -0.2879942500000000 Au
atom 17.4665472900000012 32.0577825200000035 0.0189671800000000 Au
atom 20.3792715599999994 32.0446410300000011 -0.1017229800000000 Au
atom 23.0193426199999998 32.0891453899999988 0.1202418800000000 Au
atom 25.9207240100000007 32.1647784800000025 -0.1405059500000000 Au
atom 0.6175727800000000 32.0078062700000032 -0.1709476200000000 Au
atom 3.3447172799999998 32.1664987199999999 -0.0169266700000000 Au
atom 6.1367649100000001 32.2369535300000010 0.1634101200000000 Au
atom 7.5448197099999996 34.7881382599999966 0.0555244600000000 Au
atom 10.3260594799999996 34.7093357600000019 0.1558901200000000 Au
atom 13.1322810000000008 34.7123970199999974 0.0544197500000000 Au
atom 15.9642378399999991 34.6439176800000013 -0.0112360700000000 Au
atom 18.8157058600000013 34.5974057800000026 -0.1737194900000000 Au
atom 21.6699340999999990 34.6230695499999968 -0.0328634300000000 Au
atom 24.4060694100000006 34.6544874499999978 -0.0822669100000000 Au
atom 27.2685604999999995 34.8131478900000033 -0.0955964000000000 Au
atom 1.9933851600000001 34.6728834199999980 -0.0322254500000000 Au
atom 4.7320447500000000 34.6242194900000015 -0.1523547800000000 Au
atom 9.1221982500000003 37.2447696799999974 -0.0519234200000000 Au
atom 11.7454651499999994 37.1211821799999981 0.1735305000000000 Au
atom 14.5487191199999994 37.1474967999999990 -0.0741356400000000 Au
atom 17.5344582699999982 37.1346033000000020 -0.2689570600000000 Au
atom 20.2136344299999990 37.0781018400000022 -0.2066681700000000 Au
atom 23.0253289899999984 37.0202753000000016 0.3037388200000000 Au
atom 25.9398894499999990 37.1406681400000025 0.0960346500000000 Au
atom 0.4688940200000000 37.1012769100000028 0.0049669400000000 Au
atom 3.2063629100000002 37.1554903600000017 0.0477859700000000 Au
atom 6.1389668799999999 37.2027007699999999 -0.0396925400000000 Au
atom 7.1585544800000003 0.1083768400000000 -0.0156912400000000 Au
atom 10.3542370199999993 0.1367793400000000 0.5737131500000000 Au
atom 13.2711393100000006 0.1435119500000000 0.0757887100000000 Au
atom 16.0857906100000001 0.1833538600000000 0.1636983400000000 Au
atom 18.9586306499999999 0.1633240100000000 0.0335988000000000 Au
atom 21.5247471399999988 0.0524044500000000 0.0397646000000000 Au
atom 24.5786533700000014 0.0535463100000000 -0.0507333700000000 Au
atom 27.4316689099999991 0.0613532500000000 0.0019077800000000 Au
atom 2.1772461600000002 0.1890495600000000 0.2089629600000000 Au
atom 4.9322859100000001 0.1438403000000000 0.0317828200000000 Au
atom 8.9940383500000003 2.5014277900000002 0.1404617800000000 Au
atom 11.8195776499999994 2.4643049700000002 0.2166178000000000 Au
atom 14.6129713100000007 2.5023687500000000 0.2342702700000000 Au
atom 17.3845796600000000 2.6022366600000000 0.2227434300000000 Au
atom 20.2090721299999991 2.5349432400000000 0.2124701400000000 Au
atom 22.9800144599999996 2.4650699299999999 0.2612956100000000 Au
atom 25.8089429300000006 2.5284150599999999 0.3426262700000000 Au
atom 0.5474579600000000 2.5288703300000002 0.3330690000000000 Au
atom 3.3320675899999999 2.5973644100000000 0.1455423000000000 Au
atom 6.0539386999999998 2.6108894299999998 -0.0501335400000000 Au
atom 7.6851408100000000 4.9470238300000000 0.0527842000000000 Au
atom 10.4085987699999993 5.0221785399999996 0.4386544800000000 Au
atom 13.1113494999999993 4.9524694000000000 0.3659631900000000 Au
atom 15.9935905999999992 5.0092787200000002 0.2130264200000000 Au
atom 18.7611160000000012 4.9957945700000002 0.4619104200000000 Au
atom 21.5872427100000017 5.0661382300000000 0.3242022800000000 Au
atom 24.3532887400000000 4.9117627300000004 0.1604245100000000 Au
atom 27.2039893100000008 5.1151003099999999 0.2386382500000000 Au
atom 1.8810523600000000 4.9568954600000001 0.4124718800000000 Au
atom 4.7672373099999996 5.0447844999999996 0.4471817300000000 Au
atom 8.9037451099999991 7.4702956000000000 0.3829643900000000 Au
atom 11.6799323099999999 7.4764219399999998 0.4204073600000000 Au
atom 14.4994789100000006 7.4663685900000001 0.3503778000000000 Au
atom 17.4977073400000016 7.4981620299999996 0.4519454300000000 Au
atom 20.1565008900000002 7.4374683499999996 0.2443327200000000 Au
atom 22.9352491900000004 7.4639397900000004 0.0076163300000000 Au
atom 25.7869106399999986 7.3628246400000004 -0.0133626300000000 Au
atom 0.3929386100000000 7.6461985300000004 0.3074698900000000 Au
atom 3.2003330800000001 7.4721575400000004 0.1725068800000000 Au
atom 6.0864039800000000 7.4220145500000001 0.0922087700000000 Au
atom 7.4794583499999998 9.7854901900000009 0.0989118800000000 Au
atom 10.2628432699999994 9.8802720999999991 0.3184231300000000 Au
atom 13.0948012200000008 9.8221731900000009 0.2398860100000000 Au
atom 15.9319705799999998 9.8630072799999997 0.1439723200000000 Au
atom 18.8230829700000015 9.8915962499999992 0.1193029300000000 Au
atom 21.5779861500000010 9.9465052200000006 0.0726812400000000 Au
atom 24.3741783199999986 9.8732337700000006 -0.1831504900000000 Au
atom 27.2291410899999988 9.8760700400000001 -0.0860692700000000 Au
atom 1.8738014599999999 9.9617447499999994 -0.1501747000000000 Au
atom 4.6965982600000000 9.8601170400000004 -0.1205258000000000 Au
atom 8.8840079700000008 12.1944145099999997 -0.2529614800000000 Au
atom 11.7669654500000007 12.1933131400000008 -0.1144647600000000 Au
atom 14.5236092699999997 12.2907815800000009 -0.2658296400000000 Au
atom 17.4019780500000003 12.3927411200000002 -0.2935835000000000 Au
atom 20.1717727199999999 12.3287697999999999 -0.2588085500000000 Au
atom 23.0202759800000010 12.3645132499999999 -0.4803769300000000 Au
atom 25.8607483900000013 12.2887417600000006 -0.4252106300000000 Au
atom 0.4452614800000000 12.5013359800000003 -0.2499226600000000 Au
atom 3.2249063699999998 12.3280410899999993 -0.2850807600000000 Au
atom 6.0762515600000002 12.2918434699999999 -0.0901601700000000 Au
atom 7.5260192899999998 13.1278495300000007 2.2577465200000000 Au
atom 10.2517654599999997 13.1031700200000003 2.4615513700000000 Au
atom 13.0826318700000002 13.2540602199999995 2.4389056299999998 Au
atom 15.9447846000000002 13.1803650900000004 2.3057295999999998 Au
atom 18.7909955599999989 13.1759588900000004 2.2205485600000001 Au
atom 21.5737511300000016 13.3499284500000002 2.0643103300000001 Au
atom 24.3803921800000012 13.1977390799999998 2.2006183600000000 Au
atom 27.2364389100000004 13.1089934499999998 2.0763541399999998 Au
atom 1.8201638200000001 13.2529220199999997 2.2592090599999999 Au
atom 4.6194136300000004 13.1938927199999991 2.3936775199999998 Au
atom 8.8938232700000004 15.5533681200000000 2.4890394599999999 Au
atom 11.6495101999999999 15.6235081600000001 2.3020155700000000 Au
atom 14.4894957899999994 15.6312192499999991 2.1998762400000000 Au
atom 17.3799982300000018 15.6073039999999992 2.3553653799999998 Au
atom 20.1440554100000000 15.6764516199999999 2.2755165100000001 Au
atom 23.0204868100000013 15.7200707800000004 2.2586895600000001 Au
atom 25.8894685299999985 15.5428343400000006 2.3684291100000001 Au
atom 0.4498749300000000 15.6701246199999993 2.5985422800000002 Au
atom 3.2476885400000000 15.5685932499999993 2.6133828399999999 Au
atom 6.0993074600000003 15.6082511200000003 2.3366142700000001 Au
atom 7.4374162600000000 18.0906826000000009 2.6630142800000001 Au
atom 10.2179602200000001 18.1844031299999997 2.1121193699999998 Au
atom 13.0312653699999998 18.0266822600000012 2.3742944600000002 Au
atom 15.8743356200000001 18.0652693999999983 2.3137729500000002 Au
atom 18.7054258199999985 18.1348072400000007 2.4401121600000000 Au
atom 21.5397952400000001 18.1172131900000011 2.4907120100000002 Au
atom 24.3827590000000001 18.1663960499999995 2.6994477400000001 Au
atom 27.1983821399999997 18.0101151799999997 2.6139209700000001 Au
atom 1.7860023899999999 18.1065310400000001 2.7570829400000001 Au
atom 4.7222938000000001 18.0740545799999985 2.3885350200000000 Au
atom 8.9172517700000000 20.6318169100000013 2.5172121900000000 Au
atom 11.7501735099999998 20.5973319699999990 2.2050114199999999 Au
atom 14.5242904799999994 20.5161633399999985 2.1877388500000001 Au
atom 17.3345820699999997 20.5483722100000001 2.5301203900000000 Au
atom 20.0340836099999997 20.5252697600000005 2.5640082300000002 Au
atom 22.9267886999999995 20.5700860399999996 2.6196018599999999 Au
atom 25.7910734099999992 20.5619939500000015 2.4950415300000000 Au
atom 0.3342262800000000 20.5766433000000006 2.1996410800000001 Au
atom 3.2641607800000001 20.4423984099999991 2.6131789699999999 Au
atom 6.0994494599999998 20.5392104999999994 2.4810854899999999 Au
atom 7.5973680100000003 23.1010859000000011 2.5274253199999999 Au
atom 10.3876748800000005 23.1398900800000007 2.3798893900000002 Au
atom 13.2531099500000007 23.0614635499999991 2.5109404299999998 Au
atom 16.0136473799999983 23.0371811899999983 2.3688867500000002 Au
atom 18.6799609000000011 23.0306600900000014 2.7499518699999999 Au
atom 21.4962802599999989 23.0777994600000014 2.6841513400000001 Au
atom 24.3303718899999986 23.0662194599999992 2.7701243400000002 Au
atom 27.2836654600000017 23.2289401899999994 2.4879530399999998 Au
atom 1.9329669800000000 22.9635719099999989 2.6291073300000001 Au
atom 4.7460933799999996 23.0008139900000010 2.6186884699999999 Au
atom 9.0323869200000004 25.5632946899999993 2.2732099899999998 Au
atom 11.8078205300000008 25.4980942400000004 2.4039831199999999 Au
atom 14.6180052600000003 25.6110162899999985 2.3946836199999999 Au
atom 17.3238818799999983 25.5791920899999994 2.7779580600000000 Au
atom 20.2177610299999984 25.5747295900000005 2.9428332500000001 Au
atom 22.9733054199999991 25.5813549100000017 2.6703965300000001 Au
atom 25.8604339900000006 25.4901410700000000 2.6403717499999999 Au
atom 0.3936878800000000 25.5047479599999996 2.6022054600000000 Au
atom 3.2336281400000000 25.5034839099999999 2.9147503700000001 Au
atom 6.1725022999999997 25.5850881100000009 2.6705995800000002 Au
atom 7.6429345199999998 27.9981463700000006 2.4617253300000002 Au
atom 10.4581295500000007 27.9395638400000017 2.5149276100000000 Au
atom 13.2138089399999998 28.0624065999999992 2.3711939300000000 Au
atom 16.0209669099999985 28.1702752799999985 2.7639918200000002 Au
atom 18.8193778000000016 27.9172770099999994 2.6180074699999998 Au
atom 21.6615012500000006 28.0490997100000001 2.8222877999999998 Au
atom 24.4702747699999996 27.9687694600000007 2.4420182399999999 Au
atom 27.3230465400000000 28.2905841699999989 2.4934383900000001 Au
atom 1.9482064299999999 27.9343675599999983 2.6871016700000001 Au
atom 4.7634672000000000 28.0753149700000009 2.6026818399999998 Au
atom 8.8946728400000001 30.4741851399999994 2.6779581700000001 Au
atom 11.7829380300000004 30.5239379699999986 2.7291239300000001 Au
atom 14.5770982399999998 30.6235573400000014 2.5988370000000001 Au
atom 17.4889210199999994 30.5171793200000003 2.8963246499999999 Au
atom 20.3304944899999995 30.5104089700000003 2.7151252299999999 Au
atom 23.1176884999999999 30.4767088299999998 2.5185389800000002 Au
atom 25.8993970500000010 30.5374392899999982 2.5556987400000000 Au
atom 0.5691540800000000 30.5458077000000010 2.4792108599999998 Au
atom 3.3366966699999998 30.5020628599999988 2.5273875000000001 Au
atom 6.1205591999999998 30.5930461499999993 2.7670288900000002 Au
atom 7.6154530300000003 33.0697974200000004 2.6698475699999999 Au
atom 10.3589431399999992 32.9739360199999965 2.6803276299999998 Au
atom 13.2654775600000008 33.0749729699999975 2.4560446200000001 Au
atom 16.1140906500000014 33.0469972900000002 2.3792689999999999 Au
atom 19.0104930000000003 32.8527148900000014 2.4741178399999999 Au
atom 21.7625417399999996 32.9750077500000032 2.7358546800000001 Au
atom 24.5274956999999993 33.0627963100000031 2.5639618000000000 Au
atom 27.3494740100000016 32.8781006899999966 2.7102331199999998 Au
atom 1.8764566600000001 32.9543050500000021 2.5767879200000001 Au
atom 4.6368563099999998 33.0949850399999974 2.5267928799999999 Au
atom 8.8694128299999999 35.5726163699999987 2.7335202000000001 Au
atom 11.6732177999999998 35.4334505799999988 2.7610933800000002 Au
atom 14.5930578999999998 35.4314886299999969 2.6817054800000002 Au
atom 17.5628045300000011 35.3808307299999996 2.3827594200000002 Au
atom 20.3344944000000005 35.4280690000000007 2.5757322600000001 Au
atom 23.0352547899999998 35.4099434700000018 2.5692306899999999 Au
atom 25.9261394799999998 35.4925805100000034 2.5688866300000002 Au
atom 0.4998413200000000 35.5719704400000012 2.6131859600000000 Au
atom 3.3133121100000000 35.4662137400000006 2.5896441200000000 Au
atom 6.0537390699999998 35.5011574999999979 2.6827117299999999 Au
atom 7.3061120300000004 38.0075165000000013 2.3730352799999999 Au
atom 10.2286145600000005 37.9161126799999977 3.0370058900000001 Au
atom 13.1458225500000001 37.8624814400000034 2.5485546100000001 Au
atom 16.1545551500000002 37.8686737700000009 2.5035763400000000 Au
atom 18.9478718800000010 37.8987158500000021 2.3682665799999998 Au
atom 21.4039248800000017 37.8099188200000000 3.0426727499999999 Au
atom 24.5770650300000000 37.8369220399999975 2.9381158400000000 Au
atom 27.3481697500000003 37.8430087699999973 3.0277255200000002 Au
atom 1.3599698600000001 37.8876711400000019 2.8256519400000002 Au
atom 4.4636074199999998 37.9871576500000003 2.8632309500000002 Au
atom 8.8654397700000001 0.9342080400000000 3.0704815900000000 Au
atom 11.7449451899999993 0.8663028200000000 3.0280949800000001 Au
atom 14.4457180500000000 0.8256362600000000 2.9925654300000000 Au
atom 17.4244962299999990 0.8390095700000000 2.9123468600000000 Au
atom 20.0143840399999995 0.7162150400000000 2.8696701999999998 Au
atom 23.0168184300000007 0.8259521500000000 2.6575008400000000 Au
atom 25.7789588300000005 0.9226396400000000 2.7984215600000000 Au
atom 0.3542764500000000 0.9946917600000000 2.9519035699999998 Au
atom 3.2049734100000000 0.8859384900000000 2.8819177499999999 Au
atom 6.1137826700000000 0.9446868400000000 2.7008271300000000 Au
atom 7.3432454500000004 3.3693213800000001 2.6067630500000001 Au
atom 10.2174852800000000 3.2695928599999999 2.7926387899999998 Au
atom 13.1720546899999995 3.3565575399999998 2.8896248000000000 Au
atom 15.9770558699999992 3.2320983800000000 2.9831003100000002 Au
atom 18.7756604799999991 3.2336483999999999 3.0030403899999998 Au
atom 21.6433531099999996 3.2849039300000000 2.7796077700000001 Au
atom 24.4315618500000014 3.2959580900000001 2.9550606699999999 Au
atom 27.2090094600000008 3.5098075700000000 2.8472304300000002 Au
atom 1.8914809500000000 3.4095383899999998 3.0472147199999999 Au
atom 4.6123487200000000 3.3263379300000002 2.6778311399999999 Au
atom 8.8703820699999998 5.8190444000000001 2.9894107800000000 Au
atom 11.7879814500000002 5.8355788700000000 3.0439049300000001 Au
atom 14.6077170299999999 5.8314387900000000 2.9644275599999999 Au
atom 17.4187403399999994 5.7033847199999999 2.9213135100000001 Au
atom 20.2226681299999989 5.8362764499999997 2.9789119400000001 Au
atom 23.0588094900000016 5.8218215899999999 2.8481077300000002 Au
atom 25.8960524300000010 5.8473624300000004 2.7314177000000002 Au
atom 0.5267059800000000 5.8470356199999998 2.7862125700000000 Au
atom 3.2696214600000002 5.7820179100000004 3.0744147200000000 Au
atom 6.0874374400000004 5.8830723999999996 2.8342202300000001 Au
atom 7.4229240000000001 8.3134096799999995 2.7523645600000002 Au
atom 10.3905339699999999 8.2726389699999991 3.0710258399999999 Au
atom 13.2196255699999998 8.3916064800000001 2.9197538900000000 Au
atom 16.0344061000000018 8.2603488200000008 2.9641789699999999 Au
atom 18.8261492900000000 8.3619711399999996 3.0456542299999998 Au
atom 21.6741586400000017 8.3477610799999997 2.8426597100000000 Au
atom 24.4150332600000013 8.2790040999999999 2.5475394599999999 Au
atom 27.1178748399999989 8.4336841099999997 2.5236666300000001 Au
atom 1.7506251500000001 8.4517368000000008 2.7805469899999999 Au
atom 4.6089263000000003 8.2438611700000006 2.5484977799999999 Au
atom 8.8302620199999993 10.6767716099999994 2.7383732500000000 Au
atom 11.8172660999999994 10.7809969100000007 2.8372326999999999 Au
atom 14.6001923900000001 10.8743120500000003 2.7305198499999999 Au
atom 17.3561561100000006 10.7074983400000008 2.7518886999999999 Au
atom 20.2579281599999987 10.7776410400000007 2.8041068199999999 Au
atom 23.0750860899999992 10.8016751499999994 2.6134772200000000 Au
atom 25.8006833200000010 10.8447628300000005 2.3077085799999999 Au
atom 0.3947150100000000 10.7496664400000004 2.4207586499999998 Au
atom 3.2501314699999999 10.7331666000000006 2.3674466800000000 Au
atom 6.0342691300000002 10.7168755200000003 2.7580758500000000 Au
atom 7.4156126899999997 13.0840740199999992 5.7420562799999999 Cl
atom 7.4102294799999999 16.0276652999999989 8.5167828199999995 Cl
atom 7.5082975400000000 13.0841660500000003 8.3553898899999997 Na
atom 7.4193092399999996 15.7747880899999995 5.7386178299999999 Na
atom 7.4616092099999998 18.7803266099999995 5.6235364900000002 Cl
atom 7.3798341599999997 21.4852054199999998 8.6184992000000005 Cl
atom 7.4558769600000003 18.7576661999999992 8.3066329700000008 Na
atom 7.4010079500000003 21.6954749500000013 5.7083287800000004 Na
atom 7.4150704500000000 24.5078711399999989 5.6906067100000000 Cl
atom 7.4241107599999996 27.3123043800000005 8.5067414400000008 Cl
atom 7.3815410699999999 24.4139558200000018 8.3481070499999994 Na
atom 7.2681320899999999 27.2924403799999986 5.8748185700000004 Na
atom 7.3162136200000001 30.0710496700000007 5.7111605100000000 Cl
atom 7.4741616799999999 32.8647266600000023 8.6250597399999993 Cl
atom 7.3871349300000002 30.0201460900000008 8.4005931000000000 Na
atom 7.3986914500000003 32.8466428099999987 5.9353163200000001 Na
atom 7.1910195000000003 35.6497526599999972 5.7089302799999997 Cl
atom 7.2736025000000000 38.3333308200000005 8.5908693899999999 Cl
atom 7.2515379299999996 35.5987845800000002 8.3645053800000007 Na
atom 7.4025333599999996 38.4651722899999982 5.8556272800000002 Na
atom 7.3747045900000003 1.7527378199999999 5.8348048400000003 Cl
atom 7.3365007000000002 4.5566502900000003 8.8725717100000008 Cl
atom 7.3676797199999999 1.7351961899999999 8.6142995300000003 Na
atom 7.3410316199999999 4.5408296799999999 6.1391080799999997 Na
atom 7.4110967499999996 7.3337710899999999 5.9138274199999996 Cl
atom 7.2918867499999998 10.2191452199999997 8.5180915000000006 Cl
atom 7.2475933699999997 7.4636484100000002 8.5794299400000007 Na
atom 7.4042550599999997 10.1457601799999999 5.8720057399999996 Na
atom 10.0875164000000002 12.9873409599999992 5.7088218299999998 Na
atom 13.0967354100000009 12.9407421100000004 5.8115142000000004 Cl
atom 10.2355969600000005 15.7586975000000002 8.3883522300000006 Na
atom 13.0490417500000007 15.9192261100000003 8.3359682500000005 Cl
atom 13.0154622100000008 13.0197185700000002 8.4786956000000000 Na
atom 10.3231077300000003 12.9567482599999995 8.6386083800000009 Cl
atom 13.0406588800000005 15.8558249799999995 5.6355238099999996 Na
atom 10.2387274599999998 15.8611559799999995 5.7190994699999997 Cl
atom 10.1327184199999998 18.7786071099999994 5.9150676700000000 Na
atom 12.9771987600000003 18.6765768899999998 5.4067638899999997 Cl
atom 10.2437871200000004 21.6945098200000004 8.3372851499999996 Na
atom 12.9378561500000000 21.4674846700000010 8.3465567800000002 Cl
atom 12.8910509599999994 18.5186989199999985 8.3479235000000003 Na
atom 10.2596664200000003 18.6298600400000005 8.5743867999999992 Cl
atom 13.0726911000000001 21.3947445000000016 5.7077072199999996 Na
atom 10.1312982599999994 21.6168931999999998 5.6830794500000001 Cl
atom 10.0817013000000006 24.4350298200000005 5.7408884699999998 Na
atom 12.9958576600000004 24.3756576000000003 5.4936032800000003 Cl
atom 10.1989854799999993 27.2129977600000004 8.2897294600000002 Na
atom 12.9348206599999997 27.0389812300000010 8.3922497099999998 Cl
atom 12.9986413200000008 24.3537191600000007 8.1943844000000006 Na
atom 10.1918216899999994 24.4274000700000009 8.4628483499999998 Cl
atom 13.0373143599999999 27.2221193799999988 5.4802027300000002 Na
atom 10.1297655100000004 27.2343657999999991 5.6498643199999998 Cl
atom 10.2544827999999999 30.2149840099999984 5.8135050499999998 Na
atom 13.0583553499999994 30.1051101000000010 5.7255798699999998 Cl
atom 10.2249989699999997 32.8343263100000016 8.3695790599999995 Na
atom 13.0936316599999998 32.7134427200000033 8.6575487599999992 Cl
atom 12.9754351600000000 29.9109470799999997 8.3778435299999998 Na
atom 10.1491868699999994 30.0635693500000016 8.5747001300000001 Cl
atom 12.9210710300000002 32.8699715500000025 5.8638905200000000 Na
atom 10.1386696100000009 32.9345814799999985 5.5916860899999996 Cl
atom 10.1877165000000005 35.8080306600000000 5.7380174500000001 Na
atom 13.0114831199999994 35.7381409199999993 5.8984729099999997 Cl
atom 10.1204275300000006 38.4539555799999988 8.6738710700000006 Na
atom 13.1424413999999992 38.3751404699999981 8.5501734900000006 Cl
atom 13.1173058499999993 35.5892278899999965 8.5290495300000000 Na
atom 10.2014934600000000 35.5836468700000026 8.4175954900000001 Cl
atom 13.2826010199999995 38.4170441999999994 5.9878471700000002 Na
atom 9.9574246599999992 38.5997448199999980 5.9132414700000000 Cl
atom 10.2372148999999997 1.7900961000000000 6.1643944599999996 Na
atom 13.0276801500000001 1.9525675700000000 5.9973225599999997 Cl
atom 10.1742547600000002 4.6027360399999999 8.6293488200000006 Na
atom 13.0400663800000007 4.6525157000000004 8.8600712999999995 Cl
atom 13.0160829699999994 1.7918319000000000 8.6915038899999999 Na
atom 10.1393911600000006 1.9131284200000001 9.0068771999999999 Cl
atom 13.1369830200000006 4.5932215400000000 6.0425748900000000 Na
atom 10.1926594999999995 4.4523694000000003 5.9397627899999996 Cl
atom 10.2190386499999999 7.2421995499999996 6.1031203400000003 Na
atom 12.9206123900000005 7.2536004500000004 5.9675291599999998 Cl
atom 10.2278471199999998 10.1719831400000000 8.4768941899999994 Na
atom 13.0455317500000003 10.1765461800000008 8.7128417200000001 Cl
atom 13.0795472799999999 7.4633094299999998 8.5671818500000008 Na
atom 10.0582817900000006 7.4733594800000001 8.7646204399999998 Cl
atom 13.1097637700000007 9.9775234000000008 5.8022269700000004 Na
atom 10.2224763900000006 10.0807652200000000 5.9329295100000001 Cl
atom 15.7810400299999998 12.9868476600000005 5.8197796600000000 Na
atom 18.5521367200000000 13.0193477499999997 5.8412852199999996 Cl
atom 15.7865362499999993 15.9965031000000000 8.3468331500000001 Na
atom 18.6639263600000014 15.7934804799999995 8.4647774800000004 Cl
atom 18.5112127999999991 13.0333350200000009 8.3379403399999994 Na
atom 15.8048704900000008 13.1890874999999994 8.5646110400000008 Cl
atom 18.6040085700000013 15.8678901999999997 5.6760350300000004 Na
atom 15.8536923600000001 15.8684330399999993 5.6320833099999996 Cl
atom 15.7952058300000004 18.7797709099999999 5.6285736799999997 Na
atom 18.5767749199999983 18.5935460200000016 5.6640851000000003 Cl
atom 15.6686673200000008 21.4836370099999989 8.3836385799999995 Na
atom 18.5901099099999989 21.3873176299999983 8.4448265700000000 Cl
atom 18.6036949699999994 18.6181461699999993 8.3522461799999999 Na
atom 15.7347493699999994 18.7767260299999990 8.5018775699999996 Cl
atom 18.7013767900000012 21.4151876500000000 5.7767745899999996 Na
atom 15.7705219200000002 21.4778768800000002 5.6757757599999996 Cl
atom 15.9680118100000001 24.2704111299999994 5.8495952899999999 Na
atom 18.7133758099999987 24.3123771499999997 6.1374064600000002 Cl
atom 15.7900203300000008 27.1084665200000003 8.5086744999999997 Na
atom 18.6879034600000011 27.0904461000000012 8.7704702300000008 Cl
atom 18.6477991600000017 24.2489428999999994 8.6325798999999996 Na
atom 15.7415395900000004 24.2621264799999992 8.4808569299999998 Cl
atom 18.6440781999999992 27.1275217300000016 5.9505017699999998 Na
atom 15.7743517900000008 27.0589413000000008 5.7578606499999996 Cl
atom 15.8782566500000009 30.0981361999999990 5.8058885000000000 Na
atom 18.7523584600000000 29.8910968200000013 5.7361323400000002 Cl
atom 15.7316981499999997 32.5974049699999995 8.4097780600000007 Na
atom 18.5945391300000011 32.6109126799999984 8.7072585300000007 Cl
atom 18.5898136100000002 29.8316273199999991 8.5158055600000004 Na
atom 15.8248298300000005 29.9125287100000001 8.4832196799999995 Cl
atom 18.6895401200000002 32.7265668499999975 5.9484513000000003 Na
atom 15.8772344699999994 32.8686013100000025 5.6748575600000004 Cl
atom 15.9805344399999996 35.5790317299999970 5.8563578999999999 Na
atom 18.7039139299999988 35.6192788099999973 5.7475387700000002 Cl
atom 15.9463158400000005 38.2865877099999992 8.5503638700000000 Na
atom 18.7297936500000013 38.2555666800000012 8.7648914599999994 Cl
atom 18.7510401199999990 35.3867770600000000 8.4043850899999999 Na
atom 15.7822283700000003 35.4434480099999973 8.5623362699999994 Cl
atom 18.7105265699999990 38.4592043199999978 6.0746124400000001 Na