#===============================================================================
# Created using the Atomic Simulation Environment (ASE)

# Tue Dec 23 21:43:04 2025

#=======================================================
lattice_vector 28.1999999999999993 0.0000000000000000 0.0000000000000000 
lattice_vector 0.0000000000000000 39.4799999999999969 0.0000000000000000 
lattice_vector 0.0000000000000000 0.0000000000000000 62.3296083400000001 
atom 7.5365601699999996 14.7955226799999995 -0.1820080400000000 Au
atom 10.3427741799999993 14.7637197800000006 -0.3473074000000000 Au
atom 13.0886547100000001 14.7906997600000008 -0.0987892000000000 Au
atom 15.9004125100000007 14.8664299199999999 -0.0984923900000000 Au
atom 18.7991434999999996 14.8880761300000000 -0.0935577100000000 Au
atom 21.5918129400000005 14.8226783199999996 -0.1509774100000000 Au
atom 24.3818811900000014 14.8424170400000008 -0.1090973200000000 Au
atom 27.2187628500000010 14.7848146000000007 -0.0798548900000000 Au
atom 1.8276077700000000 14.7575388000000007 -0.0000977800000000 Au
atom 4.6652734799999998 14.7491535700000007 -0.1195100200000000 Au
atom 8.9092236099999997 17.2629267999999989 -0.1980924400000000 Au
atom 11.6877835700000006 17.2454373099999998 -0.1651263900000000 Au
atom 14.5248175199999991 17.2552205900000004 -0.0770465200000000 Au
atom 17.2976992600000017 17.3387283399999994 -0.1104918600000000 Au
atom 20.1938744200000002 17.2957863399999994 -0.1669789100000000 Au
atom 23.0503779800000004 17.2785404599999985 0.0679638600000000 Au
atom 25.8381491300000015 17.3393573299999986 -0.0190855600000000 Au
atom 0.4444765400000000 17.2053086399999984 0.0686363200000000 Au
atom 3.2387436200000002 17.1951578699999992 0.1684650900000000 Au
atom 6.0986276200000002 17.2618982999999986 -0.1988731100000000 Au
atom 7.5024346800000004 19.7224608100000012 0.0710293200000000 Au
atom 10.3316752399999991 19.7306571099999992 -0.1940800300000000 Au
atom 13.0625882600000001 19.6938017199999997 0.0287644300000000 Au
atom 15.9104527200000003 19.7426841199999998 -0.2099678200000000 Au
atom 18.7404185400000003 19.7505034299999984 -0.0410636000000000 Au
atom 21.5984390700000013 19.8074322000000009 -0.0746291100000000 Au
atom 24.4064363600000007 19.7917417700000016 0.1295765400000000 Au
atom 27.2231460699999985 19.7815766900000014 0.2250786600000000 Au
atom 1.8625585899999999 19.7207470899999997 0.1567551500000000 Au
atom 4.6672863800000002 19.6844546099999995 0.0326007100000000 Au
atom 8.8693147700000008 22.1693681299999987 -0.0943231200000000 Au
atom 11.7158828600000007 22.1775514099999995 -0.0226109900000000 Au
atom 14.5539033300000007 22.2217152599999999 -0.1207278300000000 Au
atom 17.4176533199999994 22.2256708699999983 -0.0358325700000000 Au
atom 20.1688397500000001 22.2787870300000002 -0.1033251500000000 Au
atom 22.9809623899999984 22.2331905499999998 -0.0506756700000000 Au
atom 25.8156186800000000 22.1659163899999996 0.0251910700000000 Au
atom 0.4583654500000000 22.1552226999999995 0.0726037600000000 Au
atom 3.2490356100000000 22.1900301900000017 0.1296846300000000 Au
atom 6.1130979200000004 22.1743450099999997 0.0166135900000000 Au
atom 7.4785776200000003 24.6825198700000001 0.1587320800000000 Au
atom 10.3412612999999993 24.6438431599999994 0.0811707400000000 Au
atom 13.1962525100000008 24.6895461699999998 -0.0264661500000000 Au
atom 15.9903909899999999 24.7103530999999990 -0.0263431200000000 Au
atom 18.7775773000000008 24.7144442700000013 0.0883754800000000 Au
atom 21.6046312900000004 24.7661714999999987 0.1915103500000000 Au
atom 24.4276341600000002 24.6754044800000010 0.0810113800000000 Au
atom 27.3000401500000009 24.6639880799999993 -0.0576113900000000 Au
atom 1.8165954400000000 24.6422045700000005 0.0218822500000000 Au
atom 4.6567790200000001 24.5892360500000002 0.0564458500000000 Au
atom 8.8983020300000000 27.0839856999999995 -0.0052478500000000 Au
atom 11.7387548600000002 27.1372419100000002 0.0251214600000000 Au
atom 14.5235975699999997 27.1488129700000016 -0.0328218800000000 Au
atom 17.3837091599999987 27.1658663999999987 0.0181314800000000 Au
atom 20.1803622300000001 27.2055279200000015 0.1269012100000000 Au
atom 22.9789178700000001 27.2158655500000002 0.1857743800000000 Au
atom 25.7988512700000001 27.1391062199999986 0.0108167400000000 Au
atom 0.4220303500000000 27.1371412399999983 0.1010156300000000 Au
atom 3.2935056299999999 27.1215407199999987 0.0125668600000000 Au
atom 6.0868227800000003 27.0579749900000017 0.0438815800000000 Au
atom 7.4545393100000004 29.5572080300000017 0.0518258300000000 Au
atom 10.2791319399999992 29.6330284900000009 0.0483829100000000 Au
atom 13.1526663500000005 29.6269176499999993 0.1363592300000000 Au
atom 16.0170522400000017 29.6129466500000014 0.0874094100000000 Au
atom 18.8526517799999986 29.6326974000000014 -0.0081309700000000 Au
atom 21.5987553299999995 29.6481995100000013 0.0877229800000000 Au
atom 24.4272659800000014 29.6236168299999996 -0.0037572200000000 Au
atom 27.2756482600000005 29.5612273099999996 -0.0867318100000000 Au
atom 1.8658545600000001 29.6328559899999995 -0.0052416200000000 Au
atom 4.6456241499999997 29.6003070500000014 -0.0827660000000000 Au
atom 8.8887681199999999 32.1087129000000004 -0.0572644400000000 Au
atom 11.7487597600000004 32.0270608599999989 -0.0953607500000000 Au
atom 14.5935540600000007 32.0992984600000000 -0.0040004900000000 Au
atom 17.3905287699999995 32.0622633600000029 -0.0617565400000000 Au
atom 20.2154435600000006 32.0730707299999978 -0.1173750400000000 Au
atom 22.9985195199999986 32.0922805000000011 0.0115873500000000 Au
atom 25.8913972399999999 32.0484243599999985 -0.0504407900000000 Au
atom 0.4767424700000000 32.0689617100000035 -0.0917545900000000 Au
atom 3.2585888199999999 32.1225223599999978 -0.0418104600000000 Au
atom 6.1230393999999997 32.1140822899999989 0.0274963700000000 Au
atom 7.5197278299999999 34.5734521899999976 -0.1440700400000000 Au
atom 10.3102357100000006 34.5704861399999999 -0.0875415200000000 Au
atom 13.2100790200000002 34.5384358399999982 -0.1207446700000000 Au
atom 15.9941974800000004 34.5209857500000012 -0.0947186200000000 Au
atom 18.7902419300000005 34.5260724500000009 -0.1363663100000000 Au
atom 21.6311012399999996 34.6061668099999977 -0.0687244600000000 Au
atom 24.4095125199999998 34.5281384199999977 0.1180253900000000 Au
atom 27.2053736999999991 34.5208731199999974 -0.0816613500000000 Au
atom 1.8290317300000001 34.5615975700000035 -0.1080894000000000 Au
atom 4.6881312599999996 34.5930445500000019 -0.1285787300000000 Au
atom 8.9120110199999996 37.0580955499999973 -0.0169715200000000 Au
atom 11.7099305000000005 36.9599855100000028 0.0398035500000000 Au
atom 14.5353150099999997 36.9498893399999986 0.0361540800000000 Au
atom 17.3678123299999996 36.9921766800000000 -0.0888776800000000 Au
atom 20.1621976700000012 37.0082492100000024 0.0126651500000000 Au
atom 23.0736430199999987 37.1162680999999992 -0.0078835300000000 Au
atom 25.8436895500000006 36.9851739599999974 0.0743851900000000 Au
atom 0.4086231200000000 36.9954161499999969 -0.0860678700000000 Au
atom 3.2841389900000002 37.0593840800000009 0.0101583200000000 Au
atom 6.1174353899999998 37.0373037499999995 -0.0097059200000000 Au
atom 7.4680829400000004 0.0542052400000000 0.0948811800000000 Au
atom 10.3711131299999995 -0.0597509900000000 0.2249486100000000 Au
atom 13.1713606199999997 -0.0416051800000000 0.1085674200000000 Au
atom 15.9371735399999999 -0.0277899800000000 -0.0119504900000000 Au
atom 18.7939189900000017 -0.0211810600000000 0.0368342600000000 Au
atom 21.6763664700000014 -0.0315888500000000 0.0881790000000000 Au
atom 24.4896011700000003 -0.0144494600000000 0.0518680400000000 Au
atom 27.2718202900000009 0.0254569600000000 0.0614061600000000 Au
atom 1.8642493200000001 0.0076898800000000 -0.0768925300000000 Au
atom 4.6342433700000001 -0.0193223500000000 0.1400088700000000 Au
atom 8.9983093800000002 2.4397012400000002 0.0306235600000000 Au
atom 11.7768458500000008 2.3591158000000001 0.1139404600000000 Au
atom 14.6107099199999997 2.4148035399999999 0.2396026600000000 Au
atom 17.4111980099999997 2.4344889099999998 0.0311764000000000 Au
atom 20.2225289299999993 2.4832602000000001 -0.0864397500000000 Au
atom 23.0779102700000003 2.4526911999999998 -0.0092194100000000 Au
atom 25.8472793799999998 2.4210494400000000 0.2479190700000000 Au
atom 0.4062149900000000 2.4502391299999999 0.0063892700000000 Au
atom 3.2521657199999998 2.4425460299999999 -0.0178541200000000 Au
atom 6.0390899899999999 2.4578816600000000 0.0841657800000000 Au
atom 7.4916704799999998 4.9184509700000003 0.0669737400000000 Au
atom 10.3878962900000005 4.8773807700000003 0.1036789700000000 Au
atom 13.1541961500000006 4.8359340000000000 0.1148854400000000 Au
atom 15.9817466800000005 4.9167304800000000 0.1249012700000000 Au
atom 18.8146206599999992 4.9210305400000003 0.0464553700000000 Au
atom 21.6088661299999991 4.9174540300000000 0.2085308500000000 Au
atom 24.4219387899999987 4.9247547100000002 0.1756790700000000 Au
atom 27.2791983900000012 4.9563727200000001 0.1666162600000000 Au
atom 1.8664570199999999 4.9024806999999999 0.0826213700000000 Au
atom 4.6554690900000004 4.9689584599999996 -0.0171218300000000 Au
atom 8.8697509500000002 7.3618451299999998 0.0940243800000000 Au
atom 11.7313883000000008 7.3421078599999996 -0.0186030200000000 Au
atom 14.5527438799999995 7.3531848899999996 0.1094493300000000 Au
atom 17.3576835400000000 7.4071354300000003 -0.0423565600000000 Au
atom 20.1554901700000002 7.3818537600000003 -0.0604875600000000 Au
atom 23.0380406999999998 7.3952914300000003 -0.0172560000000000 Au
atom 25.8444836400000000 7.3915750999999998 0.2141027300000000 Au
atom 0.4351541400000000 7.3874868100000004 0.1784360700000000 Au
atom 3.2561924499999999 7.4316165700000001 0.0899234300000000 Au
atom 6.0750138600000003 7.3643829500000004 0.2153714200000000 Au
atom 7.5063597599999996 9.9365563699999999 0.0714697700000000 Au
atom 10.3544429400000002 9.7818723199999997 -0.0026770600000000 Au
atom 13.1249880099999992 9.8002123200000000 -0.1279824300000000 Au
atom 15.9655906999999999 9.8483262800000002 0.1712711900000000 Au
atom 18.7731812900000001 9.9738367799999992 0.0734749900000000 Au
atom 21.5581637199999996 9.7758773300000001 0.0200886200000000 Au
atom 24.3350389400000005 9.8607699300000000 0.1302114200000000 Au
atom 27.2231248699999995 9.8626288700000000 0.2141725300000000 Au
atom 1.8362965499999999 9.8981990199999998 -0.0561936100000000 Au
atom 4.6651586399999996 9.8364128999999991 0.0067153300000000 Au
atom 8.9616139599999993 12.3219050899999996 -0.3167490000000000 Au
atom 11.7467285500000003 12.3273597899999992 -0.2366604200000000 Au
atom 14.4961622499999994 12.3600278800000005 -0.1534136900000000 Au
atom 17.2785733700000002 12.3706465100000003 0.0269897400000000 Au
atom 20.1767707399999985 12.3781109399999991 -0.0937683900000000 Au
atom 22.9851007699999990 12.3353680499999996 -0.0107766000000000 Au
atom 25.8105869100000014 12.3432379999999995 -0.0799151300000000 Au
atom 0.4000651800000000 12.3021913800000000 0.0112411100000000 Au
atom 3.2536532100000000 12.2974549900000003 0.0655990100000000 Au
atom 6.0236563600000004 12.3316962700000001 -0.0198071600000000 Au
atom 7.4638916799999997 13.2040277699999997 2.4192630199999998 Au
atom 10.3070796999999992 13.2191310200000007 2.3461618799999999 Au
atom 13.1675587200000006 13.2649155299999997 2.4739846800000000 Au
atom 15.9226916200000002 13.2283594099999995 2.5610159299999999 Au
atom 18.7800649200000009 13.1630796199999995 2.6022677100000000 Au
atom 21.6391442500000011 13.2227934800000000 2.5460455000000000 Au
atom 24.4214234300000008 13.2006962399999992 2.5673049500000000 Au
atom 27.2433390600000003 13.2649252600000001 2.5629973800000001 Au
atom 1.8795535800000001 13.1718436400000005 2.6084003299999998 Au
atom 4.6689966700000003 13.2121235099999996 2.5778793000000002 Au
atom 8.8900460100000007 15.6419009500000001 2.3359460799999998 Au
atom 11.6877736900000002 15.6416708700000004 2.4741173000000001 Au
atom 14.5514314700000007 15.6729972100000001 2.5182196600000002 Au
atom 17.3037417600000012 15.6802740000000007 2.5605553400000001 Au
atom 20.1518348899999999 15.6839048699999992 2.4903317999999999 Au
atom 23.0181530999999993 15.7170790999999994 2.5959500000000002 Au
atom 25.7700766100000003 15.6949174500000002 2.5120615200000000 Au
atom 0.4347601400000000 15.6830420600000000 2.6387216300000000 Au
atom 3.2160349199999998 15.6357312000000004 2.6174404099999999 Au
atom 6.0362625599999999 15.6129455799999999 2.3747089199999998 Au
atom 7.5960661800000002 18.0667292199999991 2.5391170000000001 Au
atom 10.3417924699999997 18.1205611100000006 2.3487851300000000 Au
atom 13.1455360599999995 18.1526507300000013 2.5480683499999999 Au
atom 15.9267400699999992 18.1752685199999995 2.4605785199999999 Au
atom 18.7542693299999996 18.1428091199999990 2.5365439599999999 Au
atom 21.5230929400000015 18.1873649600000000 2.5731555400000001 Au
atom 24.4145299999999992 18.1910947400000005 2.7040564699999998 Au
atom 27.2468094799999996 18.1590789999999984 2.6764684000000001 Au
atom 1.8569595999999999 18.1753678200000017 2.7610469300000000 Au
atom 4.7233889800000002 18.0931158399999994 2.5515205700000001 Au
atom 8.9723326599999993 20.5890069000000011 2.5952171000000002 Au
atom 11.7715763500000001 20.6437366299999994 2.6070199100000000 Au
atom 14.5540749700000003 20.5820512200000003 2.6010742300000000 Au
atom 17.3256032500000003 20.5594463000000012 2.6136473200000001 Au
atom 20.1851782200000009 20.6513776799999995 2.4970648700000000 Au
atom 22.9996073500000016 20.6129591800000007 2.6621449500000001 Au
atom 25.8330661799999994 20.6728460900000002 2.7778143300000000 Au
atom 0.4869811800000000 20.5905665999999989 2.7971923200000002 Au
atom 3.3070952999999998 20.6362575799999988 2.7785037099999998 Au
atom 6.1095047899999999 20.5813135000000003 2.6428633399999999 Au
atom 7.5391810000000001 22.9970632200000011 2.6333509799999999 Au
atom 10.4233679800000001 23.0592769500000010 2.6246603799999999 Au
atom 13.2022177700000007 23.0923921499999985 2.4007375400000002 Au
atom 16.0035618299999989 23.0372291800000006 2.5417828800000000 Au
atom 18.7645389999999992 23.0660407200000002 2.5838106800000000 Au
atom 21.6577967399999984 23.1106609399999989 2.5950991800000001 Au
atom 24.4338206999999983 23.1053725499999985 2.6154964700000001 Au
atom 27.2502438900000001 23.0933635300000013 2.4871974699999999 Au
atom 1.8842637099999999 23.1151988800000012 2.7475162800000001 Au
atom 4.7138453699999996 23.0620663899999983 2.7139970500000001 Au
atom 8.9060425500000004 25.5136648500000014 2.7136719700000000 Au
atom 11.7597192499999998 25.5669682800000011 2.7596575099999998 Au
atom 14.5754605999999995 25.5050333999999985 2.6162621399999999 Au
atom 17.4214547099999990 25.5487759700000012 2.6903774999999999 Au
atom 20.2147413100000009 25.5487490000000008 2.7593865399999999 Au
atom 23.0654381899999983 25.6199245500000004 2.8436631299999999 Au
atom 25.8721989000000008 25.5653728499999993 2.7001614100000002 Au
atom 0.4516922700000000 25.5485585700000009 2.6900972200000002 Au
atom 3.3073647099999999 25.5493944400000004 2.7460206500000002 Au
atom 6.1107481200000002 25.4695264299999984 2.7246712600000000 Au
atom 7.5514813800000002 27.9967428299999987 2.5930403399999999 Au
atom 10.3947404700000003 28.0753367099999984 2.6152367900000000 Au
atom 13.2031726500000008 28.0417524900000004 2.6814017600000000 Au
atom 16.0230509400000010 28.0364206399999993 2.6402908799999998 Au
atom 18.8237052200000008 28.0409592100000005 2.6471866400000001 Au
atom 21.6072398300000010 28.0449948900000017 2.8383774499999999 Au
atom 24.4774384400000002 28.0834571699999991 2.5861907300000002 Au
atom 27.2954399499999987 28.0497834899999994 2.5871279999999999 Au
atom 1.8722707999999999 28.0069748499999989 2.7067346099999998 Au
atom 4.7105459800000000 28.0068091099999990 2.5529595199999999 Au
atom 8.9622741200000000 30.4709810300000008 2.6942612800000001 Au
atom 11.7598420899999994 30.5001000100000006 2.7523896099999998 Au
atom 14.5460328400000005 30.5555173099999990 2.7688978199999998 Au
atom 17.4028726700000007 30.5298723699999996 2.6746938800000000 Au
atom 20.2340684700000004 30.5518549399999984 2.7076732500000000 Au
atom 23.0335234799999995 30.5652050300000013 2.5980297800000001 Au
atom 25.8410977600000002 30.5270050099999999 2.6260129600000002 Au
atom 0.4498715400000000 30.5284940800000015 2.6016219399999998 Au
atom 3.3001495900000002 30.4701689199999990 2.6342571000000001 Au
atom 6.0875528200000000 30.4950481199999999 2.6380199100000001 Au
atom 7.5661461499999998 32.9021130799999995 2.5031383300000001 Au
atom 10.3707088299999999 32.8859221299999973 2.4595894100000000 Au
atom 13.1241453499999992 33.0174128999999965 2.5610808100000000 Au
atom 15.9713456899999997 32.9594702200000000 2.5217724900000000 Au
atom 18.8497288599999990 32.9770048399999993 2.4266176300000000 Au
atom 21.6226146800000016 33.0084287500000002 2.6769276299999998 Au
atom 24.3704783999999997 33.0128972899999980 2.4782139900000000 Au
atom 27.2483984499999998 32.9999862900000025 2.5535068900000000 Au
atom 1.8939809000000001 32.9765601000000004 2.5111316700000001 Au
atom 4.7075962599999999 32.9291169999999980 2.5628155100000001 Au
atom 8.9667887999999998 35.3246301599999981 2.4729369600000002 Au
atom 11.7378906799999996 35.3777084099999968 2.6513433599999998 Au
atom 14.5700715100000000 35.3922306500000019 2.6334864100000002 Au
atom 17.3964998299999998 35.3922804899999974 2.4981321900000002 Au
atom 20.2136622300000006 35.4442374500000028 2.5626923000000001 Au
atom 22.9515819199999989 35.4916515899999965 2.6208187199999999 Au
atom 25.8137639499999985 35.4152390799999992 2.7450742300000002 Au
atom 0.4720874100000000 35.4423698299999970 2.5262565200000000 Au
atom 3.3848698499999998 35.4151623599999965 2.5452569399999998 Au
atom 6.1638025599999997 35.3766749500000017 2.5485610300000001 Au
atom 7.5233613000000004 37.8855154700000014 2.6092095700000000 Au
atom 10.3273173099999998 37.8037327400000009 2.7245258400000001 Au
atom 13.1259751599999994 37.8119132599999972 2.6866972800000002 Au
atom 16.0177452600000017 37.8395372100000031 2.5844804699999999 Au
atom 18.7661745599999996 37.9037855199999996 2.5895448399999998 Au
atom 21.6243643699999986 37.9026055699999986 2.6971193599999999 Au
atom 24.4859684400000006 37.8123906399999967 2.7226341800000000 Au
atom 27.2820733799999999 37.8905733799999993 2.5972325800000000 Au
atom 1.8649845000000000 37.9182815300000016 2.5086591999999999 Au
atom 4.7230837000000001 37.8609403099999966 2.6895199200000000 Au
atom 8.8943535399999991 0.8535075500000000 2.7562954899999998 Au
atom 11.7497986599999997 0.8127947900000000 2.8568154899999998 Au
atom 14.5446114499999997 0.7917271299999999 2.7683590800000002 Au
atom 17.3322364700000016 0.8702977300000000 2.5932364799999998 Au
atom 20.2504948300000009 0.8945159600000000 2.6625303100000002 Au
atom 23.0963857399999988 0.7911360000000000 2.6736694200000000 Au
atom 25.8619155999999997 0.8921066900000000 2.8941673300000001 Au
atom 0.4147931100000000 0.8731274900000000 2.7251250599999999 Au
atom 3.2379176200000002 0.8339363000000000 2.6381815199999998 Au
atom 6.0305929699999998 0.8577116400000000 2.8375045499999998 Au
atom 7.5423784999999999 3.2982875300000001 2.6274678300000001 Au
atom 10.3591716799999993 3.2686085299999998 2.7475271999999999 Au
atom 13.1604643400000008 3.3197499300000000 2.7812392099999999 Au
atom 15.9690292899999999 3.2966616800000001 2.7753607800000002 Au
atom 18.7747188700000009 3.3152111999999998 2.6201474000000000 Au
atom 21.6405287800000004 3.2338470300000002 2.7119196300000001 Au
atom 24.4403901400000017 3.3101941899999998 2.6795612599999998 Au
atom 27.2701719599999990 3.3404899399999999 2.7206490699999999 Au
atom 1.8970031300000001 3.2931161200000001 2.6532555300000000 Au
atom 4.6591647800000002 3.2827845899999999 2.6316105500000000 Au
atom 8.9730537899999998 5.7967246399999999 2.7282304399999999 Au
atom 11.7649365800000005 5.7843121399999999 2.7489595400000000 Au
atom 14.6011318100000000 5.7685112299999997 2.7017356399999999 Au
atom 17.3884292500000015 5.7668762400000002 2.7226813000000001 Au
atom 20.1797105499999994 5.8052399200000000 2.6716712600000001 Au
atom 23.0264848499999992 5.8116769899999996 2.7276057800000002 Au
atom 25.8626636499999982 5.8139246099999999 2.8736249300000001 Au
atom 0.5146599500000000 5.7863339199999997 2.8322369200000002 Au
atom 3.3291553800000000 5.7280461499999999 2.6778057199999998 Au
atom 6.1555936899999999 5.7728121500000000 2.6851133599999999 Au
atom 7.5919068899999997 8.3059857400000006 2.8093010700000001 Au
atom 10.3878809400000005 8.2865681799999997 2.5931734700000000 Au
atom 13.2031286399999992 8.2777930099999999 2.6044878300000001 Au
atom 15.9864252300000000 8.2095789000000003 2.7190563100000000 Au
atom 18.8723258099999995 8.2521114799999999 2.5568645999999999 Au
atom 21.7025871899999991 8.2715635200000008 2.5751931400000001 Au
atom 24.4508255100000014 8.2790966000000008 2.6558223399999998 Au
atom 27.2748501300000008 8.2560502499999995 2.7823220000000002 Au
atom 1.9101549600000001 8.1919517099999997 2.6916424600000002 Au
atom 4.7923512099999996 8.2310705700000000 2.7067510399999999 Au
atom 8.9735214499999998 10.7774580100000001 2.5517713899999999 Au
atom 11.7681161599999999 10.7766726899999998 2.5473027199999998 Au
atom 14.5959041700000007 10.7073706099999999 2.5337451099999999 Au
atom 17.4263200800000000 10.7446750499999997 2.7095148500000001 Au
atom 20.2079763399999983 10.7111216000000002 2.6082475500000002 Au
atom 22.9936270699999987 10.7988255199999994 2.6800549700000000 Au
atom 25.7926614600000015 10.8096355200000005 2.7494324300000001 Au
atom 0.5116465600000000 10.6876519600000002 2.6554018400000001 Au
atom 3.3250454700000001 10.6545187800000001 2.7347413500000002 Au
atom 6.1222468100000000 10.7308017200000005 2.6022085800000001 Au
atom 7.3921030600000002 13.1043144300000005 5.6996975200000000 Cl
atom 7.4807110400000001 15.8139737700000005 8.4011752899999994 Cl
atom 7.4327889699999998 13.1377284000000003 8.4201757700000002 Na
atom 7.2782488699999996 15.9687439700000002 5.7384155500000000 Na
atom 7.4772196199999996 18.8135426700000004 5.7400389499999998 Cl
atom 7.6234799899999999 21.6972058200000006 8.6465720899999994 Cl
atom 7.4805872500000001 18.6831767900000010 8.4571263299999995 Na
atom 7.6167293500000000 21.5920986900000003 5.8130308599999996 Na
atom 7.5882873599999998 24.3873484000000005 5.8295017700000002 Cl
atom 7.4385077700000002 27.2024579600000003 8.6760123500000006 Cl
atom 7.4258985800000001 24.4116734899999983 8.4904247099999992 Na
atom 7.4514709899999998 27.2321312599999992 5.9637100700000003 Na
atom 7.4993955899999998 30.0006089899999999 5.7044178900000002 Cl
atom 7.5113156099999996 32.8263858799999966 8.4648237200000001 Cl
atom 7.5468068700000002 29.9987421699999999 8.4002666799999997 Na
atom 7.5484786100000001 32.7871071200000017 5.8110677800000001 Na
atom 7.5087637400000000 35.8414200300000019 5.6910950199999997 Cl
atom 7.4780449600000001 38.6055464399999977 8.6252390499999994 Cl
atom 7.5190231399999998 35.6744308399999994 8.3789506300000003 Na
atom 7.4459029599999997 38.6124684400000007 5.8099220999999996 Na
atom 7.3886789500000001 1.9116586700000000 5.7502480299999998 Cl
atom 7.3955427599999997 4.7333230400000001 8.6519464399999997 Cl
atom 7.4895741700000000 1.8782378700000000 8.3822304899999995 Na
atom 7.4692140800000004 4.6812457800000002 5.8838868099999999 Na
atom 7.5090865500000001 7.5669976099999996 5.9773814700000001 Cl
atom 7.5221636299999997 10.3269023799999999 8.7689420800000004 Cl
atom 7.4760496800000000 7.6353908700000002 8.5991637500000007 Na
atom 7.4894805000000000 10.3572511699999996 5.8967737199999997 Na
atom 10.1391760699999995 12.9127076299999999 5.8987162199999998 Na
atom 13.1601098200000006 12.9806425799999996 5.5241848400000002 Cl
atom 10.0653813299999992 15.9386038299999999 8.1973532099999993 Na
atom 13.0497108900000001 15.8906045599999999 8.6129380999999992 Cl
atom 12.9978388299999992 13.1619452399999997 8.4314976999999995 Na
atom 10.3272104599999999 13.0571291299999999 8.6692304700000005 Cl
atom 13.2279866399999992 15.9682673800000003 5.9054533500000002 Na
atom 10.3462060699999991 15.9458219900000007 5.7238202200000003 Cl
atom 10.2355257200000000 18.9305760499999991 5.9828930800000002 Na
atom 13.3165089600000002 19.0320302000000012 5.9237824200000002 Cl
atom 10.2167674500000007 21.4903495100000015 8.6955982899999995 Na
atom 13.0073567299999997 21.6684877500000006 8.9169264199999994 Cl
atom 13.0542130000000007 18.7536401300000009 8.6964568000000000 Na
atom 10.2524696700000000 18.8072527200000010 8.7463521300000000 Cl
atom 13.1888142500000001 21.6627649200000008 6.2227011699999997 Na
atom 10.3693468800000002 21.5235944299999993 5.9623648700000000 Cl
atom 10.3478344000000000 24.4132680499999992 6.0314422199999997 Na
atom 13.2362692099999997 24.4914458400000008 6.0595777799999997 Cl
atom 10.3607452299999991 27.1862196500000017 8.4991837599999993 Na
atom 13.1018969999999992 27.1841834899999988 8.8120304800000007 Cl
atom 13.0807532399999999 24.5177405300000011 8.8198847899999997 Na
atom 10.2042580500000000 24.3746824800000006 8.7787459099999996 Cl
atom 13.1696787799999999 27.2275299000000004 6.0143191600000003 Na
atom 10.2949281700000004 27.2422499500000015 5.8059101300000000 Cl
atom 10.2507526999999996 30.0115536600000006 5.8162128099999997 Na
atom 13.0832038599999994 29.9698462100000000 5.8782806599999997 Cl
atom 10.2847009099999998 32.8518229900000023 8.3622497700000000 Na
atom 13.0665209000000004 32.7570158600000028 8.6941973499999996 Cl
atom 13.0264556400000000 29.9346669200000015 8.4349014499999999 Na
atom 10.2911784100000006 29.9399459899999982 8.6412795500000001 Cl
atom 13.1616622799999998 32.8611120300000010 5.8988261900000003 Na
atom 10.3439779499999993 32.7616569099999992 5.6847937899999996 Cl
atom 10.2343171900000005 35.6760322599999995 5.7122777300000003 Na
atom 12.9979596399999995 35.6193244500000006 5.6809213600000001 Cl
atom 10.3092859200000007 38.4836079700000013 8.4833454499999998 Na
atom 13.1007140399999997 38.4823944800000035 8.6227404500000002 Cl
atom 13.1288026000000002 35.6656163800000030 8.3780841400000003 Na
atom 10.2528002600000008 35.6448670699999965 8.4987851299999999 Cl
atom 13.0505504999999999 38.5096535400000022 5.8184566300000000 Na
atom 10.2181777799999995 38.5076089100000019 5.8154137600000002 Cl
atom 10.2094484300000001 1.9062256000000000 5.9174504900000002 Na
atom 13.0633102700000006 1.7950066600000001 5.7227956300000002 Cl
atom 10.1745358899999996 4.7464097000000001 8.4684559900000007 Na
atom 12.9989016599999996 4.6706420299999998 8.5982192200000007 Cl
atom 13.0675367599999994 1.9330138400000001 8.4029485200000007 Na
atom 10.2547190300000004 1.8581285700000001 8.6237206099999995 Cl
atom 12.9417222299999999 4.7709453599999998 5.8719534099999997 Na
atom 10.2535662900000002 4.7707074299999999 5.7538898500000002 Cl
atom 10.3172804899999999 7.5037109500000003 5.9200998599999997 Na
atom 13.1055387900000007 7.5265020900000001 5.7311167799999998 Cl
atom 10.2553855299999999 10.2582975399999992 8.6127480399999996 Na
atom 13.0378714900000006 10.3031940100000003 8.8289013700000005 Cl
atom 13.0901093700000004 7.3535956699999998 8.5431453499999996 Na
atom 10.3167023600000007 7.5058510399999996 8.7034880099999992 Cl
atom 13.0910553499999995 10.3116582300000008 5.8862618500000004 Na
atom 10.2702303199999996 10.4080488199999994 5.7643163399999997 Cl
atom 15.8914645700000001 13.0418593299999994 6.1118090799999996 Na
atom 18.6277240299999995 13.0966579299999992 5.8563699600000003 Cl
atom 15.8912051900000009 15.8595093299999998 8.6711799000000003 Na
atom 18.8021455800000012 15.8279712299999993 8.7719375399999997 Cl
atom 18.7624753899999988 13.0303971300000008 8.5002894799999993 Na
atom 15.8653183200000001 13.1540984600000002 8.8376952800000002 Cl
atom 18.5956008799999992 15.9980951000000005 5.9722989999999996 Na
atom 15.7860690600000009 15.8210661600000009 5.8677461700000002 Cl
atom 15.8988664199999992 18.9289216700000011 6.1923216600000002 Na
atom 18.6030397200000017 18.8611340200000015 5.9477867599999996 Cl
atom 15.7924313400000003 21.4892344400000006 8.6597819699999992 Na
atom 18.5156476599999991 21.5373875599999991 8.6763566599999997 Cl
atom 18.6292587199999993 18.6876634800000012 8.6301787700000006 Na
atom 15.7833626200000001 18.7397000399999989 8.8950690300000002 Cl
atom 18.7017550300000011 21.6254402299999988 5.8760621100000003 Na
atom 15.9589957899999995 21.6943970300000011 5.7958464000000003 Cl
atom 15.9068325900000005 24.3710132299999991 6.2316225699999999 Na
atom 18.6531200099999985 24.4985790899999998 5.7493221300000004 Cl
atom 16.0818567799999990 27.3135890699999990 9.0026987199999997 Na
atom 18.6922002300000010 27.2597018599999998 8.7536682199999998 Cl
atom 18.6932577000000002 24.3887752000000013 8.5934670499999992 Na
atom 15.9743692100000008 24.2947505200000009 9.0224720999999999 Cl
atom 18.6347965600000016 27.2955195900000014 6.0120764700000002 Na
atom 15.9427908899999995 27.1979412600000003 6.1156606000000000 Cl
atom 15.9077053199999998 29.9478188400000001 6.1121746600000000 Na
atom 18.6563005400000002 30.0296506900000004 5.8548508999999997 Cl
atom 15.8812375800000005 32.8326606799999965 8.4944237600000001 Na
atom 18.6647951100000000 32.8613554300000033 8.6243851800000009 Cl
atom 18.7172309699999992 30.0649084799999997 8.5273165899999999 Na
atom 15.8678579299999996 30.0325205799999999 8.8113142300000007 Cl
atom 18.7488923999999990 32.8700335799999976 6.0233498299999999 Na
atom 15.9640895700000005 32.7639279300000013 5.8460931599999997 Cl
atom 15.8320850199999992 35.6063123400000023 5.8011328000000004 Na
atom 18.6438804699999991 35.6749575699999966 5.7861569800000003 Cl
atom 15.8336161099999995 38.5730643899999990 8.3919835799999998 Na
atom 18.7074872300000017 38.4921158100000014 8.6691980300000004 Cl
atom 18.6522704300000015 35.7188188900000014 8.5049102300000001 Na
atom 15.8518073099999999 35.6795317400000016 8.5396931699999996 Cl
atom 18.5987429000000013 38.4673831400000026 5.9503508099999998 Na