#===============================================================================
# Created using the Atomic Simulation Environment (ASE)

# Tue Dec 23 22:26:17 2025

#=======================================================
lattice_vector 28.1999999999999993 0.0000000000000000 0.0000000000000000 
lattice_vector 0.0000000000000000 39.4799999999999969 0.0000000000000000 
lattice_vector 0.0000000000000000 0.0000000000000000 62.3296083400000001 
atom 7.4916979299999999 14.7206927000000007 0.1367946700000000 Au
atom 10.4664487200000007 14.7323491000000004 0.4347401000000000 Au
atom 13.1179758900000003 15.1625294099999994 -0.0235274400000000 Au
atom 15.9754541799999998 14.9749798300000005 0.1524569200000000 Au
atom 18.7432039400000008 14.7942368099999992 -0.0214317600000000 Au
atom 21.6130105000000015 14.8311605600000007 -0.0143329500000000 Au
atom 24.3106073900000013 14.5665524499999997 0.1945461800000000 Au
atom 27.2337847900000014 14.8748626200000000 -0.1661288700000000 Au
atom 1.7204290499999999 14.8366898400000000 -0.1740167900000000 Au
atom 4.8767184400000003 14.8858844900000005 -0.0749098500000000 Au
atom 8.7836949299999993 17.3511085399999985 -0.1231298900000000 Au
atom 11.6988545800000008 17.3773624300000016 0.0881929500000000 Au
atom 14.3372736199999995 17.2868948600000003 0.0704211500000000 Au
atom 17.3196308700000010 17.3556941800000004 0.2130084800000000 Au
atom 20.1724820499999993 17.2028491099999989 0.0535224700000000 Au
atom 22.9568267500000012 17.2423916699999999 0.3734841200000000 Au
atom 25.8717580299999987 17.1688159899999988 0.3181485700000000 Au
atom 0.4041415000000000 17.3991874300000013 -0.0127684100000000 Au
atom 3.4937953700000000 17.2896656499999999 0.0000223900000000 Au
atom 6.0541929899999998 17.1446965099999993 -0.0503322200000000 Au
atom 7.4899634900000001 19.7857135600000014 -0.0647177200000000 Au
atom 10.2647518899999994 19.6941651399999991 -0.0934983200000000 Au
atom 13.3533854400000003 20.0289573099999991 0.2023755200000000 Au
atom 16.1593847100000012 19.9597692199999983 -0.1088353600000000 Au
atom 18.7190237900000014 19.7392412600000000 -0.2207248100000000 Au
atom 21.6420602600000009 19.7648263399999990 0.0941096200000000 Au
atom 24.5212048600000010 19.7447985599999996 0.3468730300000000 Au
atom 27.2780450899999991 19.7248948099999986 0.1010884500000000 Au
atom 2.0180263400000000 19.5317391399999991 0.1660624900000000 Au
atom 4.5661859099999997 19.8869163299999983 -0.1639887900000000 Au
atom 8.8292674299999998 22.3683717900000012 0.0978642500000000 Au
atom 11.8721378800000004 22.3137405599999994 -0.2522571500000000 Au
atom 14.7264359299999992 22.2742627300000002 0.0918314800000000 Au
atom 17.3804219899999985 22.2055346200000017 0.0178608300000000 Au
atom 20.2289984899999986 22.0329043800000015 -0.0903462100000000 Au
atom 23.0157205699999992 22.1653617300000008 -0.2028763100000000 Au
atom 25.8196839400000009 22.2488173799999984 0.1771428600000000 Au
atom 0.5517020300000000 22.2282764800000017 0.3732717200000000 Au
atom 3.3997608399999999 22.4643602599999994 0.0813495100000000 Au
atom 6.3818449299999997 22.3120016999999997 -0.2013983400000000 Au
atom 7.7138675200000000 24.9990293100000009 0.0787888500000000 Au
atom 10.3190977600000000 24.9209869499999996 -0.1131474900000000 Au
atom 13.2763070899999995 24.8581300499999998 -0.3218025800000000 Au
atom 16.1645603300000005 24.9740956499999989 -0.1035895000000000 Au
atom 19.0303279600000010 24.7327209500000009 -0.0222650700000000 Au
atom 21.7243853300000005 24.6609416199999991 -0.3949611200000000 Au
atom 24.3208821600000000 24.6994812000000010 0.0407495500000000 Au
atom 27.4865104199999983 24.5675979600000005 0.3220689400000000 Au
atom 1.7913655700000000 24.7018798299999993 0.0236090800000000 Au
atom 4.7459972900000000 24.8501377699999999 0.2091522300000000 Au
atom 9.0485018299999993 27.0687934599999984 -0.5646491300000001 Au
atom 11.9526450900000007 27.3099646599999986 -0.3294898700000000 Au
atom 14.6903662300000004 27.2760449399999985 0.2532357600000000 Au
atom 17.4537293799999986 27.2783997099999986 0.0909646700000000 Au
atom 20.4638814000000018 27.3629690799999992 0.1549248900000000 Au
atom 23.2348293499999983 27.3975844600000009 -0.3627293900000000 Au
atom 26.1250086500000016 27.0491738899999987 0.1236819300000000 Au
atom 0.4586911600000000 27.0634032600000012 0.1069570300000000 Au
atom 3.3486150399999999 27.2204094800000007 0.0130232100000000 Au
atom 6.2714125699999999 27.2093213799999987 -0.0310016600000000 Au
atom 7.6981207800000000 29.5297349500000017 -0.2850690200000000 Au
atom 10.2404424600000006 29.5278629899999991 0.1224688000000000 Au
atom 13.4401843999999997 29.7296746399999989 0.1687833400000000 Au
atom 16.3157810199999993 29.9244875999999991 0.0019349400000000 Au
atom 19.1128255399999993 29.7347931299999999 -0.0047551700000000 Au
atom 21.9955590900000004 29.4624041699999992 -0.0767209700000000 Au
atom 24.7146590099999983 29.5585909099999995 -0.0402601200000000 Au
atom 27.4059230499999984 29.4823238799999991 -0.0432770600000000 Au
atom 2.1125864000000001 29.4994949800000015 0.0242083000000000 Au
atom 4.6631678299999999 29.5623881299999987 -0.3390673800000000 Au
atom 8.7960639300000008 32.0071558200000013 -0.0426980400000000 Au
atom 11.5675896199999997 32.1404060200000004 -0.2762293700000000 Au
atom 14.7855662599999995 32.1201313799999966 -0.3558484500000000 Au
atom 17.6875938099999992 32.2440674799999982 -0.2304008100000000 Au
atom 20.3372581799999992 32.0475067400000029 -0.1157441600000000 Au
atom 23.0110849100000010 32.1128839699999986 0.1042781000000000 Au
atom 25.9793715899999995 32.1706764999999990 -0.0673428200000000 Au
atom 0.4263463600000000 31.9638909399999989 0.1025129800000000 Au
atom 3.2888937000000000 32.2133043199999989 0.1819971600000000 Au
atom 6.2241230999999999 32.1016868700000018 0.1221013000000000 Au
atom 7.4635777299999999 34.5690649399999970 -0.1399236800000000 Au
atom 10.3061269099999997 34.7367089299999989 -0.0441724800000000 Au
atom 13.2013847099999992 34.5712405800000013 -0.4201078700000000 Au
atom 16.1209499100000002 34.5431906399999988 0.0598438300000000 Au
atom 18.9200303900000009 34.8841547500000004 0.2161711300000000 Au
atom 21.5207644100000017 34.7902445499999970 -0.2130783300000000 Au
atom 24.4954911099999997 34.5789411499999986 -0.0827688900000000 Au
atom 27.3618289099999998 34.6951695500000028 0.5757579700000000 Au
atom 1.9676448700000000 34.6738000200000016 -0.1712959700000000 Au
atom 4.5544757000000002 34.6045018200000030 0.1831939500000000 Au
atom 9.0951449499999999 36.9804474199999973 -0.0477722100000000 Au
atom 11.6965256400000008 36.9543524799999972 -0.0688633200000000 Au
atom 14.5366337500000000 37.1118797299999983 -0.1305146800000000 Au
atom 17.4322821099999992 36.8965405599999983 -0.4829993600000000 Au
atom 20.3497144799999994 36.9379503500000013 0.0424852500000000 Au
atom 23.2134087099999995 36.9127089699999971 -0.0318399800000000 Au
atom 25.9479451099999991 37.0256450199999989 0.1525078600000000 Au
atom 0.5715584300000000 36.9871208100000004 0.1657427700000000 Au
atom 3.1976662199999999 37.0975578400000003 0.2461854700000000 Au
atom 6.2759020599999999 36.8502938099999966 0.2406390400000000 Au
atom 7.4567433699999999 -0.0979968900000000 0.2918037800000000 Au
atom 10.3806919200000003 -0.0823982700000000 0.2110846100000000 Au
atom 13.2724550400000005 -0.1297147600000000 -0.1349348800000000 Au
atom 16.1341751100000010 0.1088234300000000 -0.1830909000000000 Au
atom 18.9050154200000016 0.2746065900000000 -0.0800732300000000 Au
atom 21.7606899600000006 -0.0057686700000000 0.1411189000000000 Au
atom 24.5440264100000007 0.0077883300000000 0.3482344100000000 Au
atom 27.1274835000000003 0.2517350900000000 0.0807989900000000 Au
atom 1.8622729800000000 0.0514347800000000 0.5088689500000000 Au
atom 4.4556656200000004 -0.0603646100000000 -0.1559124400000000 Au
atom 8.8069009000000005 2.4149345300000000 -0.0576395200000000 Au
atom 11.5090476800000001 2.4734863900000001 0.0890582300000000 Au
atom 14.5961694200000007 2.4183269900000002 0.2991722600000000 Au
atom 17.4333103600000001 2.8275048200000001 0.5433357000000000 Au
atom 20.3350556500000010 2.5803521699999998 -0.0206430100000000 Au
atom 23.2180871300000007 2.8135258300000001 0.2582238500000000 Au
atom 25.8702383100000013 2.5802088200000002 0.2700824300000000 Au
atom 0.5016246500000000 2.5914237000000000 0.3480185000000000 Au
atom 3.3328144200000001 2.5169898200000000 0.1549227000000000 Au
atom 6.0036593600000003 2.2865882000000002 0.1171105800000000 Au
atom 7.5429958900000003 5.0601465499999998 0.0002850900000000 Au
atom 10.1867042199999993 4.9650620999999999 0.4816407900000000 Au
atom 13.2069324600000009 4.9029050300000003 0.0414444300000000 Au
atom 15.8990400600000008 4.8953355099999998 0.1450464900000000 Au
atom 18.6987985499999994 4.9219649399999996 0.0650197100000000 Au
atom 21.4714244299999990 5.0762726899999997 -0.0169100200000000 Au
atom 24.3944948699999991 5.0140616900000001 0.0974354200000000 Au
atom 27.3886356500000012 4.9851505300000003 0.3952893600000000 Au
atom 1.8665163800000000 4.9400290199999999 0.1864761400000000 Au
atom 4.8847344699999997 4.9008448800000002 0.0529814800000000 Au
atom 8.7929374800000009 7.3223834900000000 0.0956214200000000 Au
atom 11.6777366800000006 7.5144113399999997 -0.0307422800000000 Au
atom 14.3522522800000001 7.3487712399999996 0.4259662400000000 Au
atom 17.5156019399999998 7.3657753799999997 0.1232129100000000 Au
atom 20.2459263299999996 7.5776785400000000 0.1380342400000000 Au
atom 22.7861243400000006 7.5257396200000004 0.0679531500000000 Au
atom 25.6528517100000002 7.6668441100000004 0.3581798500000000 Au
atom 0.4973082400000000 7.4896217299999996 -0.1372217100000000 Au
atom 3.0627289300000000 7.4356973599999998 0.0148165300000000 Au
atom 6.2002757900000001 7.2277879799999996 0.5842623200000000 Au
atom 7.5692030199999998 9.8211509600000007 0.2662288600000000 Au
atom 10.3188522299999992 9.8726518999999993 -0.1332370000000000 Au
atom 13.1055018200000006 9.7923237000000007 0.0111858000000000 Au
atom 15.6928761699999999 9.8515681100000005 -0.0409647200000000 Au
atom 18.7056773499999984 9.8090994800000004 -0.1777293200000000 Au
atom 21.1990916300000016 9.6687629699999995 -0.0957373800000000 Au
atom 24.3740789199999988 9.7261014299999999 0.2509881200000000 Au
atom 27.3942891899999985 9.8699228399999992 0.3744703800000000 Au
atom 1.9408487999999999 9.6708168600000004 0.1158820400000000 Au
atom 4.8795398800000003 9.8382481300000002 0.3463382800000000 Au
atom 8.7604969199999996 12.5210230399999993 0.2391599200000000 Au
atom 11.6583202999999997 12.4936989199999999 -0.1238185400000000 Au
atom 14.5302491299999996 12.3670399799999995 0.3498799200000000 Au
atom 17.3149857099999984 12.5188231800000001 0.0453441700000000 Au
atom 20.1317080799999992 12.4371265799999993 -0.1840950800000000 Au
atom 23.0998851400000014 12.3233106400000008 -0.1956343700000000 Au
atom 25.7992641099999993 12.0860761399999994 -0.1674691400000000 Au
atom 0.3303013600000000 12.3038014800000006 -0.0763623800000000 Au
atom 3.3060394500000001 12.3375787399999997 -0.3231648800000000 Au
atom 6.0167089300000001 12.3462178199999997 0.0754469300000000 Au
atom 7.4658781500000000 13.3140317100000001 2.6920355599999999 Au
atom 10.1706574599999993 13.0592244900000001 2.6850877700000000 Au
atom 13.1396308299999998 13.3073520900000002 2.4549250400000000 Au
atom 15.7673841600000006 13.1957151300000000 2.7121326200000002 Au
atom 18.6638169000000005 13.0727625700000001 2.6990221999999999 Au
atom 21.6868649900000001 13.0735998999999996 2.3221461500000000 Au
atom 24.4342142200000012 13.0279667400000001 2.7193518700000001 Au
atom 27.0770562099999985 13.2771909400000006 2.4245772200000002 Au
atom 1.8188671500000000 12.9319744399999994 2.5127622299999999 Au
atom 4.6196401500000004 13.2343687299999999 2.5309179799999999 Au
atom 8.7318464799999997 15.8254867099999998 2.6007391499999999 Au
atom 11.7475886200000001 15.9455333600000007 2.6308332900000000 Au
atom 14.5344873200000002 15.7356972800000001 2.7614519700000000 Au
atom 17.6285386600000002 15.5029043200000007 2.7315244399999998 Au
atom 20.3982843699999989 15.5939214100000001 2.4668393499999999 Au
atom 22.9855845999999993 15.5337125700000005 2.6697426900000001 Au
atom 25.7576290400000012 15.5990344899999993 2.6709047600000000 Au
atom 0.4922339600000000 15.6200185999999999 2.4599376500000001 Au
atom 3.2191824800000002 15.5273756400000007 2.4896275800000001 Au
atom 6.1613184199999997 15.7033743000000001 2.6012414900000000 Au
atom 7.4496425300000002 18.0445926999999990 2.5253075200000001 Au
atom 10.2027642200000006 18.1921555999999995 2.4622055700000001 Au
atom 13.1443648900000003 18.0992148899999989 2.8458338099999998 Au
atom 16.0488612900000014 18.1596897499999983 2.7730641399999998 Au
atom 18.9381244500000001 18.0138945300000017 2.7739576300000000 Au
atom 21.6194810400000001 18.1246952000000014 2.6101430699999999 Au
atom 24.5135121200000015 17.9761940299999985 3.1664105299999998 Au
atom 27.3044802100000013 18.1805839400000018 2.4958679099999999 Au
atom 1.7513415500000000 18.0339287400000003 2.5955124199999999 Au
atom 4.8250683800000003 17.9759311599999982 2.6215017100000000 Au
atom 8.9529347300000008 20.5694440500000013 2.8100308200000002 Au
atom 11.7706161300000005 20.6898832500000012 2.6632417700000000 Au
atom 14.4480827499999993 20.7279789299999990 2.5345356600000000 Au
atom 17.4218049800000010 20.6453111599999986 2.4348658500000000 Au
atom 20.4004323599999999 20.8393539600000004 2.7112410599999999 Au
atom 23.0883223999999991 20.7192030400000000 2.5167350499999999 Au
atom 25.8894937399999989 20.5312071699999983 3.1155179500000001 Au
atom 0.4268107900000000 20.4175814500000001 2.7731005700000000 Au
atom 3.3705865500000001 20.5902008599999995 2.7526087600000002 Au
atom 6.0909340600000004 20.8202968199999994 2.5236862599999998 Au
atom 7.5617065900000000 23.1612234999999984 2.4545155099999998 Au
atom 10.4841333500000005 23.0605205799999986 2.5337635800000000 Au
atom 13.2722053300000002 23.0246753300000009 2.4293576799999999 Au
atom 15.9433706399999995 23.1078422400000001 2.6026028499999998 Au
atom 18.6304131099999992 23.1334707600000016 2.5311878700000001 Au
atom 21.8005632600000006 23.1207764599999983 2.3710837200000001 Au
atom 24.3731129399999986 22.9449127299999986 2.2779372800000002 Au
atom 27.1550858200000000 23.0187199800000002 2.9334668599999998 Au
atom 1.9637497399999999 23.2960416799999983 2.7186440400000000 Au
atom 4.8929816199999996 22.9899835999999986 2.6609961000000002 Au
atom 9.1335838900000006 25.5613967100000004 2.3196419399999999 Au
atom 11.8579386200000005 25.4093874200000016 2.5387724700000001 Au
atom 14.7748989599999998 25.5233686400000011 2.7153956799999999 Au
atom 17.5317678900000011 25.6702891999999991 2.6477563100000001 Au
atom 20.2805017200000002 25.3598287599999992 2.7076978800000000 Au
atom 23.3456434000000002 25.5805595699999984 2.6765283499999999 Au
atom 25.8538836299999986 25.7149050800000012 2.7541887400000000 Au
atom 0.6126761200000000 25.5282733999999998 2.6558073599999998 Au
atom 3.2820511600000000 25.4779825500000001 2.5343303200000000 Au
atom 6.1997893399999997 25.8420014999999985 2.7037655300000001 Au
atom 7.7375607600000000 27.9897554799999995 2.5151622499999999 Au
atom 10.3481944699999993 28.0807610399999987 2.3049067800000000 Au
atom 13.3560925099999999 27.9936537500000000 2.5581966899999999 Au
atom 16.0205595699999996 28.2402274800000015 2.6121472200000002 Au
atom 18.9612412600000013 28.0095566100000006 2.8271916400000001 Au
atom 21.8700801399999989 27.9036933500000011 2.7597178400000000 Au
atom 24.3712911299999995 28.1150095799999988 2.5570268199999999 Au
atom 27.3450436400000001 27.9489800600000002 2.8121997900000002 Au
atom 1.7745603500000000 27.9138516199999991 2.6966840799999998 Au
atom 4.7190027099999998 27.9242258700000008 2.6113049799999999 Au
atom 9.0683965000000004 30.4118910699999994 2.6821157699999998 Au
atom 11.8603939100000009 30.4674090600000014 2.7138350299999998 Au
atom 14.8340834600000004 30.4677827699999995 2.8190853100000002 Au
atom 17.4040235599999988 30.5470713099999998 2.6913174299999998 Au
atom 20.2206519100000008 30.6782798499999991 2.6725208600000001 Au
atom 23.0639238700000000 30.6169231300000000 2.8084088399999998 Au
atom 25.9345661000000014 30.6743225499999994 2.3767300599999999 Au
atom 0.7165417700000000 30.4182858100000004 2.6802146499999999 Au
atom 3.1906197900000000 30.3073157699999989 2.6333598800000000 Au
atom 6.0834428100000002 30.3584161799999990 2.4299153900000001 Au
atom 7.5488193199999998 32.7730320200000023 2.7888992500000001 Au
atom 10.4550686699999993 32.8290845800000000 2.4779832499999999 Au
atom 13.2088044399999998 32.9795980299999982 2.1480534499999999 Au
atom 15.8658695999999999 32.8873985500000003 2.6266610799999999 Au
atom 18.9320182599999995 32.9362820600000035 2.6280204100000000 Au
atom 21.7342472399999984 32.9392164500000035 2.6901453599999998 Au
atom 24.7156254799999999 32.8539836300000019 2.5440220500000001 Au
atom 27.1450882399999998 32.8113411300000024 2.8941557900000001 Au
atom 2.0741640600000002 33.0569062200000019 2.4918163899999999 Au
atom 4.7873634400000000 32.8905404200000007 2.6665283999999998 Au
atom 8.9597928299999996 35.1818274999999971 2.8255410900000002 Au
atom 11.8723993199999995 35.2896906799999996 2.4074632800000000 Au
atom 14.4292597499999999 35.1928100200000031 2.3954358299999998 Au
atom 17.5716409499999990 35.4059485000000009 2.6528287399999999 Au
atom 20.5784125099999997 35.4220205199999967 2.5197810100000000 Au
atom 23.3470000999999989 35.2527950099999998 2.3476786399999998 Au
atom 25.8767894699999985 35.2680383399999968 3.4317555899999999 Au
atom 0.7218796500000000 35.3516908400000034 2.6997903800000000 Au
atom 3.3998589699999999 35.2302681199999981 2.5204357499999999 Au
atom 6.0140540199999997 35.1681185400000018 2.7977262399999998 Au
atom 7.8082295700000000 37.7405927499999976 2.8064446300000001 Au
atom 10.4207140500000008 37.8848678800000016 2.6162825900000000 Au
atom 13.2242098400000003 37.6779436500000031 2.2102771099999998 Au
atom 16.2297155900000014 37.7135136799999984 2.1958036100000000 Au
atom 18.8302561100000005 37.7348488499999988 2.4585829800000001 Au
atom 21.6635275299999996 37.8622809800000013 2.7295847300000000 Au
atom 24.5700781600000013 37.8700317600000034 2.8327172900000002 Au
atom 27.2375999299999982 37.5839587999999978 2.9208707199999999 Au
atom 1.9725713400000000 37.8298362999999966 2.9919357600000001 Au
atom 4.7147788799999999 37.7503276300000010 2.7753603299999998 Au
atom 8.7455998200000007 0.6516486700000000 3.0252960799999999 Au
atom 11.7211181999999994 0.7462218000000000 2.8977501299999999 Au
atom 14.6981234399999998 0.8308444300000000 2.6901872199999999 Au
atom 17.2915603299999994 0.7543242400000000 3.0087732599999999 Au
atom 20.0374425000000009 0.6955913900000000 2.5671342300000002 Au
atom 23.1205801999999991 0.8002130700000000 2.9675345900000001 Au
atom 25.6904978600000007 0.7584699200000000 2.9455046199999999 Au
atom 0.2771655700000000 0.7623034100000000 2.7807493800000000 Au
atom 3.3001580599999998 0.8957909200000000 2.7607367599999999 Au
atom 6.1234139699999997 0.7542622100000000 2.6197926499999999 Au
atom 7.7207262099999996 3.0700933300000002 2.6685132500000002 Au
atom 10.4986788999999998 3.1894542100000001 2.8740589499999998 Au
atom 13.1356544799999995 3.2098627799999999 2.7299285800000002 Au
atom 16.1302219200000003 3.3326184900000002 3.0010425800000000 Au
atom 18.7619547199999985 3.3109606100000000 2.6503286400000001 Au
atom 21.4317670100000015 3.1485253000000002 2.4315257699999999 Au
atom 24.3528010200000011 3.3366528500000001 2.9688660400000000 Au
atom 27.3931948500000004 3.2993513200000000 3.1460036800000002 Au
atom 1.9350280799999999 3.2072791600000001 2.7997319100000002 Au
atom 4.7062559500000001 3.3232915400000000 2.4441628000000000 Au
atom 8.9461128599999995 5.9304389600000000 2.9638173299999999 Au
atom 11.6369333400000006 5.7126671900000003 2.7323002100000000 Au
atom 14.5015268499999994 5.7964680900000003 2.7723633099999998 Au
atom 17.3591587499999989 5.6852200200000000 2.7584218200000001 Au
atom 20.3678683999999990 5.7287450199999999 2.8545317400000001 Au
atom 23.0313549100000010 5.7833661000000003 2.7928914499999999 Au
atom 25.9318584600000008 5.4583819599999996 2.8453822500000001 Au
atom 0.6088093700000000 5.9061669300000004 2.9032622699999999 Au
atom 3.3042600200000001 5.7182231899999998 2.8049941000000000 Au
atom 6.1100386899999997 5.6005257999999998 3.0726581999999998 Au
atom 7.4900171499999999 8.2338664799999997 2.9531497700000000 Au
atom 10.2257432599999998 8.3682792300000006 2.6484597100000000 Au
atom 13.0434297400000005 8.3204834200000004 2.9323397999999998 Au
atom 16.0831624300000016 8.2704210299999996 2.6597269799999999 Au
atom 18.8486852200000001 8.3605207299999993 2.7481020100000002 Au
atom 21.7603808399999998 8.0071935599999993 2.6958194199999999 Au
atom 24.3971409500000007 8.3638896099999993 2.7405014200000002 Au
atom 27.2834682000000015 8.2085342899999993 2.6879642900000000 Au
atom 2.0017314599999998 8.2044360300000001 2.7795160600000002 Au
atom 4.7296488600000002 8.2461237100000009 2.9711729899999999 Au
atom 8.8222893800000008 10.4743777300000005 3.2730953299999999 Au
atom 11.6756470199999995 10.5878595299999994 2.5903438200000002 Au
atom 14.5539594500000007 10.7417940000000005 2.8684957600000001 Au
atom 17.4558230700000010 10.7114303300000007 2.8146886400000000 Au
atom 20.0892794899999991 10.6647702399999993 2.6973865600000000 Au
atom 22.6773734000000005 10.7334699300000000 2.6821933300000000 Au
atom 25.6778605700000000 10.5765968400000006 2.8196727799999999 Au
atom 0.4701546200000000 10.6474463499999992 2.7517825899999999 Au
atom 3.2141064099999999 10.6937972400000003 2.5181876500000002 Au
atom 6.0805509100000004 10.6619472300000009 2.8629176300000001 Au
atom 7.1246077500000000 13.3319449500000005 5.8501892199999999 Cl
atom 6.9748701600000000 16.0835628200000009 8.6933355599999995 Cl
atom 7.0396970000000003 13.0359809200000001 8.2037553899999995 Na
atom 6.9204910699999997 15.9530572100000008 5.7990337800000002 Na
atom 7.1796538900000000 18.8244322100000012 5.6550683099999999 Cl
atom 7.0288763000000003 21.5591634600000006 8.2081307100000007 Cl
atom 6.8674435400000000 18.8232816599999992 8.1253611200000009 Na
atom 7.1341212599999997 21.6989000300000008 5.7259460899999999 Na
atom 7.2726273600000004 24.5323619599999994 5.4629782200000001 Cl
atom 7.3714217000000000 27.1686263799999992 8.4393248500000002 Cl
atom 7.2155854799999997 24.4570737300000012 8.2598544100000009 Na
atom 7.3237369799999996 27.3316285199999989 5.7551541300000002 Na
atom 7.1973683099999999 30.1297578100000010 5.5523695599999998 Cl
atom 7.3945022500000004 32.9373732899999965 8.4562630799999994 Cl
atom 7.4522985899999998 30.3224452100000015 8.0969760999999991 Na
atom 7.2091212599999999 33.0426484500000015 5.7484104100000000 Na
atom 7.1742452600000002 35.8578820299999990 5.6970321700000000 Cl
atom 7.5312198500000003 38.5542268900000025 8.5151977399999996 Cl
atom 7.2495200899999999 35.6906594499999983 8.1494458299999994 Na
atom 7.4589958799999998 38.5058357300000011 5.7202689199999996 Na
atom 7.4222318899999999 1.9824392000000000 5.7251868400000001 Cl
atom 7.3165576500000000 4.6715918500000004 8.7778986600000000 Cl
atom 7.3860032599999998 1.9933017500000001 8.4915133199999993 Na
atom 7.4154452300000004 4.7358883699999996 5.9650595300000004 Na
atom 7.3206613799999998 7.5025052900000002 5.8598829200000004 Cl
atom 7.2827036100000004 10.3239808800000006 8.6367895099999998 Cl
atom 7.3125671700000003 7.5759930500000001 8.4005991699999996 Na
atom 7.3185731499999997 10.3554558300000004 5.9579962300000000 Na
atom 10.0973133900000001 13.1004385699999997 5.9090017899999996 Na
atom 12.7533660300000005 13.3649053099999993 5.9564811200000003 Cl
atom 9.8726482000000004 16.0386833799999984 8.3930558800000004 Na
atom 12.6144004600000006 16.1793933099999983 8.8168986900000004 Cl
atom 12.9325376599999995 13.2681286800000002 8.4850114399999992 Na
atom 9.7431971900000001 13.3579587199999992 8.6270371099999998 Cl
atom 12.9509254100000000 16.3175598800000010 6.0641944499999996 Na
atom 10.0505522700000007 15.9635458600000000 5.9353929799999996 Cl
atom 10.0425614599999999 18.5373109400000011 5.8709790799999997 Na
atom 13.0906133699999998 19.0209191799999999 5.7351412699999997 Cl
atom 10.2055786600000005 21.4730359600000007 8.2643750600000008 Na
atom 13.0265437899999998 21.8067379400000014 8.2231768699999996 Cl
atom 12.7695563300000003 19.0712804799999986 8.4061913100000005 Na
atom 9.8713062100000002 18.8461683399999984 8.5066641300000008 Cl
atom 12.8818042199999994 21.6283445299999997 5.8052592299999999 Na
atom 9.9445794599999999 21.7291667699999991 5.6936543600000000 Cl
atom 9.8702191100000007 24.5764164399999991 5.6984410700000003 Na
atom 12.9282017800000002 24.4150804400000006 5.7947420000000003 Cl
atom 9.8734017699999992 27.3367106500000006 8.2511093199999994 Na
atom 12.8808388199999992 27.3085745700000011 8.4491732800000001 Cl
atom 13.0979882500000002 24.3983703299999988 8.3003634099999992 Na
atom 10.0879790200000006 24.6331983900000004 8.5223941399999994 Cl
atom 12.8671172899999995 27.3139441100000013 5.6599362800000002 Na
atom 10.1091412100000007 27.3971810799999993 5.5543137900000001 Cl
atom 10.2586608699999999 30.0404679899999998 5.8046187099999997 Na
atom 12.6634813400000006 30.1275997900000014 5.7437689399999998 Cl
atom 10.1652019500000002 32.8096232099999980 8.3314166699999994 Na
atom 12.9677915800000001 32.8560532999999992 8.5823700600000006 Cl
atom 12.8890827500000000 30.1541926800000013 8.3545070900000002 Na
atom 10.1390598799999996 30.1958481399999989 8.4860086300000006 Cl
atom 12.7261557599999993 32.5359636000000023 5.7234605500000004 Na
atom 10.0520078999999996 32.9465121499999967 5.8123199000000003 Cl
atom 10.1121861499999994 35.8444652299999973 5.6450744999999998 Na
atom 12.8384895700000001 35.7834639100000018 5.5787987899999996 Cl
atom 10.1230365899999999 38.6000772000000012 8.6242979500000008 Na
atom 12.8706610599999998 38.5515397699999980 8.5633536400000008 Cl
atom 12.9675290400000005 35.7136481900000007 8.0379833600000001 Na
atom 9.9693375300000007 35.7451669499999980 8.6713330800000001 Cl
atom 12.8666797000000006 38.5441692599999968 5.6959288099999998 Na
atom 10.2973883799999992 38.8700578199999995 5.4828120699999996 Cl
atom 10.3374569399999992 2.0626495299999998 6.0344699899999998 Na
atom 13.1267525700000007 2.0641582800000000 5.8167793699999999 Cl
atom 10.1620348699999994 4.5941500800000004 8.4047870400000004 Na
atom 12.8136108499999999 4.8206878199999998 8.8334151100000007 Cl
atom 12.7674971599999996 1.9368812900000001 8.6672743000000008 Na
atom 10.0341435499999996 1.9702649600000000 8.6387498300000001 Cl
atom 12.9640775399999999 4.9754751400000004 5.8296030500000002 Na
atom 10.2605306200000008 4.5320542599999998 5.7784592999999997 Cl
atom 10.1644132999999997 7.5447668400000003 5.7988010799999996 Na
atom 13.0710723699999996 7.7021809499999998 5.6951943600000003 Cl
atom 10.1883388600000000 10.4122061600000002 8.3593402900000005 Na
atom 13.0249279399999995 10.4840816900000000 8.4838680600000007 Cl
atom 12.9156852499999992 7.4792160699999997 8.5291239799999996 Na
atom 10.1400811100000006 7.4386136599999997 8.4921621100000007 Cl
atom 12.9360336599999997 10.3653423999999994 5.7150006900000001 Na
atom 10.0259147199999994 10.4225200499999993 5.7336339799999996 Cl
atom 15.8163952000000005 12.9112060599999996 6.1675620999999996 Na
atom 18.7450110599999995 13.1654182899999999 5.9812992100000004 Cl
atom 15.6123647900000009 16.0003850000000014 8.4742312599999998 Na
atom 18.3926888300000009 16.0548950800000014 8.5047924600000009 Cl
atom 18.8026346800000006 13.2965521399999993 8.9046563400000007 Na
atom 15.8990109700000009 13.3787062799999994 8.6617709800000000 Cl
atom 18.4230878900000015 16.0732953400000014 5.9510231400000002 Na
atom 15.8574224099999999 16.0811426100000006 5.6563675800000004 Cl
atom 15.9083973299999997 18.9217377800000008 5.8696250499999998 Na
atom 18.4056039899999995 18.6730560200000006 5.9243170400000000 Cl
atom 15.5779552199999998 21.5840013299999995 8.3635774699999992 Na
atom 18.5780558599999992 21.6468707000000009 8.3637761099999999 Cl
atom 18.5990931199999991 18.9728079899999997 8.5309583599999996 Na
atom 15.7387945400000007 18.7996721099999995 8.8199788500000000 Cl
atom 18.5361972399999999 21.6888014200000008 5.8195309799999997 Na
atom 15.6371255799999993 21.4396280700000013 5.8552787500000001 Cl
atom 15.8503339899999993 24.4434287899999987 6.0080312200000003 Na
atom 18.5222776799999984 24.5700868600000000 5.7031699500000004 Cl
atom 15.7348917900000007 27.2129171399999983 8.0691452500000000 Na
atom 18.3909199600000015 27.4828177599999997 8.7092384000000003 Cl
atom 18.4867017999999987 24.6655311899999994 8.4559734899999999 Na
atom 15.8280764000000005 24.4976416499999985 8.5317924299999994 Cl
atom 18.4005972799999995 27.1359371200000012 5.6404215000000004 Na
atom 15.6814433700000002 27.0611722000000015 5.5438764300000001 Cl
atom 15.5544844999999992 30.1517930199999995 5.8494981299999997 Na
atom 18.5469601500000003 30.3044536600000001 5.9067709800000001 Cl
atom 15.9754181000000006 32.8511287600000017 8.4920429300000002 Na
atom 18.6124345799999986 32.9604114799999977 8.6644090899999995 Cl
atom 18.4106011400000007 30.1798627400000008 8.5238109699999995 Na
atom 15.7328462200000008 29.9601345600000002 8.4233114899999997 Cl
atom 18.5105679899999984 33.2453795799999980 5.7720858699999997 Na
atom 15.7716559899999993 32.8096762999999996 5.7113143700000002 Cl
atom 15.6872125499999999 35.8162197899999981 5.8230263700000000 Na
atom 18.5762595700000013 35.6821028499999997 5.7899061100000004 Cl
atom 15.6454203700000001 38.7146511700000033 8.4056166099999992 Na
atom 18.3079269899999986 38.8311114999999987 8.6764049599999993 Cl
atom 18.4096363799999985 35.9786678700000024 8.5320919800000006 Na
atom 15.4594516800000008 35.8456175999999971 8.4404763500000008 Cl
atom 18.5644645399999995 38.7902406600000020 6.0649372499999998 Na