#===============================================================================
# Created using the Atomic Simulation Environment (ASE)

# Tue Dec 23 22:26:43 2025

#=======================================================
lattice_vector 28.1999999999999993 0.0000000000000000 0.0000000000000000 
lattice_vector 0.0000000000000000 39.4799999999999969 0.0000000000000000 
lattice_vector 0.0000000000000000 0.0000000000000000 62.3296083400000001 
atom 7.4130914399999996 14.7691625500000008 -0.2682745300000000 Au
atom 10.3522505099999993 14.7437227899999996 -0.2642297300000000 Au
atom 13.2039895200000004 14.7393611999999994 -0.1592464500000000 Au
atom 16.0295631699999994 14.7874732499999997 -0.5508343000000000 Au
atom 18.9381973399999985 14.8670440100000008 -0.3277867500000000 Au
atom 21.6698975500000017 14.8810996899999992 -0.3284781600000000 Au
atom 24.4242861699999985 14.8666910500000000 -0.0193380700000000 Au
atom 27.2730943500000009 14.8133256200000005 -0.1270406400000000 Au
atom 1.8647161100000000 14.7248651699999993 0.2156623000000000 Au
atom 4.6216912299999997 14.7958960200000007 -0.0227801600000000 Au
atom 8.9210519399999999 17.2468755000000016 -0.2391896800000000 Au
atom 11.7316987000000008 17.2416533799999989 -0.5590613400000000 Au
atom 14.5834205699999995 17.2313681299999999 -0.3962367800000000 Au
atom 17.4158329400000014 17.2241229800000006 -0.3757360500000000 Au
atom 20.2159751400000012 17.3969083299999987 -0.3681871400000000 Au
atom 23.1179341799999989 17.2676035200000015 -0.1493816000000000 Au
atom 25.9312511199999989 17.4887242000000001 -0.0178653000000000 Au
atom 0.4693972900000000 17.2455246699999982 0.2344623400000000 Au
atom 3.1682815700000000 17.2141501800000007 -0.1034418700000000 Au
atom 6.0649977000000002 17.2476229500000002 -0.1260301100000000 Au
atom 7.4256920400000004 19.6641838500000006 -0.0678893600000000 Au
atom 10.2453462999999996 19.8345590399999985 -0.2355056400000000 Au
atom 13.0391578100000007 19.7117554300000002 -0.2004318300000000 Au
atom 15.9094756999999998 19.7878509899999990 -0.0733378400000000 Au
atom 18.7769349900000009 19.8060294200000016 -0.0336524200000000 Au
atom 21.6362637100000015 19.7441078400000016 -0.0608649500000000 Au
atom 24.2256757799999995 19.4620806100000010 0.0875556500000000 Au
atom 27.1557483700000013 19.7148794000000009 0.2182002800000000 Au
atom 1.8096711599999999 19.7209714399999996 0.0719515600000000 Au
atom 4.5339191799999998 19.6882154999999983 -0.2605976800000000 Au
atom 8.8771018700000006 22.2613133699999999 -0.2925628200000000 Au
atom 11.7759309000000005 22.4015421100000012 -0.3134878200000000 Au
atom 14.5591730800000008 22.2067376600000017 -0.0577906300000000 Au
atom 17.3956802699999997 22.2285914099999999 0.0733720900000000 Au
atom 20.1469626999999996 22.2153108000000010 0.2523522000000000 Au
atom 22.9035501299999993 22.2645993699999991 0.4425086700000000 Au
atom 25.9673753599999984 22.6489747000000001 0.1190911400000000 Au
atom 0.4153636400000000 22.1228170700000000 0.0317294300000000 Au
atom 3.1923123800000002 22.1966727500000012 -0.1556649000000000 Au
atom 5.9824335499999997 22.0973178499999996 -0.1674620700000000 Au
atom 7.4256000899999997 24.7158056200000011 -0.2794466000000000 Au
atom 10.1993042200000001 24.8337569000000009 -0.0952913900000000 Au
atom 12.9092596499999992 24.4523071799999983 -0.3409409600000000 Au
atom 15.8344020499999996 24.7287132599999993 -0.0367541000000000 Au
atom 18.6978994299999997 24.6510038999999992 0.2737852700000000 Au
atom 21.5140246600000005 24.8203418800000009 0.4347741300000000 Au
atom 24.5567617200000008 24.7933793400000013 0.1864691600000000 Au
atom 27.2782116700000010 24.5381996300000012 0.0645489800000000 Au
atom 1.8190054800000000 24.6449825500000017 -0.0357011400000000 Au
atom 4.6510190600000003 24.6078646399999990 -0.2338064800000000 Au
atom 8.7068568800000001 27.2484814200000010 -0.2130777800000000 Au
atom 11.6340310000000002 27.0762309700000010 -0.3882050400000000 Au
atom 14.3856125800000001 27.0772683000000001 0.0841692000000000 Au
atom 17.3740995200000015 27.1251468500000001 -0.1033361000000000 Au
atom 20.2802992199999998 26.9174117499999994 0.1963979900000000 Au
atom 22.9746320900000001 27.1498661100000014 0.0034557300000000 Au
atom 25.8192665800000007 27.0350929099999995 -0.0901428100000000 Au
atom 0.4371080800000000 27.0578737400000016 0.1068904600000000 Au
atom 3.1527927700000000 27.1245586400000001 -0.0544201500000000 Au
atom 6.0993792300000003 27.1708443300000013 -0.3330008300000000 Au
atom 7.2101284000000003 29.6676922099999985 -0.1063504300000000 Au
atom 10.2914042699999992 29.7122700399999999 -0.2674835500000000 Au
atom 13.0215239300000007 29.5924581099999990 -0.0193022900000000 Au
atom 15.8699884400000002 29.5473116800000000 0.1225177600000000 Au
atom 18.6375347699999985 29.5700322299999989 0.0725398200000000 Au
atom 21.6568205599999999 29.5757067199999995 0.2014222100000000 Au
atom 24.3873748600000013 29.6870731399999990 0.0625639200000000 Au
atom 27.1596803599999994 29.5883217499999986 0.1752180000000000 Au
atom 1.7315430100000000 29.5782823800000010 0.0014435600000000 Au
atom 4.8198028099999997 29.6345929900000016 -0.2175232900000000 Au
atom 8.7927529100000008 32.1269382899999982 -0.1780391600000000 Au
atom 11.7479124800000001 32.0687692400000017 -0.1111605800000000 Au
atom 14.5217138099999996 32.0235040199999972 -0.0756655300000000 Au
atom 17.2940366200000000 32.0216126600000024 -0.0025537900000000 Au
atom 20.0703816300000000 32.0463369400000033 0.1642864000000000 Au
atom 22.9884051900000017 31.8599788500000010 -0.0425428800000000 Au
atom 25.8391431699999998 31.9571975700000017 -0.0250570700000000 Au
atom 0.2420166000000000 32.0705232299999992 -0.1484996200000000 Au
atom 3.1734270699999998 32.0939177500000028 0.0195626400000000 Au
atom 6.0101255199999999 32.1936692399999984 -0.2023449600000000 Au
atom 7.3920894500000003 34.7133275500000025 -0.2692362600000000 Au
atom 10.2844608799999992 34.4875235900000021 -0.0383660300000000 Au
atom 13.0713456499999996 34.6008370400000018 -0.0792370400000000 Au
atom 15.9000285600000009 34.4357015200000021 -0.0052272400000000 Au
atom 18.7618594600000002 34.5369709699999987 -0.2073586200000000 Au
atom 21.4893396800000005 34.6399174800000011 0.0330941400000000 Au
atom 24.4140454099999999 34.4930831699999985 0.1032421200000000 Au
atom 27.2135240200000013 34.4764686800000035 0.0229418800000000 Au
atom 1.7840920000000000 34.5400190300000034 -0.0042393900000000 Au
atom 4.5554395899999998 34.5718229399999970 -0.0849044900000000 Au
atom 8.8386607399999999 37.0873129100000014 0.0776738700000000 Au
atom 11.5694732800000004 37.0205393900000033 -0.0253713800000000 Au
atom 14.5840752200000008 37.0097167300000010 -0.0146043300000000 Au
atom 17.3690978800000018 36.9419545000000014 0.0061134500000000 Au
atom 20.2285520699999992 36.9698181600000026 0.1690237700000000 Au
atom 22.9839464900000010 37.0129224399999970 0.1224544200000000 Au
atom 25.8189316600000005 37.0044595600000008 0.2226299000000000 Au
atom 0.4057245500000000 37.0405793600000024 0.1760239400000000 Au
atom 3.2202057700000002 36.9962768299999993 0.1302883300000000 Au
atom 5.9577553999999999 37.0096270599999997 0.0922457100000000 Au
atom 7.4288582900000000 0.1295273300000000 0.0945495300000000 Au
atom 10.3099133300000005 0.0148734800000000 0.0807027100000000 Au
atom 13.1818161099999998 -0.0804518400000000 0.0202827500000000 Au
atom 16.0488892900000018 -0.0850207100000000 0.2106725300000000 Au
atom 18.8007471799999983 -0.0493750900000000 0.1918097400000000 Au
atom 21.5613332200000016 0.0650585700000000 0.1220359600000000 Au
atom 24.3466290600000015 -0.0052765800000000 0.3844863700000000 Au
atom 27.2450488700000015 0.1162482400000000 0.2630703700000000 Au
atom 1.8627839399999999 0.0147191700000000 0.2017217800000000 Au
atom 4.6382240200000000 0.0139472100000000 0.2464510200000000 Au
atom 8.9184804000000000 2.5533951699999999 0.1938641700000000 Au
atom 11.7554097899999999 2.4291436200000001 0.1461847900000000 Au
atom 14.5747749899999999 2.3962490700000001 0.1278275500000000 Au
atom 17.3635536799999990 2.3911796000000001 0.2519569200000000 Au
atom 20.1141629000000002 2.4881647600000001 0.1872211200000000 Au
atom 22.9766525399999999 2.5621843399999999 0.2380968500000000 Au
atom 25.8247475100000017 2.5335141900000000 0.5366325500000000 Au
atom 0.3454170100000000 2.3585649599999998 0.4003262000000000 Au
atom 3.2879357900000001 2.4877808600000000 0.2961341200000000 Au
atom 6.0276859399999996 2.5373706399999998 0.1794371500000000 Au
atom 7.5206624900000003 4.9571559199999999 0.1535088100000000 Au
atom 10.4169933399999994 4.9296857000000003 0.1770442900000000 Au
atom 13.3238000400000001 4.8182955300000003 0.0578655900000000 Au
atom 16.0563576200000000 4.8711016000000003 -0.0144298200000000 Au
atom 18.8049252600000010 4.9010634299999998 0.2661557300000000 Au
atom 21.5549411999999982 4.9409542200000001 0.1838352400000000 Au
atom 24.3987869000000011 4.9974667699999999 0.2522537100000000 Au
atom 27.1465171800000000 5.0212680000000001 0.5105069300000000 Au
atom 2.0010754899999998 5.1403266700000003 0.4760436600000000 Au
atom 4.6917823399999996 5.0126943700000002 0.2681509300000000 Au
atom 8.9016215299999999 7.3549992099999999 -0.0911154000000000 Au
atom 11.8118628900000004 7.3165363599999997 -0.0077307800000000 Au
atom 14.5917623899999995 7.2945244899999997 -0.0088563900000000 Au
atom 17.5016952199999984 7.3051374999999998 -0.1235546500000000 Au
atom 20.2586494200000011 7.4637871100000002 0.2275200800000000 Au
atom 23.0405359199999999 7.3966249399999997 0.3371853200000000 Au
atom 25.7879761499999987 7.4770057200000002 0.1938429400000000 Au
atom 0.4197725800000000 7.3822693099999999 0.2126233600000000 Au
atom 3.2171979600000000 7.3452041599999998 0.3528936500000000 Au
atom 6.0842232899999997 7.4289692199999999 0.1734253200000000 Au
atom 7.4960171600000001 9.8380090599999992 -0.2680023800000000 Au
atom 10.3288109099999996 9.7817264900000005 -0.3089629100000000 Au
atom 13.2344312700000000 9.8462241600000002 -0.2695431300000000 Au
atom 16.0611375299999999 9.8151295600000008 -0.1588280800000000 Au
atom 18.9196598700000003 9.9093342999999994 -0.1508120600000000 Au
atom 21.6356282600000007 9.8936816899999993 0.1808877000000000 Au
atom 24.5258607300000016 9.9514743299999999 0.1627305100000000 Au
atom 27.2553208299999987 9.9039364100000000 0.1720486200000000 Au
atom 1.9104497000000000 9.8539385300000006 0.0837575700000000 Au
atom 4.6332858100000003 9.7988816300000003 0.0854399900000000 Au
atom 8.9112946500000003 12.2661070900000002 -0.3670795500000000 Au
atom 11.8214049200000009 12.2773378100000006 0.0370121500000000 Au
atom 14.6008796800000002 12.3318012100000001 -0.3497568800000000 Au
atom 17.4792567100000014 12.3610130300000005 0.0115374900000000 Au
atom 20.2916985099999998 12.3890013499999991 -0.2467104100000000 Au
atom 23.1431152900000008 12.3633088999999998 -0.1549839000000000 Au
atom 26.3546495100000016 12.3302084999999995 -0.1543668800000000 Au
atom -0.0114560200000000 12.2900952300000004 -0.0340288700000000 Au
atom 3.2277339199999999 12.3055369300000006 0.0765815100000000 Au
atom 6.0378731900000000 12.2482971700000007 -0.2849685900000000 Au
atom 7.4049603800000003 13.1516292600000000 2.1637747500000000 Au
atom 10.2986247800000008 13.2225663499999992 2.3816515599999999 Au
atom 13.1601755199999992 13.2338678999999999 2.5090700799999999 Au
atom 15.8850281599999992 13.2516401899999998 2.2376982999999999 Au
atom 18.8066533500000013 13.2644210000000005 2.3751196499999998 Au
atom 21.5888010900000005 13.3409380800000008 2.4126432000000002 Au
atom 24.3504978899999998 13.2129813699999996 2.5780262700000001 Au
atom 27.2346320300000002 13.2511939800000000 2.3797717199999999 Au
atom 1.8619693900000001 13.0490545000000004 2.7597200100000001 Au
atom 4.9297437300000002 13.0786413899999996 2.5971148799999999 Au
atom 8.8917748299999992 15.6776689000000005 2.4014951800000000 Au
atom 11.7415813999999994 15.6736654299999998 2.3530061899999999 Au
atom 14.6539927500000005 15.5550537900000005 2.2876511200000000 Au
atom 17.3944745599999990 15.6863842000000009 2.2399684799999999 Au
atom 20.1633447699999984 15.7257468500000002 2.3616017800000000 Au
atom 23.0088633000000016 15.7030791099999991 2.5801868300000002 Au
atom 25.8238088599999998 15.6751835400000008 2.3147472300000000 Au
atom 0.5262643400000000 15.6375300199999998 2.6786994700000002 Au
atom 3.3613255199999998 15.5310044499999993 2.5982830699999999 Au
atom 6.1708863899999997 15.6394531699999995 2.5265409399999998 Au
atom 7.5556571500000000 18.1050764400000013 2.7039668300000002 Au
atom 10.4248985300000001 18.1165110100000000 2.2379305600000001 Au
atom 13.1849552899999996 18.0334360800000013 2.2085284100000000 Au
atom 15.9672103500000002 18.0361162300000011 2.2975226200000001 Au
atom 18.7544995300000004 18.1604863399999985 2.2663338300000002 Au
atom 21.5391322199999991 18.1611034199999999 2.4086888100000001 Au
atom 24.3977609999999991 18.0778787799999989 2.5580834499999998 Au
atom 27.3086152599999998 18.0565250299999995 2.7373711799999998 Au
atom 1.9507188200000001 18.1310946699999995 2.7230090800000002 Au
atom 4.7474255000000003 18.1463423500000012 2.3644375900000001 Au
atom 8.9437119299999992 20.5350680099999998 2.3741532900000002 Au
atom 11.7670463600000001 20.5897094400000000 2.3020034200000001 Au
atom 14.5473916100000000 20.5596028400000002 2.5345531299999999 Au
atom 17.3084376300000002 20.5451530099999999 2.7193393900000000 Au
atom 20.1995347400000007 20.6060131999999996 2.6608227000000002 Au
atom 22.9431870099999990 20.6516504999999988 2.8968383700000002 Au
atom 25.8266130800000013 20.6623028600000005 2.6441945499999999 Au
atom 0.4664824200000000 20.5477627100000007 2.8632540500000001 Au
atom 3.3383837299999999 20.6572381400000005 2.5860794800000000 Au
atom 6.0710186200000003 20.5778803199999984 2.4358252000000000 Au
atom 7.4379250800000003 23.0172846699999987 2.3225357500000001 Au
atom 10.2177109799999997 23.0226516699999983 2.3499262600000002 Au
atom 13.0610012100000006 23.1034450299999996 2.4236392699999998 Au
atom 15.9291987499999994 23.0927799699999987 2.5490216600000002 Au
atom 18.7566304799999983 23.0974551400000010 2.7746022799999999 Au
atom 21.5770048699999997 23.1461342499999994 3.0990663800000000 Au
atom 24.4815736699999995 23.0455037500000017 2.7499190599999999 Au
atom 27.2801956300000015 22.9773802300000014 2.7082343400000002 Au
atom 1.8791069000000000 23.0514688399999983 2.4134937299999999 Au
atom 4.6860253800000002 23.0682808000000001 2.3339857700000000 Au
atom 8.8422641700000000 25.6068569100000012 2.5082007300000000 Au
atom 11.6325618100000003 25.4937260399999985 2.3016026100000002 Au
atom 14.4171937600000000 25.5469323800000012 2.6817985700000002 Au
atom 17.2279246300000004 25.4878648699999992 2.6420496500000001 Au
atom 20.1680241100000011 25.4857585399999991 2.8770313600000001 Au
atom 23.0729717200000017 25.4685232100000007 2.9025064000000000 Au
atom 25.9704480599999989 25.5547580100000005 2.7766242600000002 Au
atom 0.5223240800000000 25.5695732299999996 2.5613272299999998 Au
atom 3.3249012100000002 25.5912424899999991 2.5095352300000000 Au
atom 6.0631652899999997 25.5862057599999986 2.4111842000000001 Au
atom 7.4338394799999996 28.0483989200000003 2.3990060500000001 Au
atom 10.2220855200000003 27.9880202400000009 2.2197024700000001 Au
atom 12.9390774000000004 27.9439537000000016 2.4936535399999999 Au
atom 15.8486720900000009 27.9662410900000005 2.6800529700000002 Au
atom 18.6927501199999995 27.9517706500000003 2.5778135299999998 Au
atom 21.5875620300000008 27.9625556400000015 2.7574952900000000 Au
atom 24.3868670799999983 27.8772717099999987 2.4526878000000001 Au
atom 27.2715394400000015 27.9751715899999986 2.7471122700000001 Au
atom 1.8764187400000001 28.0335667999999991 2.5750421900000000 Au
atom 4.5914152000000001 28.0869214700000001 2.3637494200000000 Au
atom 8.8830387099999992 30.4976077100000005 2.4136829299999998 Au
atom 11.6228425200000007 30.3970816299999989 2.5423312800000000 Au
atom 14.3733097599999997 30.2034880900000005 2.7522098900000000 Au
atom 17.3237734699999990 30.3533293200000003 2.6034955800000001 Au
atom 20.2234377899999984 30.3645733100000008 2.9066481600000000 Au
atom 22.9987988700000017 30.4227828299999992 2.6888814200000000 Au
atom 25.7624163499999987 30.3383876599999986 2.8250374100000002 Au
atom 0.4710368700000000 30.4450689399999987 2.5636070100000001 Au
atom 3.2563709900000002 30.5195848000000005 2.6065820099999999 Au
atom 6.0623136500000001 30.4496737499999988 2.5781243400000000 Au
atom 7.3993767500000001 32.8476076199999980 2.2911541999999998 Au
atom 10.2892391100000005 32.9222270799999990 2.4298038399999999 Au
atom 13.0773202499999996 32.8395575400000013 2.4357729799999999 Au
atom 15.9325366000000006 32.8968327299999999 2.7322668999999999 Au
atom 18.6572295900000000 32.8188219199999978 2.6527870999999998 Au
atom 21.5247313799999986 32.8591204299999973 2.8100423200000000 Au
atom 24.3591593999999994 32.8666762800000001 2.6576670700000000 Au
atom 27.1578993799999999 32.7720388899999975 2.5034485800000001 Au
atom 1.8216664300000001 32.9089042700000007 2.6327373700000001 Au
atom 4.5925354399999998 32.9358030699999986 2.5485308600000001 Au
atom 8.8107091299999993 35.3798721400000034 2.5222019100000002 Au
atom 11.5870924500000001 35.3573530899999966 2.5341534299999999 Au
atom 14.4968860799999995 35.3236334799999980 2.6051438500000001 Au
atom 17.2899323100000011 35.2898782899999972 2.3723462899999999 Au
atom 20.0277697600000018 35.2480498099999977 2.6282630800000000 Au
atom 22.9293826600000017 35.3873638999999969 2.7047548899999998 Au
atom 25.7932266199999987 35.3121382300000022 2.6976751399999999 Au
atom 0.3838124500000000 35.2854157200000031 2.6889684400000000 Au
atom 3.2628499299999998 35.4302698500000020 2.6283247599999999 Au
atom 6.0568134799999997 35.3452671699999996 2.6011162799999998 Au
atom 7.4109540699999998 37.9445439400000026 2.5351896699999998 Au
atom 10.2453127399999993 37.8751905800000017 2.8299314400000002 Au
atom 13.0743958100000004 37.7963927600000034 2.6147667399999999 Au
atom 15.8989602199999993 37.7247214799999995 2.7440446700000001 Au
atom 18.7329439099999995 37.7514449399999990 2.6652956799999998 Au
atom 21.5467616200000016 37.8626251499999995 2.7283312600000000 Au
atom 24.3434940399999995 37.8453657199999967 2.9591434099999998 Au
atom 27.1664764699999992 37.8254874100000009 2.7075941600000002 Au
atom 1.7787858299999999 37.8534087999999969 2.8679203800000002 Au
atom 4.6602517700000003 37.8672207700000030 2.7491764399999998 Au
atom 8.9422677200000003 0.8435311800000000 2.8438170500000002 Au
atom 11.7093489599999998 0.8541467400000000 2.6836588199999998 Au
atom 14.4731245400000006 0.7561830700000000 2.7294454300000002 Au
atom 17.2173310300000004 0.8495721700000000 2.9904999900000000 Au
atom 20.0216157400000014 0.7926617600000000 2.7847106899999998 Au
atom 22.9709465900000005 0.9109408200000000 2.9154264099999998 Au
atom 25.7810765300000000 0.9147683900000000 3.0150504599999999 Au
atom 0.4330849700000000 0.8156370300000000 2.8666434000000001 Au
atom 3.2062081299999998 0.8180082500000000 2.8488834999999999 Au
atom 6.1258427500000003 0.8686356200000001 2.8595391299999999 Au
atom 7.5683686799999998 3.3742686900000001 2.6476547699999999 Au
atom 10.3222031100000002 3.3856916500000001 2.8100791200000002 Au
atom 13.1590977099999993 3.3529656499999998 2.6929067799999999 Au
atom 15.9228068100000009 3.3821515600000001 2.7377828800000001 Au
atom 18.7410033100000000 3.3199675100000001 2.9854720900000000 Au
atom 21.5616947900000007 3.3549959100000000 2.7241090799999998 Au
atom 24.3302593199999997 3.4050498999999999 2.9488059899999999 Au
atom 27.2480340299999995 3.3635143699999999 3.0845524000000002 Au
atom 1.9108090400000000 3.3071280600000001 2.9621346300000000 Au
atom 4.7297150500000003 3.3446457199999999 2.9031802500000001 Au
atom 8.8857748200000000 5.9173351700000003 2.7589568299999998 Au
atom 11.7671231800000005 5.8303358100000002 2.6248304700000000 Au
atom 14.5669576299999992 5.8610267299999999 2.8227680500000001 Au
atom 17.3040092299999984 5.8941950700000003 2.5886993999999999 Au
atom 20.1203352299999985 5.7873802200000002 2.8546215400000001 Au
atom 22.8804701699999988 5.8732094200000002 2.9020263499999999 Au
atom 25.7169955299999984 5.8229008499999999 3.0201291499999998 Au
atom 0.4366186900000000 5.8053012099999997 3.0612070199999999 Au
atom 3.2492700499999998 5.8510644899999997 3.0985468400000000 Au
atom 6.0328737600000002 5.8276737499999998 2.8014669099999998 Au
atom 7.5863757999999999 8.3855088500000008 2.6442346099999998 Au
atom 10.3306086100000005 8.3049626500000002 2.3953199999999999 Au
atom 13.1497651300000005 8.2795921600000000 2.4285709899999999 Au
atom 15.9381470800000002 8.2652041100000009 2.4144591900000001 Au
atom 18.7530900600000017 8.3398544599999997 2.6017315299999999 Au
atom 21.5743302099999994 8.2796286299999995 3.0694530699999998 Au
atom 24.3704994100000008 8.3889909300000003 2.9769353399999998 Au
atom 27.1371408900000013 8.2390361999999993 2.8403627800000000 Au
atom 1.7537985500000000 8.3020717099999999 2.8588027399999998 Au
atom 4.6895327000000000 8.2444101700000001 2.8684512600000001 Au
atom 8.9200531699999992 10.8048613600000003 2.1761478699999999 Au
atom 11.6983133200000005 10.7267701800000008 2.5824618799999999 Au
atom 14.4596961999999998 10.7856215399999993 2.2007848600000002 Au
atom 17.3268554700000017 10.7686148100000008 2.4408606599999998 Au
atom 20.0689476999999989 10.7903202599999997 2.4620737199999998 Au
atom 22.9287376099999989 10.7858234700000004 2.7459971400000001 Au
atom 25.7960293900000011 10.8519779500000002 2.7539117200000001 Au
atom 0.4064960900000000 10.7951230799999998 2.7310780600000002 Au
atom 3.2899212800000002 10.6657456600000007 2.7484148600000000 Au
atom 6.1235829099999997 10.6911768499999997 2.4059464699999999 Au
atom 7.8067717300000004 13.1253079300000000 5.6205214100000003 Cl
atom 7.6432378900000000 15.7609252800000004 8.4731502100000000 Cl
atom 7.7404624100000001 12.8652313800000009 8.3444593900000008 Na
atom 7.7554249899999999 16.0589592100000011 5.7361984399999999 Na
atom 7.6781309599999998 18.9314967500000009 5.5207831299999999 Cl
atom 7.7023569399999996 21.7244778600000004 8.3138090699999996 Cl
atom 7.7157342299999998 18.7585655600000010 8.2579477800000003 Na
atom 7.7998323400000000 22.1008872600000004 5.6333970899999999 Na
atom 7.8185892299999997 24.2029995900000010 5.8451289600000003 Cl
atom 7.7338875099999997 27.3209217399999993 8.4516937999999993 Cl
atom 7.7283662199999998 24.5540796700000001 8.2422025800000007 Na
atom 7.7237020400000000 27.4202863500000014 5.7693885099999997 Na
atom 7.7350152799999998 30.1635930399999985 5.5077077900000004 Cl
atom 7.6705101200000003 32.9407119299999991 8.3999906600000003 Cl
atom 7.5986833200000001 30.0749010800000001 8.2143750699999991 Na
atom 7.7425916299999997 32.9950620500000014 5.5980185499999999 Na
atom 7.7134771300000002 35.7629090399999967 6.1172934200000002 Cl
atom 7.6174102599999998 38.4451176700000019 8.9054741199999992 Cl
atom 7.7117029900000000 35.6605090999999987 7.8322297799999996 Na
atom 7.5720663100000003 38.5819352400000000 5.8210684400000003 Na
atom 7.7112643600000004 1.9889870000000001 5.7911802699999999 Cl
atom 7.6959632500000001 4.6838567299999996 8.8744153000000008 Cl
atom 7.4609245399999997 1.8526219300000000 8.5553314100000009 Na
atom 7.6830486400000000 4.3913878400000002 6.0741873999999996 Na
atom 7.6298203899999999 7.5624807699999996 5.7781682999999999 Cl
atom 7.8131321099999997 10.6754420499999991 8.5565248300000007 Cl
atom 7.7960434100000002 7.4867100500000001 8.5924959100000002 Na
atom 8.0981686699999997 10.3120991100000001 5.7432993300000001 Na
atom 10.5838117900000004 13.1362280600000005 5.6136523699999996 Na
atom 13.2992155000000007 13.2533343899999991 5.5296772699999996 Cl
atom 10.4822849199999997 16.0547092000000013 8.2393996999999999 Na
atom 13.1798406200000002 16.1915541000000012 8.4531460000000003 Cl
atom 13.9087409399999995 13.2563060999999998 8.3102707700000007 Na
atom 10.6942413700000003 13.1319297200000005 8.3785137600000006 Cl
atom 13.1253109600000002 16.1588372400000004 5.7191826800000003 Na
atom 10.4501963000000000 16.1416761400000013 5.8507360899999998 Cl
atom 10.4896881200000003 18.9468864900000007 5.5265408799999998 Na
atom 13.3605789799999997 19.1326971199999996 5.5615247900000000 Cl
atom 10.5143288199999994 21.6544635499999991 8.2234995899999994 Na
atom 13.3381236699999999 21.6835564299999994 8.6189872899999997 Cl
atom 13.4418656500000004 18.9466933799999993 8.3579491699999995 Na
atom 10.5382887000000007 18.8690617600000010 8.1712644799999996 Cl
atom 13.4420988000000001 21.4874868899999996 5.7553723799999998 Na
atom 10.6192835300000006 21.7125835299999999 5.8780478399999998 Cl
atom 10.5427760199999998 24.4470114999999986 5.7613117699999998 Na
atom 13.2872884899999999 24.6066665200000010 5.5199665099999997 Cl
atom 10.5397103699999999 27.3763089300000004 8.2836932700000006 Na
atom 13.3033803400000004 27.6722464600000002 8.6049879399999991 Cl
atom 13.3916674899999997 24.5440119400000007 8.3577947500000001 Na
atom 10.4225141299999997 24.6117102699999997 8.5660067000000009 Cl
atom 13.4120705600000001 27.3305030500000008 5.7406558700000003 Na
atom 10.4350185500000006 27.3566525899999995 5.5143298800000000 Cl
atom 10.5363891600000006 29.9491614400000010 5.5826360099999999 Na
atom 13.3620589899999995 30.3023302000000001 5.6029615300000000 Cl
atom 10.5536903300000002 32.8327746900000008 7.9113704800000004 Na
atom 13.3220024800000001 32.7253485999999967 8.6568225800000000 Cl
atom 13.3319888800000008 29.7810364400000012 8.3894383000000001 Na
atom 10.4952501300000005 30.0868010999999989 8.4533389700000008 Cl
atom 13.3749789099999994 32.6874535700000024 5.8605880600000004 Na
atom 10.5854328199999994 32.9291398499999985 5.9866786200000002 Cl
atom 10.3959399500000007 35.9970361000000025 5.7518715000000000 Na
atom 13.3085245499999996 35.9038792400000020 5.6395704999999996 Cl
atom 10.3819222399999997 38.5190974100000005 8.5140906399999992 Na
atom 13.3003645499999994 38.4858235499999992 8.5898204899999993 Cl
atom 13.1598095900000001 35.8149316900000017 8.3522335400000003 Na
atom 10.5948845400000007 35.7131374399999970 8.5111597999999997 Cl
atom 13.3437094900000002 38.5753773100000004 5.8789837100000000 Na
atom 10.3668307199999994 38.7649845199999987 5.8242170599999996 Cl
atom 10.4230281199999997 2.0046564299999998 5.8700415300000000 Na
atom 13.2854348699999996 2.0246064900000000 5.4607454500000001 Cl
atom 10.5149952899999999 4.6904319399999999 8.2342402999999997 Na
atom 13.3387637800000007 4.7703858099999996 8.6854904800000003 Cl
atom 13.3866555700000003 1.7968436500000000 8.7274387699999991 Na
atom 10.4210035800000007 1.9801295800000001 8.6813052899999992 Cl
atom 13.2938457700000008 4.7676792399999997 5.8558546299999996 Na
atom 10.4420952299999996 4.6875913699999998 6.0138442400000001 Cl
atom 10.4324220200000006 7.5540829000000000 5.6551805300000000 Na
atom 13.1966780900000007 7.6440836699999997 5.6142973800000000 Cl
atom 10.5344261600000006 10.3029723499999992 8.1611030899999992 Na
atom 13.3269214599999994 10.4043447400000009 8.3791634399999992 Cl
atom 13.3650747600000006 7.6798176199999997 8.3068294399999996 Na
atom 10.4954824500000008 7.6268533600000001 8.6896494499999992 Cl
atom 13.3941144600000008 10.4474057400000007 5.5625911700000001 Na
atom 10.6036186299999997 10.2915229000000004 5.4777581099999999 Cl
atom 16.2732336800000006 13.3584454899999994 5.3696994699999996 Na
atom 18.9443428400000009 13.2470143900000004 5.6221497400000002 Cl
atom 16.0830354699999987 15.9129548300000003 8.4969046000000006 Na
atom 19.0701530599999991 16.0868096799999982 8.4462804299999998 Cl
atom 19.1178808599999996 13.2318498600000005 8.3414335299999998 Na
atom 16.0101242200000016 13.1913309699999992 8.2466166699999999 Cl
atom 18.9875056899999990 16.0792414500000014 5.7046616200000004 Na
atom 16.1964108300000014 16.1479546899999988 5.5505406500000003 Cl
atom 16.1705437900000000 18.9536010399999988 5.7860138100000000 Na
atom 18.8482642200000008 18.8500984100000011 5.6100601399999999 Cl
atom 16.1419548900000009 21.7244632300000013 8.3736150499999997 Na
atom 19.0522958399999993 21.8285424699999986 8.3977786999999999 Cl
atom 18.9653524100000013 18.7891256899999988 8.3342436200000005 Na
atom 16.2810781999999996 18.8848451699999984 8.6151361800000004 Cl
atom 18.8876641399999983 21.7727403700000011 6.0922814699999996 Na
atom 16.0016064900000003 21.9316865499999984 5.6506203299999997 Cl
atom 16.0004347799999991 24.6700027900000016 5.6591692599999996 Na
atom 19.0410280100000016 24.7560240799999995 5.3361887000000001 Cl
atom 16.1244658299999983 27.3496938000000007 8.3996686500000006 Na
atom 18.8750909399999998 27.4171737499999999 8.5868267500000002 Cl
atom 18.7796162299999985 24.5655800000000006 8.9140299100000000 Na
atom 15.8305799399999998 24.4624075000000012 8.7107973899999998 Cl
atom 18.9804164499999999 27.4748494399999998 5.8770807100000004 Na
atom 16.2140063900000015 27.3551046100000015 5.7144251800000001 Cl
atom 16.2958460100000018 30.2613987199999990 5.7013091700000000 Na
atom 19.2746201699999986 30.1854646399999993 5.9566835400000002 Cl
atom 16.0973597400000017 32.9412898200000015 8.4919664699999995 Na
atom 19.0097893900000017 33.0087563700000004 8.8690428299999997 Cl
atom 18.9706670799999984 30.2419315399999995 8.3134915300000003 Na
atom 16.1255288599999993 30.1310771399999986 8.4085764100000002 Cl
atom 19.0003396199999983 33.2768113699999972 5.9315205100000004 Na
atom 16.2871793599999997 33.0261390699999993 5.7426968599999997 Cl
atom 16.2085231900000011 35.7884332000000001 5.8671227000000004 Na
atom 19.0470937599999992 35.2988192199999986 5.7427798299999999 Cl
atom 16.0481231599999994 38.7191164199999989 8.4791197900000004 Na
atom 18.9953974499999987 38.5766565500000027 8.7802465499999993 Cl
atom 18.9215210499999991 35.7043736500000009 8.5491560900000003 Na
atom 16.0063801800000007 35.7849530299999969 8.5194046599999993 Cl
atom 19.0660842799999983 38.4938065400000013 5.9850517300000003 Na