#===============================================================================
# Created using the Atomic Simulation Environment (ASE)

# Tue Dec 23 21:42:59 2025

#=======================================================
lattice_vector 28.1999999999999993 0.0000000000000000 0.0000000000000000 
lattice_vector 0.0000000000000000 39.4799999999999969 0.0000000000000000 
lattice_vector 0.0000000000000000 0.0000000000000000 62.3296083400000001 
atom 7.7357491100000004 14.7498732599999993 -0.2306533200000000 Au
atom 10.5335698999999998 14.6993133999999994 0.1380293700000000 Au
atom 13.1949770999999991 14.7297894500000002 -0.2785441100000000 Au
atom 15.9856752899999996 14.7599132100000006 -0.2760103300000000 Au
atom 18.8971081000000005 14.8625364700000002 -0.3517595300000000 Au
atom 21.7353791500000000 14.8914757099999999 -0.1970025000000000 Au
atom 24.4819426299999989 14.7633414399999996 -0.2092564500000000 Au
atom 27.2318243299999985 14.7932404500000008 -0.6476795600000000 Au
atom 1.9020610600000001 14.8317910899999994 -0.4455845800000000 Au
atom 4.7541472799999998 14.9294605399999991 -0.3465362600000000 Au
atom 9.0651325499999995 17.2187509399999996 -0.0763750700000000 Au
atom 11.8168600900000005 17.2632255900000011 -0.0612556200000000 Au
atom 14.6860038799999995 17.2559304599999983 -0.5948055799999999 Au
atom 17.5378594800000016 17.3669921299999999 -0.4367883600000000 Au
atom 20.3799688199999984 17.3050977999999986 -0.1568631800000000 Au
atom 23.1046016499999993 17.3105610200000015 0.1415027200000000 Au
atom 25.8725871100000013 17.1983953900000017 -0.0696674200000000 Au
atom 0.4568689900000000 17.2142041500000005 -0.2659973400000000 Au
atom 3.3951972300000000 17.3642780899999991 -0.4189627800000000 Au
atom 6.2779383600000003 17.2488963899999987 -0.1485660100000000 Au
atom 7.7034572499999996 19.7310035900000003 0.1441176700000000 Au
atom 10.4755230899999994 19.7255412700000008 -0.0949812500000000 Au
atom 13.2551012499999992 19.7691196500000004 -0.1544905200000000 Au
atom 16.0171540499999985 19.8700131700000000 -0.4166297800000000 Au
atom 18.8528843100000003 19.7894803400000008 -0.0753369800000000 Au
atom 21.7329841600000009 19.8264692099999991 -0.0317161700000000 Au
atom 24.6109307500000014 19.7051560099999996 0.3497988800000000 Au
atom 27.3854160799999988 19.7071666400000005 -0.0910504500000000 Au
atom 1.9437933599999999 19.7437177499999983 -0.2322757200000000 Au
atom 4.7941923500000003 19.8068007100000010 -0.0373580200000000 Au
atom 8.9074835100000005 22.2962580099999990 0.0821148100000000 Au
atom 11.7521858899999998 22.3675455399999983 -0.1254010700000000 Au
atom 14.5139418700000000 22.2953858899999986 0.0177445700000000 Au
atom 17.3406844500000012 22.3557332299999985 -0.1690988100000000 Au
atom 20.0483251699999983 22.2663033400000003 0.2194289800000000 Au
atom 23.0757702699999996 22.1896661199999983 0.1220074500000000 Au
atom 25.9011008300000007 22.2060818399999995 0.1450419800000000 Au
atom 0.5471068400000000 22.2842259399999989 -0.2683319600000000 Au
atom 3.3101803699999999 22.0716985600000015 0.0109664500000000 Au
atom 6.2234781300000002 22.2496682700000008 -0.0698755000000000 Au
atom 7.3980386700000000 24.7262257500000011 0.2729347900000000 Au
atom 10.1946012400000008 24.7785445700000011 -0.1225398300000000 Au
atom 13.0469735199999999 24.7400568199999995 0.3119292300000000 Au
atom 15.7678788799999996 24.7241908300000013 0.1319974800000000 Au
atom 18.7363278800000010 24.7291772899999991 0.0705644600000000 Au
atom 21.6565142000000002 24.8038394300000000 0.0040419400000000 Au
atom 24.4322920199999984 24.6065170299999991 -0.0617497600000000 Au
atom 27.2847445600000000 24.6812458300000017 0.0119067800000000 Au
atom 1.9113140399999999 24.7381765599999994 0.1405769200000000 Au
atom 4.5484711300000003 24.7465578300000004 -0.1105179600000000 Au
atom 8.8466283200000007 27.2401017900000006 0.0921518900000000 Au
atom 11.6304622700000007 27.2279893400000006 0.1082067500000000 Au
atom 14.4045674600000009 27.2533904100000015 0.0444726300000000 Au
atom 17.2194954600000010 27.1667520600000003 0.0503192000000000 Au
atom 20.1718199100000000 27.2149007800000007 -0.0063675100000000 Au
atom 23.0422083700000009 27.2310763599999994 -0.1293842300000000 Au
atom 25.8501875400000003 27.0155671300000009 -0.1065220300000000 Au
atom 0.5212627200000000 27.1837349300000000 -0.1054933600000000 Au
atom 3.2796088800000001 27.2049921700000006 -0.1149150700000000 Au
atom 6.1191000500000001 27.1471524700000018 -0.0468362500000000 Au
atom 7.4835233399999996 29.6696092000000000 -0.1619434800000000 Au
atom 10.2886524700000006 29.6723521499999983 0.0673478000000000 Au
atom 13.0760280899999994 29.6831457800000003 -0.0128854500000000 Au
atom 15.9421210799999997 29.6548751800000012 0.0537933800000000 Au
atom 18.7345648699999998 29.6742938400000007 -0.1406862600000000 Au
atom 21.6555894799999997 29.5663349400000008 -0.4538791000000000 Au
atom 24.4886448600000008 29.6662224700000010 -0.3828916400000000 Au
atom 27.2522260299999992 29.5029222599999983 -0.1648409500000000 Au
atom 1.8424962899999999 29.6559208400000003 0.3548851100000000 Au
atom 4.6360221599999996 29.5908380800000010 -0.1512586100000000 Au
atom 8.8953865000000008 32.0989554299999966 0.0431020900000000 Au
atom 11.7420312700000000 32.1311974300000003 -0.0450517200000000 Au
atom 14.6031290499999997 32.1265964500000010 0.1242464200000000 Au
atom 17.4502911900000015 32.1412297500000008 0.0251306300000000 Au
atom 20.2224845400000000 32.0301642900000019 -0.1640479000000000 Au
atom 23.0243400899999990 32.0832577099999980 -0.2683442000000000 Au
atom 25.8804195700000008 32.0804617100000016 -0.2203696200000000 Au
atom 0.3501246900000000 32.0867786100000032 0.0709971400000000 Au
atom 3.3193188299999998 32.0771501099999981 0.0103177700000000 Au
atom 6.0603504099999999 32.0982358400000010 -0.1400426900000000 Au
atom 7.6118829999999997 34.6115700499999974 -0.0672392200000000 Au
atom 10.3176935499999995 34.6074589300000000 0.2240278800000000 Au
atom 13.2220790800000003 34.5430560499999970 0.1476802100000000 Au
atom 16.0116777699999986 34.6057272600000019 0.3257998400000000 Au
atom 18.8322954100000004 34.6137553200000028 0.0345599800000000 Au
atom 21.6322937300000007 34.5184266099999988 0.0926874700000000 Au
atom 24.4858488899999998 34.5857550200000006 0.0325902200000000 Au
atom 27.1877718900000005 34.6385946099999984 0.0812274000000000 Au
atom 1.8636653500000000 34.5558372400000025 0.0215745100000000 Au
atom 4.7348000499999996 34.6133137500000032 0.1376388600000000 Au
atom 8.9267919599999992 37.1626579899999996 0.2202032800000000 Au
atom 11.8469860300000001 37.0779767699999994 0.1919580500000000 Au
atom 14.6221157999999996 37.0383687799999990 0.0916459800000000 Au
atom 17.3986568699999999 37.0110413900000026 -0.1213331100000000 Au
atom 20.2154798000000007 37.0546907800000014 0.1633589900000000 Au
atom 23.0066735400000013 37.0208800500000024 0.2560065200000000 Au
atom 25.8412003000000006 37.0635857099999981 0.1785235100000000 Au
atom 0.4431243000000000 36.9805755699999992 0.4697380300000000 Au
atom 3.3662936499999998 37.0394546899999995 0.3293913900000000 Au
atom 6.1611972100000001 37.0638307099999977 -0.0351567500000000 Au
atom 7.4268865200000000 0.0638341500000000 0.4595243100000000 Au
atom 10.3456705400000004 -0.0105248900000000 0.1809219500000000 Au
atom 13.1684500000000000 0.0582759700000000 0.0792065100000000 Au
atom 16.1353277000000013 -0.0213619100000000 0.1481611900000000 Au
atom 18.8083638099999995 -0.0654676500000000 0.1304631100000000 Au
atom 21.6814514900000006 0.0503934100000000 0.0848909300000000 Au
atom 24.4718500399999996 -0.0540337300000000 0.0103248500000000 Au
atom 27.2415903499999992 0.0197865700000000 0.2437186000000000 Au
atom 1.8312190699999999 -0.0875810100000000 0.3585592400000000 Au
atom 4.6848269199999999 0.0409313000000000 0.2153581100000000 Au
atom 8.8153554900000000 2.5111132800000000 0.3366517900000000 Au
atom 11.7195910399999992 2.4644296300000001 0.3468665000000000 Au
atom 14.5306460899999994 2.4455321200000002 0.3124459600000000 Au
atom 17.3861308100000009 2.5157704700000001 0.5413751600000000 Au
atom 20.1648378800000003 2.4783811999999998 0.1545276500000000 Au
atom 23.0223049599999996 2.5889308000000000 0.0688067500000000 Au
atom 25.9010542199999989 2.4622860300000000 0.1457279100000000 Au
atom 0.4673477700000000 2.3879545599999998 0.3173453700000000 Au
atom 3.3104215899999998 2.5093342500000002 0.1262092000000000 Au
atom 6.0575534600000003 2.4817557600000000 0.6463077900000000 Au
atom 7.4136021100000002 4.9823852500000001 0.2994673100000000 Au
atom 10.1920472199999992 4.8952815799999998 0.3273880500000000 Au
atom 13.0850448400000001 4.8762169499999999 0.4996189700000000 Au
atom 15.8481503400000001 4.8413977499999996 0.3589226100000000 Au
atom 18.7206650299999993 4.8872037500000003 0.1738178200000000 Au
atom 21.5481756199999985 4.9494153299999999 0.1527250500000000 Au
atom 24.4490217500000000 4.9639170500000001 0.0383530300000000 Au
atom 27.2849595700000016 4.9141673800000003 0.3409752400000000 Au
atom 1.9791024600000000 4.9681653499999996 0.2117050600000000 Au
atom 4.6866320200000002 4.9609968699999998 0.3655742500000000 Au
atom 8.8877708099999992 7.4243382400000000 0.3117930300000000 Au
atom 11.6852786900000005 7.3455925000000004 0.4780536900000000 Au
atom 14.5225300900000001 7.2862046700000000 0.2830041500000000 Au
atom 17.4195133700000007 7.3608148499999997 0.3050426800000000 Au
atom 20.1750147499999990 7.2580271099999996 0.1818435200000000 Au
atom 23.0017469400000003 7.3057214300000002 -0.1585722600000000 Au
atom 25.8271817699999993 7.3691681000000004 -0.1386504600000000 Au
atom 0.3809539300000000 7.3240424500000003 0.0091201000000000 Au
atom 3.3122388800000002 7.3787588199999998 0.2027883800000000 Au
atom 6.1437900000000001 7.4714839199999998 0.2497745900000000 Au
atom 7.5197411199999999 9.9472685199999997 0.2417954300000000 Au
atom 10.3577415800000008 9.8561341200000001 0.1930846800000000 Au
atom 13.1589328000000005 9.7699606499999998 0.2261668600000000 Au
atom 15.9919165700000008 9.6622831399999995 -0.1999016400000000 Au
atom 18.8458532000000005 9.7850029900000006 -0.0138198300000000 Au
atom 21.6200164999999984 9.7893181200000008 0.0776574400000000 Au
atom 24.3419391900000015 9.8372286300000003 -0.1956056800000000 Au
atom 27.2307176899999988 9.9003070900000001 -0.3254205300000000 Au
atom 1.9425592700000001 9.8102075299999996 -0.4908697000000000 Au
atom 4.7093155800000002 9.8689412599999997 -0.2303177300000000 Au
atom 9.0571367400000007 12.2849796199999997 -0.1472234900000000 Au
atom 11.8485011000000000 12.2299776399999995 0.0317067300000000 Au
atom 14.5222076999999992 12.2086483200000000 -0.2434723600000000 Au
atom 17.3479208800000002 12.1967269399999996 -0.2020903600000000 Au
atom 20.2018208799999996 12.2773581299999996 -0.3274546600000000 Au
atom 22.9990659599999994 12.3195853000000000 -0.4359153600000000 Au
atom 25.7732043600000011 12.2666962000000002 -0.5971622200000000 Au
atom 0.4735271000000000 12.3481108200000005 -0.6241628100000000 Au
atom 3.2821438600000001 12.3874957600000002 -0.3767496500000000 Au
atom 6.1923465999999996 12.3352765600000005 -0.0480659400000000 Au
atom 7.6109262099999997 13.1832980400000004 2.3398347799999999 Au
atom 10.5242788600000008 13.2082514700000004 2.6890960300000000 Au
atom 13.3337762099999999 13.2156545600000008 2.4806390299999999 Au
atom 16.0028313699999991 13.2455024600000009 2.4057893899999998 Au
atom 18.7915696499999996 13.1211297400000007 2.3399079199999999 Au
atom 21.6125406499999997 13.2331051899999999 2.3009494400000001 Au
atom 24.4434081600000006 13.1065454199999998 2.1768292400000000 Au
atom 27.1627703700000005 13.2532772199999993 1.8819211000000000 Au
atom 1.7774489899999999 13.3047282300000003 2.1875521000000000 Au
atom 4.6731788900000000 13.1768699199999997 2.3699284299999999 Au
atom 9.0293258400000003 15.6643588499999993 2.5860619499999999 Au
atom 11.8914651899999999 15.6821526900000006 2.5784426900000001 Au
atom 14.6164079099999995 15.7602908599999996 2.2840600000000002 Au
atom 17.3695149700000009 15.6936426699999991 2.2303545699999998 Au
atom 20.1369507900000002 15.5730008299999998 2.4831017300000000 Au
atom 23.0517426699999994 15.5733862100000007 2.5364194300000000 Au
atom 25.8916068700000004 15.7174279299999995 2.4042133200000002 Au
atom 0.4081667200000000 15.7795330099999997 2.2589839199999999 Au
atom 3.2122245700000001 15.8036803799999994 2.2349171299999999 Au
atom 6.1216658800000001 15.5968952299999994 2.3436094399999998 Au
atom 7.5694049699999999 18.0137725700000004 2.7180029399999999 Au
atom 10.3825253100000001 18.1657958700000002 2.2980439800000001 Au
atom 13.2966996799999997 18.1164299500000006 2.3652074700000001 Au
atom 15.9946424000000000 18.1550137099999986 1.9594149599999999 Au
atom 18.8238681399999983 18.0742219800000008 2.3520454300000000 Au
atom 21.6316035299999996 18.1144079799999993 2.6455692700000002 Au
atom 24.4907323000000012 18.1057904000000001 2.7960854700000000 Au
atom 27.2541071700000010 18.2424242099999994 2.3733843700000001 Au
atom 1.8744629900000001 18.2097197599999987 2.3979828400000001 Au
atom 4.6585269000000000 18.1968577700000012 2.3729076299999998 Au
atom 8.9736472700000007 20.6359613599999996 2.7032365700000001 Au
atom 11.8339643799999994 20.5452930599999988 2.4138612799999999 Au
atom 14.6897022400000008 20.5336773800000003 2.6429785099999998 Au
atom 17.4538596300000002 20.5372597900000002 2.3531906800000000 Au
atom 20.2364156199999989 20.5342755500000003 2.7188487499999998 Au
atom 23.0566658400000009 20.6246688800000015 2.6910771800000002 Au
atom 25.9154084500000010 20.6391565700000008 2.9363291600000001 Au
atom 0.4927470000000000 20.6807696900000018 2.3709331800000002 Au
atom 3.3110116900000000 20.6127007099999986 2.7100651600000001 Au
atom 6.1286788200000002 20.5771254299999988 2.5860743199999998 Au
atom 7.5980187199999998 23.0421062799999987 2.8676629299999998 Au
atom 10.3906764799999998 23.0976459500000004 2.5148062900000001 Au
atom 13.1902524400000001 22.9871760599999995 2.8545602799999998 Au
atom 15.9971057900000009 23.0257183300000001 2.6527683600000000 Au
atom 18.7539219400000015 23.0948229400000002 2.7703598000000000 Au
atom 21.6932760100000017 23.0015853999999997 2.7612554999999999 Au
atom 24.4799040699999999 23.1728032900000009 2.5704100099999998 Au
atom 27.2804998699999999 23.0844080299999987 2.5303750100000002 Au
atom 1.8996267800000000 23.0338085399999990 2.5377410899999999 Au
atom 4.7456794699999998 23.1376337300000010 2.3543915900000001 Au
atom 8.9159483999999996 25.6089327699999991 2.6933780100000000 Au
atom 11.5709311499999998 25.5226301100000015 2.7539631500000001 Au
atom 14.4396360300000008 25.5683659600000013 2.9220508199999999 Au
atom 17.2889716299999989 25.4660981799999995 2.7618483899999999 Au
atom 20.1739347199999983 25.4966509399999985 2.5908278999999999 Au
atom 23.0252516100000015 25.5845507000000012 2.4517109399999999 Au
atom 25.8401064799999993 25.5546972100000005 2.6980940400000000 Au
atom 0.4157697100000000 25.6013849600000007 2.6597980099999998 Au
atom 3.2536600500000001 25.6033620900000010 2.7620379800000001 Au
atom 6.0339664300000004 25.6342689300000011 2.6040941399999999 Au
atom 7.4391594899999998 27.9151518000000003 2.4478157500000002 Au
atom 10.2437128600000005 28.1320304999999991 2.8083742400000000 Au
atom 12.9923099200000003 28.0015469199999991 2.4848990500000001 Au
atom 15.9045624599999993 28.0696328699999995 2.9611149299999999 Au
atom 18.7302977499999983 27.9740801800000014 2.5383632600000001 Au
atom 21.6208841999999990 27.9574414299999994 2.5090641499999999 Au
atom 24.4460497799999992 27.9988332299999989 2.3604509700000000 Au
atom 27.1762397500000006 28.0482361599999983 2.5922992800000002 Au
atom 1.7817376700000001 27.9890859700000014 2.7163542899999999 Au
atom 4.6606262899999997 28.0725836099999988 2.5721100200000002 Au
atom 8.7992021000000005 30.4552503799999990 2.7725328000000000 Au
atom 11.6495246699999999 30.4960524399999997 2.8142554500000001 Au
atom 14.5659270500000009 30.4427241399999993 2.5295861600000000 Au
atom 17.4591966700000008 30.5366560699999994 2.6335489100000000 Au
atom 20.1970806699999983 30.3826434799999987 2.4406607800000000 Au
atom 23.0153778399999993 30.5000771200000003 2.1069099400000000 Au
atom 25.8203526200000013 30.5672908399999983 2.2177060599999998 Au
atom 0.4247719500000000 30.4553408800000014 2.8007242300000001 Au
atom 3.3376379799999998 30.4353603399999990 2.8228314100000000 Au
atom 6.0839518300000002 30.6213673899999996 2.4610324200000000 Au
atom 7.4934234799999997 33.0002542699999992 2.5888613600000001 Au
atom 10.2819944799999998 33.0071915899999979 2.6387077799999998 Au
atom 13.1320409900000001 32.8413410499999969 2.7316954299999998 Au
atom 16.0652426999999989 32.8803534600000020 2.8259197399999998 Au
atom 18.9288893499999986 32.9259344399999989 2.6071273800000001 Au
atom 21.6565833400000010 32.9061099400000003 2.6636306200000002 Au
atom 24.4424601099999990 32.9095698699999986 2.5816714900000002 Au
atom 27.1937213699999987 32.8973530800000020 2.5559997200000000 Au
atom 1.9074728800000000 32.8218570299999968 2.5225466700000001 Au
atom 4.6550165500000000 32.9505132800000027 2.6460098599999999 Au
atom 8.9252482600000000 35.4132876800000034 3.0137941600000002 Au
atom 11.8551147500000003 35.3651845799999975 2.8415752900000002 Au
atom 14.7391836000000005 35.3450623399999984 2.8437887399999999 Au
atom 17.5502822499999986 35.4074681900000030 2.7219876500000000 Au
atom 20.3396883700000011 35.3581985399999965 2.6412156000000002 Au
atom 23.1123546100000006 35.2736569400000022 2.6988044699999998 Au
atom 25.8599876199999983 35.3230798800000017 2.7777521699999999 Au
atom 0.3996129600000000 35.2671953600000023 2.7805487900000001 Au
atom 3.2718499900000002 35.3287342599999974 2.6646401100000001 Au
atom 6.1739330099999998 35.5002582899999979 2.4062186900000002 Au
atom 7.5907216799999997 37.8596922699999965 2.9701813399999999 Au
atom 10.4471087399999991 37.7640314399999966 2.8231158299999999 Au
atom 13.2727605400000002 37.7838072099999991 2.6264951700000001 Au
atom 16.1740686400000016 37.8739554499999969 2.6513430800000002 Au
atom 18.9733515600000011 37.8361772399999978 2.7123955000000000 Au
atom 21.7519500199999989 37.7633050299999979 2.8410186600000000 Au
atom 24.5217253699999986 37.8696841100000015 2.7352541100000001 Au
atom 27.2972081499999994 37.8090441200000029 3.0016055499999998 Au
atom 1.9934383300000000 37.7994589899999980 3.0750895499999999 Au
atom 4.7068391900000002 37.8902961699999992 2.7799174700000000 Au
atom 9.0565240300000003 0.8322019800000000 2.8334232300000002 Au
atom 11.7859622799999997 0.7924172400000000 2.7108964300000000 Au
atom 14.6246315399999993 0.8158246400000000 2.7159274299999998 Au
atom 17.4948569300000010 0.7835363200000000 2.8786214000000001 Au
atom 20.3208661200000016 0.8558295700000000 2.7757282700000001 Au
atom 23.1136980100000002 0.8045344500000000 2.5953984900000000 Au
atom 25.9434531200000009 0.9482938000000000 2.6735570100000001 Au
atom 0.5663626899999999 0.8598476800000000 2.9145676400000000 Au
atom 3.3174491499999998 0.8121571500000000 2.8004040300000002 Au
atom 6.1340490799999996 0.8608460100000001 3.2958268500000001 Au
atom 7.5701331600000001 3.3079855399999998 3.0175088500000000 Au
atom 10.4133414999999996 3.3296023600000000 3.0548801000000001 Au
atom 13.2832006299999996 3.2923911399999999 2.9094241799999998 Au
atom 16.0798210499999996 3.2784532899999999 2.8928305999999999 Au
atom 18.9500731800000004 3.3239821200000002 3.0244128500000000 Au
atom 21.7434235600000001 3.2530516000000000 2.7036212300000000 Au
atom 24.5269761899999992 3.3083491100000000 2.6119461400000001 Au
atom 27.3986370199999989 3.4553025200000000 2.9383303800000000 Au
atom 1.9508251200000000 3.3266379900000000 2.7534357900000002 Au
atom 4.5959205100000000 3.3302377100000000 2.9745016000000000 Au
atom 8.9600536200000001 5.7882873600000000 2.9138642699999999 Au
atom 11.8244981700000000 5.7378965700000002 3.0391758599999998 Au
atom 14.6556689900000006 5.7975473500000003 3.1438044900000000 Au
atom 17.4538277899999983 5.7666844499999996 2.7806063200000000 Au
atom 20.2480023799999991 5.7050708099999996 2.7552165400000002 Au
atom 22.9904443600000015 5.7238601200000003 2.6719518000000000 Au
atom 25.8100925500000002 5.8639162599999999 2.7348370599999998 Au
atom 0.5529106300000000 5.8768502600000003 2.8755166200000000 Au
atom 3.3467103400000000 5.8819995299999999 2.8899989599999998 Au
atom 6.1619706100000000 5.8631964099999996 2.8646439099999998 Au
atom 7.5411966599999998 8.4013686799999991 2.9470937199999998 Au
atom 10.3722224599999997 8.2715101200000003 2.9371773700000001 Au
atom 13.2320641600000002 8.2956722299999992 2.9252528899999999 Au
atom 16.0231592499999991 8.2493490000000005 2.7282853299999998 Au
atom 18.7912931800000003 8.2486394099999991 2.9435023899999999 Au
atom 21.6176241599999983 8.1996314300000002 2.6436289700000000 Au
atom 24.4193480200000010 8.2209876099999999 2.4654199700000001 Au
atom 27.2184748399999989 8.3551053199999998 2.4394863500000001 Au
atom 1.7606050099999999 8.4049357499999999 2.4761753400000002 Au
atom 4.7262429199999998 8.3700602699999997 2.7804704700000000 Au
atom 8.9992572299999996 10.7844594800000007 2.7670744400000000 Au
atom 11.8409253600000000 10.8058455500000008 2.7675166800000000 Au
atom 14.6447783900000008 10.7336906800000005 2.7308031399999999 Au
atom 17.3248847400000017 10.7163357700000006 2.3826056599999998 Au
atom 20.1568571600000013 10.7747704399999993 2.6769911899999999 Au
atom 22.9621664199999991 10.6777938700000004 2.3861547000000001 Au
atom 25.7817903400000006 10.7033688599999994 2.2853682100000001 Au
atom 0.4338674600000000 10.8025474599999995 2.0692624500000001 Au
atom 3.2489858900000002 10.8228185999999997 2.1295305700000000 Au
atom 6.0440780600000004 10.7644398500000005 2.6365469899999998 Au
atom 7.3783713300000002 12.9679415400000000 5.5829995700000001 Cl
atom 7.2278048699999999 15.7547969099999996 8.4777366799999996 Cl
atom 7.3537040600000001 12.9982204100000001 8.1814880100000007 Na
atom 7.1958296800000001 15.7905202500000001 5.6462861599999998 Na
atom 7.2599490500000003 18.4686206700000000 5.6941761399999997 Cl
atom 7.2133514500000002 21.5078277900000003 8.7244822899999992 Cl
atom 7.2941665000000002 18.3790914000000001 8.2468710800000000 Na
atom 7.2403921499999999 21.4623182499999992 5.8852796800000000 Na
atom 7.2992034200000004 24.1971552999999986 5.9703259199999996 Cl
atom 7.1790762299999997 27.2577595099999996 8.6518970900000003 Cl
atom 7.1873574900000001 24.4695029800000015 8.6252118000000007 Na
atom 7.3315141600000002 27.0770651200000003 5.9140018200000002 Na
atom 7.1571101700000002 30.1997567999999994 5.8848520899999999 Cl
atom 7.2562585500000001 32.9266298499999976 8.7276923699999998 Cl
atom 7.1641162400000002 29.9961356399999985 8.4867056800000000 Na
atom 7.3131172700000002 32.9849292600000012 6.0084449199999996 Na
atom 7.1704424099999997 35.8541395199999968 5.9193185000000001 Cl
atom 7.1457904000000001 38.5627356700000021 8.8895828100000003 Cl
atom 7.2156209300000000 35.7037638600000022 8.5035363999999998 Na
atom 7.2643389400000000 38.6428951999999981 6.1686261000000000 Na
atom 7.1206608400000002 1.8880942300000001 5.9320603500000004 Cl
atom 7.0927413399999999 4.7036518999999997 9.0045650699999999 Cl
atom 7.1626008900000002 1.9247366100000001 8.9188664699999993 Na
atom 7.0684213500000004 4.4816620000000000 6.2219166299999999 Na
atom 7.3085683299999999 7.2517479399999996 5.8066085699999999 Cl
atom 7.0886836100000004 10.3279437299999994 8.5032008099999992 Cl
atom 7.2738123999999997 7.5673194199999996 8.4436851900000001 Na
atom 7.2536194199999997 10.1895285900000001 5.6742900799999996 Na
atom 10.2529524900000002 12.8976555099999999 5.8586076599999997 Na
atom 12.9639683199999993 13.0447998399999996 5.7314955599999999 Cl
atom 10.1921829499999994 15.9723763499999993 8.1076786799999994 Na
atom 12.9531551599999997 15.9621034000000002 8.3105715599999996 Cl
atom 13.0998591100000006 13.0966570699999991 8.4653824199999992 Na
atom 10.0504390600000004 13.0829260499999993 8.5679987900000008 Cl
atom 12.9633397499999994 15.8847319700000007 5.5426960300000001 Na
atom 10.0929379200000007 15.7131697300000006 5.4837525200000004 Cl
atom 9.9714657199999994 18.6458691600000002 5.5069989100000001 Na
atom 12.8706203800000001 18.7602216000000013 5.5260615199999998 Cl
atom 9.9742943200000003 21.6864820300000005 8.5017122300000008 Na
atom 12.9840293500000001 21.4086240399999994 8.5999999200000001 Cl
atom 12.8793131499999998 18.6957371899999991 8.1230832799999995 Na
atom 9.9858961700000002 18.6875606699999999 8.3102807700000003 Cl
atom 12.8662942000000005 21.5029545400000011 5.7961877499999996 Na
atom 10.1381284500000000 21.6179653400000014 5.9414513800000002 Cl
atom 9.9881378999999999 24.2650359800000004 6.0175832800000002 Na
atom 12.6730210499999991 24.3315392000000017 5.9429506099999996 Cl
atom 10.0991058700000007 27.0906142299999999 8.6143700899999995 Na
atom 12.7721729199999992 27.1968265900000006 8.6077562299999997 Cl
atom 12.9617122600000005 24.3499517400000016 8.4192745700000007 Na
atom 9.9247404499999998 24.3597323800000005 8.7487934099999993 Cl
atom 12.8709090899999996 27.1988915400000018 5.8771735800000000 Na
atom 10.0805760400000004 27.2677809499999988 5.9677547600000000 Cl
atom 10.0808356600000000 30.0601086899999999 5.9838261299999997 Na
atom 12.7921240899999997 30.1873065999999994 5.8159096799999999 Cl
atom 9.9648086399999993 32.7935601499999976 8.5734690600000008 Na
atom 12.7341025499999994 32.8148937899999993 8.7071581699999996 Cl
atom 12.8338240900000002 29.9242402799999994 8.6617090599999997 Na
atom 9.9364490100000005 29.9822210399999989 8.7651051700000000 Cl
atom 12.7650773700000002 32.9178437699999975 5.9911504300000002 Na
atom 10.1110399799999993 32.7938724099999988 6.0289118100000003 Cl
atom 10.1220266599999995 35.6569900100000012 6.0621756800000002 Na
atom 12.7913589000000005 35.4936809499999981 6.0113501700000000 Cl
atom 10.1234198099999997 38.5515692800000025 8.6225552099999998 Na
atom 12.9277675900000002 38.3705380600000012 8.6686194299999997 Cl
atom 12.8000056699999991 35.4953399899999980 8.6408682500000005 Na
atom 10.0247607199999997 35.5348826500000001 8.7764840500000005 Cl
atom 12.8355880300000003 38.3068710800000005 5.9608778899999999 Na
atom 10.1146877800000006 38.5083023600000018 5.9229432900000001 Cl
atom 9.9560866099999998 1.8614462199999999 6.1207256299999999 Na
atom 12.8048538799999996 1.7234119800000001 6.0875124300000003 Cl
atom 10.0827180599999995 4.7351545300000000 8.6364078699999993 Na
atom 12.8890990300000006 4.6301000500000002 8.8586508599999991 Cl
atom 12.7841146999999999 1.6698171399999999 8.6748576400000008 Na
atom 9.8970917200000006 1.7923863099999999 8.9226632600000002 Cl
atom 13.0502880599999997 4.5775532700000001 6.0084039899999997 Na
atom 9.9778992500000001 4.4703639099999997 6.0381943099999997 Cl
atom 10.0150194100000007 7.3700969100000000 5.9943785399999996 Na
atom 12.7171912599999999 7.2980975499999996 5.9488861200000001 Cl
atom 9.9282223199999997 10.3104435300000006 8.4869227499999997 Na
atom 13.0457980500000001 10.1552056799999999 8.6790263599999999 Cl
atom 12.9153134999999999 7.3802198700000003 8.6028252399999996 Na
atom 10.0982383299999992 7.6164286600000004 8.6723035900000003 Cl
atom 12.7982469200000004 10.1514601599999992 5.9847746800000001 Na
atom 10.0779111199999996 10.2246791800000008 5.8837109600000002 Cl
atom 15.8110035100000008 12.9994556200000009 5.7244288499999998 Na
atom 18.4936650000000000 13.0839028600000002 5.6060548600000004 Cl
atom 15.6401932000000006 15.9502502800000006 8.0816073599999996 Na
atom 18.6727402200000014 15.9356356500000000 8.5100594100000002 Cl
atom 18.7773194299999986 13.1664020100000005 8.2031974200000004 Na
atom 15.9546427499999997 13.1395051100000000 8.3896171000000006 Cl
atom 18.5017610499999989 15.8287750799999998 5.5523929900000004 Na
atom 15.8646428299999993 16.1193256500000004 5.5352034100000003 Cl
atom 15.6015077699999996 18.7694138499999994 5.4681357200000003 Na
atom 18.4573008899999991 18.6805595699999998 5.5551051300000003 Cl
atom 15.7788458600000006 21.5417601400000009 8.1569324299999995 Na
atom 18.5268779099999996 21.5274424800000013 8.5158667300000008 Cl
atom 18.5462526600000004 18.6927916200000013 8.2169364300000005 Na
atom 15.7621595400000007 18.7021846899999993 8.3245852500000002 Cl
atom 18.6072389200000003 21.4936760100000015 5.6489206100000002 Na
atom 15.7000723200000003 21.4940633699999992 5.4367374999999996 Cl
atom 15.6372017000000003 24.3765177500000014 5.7337229599999997 Na
atom 18.4416207099999987 24.1732509700000016 5.6241418699999999 Cl
atom 15.8222439300000008 27.1911019699999983 8.6721727000000008 Na
atom 18.6387608100000008 26.9982207299999999 8.4594792900000009 Cl
atom 18.5167766699999987 24.2486930899999997 8.2912805899999995 Na
atom 15.6388254300000007 24.3416528399999983 8.4534709400000008 Cl
atom 18.3704965199999997 27.1567562799999997 5.8063069199999999 Na
atom 15.5675528399999994 27.3158164899999996 5.9409775700000003 Cl
atom 15.7011664000000000 30.1692690699999986 6.0339057800000004 Na
atom 18.6403388800000016 29.9804858600000017 5.7700010800000001 Cl
atom 15.7492929400000001 32.7353609099999971 8.5256877000000006 Na
atom 18.6416350800000004 32.7365444100000005 8.6558843000000003 Cl
atom 18.6086134700000017 29.9307399499999995 8.3824116899999996 Na
atom 15.7335667000000008 30.0126288300000006 8.9046956700000006 Cl
atom 18.3848004600000010 32.7752940700000011 5.8259100000000004 Na
atom 15.5954042099999999 32.8553075100000029 5.7666838599999997 Cl
atom 15.5538109099999993 35.5966809199999972 6.0622973900000003 Na
atom 18.4495835300000017 35.6969220900000010 5.9135367299999997 Cl
atom 15.5858437599999995 38.3648331999999996 8.5820141200000002 Na
atom 18.6042420799999988 38.5087994499999979 8.7563318599999995 Cl
atom 18.5414107900000005 35.7299192700000035 8.7138520100000001 Na
atom 15.7194838099999998 35.4141662299999993 8.7767795300000007 Cl
atom 18.5227723100000006 38.4680320499999979 6.0383039600000004 Na