#===============================================================================
# Created using the Atomic Simulation Environment (ASE)

# Tue Dec 23 22:26:53 2025

#=======================================================
lattice_vector 28.1999999999999993 0.0000000000000000 0.0000000000000000 
lattice_vector 0.0000000000000000 39.4799999999999969 0.0000000000000000 
lattice_vector 0.0000000000000000 0.0000000000000000 62.3296083400000001 
atom 7.6220012800000001 14.7398742899999995 -0.0222687800000000 Au
atom 10.1900123499999999 14.8545825399999991 0.0284075000000000 Au
atom 13.1367767799999999 14.9003924399999992 -0.0274153700000000 Au
atom 16.0444456200000012 14.7447231500000004 -0.0483581100000000 Au
atom 18.6672185400000004 14.8332640199999997 -0.0560897100000000 Au
atom 21.6224787700000007 14.8749431399999992 0.1242340400000000 Au
atom 24.2443440199999998 14.8726059100000008 -0.0451510000000000 Au
atom 27.2549284599999986 14.8570494300000000 0.0626021600000000 Au
atom 2.0416187300000002 14.7961229000000003 -0.0692890800000000 Au
atom 4.5062834000000001 14.7599722000000000 0.1249771200000000 Au
atom 8.8083697300000008 17.5743958999999990 0.0841259500000000 Au
atom 11.6100578999999993 17.3038749100000011 0.1983675300000000 Au
atom 14.6819810999999998 17.1836575200000006 -0.0821539200000000 Au
atom 17.5706395800000017 17.3334750399999997 -0.0302878300000000 Au
atom 20.3364957900000007 17.3072593200000000 0.2715002000000000 Au
atom 22.9968019599999991 17.2695799399999999 0.1908200600000000 Au
atom 25.6769154499999992 17.2276692900000015 0.1225593700000000 Au
atom 0.5307968700000000 17.4208726600000006 0.0576041500000000 Au
atom 3.1643399799999998 17.3545773799999985 0.0996408700000000 Au
atom 6.1277513199999998 17.3400243299999985 -0.1455291100000000 Au
atom 7.3550113200000000 19.7356312500000008 0.1292314000000000 Au
atom 10.3900643200000005 19.7990772700000015 -0.0670066700000000 Au
atom 13.1246760400000007 19.8777584699999998 0.0751351300000000 Au
atom 15.7806198000000002 19.7521060400000010 0.0989165200000000 Au
atom 18.9731166699999996 19.7600104399999985 0.0494264400000000 Au
atom 21.5527051699999994 19.9419328900000004 0.1819083700000000 Au
atom 24.5626782400000003 19.6847194300000012 0.1878859000000000 Au
atom 27.0636106000000005 19.7801896799999994 0.0230298700000000 Au
atom 1.8713899400000000 19.7614659800000005 0.0426420400000000 Au
atom 4.5380307799999997 19.7442508900000000 0.1477410800000000 Au
atom 8.9233758400000003 22.1727176200000002 0.0060044100000000 Au
atom 11.7557060999999994 22.0944868600000000 0.1010622000000000 Au
atom 14.6325849800000007 22.2741804499999994 0.0589308200000000 Au
atom 17.3771243999999996 22.4929037899999997 0.1553856700000000 Au
atom 20.2260036399999983 22.1704196099999997 -0.0572528500000000 Au
atom 22.9093079999999993 22.3193580300000001 0.0928386500000000 Au
atom 26.0562836599999983 22.1215794599999995 0.2647859600000000 Au
atom 0.5063521600000001 22.2280201899999987 0.2571052500000000 Au
atom 3.0569123299999998 22.2840182999999996 -0.0430249600000000 Au
atom 6.1766024200000000 22.1882598000000009 0.1343125300000000 Au
atom 7.5756857999999996 24.6646576800000012 0.0566481700000000 Au
atom 10.3872648999999999 24.8574499799999984 0.1007546700000000 Au
atom 12.9450533300000004 24.8827871199999997 0.2218890900000000 Au
atom 15.8614835999999997 24.7160556299999996 0.1147089400000000 Au
atom 18.8051021499999997 24.6499316200000003 0.2234927900000000 Au
atom 21.4129916199999997 24.6726094600000003 -0.0410731100000000 Au
atom 24.4866148800000012 24.6115911099999991 -0.0733377500000000 Au
atom 27.4027884600000000 24.7654415599999993 0.1051009500000000 Au
atom 1.6541613799999999 24.7580633299999988 0.0983571500000000 Au
atom 4.5536163299999997 24.5643282899999988 0.2269660000000000 Au
atom 8.8517667400000004 27.1442295599999994 0.0792333000000000 Au
atom 11.7804433700000004 27.3022235400000000 0.1723456700000000 Au
atom 14.6317344499999997 27.2342666700000002 0.0423535400000000 Au
atom 17.3363897999999992 27.1701348600000010 -0.0297810300000000 Au
atom 20.2396083900000008 27.2533221899999987 0.0038497700000000 Au
atom 22.9563560600000010 27.0384354800000004 0.1967225300000000 Au
atom 25.7865760299999991 27.1730427500000005 0.2003136800000000 Au
atom 0.5557511100000000 27.0410079000000003 -0.0439540100000000 Au
atom 3.3077024900000001 27.1217560800000008 -0.0087580900000000 Au
atom 6.0652174299999997 27.2016930799999983 0.0295012000000000 Au
atom 7.4490825799999998 29.5021156900000001 -0.0561159800000000 Au
atom 10.2395282400000003 29.4473195700000012 0.0621923100000000 Au
atom 13.3194942100000002 29.5617253099999999 -0.1420844200000000 Au
atom 15.9311486400000000 29.8364724499999987 0.1371299200000000 Au
atom 18.8646708099999998 29.6801819400000007 0.0203058400000000 Au
atom 21.6701643100000005 29.6118344700000016 0.1172248200000000 Au
atom 24.6197137400000017 29.5574316900000014 0.0996522800000000 Au
atom 27.3737605299999984 29.6159062900000016 0.0505567400000000 Au
atom 1.9554134900000000 29.6548878100000017 0.0460429400000000 Au
atom 4.6583988900000000 29.6505776499999989 -0.0682300700000000 Au
atom 8.8580293599999997 32.1755155999999971 -0.0822688000000000 Au
atom 11.7705034499999996 32.0429056899999978 0.0404904100000000 Au
atom 14.5139375499999996 32.1393771799999968 0.0326293000000000 Au
atom 17.2977098900000001 31.9727586899999991 0.0752185200000000 Au
atom 20.1796548999999992 32.1038318299999972 -0.0152530100000000 Au
atom 22.9677182199999983 32.1497681900000032 -0.1422269500000000 Au
atom 25.8484158400000013 32.0492364999999992 -0.1748508500000000 Au
atom 0.4157966000000000 32.2143948200000025 -0.0723497900000000 Au
atom 3.2155840300000000 31.9806923900000015 -0.0995641700000000 Au
atom 5.9711650699999996 31.9206521800000012 -0.0085670100000000 Au
atom 7.4534820599999998 34.6482341399999996 0.0266132900000000 Au
atom 10.4376607000000003 34.5881779699999967 -0.0763166700000000 Au
atom 13.0437498999999999 34.5661908499999981 -0.1031475800000000 Au
atom 15.9661323100000008 34.5750846500000009 -0.0535765200000000 Au
atom 18.8173307399999992 34.5906902099999982 -0.0824465100000000 Au
atom 21.5019713099999983 34.6132738499999988 0.0042637100000000 Au
atom 24.4065355500000010 34.7443283300000019 -0.1553877100000000 Au
atom 27.2560954200000012 34.5996722300000030 0.1671662800000000 Au
atom 1.9589146799999999 34.4644666499999985 -0.2182899500000000 Au
atom 4.5598618699999998 34.5131169900000003 0.2852578700000000 Au
atom 8.6853496299999993 36.9197433900000007 0.0967806000000000 Au
atom 11.7028059599999992 36.9933941899999965 0.1818273600000000 Au
atom 14.7256824300000009 36.9757248900000022 -0.1081239700000000 Au
atom 17.3403459099999999 37.0608627299999966 0.0226650000000000 Au
atom 20.2457761299999994 37.0813715600000009 -0.1016802100000000 Au
atom 23.1433431300000017 36.9615966799999995 0.0199453400000000 Au
atom 25.7891129399999990 36.9564085199999965 0.1695541300000000 Au
atom 0.4329804600000000 37.1134937799999989 0.1179604700000000 Au
atom 3.4978141100000002 36.8607145100000011 -0.0514918400000000 Au
atom 6.0950422599999996 36.8176628599999987 0.0627526300000000 Au
atom 7.5844937000000003 0.0116415900000000 0.0260998200000000 Au
atom 10.3453315400000001 -0.0342900700000000 -0.1732147300000000 Au
atom 13.0638729100000006 0.1953792400000000 0.1216962300000000 Au
atom 16.1553039799999993 0.1897331600000000 0.0989265600000000 Au
atom 18.8914678299999999 0.0142988800000000 -0.1056569600000000 Au
atom 21.6447046299999997 -0.0273350700000000 0.1350273500000000 Au
atom 24.4715201299999983 -0.0509439900000000 -0.1346265900000000 Au
atom 27.1818797200000013 -0.0647991600000000 0.0881190500000000 Au
atom 1.7033105799999999 -0.0486775300000000 0.2903658500000000 Au
atom 4.7431978499999996 0.1469240900000000 0.3271376500000000 Au
atom 8.8466704200000006 2.5779233100000001 0.1655302900000000 Au
atom 11.6291757699999998 2.4695060099999999 -0.2542780700000000 Au
atom 14.4986532599999993 2.5793341800000000 0.0061595400000000 Au
atom 17.3690927200000012 2.7079640100000000 0.2608264000000000 Au
atom 20.1425316099999989 2.4748666799999999 0.2110026500000000 Au
atom 22.8873610300000010 2.5257410500000002 -0.0614737400000000 Au
atom 25.9725870000000008 2.3520911600000001 0.1175903300000000 Au
atom 0.3925263200000000 2.6006944500000002 -0.0195618800000000 Au
atom 3.1373546299999999 2.4584361200000000 0.0398430200000000 Au
atom 6.1321268299999998 2.3851070299999999 -0.1016741400000000 Au
atom 7.6148948200000000 4.8380071700000000 0.2486937000000000 Au
atom 10.2319286100000006 4.9646145800000001 -0.0595466500000000 Au
atom 13.1874918900000004 4.7938719599999997 -0.0146325700000000 Au
atom 15.9417828799999999 4.9264803500000003 0.0156582400000000 Au
atom 18.9110547699999998 5.0111794200000004 0.2596407900000000 Au
atom 21.6944109900000015 5.0158518200000000 0.1090852600000000 Au
atom 24.2952451799999984 5.0781259099999998 0.0160092700000000 Au
atom 27.1746792500000005 4.9716664000000002 0.1752157800000000 Au
atom 1.9418505900000000 5.0407074300000003 0.1504019700000000 Au
atom 4.6668703999999996 4.8069869100000000 0.0804446500000000 Au
atom 8.9360521300000002 7.4487620500000000 0.1557049100000000 Au
atom 11.7576555500000008 7.2168310199999999 0.0083073200000000 Au
atom 14.6489538400000008 7.2674711500000004 0.2157524200000000 Au
atom 17.3706512500000017 7.3323329499999996 -0.0675867200000000 Au
atom 20.1088193000000004 7.2012322600000003 0.1214587000000000 Au
atom 23.1185157500000003 7.4344190899999996 -0.0601609700000000 Au
atom 25.8956949899999991 7.3003600000000004 -0.0886235300000000 Au
atom 0.5173509200000000 7.4020228399999999 -0.1750043700000000 Au
atom 3.2457724300000002 7.4696696100000004 0.2048485400000000 Au
atom 6.0649959300000003 7.3783589000000003 0.1841172400000000 Au
atom 7.4920335700000003 9.9445327900000002 0.0409161100000000 Au
atom 10.3455843499999993 9.8463842100000001 0.0926199600000000 Au
atom 13.0717097399999993 9.7532217400000008 -0.0081252200000000 Au
atom 15.8884704299999999 9.9570193299999996 -0.0349484500000000 Au
atom 18.8366097000000003 9.8797399800000001 0.0132840100000000 Au
atom 21.5498290600000004 9.7684094899999998 0.0329801200000000 Au
atom 24.4507836599999990 9.8059453199999993 0.1375731200000000 Au
atom 27.4175592799999990 9.9577990100000005 0.0104889300000000 Au
atom 1.8273522099999999 9.9671565199999996 0.0133815600000000 Au
atom 4.8850391999999996 10.0388439599999995 0.0277306300000000 Au
atom 8.9496473699999992 12.4940287899999998 -0.1265909400000000 Au
atom 11.8790347799999996 12.4222564000000002 0.1203086600000000 Au
atom 14.5701443299999998 12.6052123100000006 -0.1746813200000000 Au
atom 17.3989204400000013 12.3904156000000008 -0.1001345800000000 Au
atom 20.2977438899999996 12.3101212300000000 -0.0848712800000000 Au
atom 23.0073665799999993 12.3119122599999997 -0.0025145600000000 Au
atom 25.8900445899999987 12.3415669099999992 -0.1464123500000000 Au
atom 0.4540088600000000 12.4369231599999992 -0.0507195000000000 Au
atom 3.2494529600000002 12.3582340300000002 0.0839050900000000 Au
atom 6.1563386800000002 12.2588472300000006 0.0289980400000000 Au
atom 7.7677533800000003 13.2160087799999992 2.5617256799999999 Au
atom 10.3495009699999994 13.2893579499999994 2.5355447400000002 Au
atom 13.2050151000000007 13.1661123500000006 2.7559729599999998 Au
atom 16.0639911300000016 13.1686755699999996 2.7384959200000001 Au
atom 18.8195916499999996 13.4005801400000006 2.6756943099999999 Au
atom 21.6803635499999992 13.2141834199999995 2.6997387399999999 Au
atom 24.4677903699999995 13.2323910999999992 2.6676522100000000 Au
atom 27.3469988000000015 13.0755908400000003 2.5415623400000000 Au
atom 1.7603481100000000 13.2161119800000009 2.6332665099999999 Au
atom 4.7783542900000002 13.2401037699999993 2.6461738000000001 Au
atom 8.9803647200000007 15.7115577500000008 2.6294488299999998 Au
atom 11.6651030299999992 15.6539871700000006 2.7642632499999999 Au
atom 14.4493074799999999 15.6985649899999995 2.6685642800000000 Au
atom 17.3607946999999996 15.6791156399999991 2.4217716299999998 Au
atom 20.1244648400000017 15.5208424800000007 2.6721761700000002 Au
atom 22.8707333300000002 15.7029279299999995 2.6670877399999999 Au
atom 25.7759525499999995 15.5769819500000004 2.6594002200000002 Au
atom 0.4484693800000000 15.5666518200000006 2.5489234299999999 Au
atom 3.1545419500000000 15.7715901299999999 2.6273991400000001 Au
atom 6.1952000700000003 15.6668379200000008 2.5114303800000002 Au
atom 7.6179855999999999 18.3050134200000016 2.6588502400000000 Au
atom 10.2837536200000006 18.1755100700000014 2.3803371599999998 Au
atom 13.1421484100000008 18.1449182600000007 2.7250191799999999 Au
atom 16.1098406599999997 17.9309173500000014 2.6107291199999998 Au
atom 18.6707851100000006 18.0150362900000012 2.7158749700000002 Au
atom 21.5130842999999992 18.0006147399999996 2.7655065400000001 Au
atom 24.3645437700000009 18.1199796299999996 2.6407289199999999 Au
atom 27.1223897600000008 18.1821524900000000 2.6872157600000000 Au
atom 1.8522424399999999 17.9818484100000013 3.0059678900000000 Au
atom 4.5881051399999997 18.1692278599999995 2.4798014700000000 Au
atom 8.7917408699999999 20.5336502199999984 2.5923138099999998 Au
atom 11.7899785999999995 20.6002168099999992 2.7606545300000001 Au
atom 14.6513807899999993 20.5242024399999998 2.5417348500000001 Au
atom 17.2677122700000005 20.6410085800000012 2.7111844800000000 Au
atom 19.9907973100000014 20.6418374600000014 2.7851723599999998 Au
atom 22.9279193899999996 20.4522216800000010 2.7098478099999999 Au
atom 25.9136032000000007 20.5624467399999986 2.6307856500000000 Au
atom 0.3871690200000000 20.4691009500000014 2.5949604100000001 Au
atom 3.1154662000000002 20.4490145000000005 2.6255446099999999 Au
atom 6.0871413199999997 20.5366447299999990 2.4943008999999998 Au
atom 7.6583754700000002 23.1465306200000001 2.4631694199999998 Au
atom 10.3439127000000006 23.0547861500000018 2.6782630699999999 Au
atom 13.1707276899999997 22.9650983699999998 2.7625113899999998 Au
atom 15.9094005400000000 22.9083634700000012 2.6801357600000002 Au
atom 18.8369782900000011 23.0744270500000006 2.4628394299999998 Au
atom 21.6887298100000017 23.1756883199999990 2.3883000399999998 Au
atom 24.2957316500000005 22.9847471500000005 2.5304796899999999 Au
atom 27.2982237900000015 22.8234381100000014 2.7646890700000002 Au
atom 1.8499106000000001 22.9575418000000013 2.5517037600000001 Au
atom 4.7621691500000001 23.1583079100000013 2.4540610100000002 Au
atom 8.9234104100000007 25.4983263800000017 2.7034194100000000 Au
atom 11.5657243300000001 25.5727100000000007 2.7706098600000000 Au
atom 14.6450426100000008 25.4611659299999999 2.6430006000000001 Au
atom 17.4097105399999990 25.4656252800000011 2.6510053000000000 Au
atom 20.0448124700000001 25.5777778399999995 2.5788881799999999 Au
atom 22.8197607799999993 25.5678080500000000 2.7727847400000001 Au
atom 25.8540225399999990 25.5905171699999983 2.8990553999999999 Au
atom 0.6160227000000000 25.6476564099999997 2.7003396500000001 Au
atom 3.1666047700000002 25.6066028299999999 2.7631386700000000 Au
atom 6.0639862400000002 25.7071061999999984 2.7967535899999998 Au
atom 7.4107552400000003 28.1048278499999995 2.5715212400000000 Au
atom 10.2342417700000006 28.0697904200000004 2.6737807700000000 Au
atom 13.1944541700000002 28.0834303299999988 2.5257308799999998 Au
atom 15.9063205799999992 28.0027549899999997 2.6243324600000002 Au
atom 18.5908991499999985 27.9832987099999997 2.4896076100000002 Au
atom 21.6402089500000017 27.8288619200000014 2.5804832700000002 Au
atom 24.4218504500000009 28.0767068500000008 2.6268115399999998 Au
atom 27.1785570900000018 28.1249517199999985 2.5276949599999998 Au
atom 2.0307208200000000 27.9807591100000010 2.6852889200000001 Au
atom 4.6332589700000000 27.7433619500000006 2.6990112599999998 Au
atom 8.7882156699999996 30.5432243899999989 2.6105062200000000 Au
atom 11.8030488600000005 30.4954696500000004 2.6581306400000000 Au
atom 14.6083644400000008 30.4872953899999999 2.6265905599999999 Au
atom 17.2893860699999991 30.4233854100000016 2.6447827500000001 Au
atom 20.4079668199999986 30.4529153100000016 2.5386996300000000 Au
atom 22.9100026099999994 30.3842123300000004 2.6773712399999998 Au
atom 25.6756226800000000 30.4727914099999992 2.6020929000000002 Au
atom 0.3878537600000000 30.3404485000000008 2.5721129399999998 Au
atom 3.2632641699999998 30.3814130700000007 2.5406394699999999 Au
atom 6.0554728899999999 30.2408700199999991 2.8170372900000000 Au
atom 7.6907151000000002 33.0029341700000032 2.5439725000000002 Au
atom 10.4755101199999991 32.9111534399999996 2.6392017800000001 Au
atom 13.0288610899999995 32.8031586999999973 2.5155786899999999 Au
atom 15.8448532199999992 32.9899204299999980 2.7730302299999998 Au
atom 18.8110134600000016 32.9907388700000013 2.7215053999999999 Au
atom 21.5304368100000012 32.9230165700000015 2.7844011000000002 Au
atom 24.4485953999999985 32.8667816900000034 2.4520277899999998 Au
atom 27.2979415000000003 32.8270387800000023 2.6231410099999999 Au
atom 1.8479553000000000 32.9865095400000001 2.5479565800000001 Au
atom 4.8965322000000002 32.7953472199999965 2.6472692499999999 Au
atom 8.8637759200000001 35.2079933699999970 2.4340600000000001 Au
atom 11.7066173199999994 35.4102574200000006 2.6233461700000000 Au
atom 14.6232857700000007 35.3805384300000014 2.5398455599999998 Au
atom 17.4626994499999988 35.3302920599999979 2.6867937199999998 Au
atom 19.9976494600000017 35.3507711299999983 2.7069996299999999 Au
atom 22.9210598800000014 35.3952664199999987 2.5363550199999998 Au
atom 25.8572356899999996 35.4047792300000026 2.6573428799999999 Au
atom 0.3559183700000000 35.2913910500000014 2.4785568900000001 Au
atom 3.2419669400000002 35.2483784400000033 2.6002290600000002 Au
atom 6.0039280799999997 35.2978397199999989 2.8459574500000002 Au
atom 7.4917094999999998 38.0149652899999992 2.4862429300000000 Au
atom 10.2870271599999992 38.0345426399999980 2.6567284799999999 Au
atom 13.1646198999999999 37.7525210800000011 2.6905930800000002 Au
atom 15.9744591400000004 37.8704843699999998 2.7607392800000001 Au
atom 18.9325759399999995 37.9380914600000025 2.5005735599999999 Au
atom 21.5407392599999987 37.5907399199999972 2.6485490100000000 Au
atom 24.3728265499999992 37.7740677099999971 2.5499828299999998 Au
atom 27.1897803499999995 38.0052412300000029 2.7521211700000001 Au
atom 2.0532344700000000 37.8120730699999967 2.6365999100000002 Au
atom 4.5268154799999998 37.7936918400000010 2.7667649999999999 Au
atom 9.0291246899999997 0.7155821900000000 2.9148621600000002 Au
atom 11.5686771799999999 0.7508376400000000 2.4885024599999999 Au
atom 14.7752107200000005 0.8455662000000000 2.7272467900000001 Au
atom 17.2886212300000004 0.8367999000000000 2.8318422299999999 Au
atom 20.0354030799999983 0.7900151900000000 2.4775698300000002 Au
atom 22.9809901500000002 0.8849046000000000 2.9121911699999998 Au
atom 25.8970115499999984 0.8502380600000000 2.5365886099999999 Au
atom 0.3069703900000000 0.9861702600000000 2.7345791699999999 Au
atom 3.1576315099999999 0.8653844100000000 2.7969465499999999 Au
atom 6.2520760500000003 0.7290738800000000 2.5969942100000001 Au
atom 7.5100096299999999 3.3842964300000000 2.6475975900000002 Au
atom 10.2082056100000003 3.2084135300000001 2.6876362000000000 Au
atom 13.1062206600000000 3.3504819000000001 2.7676161600000002 Au
atom 16.0918852200000018 3.3066873200000000 2.6420125699999999 Au
atom 18.5877521399999992 3.2486540800000001 2.6892219900000001 Au
atom 21.4952823399999993 3.2376323999999999 2.7717660300000002 Au
atom 24.5830959699999987 3.3145293400000000 2.5798801600000001 Au
atom 27.2396860399999987 3.2441508200000002 2.7398943400000002 Au
atom 2.0369549400000002 3.1166148400000000 2.6020946199999999 Au
atom 4.6971668500000003 3.4298120600000002 2.5919008300000002 Au
atom 8.9156727300000007 5.7600406299999998 2.8355542300000001 Au
atom 11.6751149400000003 5.8471076699999998 2.5023828500000000 Au
atom 14.7268768300000001 5.8015982900000003 2.6753639800000002 Au
atom 17.4565080899999998 5.8508603900000002 2.8227011200000001 Au
atom 20.2440195100000011 5.8338991099999999 2.7027150600000001 Au
atom 23.0293414299999988 5.6021802000000003 2.7321274400000002 Au
atom 25.8439717999999985 5.8335657400000001 2.6452295399999999 Au
atom 0.3957289500000000 5.7404856000000004 2.7042307100000000 Au
atom 3.3996663400000000 5.7853560799999997 2.6479582599999998 Au
atom 6.1470766499999998 5.6858057300000002 2.7140352499999998 Au
atom 7.5205735100000002 8.2426338799999996 2.5620064400000002 Au
atom 10.3012096100000008 8.1203629599999996 2.6146191100000000 Au
atom 13.2023989299999993 8.2802906499999995 2.8151644600000001 Au
atom 15.9443494200000000 8.1973811100000002 2.7821216400000002 Au
atom 18.7289705300000016 8.3296084300000004 2.6459520599999999 Au
atom 21.5613287800000002 8.1753883999999992 2.3293355500000001 Au
atom 24.4581730099999994 8.2359590699999998 2.6874574600000001 Au
atom 27.2611136400000014 8.4093115399999991 2.6245319000000000 Au
atom 1.9135054300000001 8.1378719600000000 2.8036489699999998 Au
atom 4.6624546000000002 8.2461324000000005 2.4407773200000000 Au
atom 8.9578417600000009 10.6391557599999995 2.6585269899999999 Au
atom 11.6376876500000002 10.8288974899999992 2.4937640600000002 Au
atom 14.5945065500000002 10.6395900900000004 2.8117897699999999 Au
atom 17.4895069399999983 10.8323504400000008 2.4990735000000002 Au
atom 20.3294803000000002 10.3687863000000000 2.6943660100000000 Au
atom 23.0744107800000009 10.7150725100000006 2.5078540199999999 Au
atom 25.8297560799999992 10.6681673900000007 2.6373545699999998 Au
atom 0.3759229000000000 10.8876310000000007 2.5322487100000002 Au
atom 3.3110583899999999 10.7881659800000005 2.6281508499999999 Au
atom 6.0330184100000004 10.7741155800000001 2.6684113300000001 Au
atom 7.5493289299999997 12.9608471699999992 5.7478399299999996 Cl
atom 7.4140277499999998 15.7818342999999999 8.4317559200000005 Cl
atom 7.4967359800000004 13.0493985200000004 8.3478528500000007 Na
atom 7.5822803199999997 15.7791924899999998 5.6369863300000000 Na
atom 7.2002094600000000 18.5174745499999993 5.3434195000000004 Cl
atom 7.3550965499999998 21.6435679199999988 8.0878173699999998 Cl
atom 7.4586682000000000 18.8860949799999993 7.6082144800000000 Na
atom 7.4811102299999996 21.5331008200000014 5.4556159900000001 Na
atom 7.4248774099999997 24.6612899799999994 5.2145411499999996 Cl
atom 7.3137222299999998 27.4040243200000013 8.4322171499999996 Cl
atom 6.8538749799999996 24.2769267000000006 8.1336924499999999 Na
atom 7.4648453100000003 27.4332196999999987 5.8724182100000002 Na
atom 7.4703482000000001 30.0714465699999991 5.5546804300000003 Cl
atom 7.3377641899999997 32.8512976900000027 8.4981390500000007 Cl
atom 7.3365967599999999 30.1093609800000017 8.3598866300000001 Na
atom 7.5612889100000000 33.0059211900000022 5.7599980500000001 Na
atom 7.5960666799999998 35.8097081900000020 5.7058224900000001 Cl
atom 7.4577171699999996 38.4831484500000016 8.2464661800000005 Cl
atom 7.4381211699999996 35.6151327099999975 8.4068731799999998 Na
atom 7.5459703300000003 38.6155695699999981 5.7449883000000002 Na
atom 7.5895891600000001 1.8805348500000001 5.7609310599999999 Cl
atom 7.7205677499999998 4.6055742999999998 8.5733313700000000 Cl
atom 7.5434289100000003 1.9444537300000000 8.4420942599999993 Na
atom 7.4746506699999999 4.8085235600000003 5.8143530700000001 Na
atom 7.5610087500000001 7.4127911500000003 5.7733681700000004 Cl
atom 7.4298020300000003 10.1675923400000006 8.5915032399999998 Cl
atom 7.5514035699999997 7.6229110300000000 8.5826693800000005 Na
atom 7.3808585899999999 10.4159813600000000 5.7299038700000002 Na
atom 10.2365270200000005 12.7751080899999998 5.6643845500000003 Na
atom 13.2158007200000007 12.8746579099999998 5.5367845000000004 Cl
atom 10.2893683800000009 15.8941093299999991 8.1003871200000006 Na
atom 13.2395365599999995 16.0790344699999999 8.1117323900000002 Cl
atom 13.1087908100000003 12.9539668799999994 7.8973955699999996 Na
atom 10.2915297599999995 13.0211559300000008 8.3414406499999991 Cl
atom 13.3459426699999995 15.7369939500000005 5.5346864699999996 Na
atom 10.4178638800000005 15.7277982600000001 5.4669215299999996 Cl
atom 10.4954771900000008 18.8799905300000006 5.6988263400000001 Na
atom 13.3160756599999992 18.9506430700000017 5.5905843800000001 Cl
atom 10.3594608899999994 21.6169322299999997 7.6859716100000002 Na
atom 13.1217015000000004 21.5268642999999997 8.4062436399999996 Cl
atom 13.2262150599999995 18.5160687899999985 8.0368917700000004 Na
atom 10.5255420799999992 18.5560827999999987 8.0948078500000005 Cl
atom 13.6149670199999999 21.6593126600000012 5.8834983999999997 Na
atom 10.7841021799999996 21.9069158799999997 5.0267245100000002 Cl
atom 10.2147942900000004 24.7839569299999987 5.4892299099999997 Na
atom 13.2694816400000004 24.6249184099999994 5.7398848200000003 Cl
atom 10.1952219999999993 27.4075651499999999 8.2866385200000003 Na
atom 13.1086235900000005 27.1938707800000010 8.5521646600000008 Cl
atom 13.0642319400000009 24.4128617699999992 8.2215329900000000 Na
atom 10.1885815599999994 24.4918608400000011 8.3570793499999994 Cl
atom 13.2187385800000001 27.3023929999999986 5.7615736599999998 Na
atom 10.5943162399999995 27.4323680299999992 5.3637507500000003 Cl
atom 10.0899466199999992 30.1317876499999997 5.7543412800000002 Na
atom 13.0788031900000004 29.8394636300000009 5.8306713900000000 Cl
atom 10.3223791200000008 32.6597661200000005 8.5654008299999997 Na
atom 13.0825186099999993 32.9260049800000019 8.4788644800000004 Cl
atom 13.2756810800000000 30.1156690199999986 8.5701668400000006 Na
atom 10.2027185800000009 29.8498291199999990 8.7306208099999996 Cl
atom 13.1699352399999992 33.0330525299999991 5.6691328900000002 Na
atom 10.2201183100000002 32.8618177500000002 5.6658305000000002 Cl
atom 10.1520387700000008 35.7317632299999985 5.6549559100000000 Na
atom 13.1309455600000007 35.9089896199999998 5.6897016000000002 Cl
atom 10.3541018499999993 38.4907491900000025 8.2745624400000004 Na
atom 13.0701216999999996 38.5453452100000007 8.7792346499999994 Cl
atom 13.1423266800000000 35.7138558899999978 8.3817235799999992 Na
atom 10.3050718200000002 35.6678299699999997 8.5831471100000005 Cl
atom 13.1183800700000006 38.5701266800000013 5.8353008800000001 Na
atom 10.2716988199999992 38.7118451600000029 5.6378035100000004 Cl
atom 10.2574518099999992 1.6964902700000000 5.7254653299999996 Na
atom 13.1521494400000005 1.7856260900000001 5.8665202900000004 Cl
atom 10.1368544899999993 4.5647587300000003 8.3558958200000006 Na
atom 13.0669371200000004 4.7210664500000004 8.6522167600000000 Cl
atom 13.0386081100000002 1.7795986500000001 8.4192538500000005 Na
atom 10.3558738399999992 1.8287162400000001 8.6542960099999995 Cl
atom 13.1066114700000007 4.5716090899999999 5.7734040699999998 Na
atom 10.3593320200000001 4.7342315900000003 5.6673451899999998 Cl
atom 10.2786683199999995 7.3849753099999997 5.8416151799999998 Na
atom 13.2690429400000003 7.5283929000000001 5.5250181700000001 Cl
atom 10.1344636900000005 10.2578463299999996 8.3998775999999999 Na
atom 13.3137635000000003 10.0239760699999998 8.3587481700000001 Cl
atom 13.2151436400000009 7.2321639299999996 8.3163639200000006 Na
atom 10.4222828199999995 7.5071551999999997 8.5861704799999998 Cl
atom 13.3199899199999994 10.0867594900000004 5.7226513800000003 Na
atom 10.2242699600000009 10.1517644399999991 5.7997289199999997 Cl
atom 16.2358438599999992 12.9527897099999993 5.6858061400000004 Na
atom 18.6537518400000017 13.0428596399999996 5.7095121999999998 Cl
atom 16.2405737899999991 15.9985547599999993 8.1074974999999991 Na
atom 18.8147753000000009 16.0863570299999985 8.6559679799999998 Cl
atom 18.7385603699999983 13.2266493900000004 8.4115882499999994 Na
atom 16.0878696300000001 13.0331998099999993 8.4397769599999997 Cl
atom 19.0238071600000005 15.9103979800000008 5.8263151300000002 Na
atom 16.3271089300000014 15.8909353499999995 5.3568176300000001 Cl
atom 16.1495689499999990 18.9392088299999983 5.5560823600000004 Na
atom 18.9523380599999989 18.8095169800000015 5.6601622100000002 Cl
atom 15.8983169100000001 21.5684602000000005 8.3022556200000004 Na
atom 18.7793257099999984 21.6158705900000001 8.5509034199999991 Cl
atom 18.6922363400000009 18.6384661899999990 8.4534562900000001 Na
atom 16.0018715000000000 18.8105576700000015 8.3322858800000006 Cl
atom 18.8095897799999996 21.6755979100000005 5.8366130299999996 Na
atom 16.0867340900000002 21.5749390800000000 5.5549682699999998 Cl
atom 15.9657667799999992 24.4894311500000015 5.7922405499999998 Na
atom 18.6334114900000003 24.4412123299999990 5.7853294699999998 Cl
atom 15.6852453999999994 27.3388299799999999 8.1660887300000002 Na
atom 18.8361195499999994 27.3820583299999996 8.7087825100000007 Cl
atom 18.7110673600000013 24.2650246100000011 8.4367313300000006 Na
atom 15.9142751800000006 24.4520258099999985 8.5839658100000005 Cl
atom 18.9381267899999983 27.2088017099999995 5.8291468200000001 Na
atom 15.9519419199999994 27.2207303200000013 5.7284910099999999 Cl
atom 16.0608550000000001 30.0952249199999997 5.6943913899999998 Na
atom 18.7968587400000011 30.0569473400000007 5.8149018600000000 Cl
atom 15.9034048000000006 32.8451353800000021 8.4914202000000003 Na
atom 18.7634273399999998 32.8124675700000026 8.5878210999999993 Cl
atom 18.6810717100000012 30.1030382000000003 8.4229185900000001 Na
atom 15.9264456899999995 30.2264950799999994 8.6409870200000007 Cl
atom 18.6848573500000015 33.0354004499999974 5.8571726200000001 Na
atom 15.9145503399999999 32.9448428899999968 5.8113262800000003 Cl
atom 16.1116900399999992 35.8086248299999994 5.9128341799999999 Na
atom 18.6898256200000006 35.5987896199999980 5.8172891299999998 Cl
atom 16.1967500899999983 38.4209858299999993 8.6455846899999997 Na
atom 18.5759949000000013 38.6504688099999996 8.6307185099999995 Cl
atom 18.7231532499999993 35.5601253399999990 8.3075451200000003 Na
atom 15.8610367799999992 35.5952065899999965 8.6343908500000008 Cl
atom 19.0284297100000011 38.5436242899999968 5.7311289199999997 Na